 
:: initializing oneAPI environment ...
   slurm_script: BASH_VERSION = 4.4.20(1)-release
   args: Using "$@" for setvars.sh arguments: --force
:: advisor -- latest
:: ccl -- latest
:: compiler -- latest
:: dal -- latest
:: debugger -- latest
:: dev-utilities -- latest
:: dnnl -- latest
:: dpcpp-ct -- latest
:: dpl -- latest
:: ipp -- latest
:: ippcp -- latest
:: mkl -- latest
:: mpi -- latest
:: pti -- latest
:: tbb -- latest
:: umf -- latest
:: vtune -- latest
:: oneAPI environment initialized ::
 
 running   96 mpi-ranks, on    1 nodes
 distrk:  each k-point on   12 cores,    8 groups
 distr:  one band on    4 cores,    3 groups
 vasp.6.5.1 10Mar25 (build Oct 09 2025 23:55:08) complex                        
  
 POSCAR found type information on POSCAR FeCr
 POSCAR found :  2 types and      62 ions
 -----------------------------------------------------------------------------
|                                                                             |
|           W    W    AA    RRRRR   N    N  II  N    N   GGGG   !!!           |
|           W    W   A  A   R    R  NN   N  II  NN   N  G    G  !!!           |
|           W    W  A    A  R    R  N N  N  II  N N  N  G       !!!           |
|           W WW W  AAAAAA  RRRRR   N  N N  II  N  N N  G  GGG   !            |
|           WW  WW  A    A  R   R   N   NN  II  N   NN  G    G                |
|           W    W  A    A  R    R  N    N  II  N    N   GGGG   !!!           |
|                                                                             |
|     You requested a magnetic or noncollinear calculation, but did not       |
|     specify the initial magnetic moment with the MAGMOM tag. Note that      |
|     a default of 1 will be used for all atoms. This ferromagnetic setup     |
|     may break the symmetry of the crystal, in particular it may rule        |
|     out finding an antiferromagnetic solution. Thence, we recommend         |
|     setting the initial magnetic moment manually or verifying carefully     |
|     that this magnetic setup is desired.                                    |
|                                                                             |
 -----------------------------------------------------------------------------

 scaLAPACK will be used
 -----------------------------------------------------------------------------
|                                                                             |
|           W    W    AA    RRRRR   N    N  II  N    N   GGGG   !!!           |
|           W    W   A  A   R    R  NN   N  II  NN   N  G    G  !!!           |
|           W    W  A    A  R    R  N N  N  II  N N  N  G       !!!           |
|           W WW W  AAAAAA  RRRRR   N  N N  II  N  N N  G  GGG   !            |
|           WW  WW  A    A  R   R   N   NN  II  N   NN  G    G                |
|           W    W  A    A  R    R  N    N  II  N    N   GGGG   !!!           |
|                                                                             |
|     For optimal performance we recommend to set                             |
|       NCORE = 2 up to number-of-cores-per-socket                            |
|     NCORE specifies how many cores store one orbital (NPAR=cpu/NCORE).      |
|     This setting can greatly improve the performance of VASP for DFT.       |
|     The default, NCORE=1 might be grossly inefficient on modern             |
|     multi-core architectures or massively parallel machines. Do your        |
|     own testing! More info at https://www.vasp.at/wiki/index.php/NCORE      |
|     Unfortunately you need to use the default for GW and RPA                |
|     calculations (for HF NCORE is supported but not extensively tested      |
|     yet).                                                                   |
|                                                                             |
 -----------------------------------------------------------------------------

 LDA part: xc-table for (Slater+PW92), standard interpolation
 POSCAR, INCAR and KPOINTS ok, starting setup
 FFT: planning ... GRIDC
 FFT: planning ... GRID_SOFT
 FFT: planning ... GRID
 WAVECAR not read
 WARNING: chargedensity file is incomplete
 WARNING: random wavefunctions but no delay for mixing, default for NELMDL
 entering main loop
       N       E                     dE             d eps       ncg     rms          rms(c)
DAV:   1     0.528272285365E+04    0.52827E+04   -0.23222E+05 15138   0.142E+03
DAV:   2    -0.998475022806E+02   -0.53826E+04   -0.51922E+04 14400   0.418E+02
DAV:   3    -0.515974168706E+03   -0.41613E+03   -0.36690E+03 14949   0.157E+02
DAV:   4    -0.573539240751E+03   -0.57565E+02   -0.53730E+02 25686   0.443E+01
DAV:   5    -0.576675020504E+03   -0.31358E+01   -0.29787E+01 23346   0.100E+01    0.937E+01
DAV:   6    -0.673636448155E+03   -0.96961E+02   -0.30468E+02 26271   0.803E+01    0.148E+02
DAV:   7    -0.582802912515E+03    0.90834E+02   -0.19550E+02 26865   0.846E+01    0.115E+02
DAV:   8    -0.567637447136E+03    0.15165E+02   -0.11264E+02 26460   0.673E+01    0.107E+02
DAV:   9    -0.521156628095E+03    0.46481E+02   -0.72637E+01 24984   0.452E+01    0.714E+01
DAV:  10    -0.497739163753E+03    0.23417E+02   -0.69331E+01 22860   0.304E+01    0.504E+01
DAV:  11    -0.489072325276E+03    0.86668E+01   -0.52528E+01 21141   0.270E+01    0.463E+01
DAV:  12    -0.486121118492E+03    0.29512E+01   -0.13460E+01 21942   0.176E+01    0.377E+01
DAV:  13    -0.485608615115E+03    0.51250E+00   -0.41830E+00 21753   0.845E+00    0.344E+01
DAV:  14    -0.485521579918E+03    0.87035E-01   -0.63254E-01 17784   0.265E+00    0.350E+01
DAV:  15    -0.487170288723E+03   -0.16487E+01   -0.82423E-01 25776   0.333E+00    0.362E+01
DAV:  16    -0.489286326660E+03   -0.21160E+01   -0.28114E+00 25317   0.670E+00    0.347E+01
DAV:  17    -0.493838548879E+03   -0.45522E+01   -0.74686E+00 24012   0.952E+00    0.294E+01
DAV:  18    -0.496084705054E+03   -0.22462E+01   -0.27596E+00 23616   0.533E+00    0.280E+01
DAV:  19    -0.497275125327E+03   -0.11904E+01   -0.11553E+00 24498   0.359E+00    0.274E+01
DAV:  20    -0.497857036671E+03   -0.58191E+00   -0.10335E+00 25119   0.288E+00    0.271E+01
DAV:  21    -0.497701599806E+03    0.15544E+00   -0.81274E-01 24336   0.370E+00    0.233E+01
DAV:  22    -0.498092650471E+03   -0.39105E+00   -0.11896E+00 25155   0.511E+00    0.190E+01
DAV:  23    -0.498406457072E+03   -0.31381E+00   -0.11230E+00 24768   0.419E+00    0.163E+01
DAV:  24    -0.498527952942E+03   -0.12150E+00   -0.42763E-01 24264   0.246E+00    0.153E+01
DAV:  25    -0.498707066853E+03   -0.17911E+00   -0.35170E-01 25956   0.260E+00    0.136E+01
DAV:  26    -0.498937019389E+03   -0.22995E+00   -0.71857E-01 25200   0.337E+00    0.115E+01
DAV:  27    -0.498858721599E+03    0.78298E-01   -0.16289E+00 25092   0.520E+00    0.791E+00
DAV:  28    -0.498888749525E+03   -0.30028E-01   -0.48105E-01 20835   0.248E+00    0.680E+00
DAV:  29    -0.498955318099E+03   -0.66569E-01   -0.23959E-01 26028   0.201E+00    0.572E+00
DAV:  30    -0.499069543165E+03   -0.11423E+00   -0.30123E-01 25569   0.173E+00    0.504E+00
DAV:  31    -0.499145846414E+03   -0.76303E-01   -0.23382E-01 24444   0.134E+00    0.472E+00
DAV:  32    -0.499161909372E+03   -0.16063E-01   -0.10309E-01 24111   0.139E+00    0.410E+00
DAV:  33    -0.499160309848E+03    0.15995E-02   -0.68396E-02 24012   0.878E-01    0.336E+00
DAV:  34    -0.499163913069E+03   -0.36032E-02   -0.13053E-01 24093   0.109E+00    0.270E+00
DAV:  35    -0.499164210260E+03   -0.29719E-03   -0.29772E-02 22689   0.604E-01    0.232E+00
DAV:  36    -0.499166527726E+03   -0.23175E-02   -0.10837E-02 24876   0.424E-01    0.216E+00
DAV:  37    -0.499172972758E+03   -0.64450E-02   -0.75310E-03 24669   0.257E-01    0.218E+00
DAV:  38    -0.499170567613E+03    0.24051E-02   -0.12639E-03 17037   0.135E-01    0.218E+00
DAV:  39    -0.499170915729E+03   -0.34812E-03   -0.10127E-04 20790   0.308E-02    0.217E+00
DAV:  40    -0.499174614050E+03   -0.36983E-02   -0.20969E-03 26019   0.159E-01    0.218E+00
DAV:  41    -0.499172387743E+03    0.22263E-02   -0.48432E-04 24615   0.752E-02    0.215E+00
DAV:  42    -0.499164390647E+03    0.79971E-02   -0.61343E-03 25686   0.209E-01    0.209E+00
DAV:  43    -0.499158590238E+03    0.58004E-02   -0.19907E-02 25362   0.341E-01    0.186E+00
DAV:  44    -0.499164522423E+03   -0.59322E-02   -0.17580E-02 25056   0.388E-01    0.149E+00
DAV:  45    -0.499166826828E+03   -0.23044E-02   -0.12642E-02 25407   0.298E-01    0.141E+00
DAV:  46    -0.499171899490E+03   -0.50727E-02   -0.44767E-03 24129   0.196E-01    0.146E+00
DAV:  47    -0.499172516229E+03   -0.61674E-03   -0.50258E-04 17865   0.658E-02    0.146E+00
DAV:  48    -0.499174787954E+03   -0.22717E-02   -0.93215E-04 25308   0.653E-02    0.148E+00
DAV:  49    -0.499162737821E+03    0.12050E-01   -0.13637E-02 25830   0.307E-01    0.142E+00
DAV:  50    -0.499160940854E+03    0.17970E-02   -0.18618E-03 20340   0.101E-01    0.138E+00
DAV:  51    -0.499152330003E+03    0.86109E-02   -0.20008E-02 25308   0.457E-01    0.124E+00
DAV:  52    -0.499140436599E+03    0.11893E-01   -0.78384E-02 25380   0.669E-01    0.104E+00
DAV:  53    -0.499139423322E+03    0.10133E-02   -0.15633E-02 22986   0.373E-01    0.927E-01
DAV:  54    -0.499138024307E+03    0.13990E-02   -0.14232E-02 26073   0.359E-01    0.737E-01
DAV:  55    -0.499138609699E+03   -0.58539E-03   -0.56425E-03 24588   0.222E-01    0.604E-01
DAV:  56    -0.499139167588E+03   -0.55789E-03   -0.40232E-03 25830   0.183E-01    0.562E-01
DAV:  57    -0.499138925814E+03    0.24177E-03   -0.13805E-03 24462   0.149E-01    0.402E-01
DAV:  58    -0.499139070676E+03   -0.14486E-03   -0.25581E-03 25623   0.159E-01    0.283E-01
DAV:  59    -0.499139550164E+03   -0.47949E-03   -0.23443E-03 25749   0.171E-01    0.348E-01
DAV:  60    -0.499139410889E+03    0.13927E-03   -0.11837E-03 24849   0.162E-01    0.166E-01
DAV:  61    -0.499139465391E+03   -0.54501E-04   -0.64356E-04 25002   0.779E-02    0.113E-01
DAV:  62    -0.499139502787E+03   -0.37396E-04   -0.19956E-04 22770   0.498E-02    0.986E-02
DAV:  63    -0.499139559161E+03   -0.56374E-04   -0.13231E-04 21330   0.335E-02    0.827E-02
DAV:  64    -0.499139605821E+03   -0.46660E-04   -0.15175E-04 22761   0.393E-02    0.738E-02
DAV:  65    -0.499139616628E+03   -0.10806E-04   -0.35150E-05 13221   0.193E-02    0.667E-02
DAV:  66    -0.499139620726E+03   -0.40989E-05   -0.17878E-05 10359   0.184E-02
   1 F= -.49913962E+03 E0= -.49913151E+03  d E =-.499140E+03  mag=   110.0515
 curvature:   0.00 expect dE= 0.000E+00 dE for cont linesearch  0.000E+00
 trial: gam= 0.00000 g(F)=  0.112E+00 g(S)=  0.000E+00 ort = 0.000E+00 (trialstep = 0.100E+01)
 search vector abs. value=  0.112E+00
 bond charge predicted
       N       E                     dE             d eps       ncg     rms          rms(c)
DAV:   1    -0.498794853107E+03    0.34476E+00   -0.27596E+01 17100   0.148E+01    0.329E+00
DAV:   2    -0.499200762247E+03   -0.40591E+00   -0.38019E+00 15138   0.358E+00    0.285E+00
DAV:   3    -0.499606925762E+03   -0.40616E+00   -0.17680E+00 27234   0.515E+00    0.919E+00
DAV:   4    -0.499206208132E+03    0.40072E+00   -0.15157E+00 27216   0.474E+00    0.217E+00
DAV:   5    -0.499213516260E+03   -0.73081E-02   -0.56377E-02 24489   0.103E+00    0.155E+00
DAV:   6    -0.499232031929E+03   -0.18516E-01   -0.20564E-02 23994   0.596E-01    0.191E+00
DAV:   7    -0.499235467383E+03   -0.34355E-02   -0.17619E-02 24363   0.746E-01    0.145E+00
DAV:   8    -0.499239500221E+03   -0.40328E-02   -0.59314E-03 23850   0.336E-01    0.138E+00
DAV:   9    -0.499239073379E+03    0.42684E-03   -0.68847E-04 17415   0.869E-02    0.136E+00
DAV:  10    -0.499236408670E+03    0.26647E-02   -0.12946E-03 22392   0.106E-01    0.118E+00
DAV:  11    -0.499229829972E+03    0.65787E-02   -0.20184E-02 25479   0.311E-01    0.760E-01
DAV:  12    -0.499229896669E+03   -0.66697E-04   -0.26386E-03 22545   0.160E-01    0.707E-01
DAV:  13    -0.499229779983E+03    0.11669E-03   -0.10295E-03 25272   0.124E-01    0.671E-01
DAV:  14    -0.499228691320E+03    0.10887E-02   -0.38869E-03 24930   0.182E-01    0.485E-01
DAV:  15    -0.499228130509E+03    0.56081E-03   -0.27635E-03 24435   0.167E-01    0.339E-01
DAV:  16    -0.499228184888E+03   -0.54379E-04   -0.56774E-04 18396   0.802E-02    0.304E-01
DAV:  17    -0.499228239209E+03   -0.54321E-04   -0.64659E-04 25164   0.821E-02    0.218E-01
DAV:  18    -0.499228357778E+03   -0.11857E-03   -0.49194E-04 22563   0.668E-02    0.162E-01
DAV:  19    -0.499228409868E+03   -0.52091E-04   -0.13074E-04 18702   0.430E-02    0.145E-01
DAV:  20    -0.499228439400E+03   -0.29532E-04   -0.12266E-04 18171   0.357E-02    0.115E-01
DAV:  21    -0.499228509822E+03   -0.70422E-04   -0.28462E-04 23346   0.478E-02    0.948E-02
DAV:  22    -0.499228528491E+03   -0.18669E-04   -0.37895E-05 12429   0.188E-02    0.893E-02
DAV:  23    -0.499228539666E+03   -0.11175E-04   -0.31359E-05 12870   0.241E-02    0.606E-02
DAV:  24    -0.499228571718E+03   -0.32052E-04   -0.10220E-04 18351   0.247E-02    0.516E-02
DAV:  25    -0.499228577579E+03   -0.58604E-05   -0.21362E-05 10512   0.120E-02
   2 F= -.49922858E+03 E0= -.49922062E+03  d E =-.889569E-01  mag=   110.1444
 trial-energy change:   -0.088957  1 .order   -0.088023   -0.111682   -0.064364
 step:   2.0904(harm=  2.3602)  dis= 0.04690  next Energy=  -499.264878 (dE=-0.125E+00)
 bond charge predicted
       N       E                     dE             d eps       ncg     rms          rms(c)
DAV:   1    -0.498754002371E+03    0.47457E+00   -0.33062E+01 17163   0.163E+01    0.367E+00
DAV:   2    -0.499225179833E+03   -0.47118E+00   -0.44811E+00 15120   0.386E+00    0.262E+00
DAV:   3    -0.499694876760E+03   -0.46970E+00   -0.17954E+00 27432   0.507E+00    0.977E+00
DAV:   4    -0.499243546938E+03    0.45133E+00   -0.16482E+00 27117   0.495E+00    0.231E+00
DAV:   5    -0.499254790246E+03   -0.11243E-01   -0.68112E-02 24435   0.112E+00    0.182E+00
DAV:   6    -0.499274796781E+03   -0.20007E-01   -0.21081E-02 23895   0.615E-01    0.217E+00
DAV:   7    -0.499280380926E+03   -0.55841E-02   -0.19738E-02 24903   0.790E-01    0.171E+00
DAV:   8    -0.499286735404E+03   -0.63545E-02   -0.79195E-03 24309   0.376E-01    0.168E+00
DAV:   9    -0.499286564105E+03    0.17130E-03   -0.94115E-04 17559   0.988E-02    0.167E+00
DAV:  10    -0.499286487232E+03    0.76873E-04   -0.42584E-05 15498   0.952E-03    0.168E+00
DAV:  11    -0.499286747089E+03   -0.25986E-03   -0.51325E-04 25641   0.634E-02    0.167E+00
DAV:  12    -0.499287651055E+03   -0.90397E-03   -0.20478E-04 20826   0.444E-02    0.171E+00
DAV:  13    -0.499288020442E+03   -0.36939E-03   -0.15493E-04 20781   0.427E-02    0.171E+00
DAV:  14    -0.499287017910E+03    0.10025E-02   -0.20083E-04 19305   0.428E-02    0.169E+00
DAV:  15    -0.499285160031E+03    0.18579E-02   -0.92684E-04 25074   0.755E-02    0.162E+00
DAV:  16    -0.499282932480E+03    0.22276E-02   -0.22016E-03 25389   0.132E-01    0.159E+00
DAV:  17    -0.499279677254E+03    0.32552E-02   -0.81286E-03 24732   0.218E-01    0.159E+00
DAV:  18    -0.499278746937E+03    0.93032E-03   -0.57807E-03 25227   0.209E-01    0.168E+00
DAV:  19    -0.499276872010E+03    0.18749E-02   -0.56934E-03 25560   0.173E-01    0.161E+00
DAV:  20    -0.499276195437E+03    0.67657E-03   -0.17276E-02 25272   0.294E-01    0.141E+00
DAV:  21    -0.499277411499E+03   -0.12161E-02   -0.44335E-03 23715   0.171E-01    0.136E+00
DAV:  22    -0.499278787450E+03   -0.13760E-02   -0.15597E-03 24894   0.117E-01    0.135E+00
DAV:  23    -0.499283377408E+03   -0.45900E-02   -0.98766E-03 24966   0.256E-01    0.135E+00
DAV:  24    -0.499287743026E+03   -0.43656E-02   -0.93833E-03 25065   0.239E-01    0.140E+00
DAV:  25    -0.499287704830E+03    0.38196E-04   -0.70046E-04 16488   0.851E-02    0.140E+00
DAV:  26    -0.499289151930E+03   -0.14471E-02   -0.47410E-04 25272   0.516E-02    0.146E+00
DAV:  27    -0.499286589814E+03    0.25621E-02   -0.11390E-03 24741   0.748E-02    0.141E+00
DAV:  28    -0.499282890260E+03    0.36996E-02   -0.30072E-03 24489   0.122E-01    0.134E+00
DAV:  29    -0.499282842695E+03    0.47565E-04   -0.10737E-03 21312   0.128E-01    0.135E+00
DAV:  30    -0.499285853301E+03   -0.30106E-02   -0.40613E-03 24804   0.171E-01    0.150E+00
DAV:  31    -0.499286536941E+03   -0.68364E-03   -0.60155E-04 20016   0.738E-02    0.158E+00
DAV:  32    -0.499286570443E+03   -0.33501E-04   -0.28442E-04 20547   0.438E-02    0.167E+00
DAV:  33    -0.499287926482E+03   -0.13560E-02   -0.48790E-03 19611   0.210E-01    0.212E+00
DAV:  34    -0.499288506013E+03   -0.57953E-03   -0.39859E-03 24075   0.155E-01    0.239E+00
DAV:  35    -0.499289450978E+03   -0.94496E-03   -0.11634E-03 24399   0.926E-02    0.261E+00
DAV:  36    -0.499288661164E+03    0.78981E-03   -0.36498E-04 20142   0.607E-02    0.248E+00
DAV:  37    -0.499286513836E+03    0.21473E-02   -0.21568E-03 24138   0.123E-01    0.217E+00
DAV:  38    -0.499276518208E+03    0.99956E-02   -0.31437E-02 24327   0.422E-01    0.137E+00
DAV:  39    -0.499267428231E+03    0.90900E-02   -0.54888E-02 24345   0.514E-01    0.126E+00
DAV:  40    -0.499262248920E+03    0.51793E-02   -0.29541E-02 24435   0.367E-01    0.141E+00
DAV:  41    -0.499260899254E+03    0.13497E-02   -0.76400E-03 23112   0.183E-01    0.131E+00
DAV:  42    -0.499259842054E+03    0.10572E-02   -0.59238E-03 25074   0.159E-01    0.145E+00
DAV:  43    -0.499259538427E+03    0.30363E-03   -0.26958E-03 23697   0.119E-01    0.143E+00
DAV:  44    -0.499259328018E+03    0.21041E-03   -0.20581E-03 23814   0.893E-02    0.135E+00
DAV:  45    -0.499259573884E+03   -0.24587E-03   -0.34091E-03 24300   0.161E-01    0.956E-01
DAV:  46    -0.499259979146E+03   -0.40526E-03   -0.23332E-03 20286   0.149E-01    0.482E-01
DAV:  47    -0.499260180353E+03   -0.20121E-03   -0.15622E-03 24669   0.889E-02    0.352E-01
DAV:  48    -0.499260165170E+03    0.15183E-04   -0.19717E-04 19143   0.474E-02    0.360E-01
DAV:  49    -0.499260022469E+03    0.14270E-03   -0.16790E-03 24273   0.874E-02    0.330E-01
DAV:  50    -0.499260001436E+03    0.21033E-04   -0.10969E-03 24219   0.819E-02    0.401E-01
DAV:  51    -0.499260027721E+03   -0.26286E-04   -0.24871E-04 20727   0.381E-02    0.414E-01
DAV:  52    -0.499260083649E+03   -0.55928E-04   -0.11283E-03 25056   0.777E-02    0.451E-01
DAV:  53    -0.499260116930E+03   -0.33280E-04   -0.22939E-04 21474   0.374E-02    0.402E-01
DAV:  54    -0.499260121085E+03   -0.41551E-05   -0.19904E-04 23130   0.311E-02    0.348E-01
DAV:  55    -0.499260141022E+03   -0.19937E-04   -0.69196E-05 17352   0.204E-02    0.319E-01
DAV:  56    -0.499260174403E+03   -0.33381E-04   -0.28817E-04 24039   0.417E-02    0.248E-01
DAV:  57    -0.499260186771E+03   -0.12368E-04   -0.12891E-04 20070   0.268E-02    0.211E-01
DAV:  58    -0.499260207077E+03   -0.20306E-04   -0.80992E-05 18306   0.228E-02    0.174E-01
DAV:  59    -0.499260213146E+03   -0.60689E-05   -0.91221E-05 19359   0.195E-02
   3 F= -.49926021E+03 E0= -.49925272E+03  d E =-.120592E+00  mag=   110.6917
 curvature:  -1.13 expect dE=-0.278E-01 dE for cont linesearch -0.383E-02
 ZBRENT: interpolating
 opt :   1.8376  next Energy=  -499.262668 (dE=-0.123E+00)
 bond charge predicted
       N       E                     dE             d eps       ncg     rms          rms(c)
DAV:   1    -0.499234403012E+03    0.25804E-01   -0.18025E+00 16956   0.380E+00    0.772E-01
DAV:   2    -0.499264004221E+03   -0.29601E-01   -0.26477E-01 15480   0.100E+00    0.112E+00
DAV:   3    -0.499268864841E+03   -0.48606E-02   -0.70230E-02 24147   0.108E+00    0.127E+00
DAV:   4    -0.499263556152E+03    0.53087E-02   -0.51450E-02 26649   0.898E-01    0.789E-01
DAV:   5    -0.499262877694E+03    0.67846E-03   -0.41546E-03 23841   0.288E-01    0.571E-01
DAV:   6    -0.499263549143E+03   -0.67145E-03   -0.15451E-03 24273   0.190E-01    0.402E-01
DAV:   7    -0.499264231922E+03   -0.68278E-03   -0.12080E-03 22896   0.184E-01    0.363E-01
DAV:   8    -0.499264689897E+03   -0.45798E-03   -0.56447E-04 23472   0.806E-02    0.439E-01
DAV:   9    -0.499264841030E+03   -0.15113E-03   -0.11813E-04 19593   0.305E-02    0.456E-01
DAV:  10    -0.499264988044E+03   -0.14701E-03   -0.84915E-05 18090   0.242E-02    0.452E-01
DAV:  11    -0.499265309013E+03   -0.32097E-03   -0.43743E-04 23832   0.454E-02    0.435E-01
DAV:  12    -0.499265529086E+03   -0.22007E-03   -0.13336E-04 18432   0.279E-02    0.440E-01
DAV:  13    -0.499265569731E+03   -0.40646E-04   -0.16884E-05 11772   0.109E-02    0.437E-01
DAV:  14    -0.499266309427E+03   -0.73970E-03   -0.13861E-03 24336   0.757E-02    0.423E-01
DAV:  15    -0.499266533377E+03   -0.22395E-03   -0.19629E-04 18918   0.314E-02    0.433E-01
DAV:  16    -0.499266026270E+03    0.50711E-03   -0.32295E-04 20151   0.486E-02    0.401E-01
DAV:  17    -0.499265857189E+03    0.16908E-03   -0.12544E-04 20493   0.243E-02    0.406E-01
DAV:  18    -0.499263469892E+03    0.23873E-02   -0.88859E-03 24498   0.200E-01    0.377E-01
DAV:  19    -0.499261585972E+03    0.18839E-02   -0.10508E-02 24417   0.210E-01    0.308E-01
DAV:  20    -0.499261885665E+03   -0.29969E-03   -0.86764E-04 16605   0.792E-02    0.215E-01
DAV:  21    -0.499261092042E+03    0.79362E-03   -0.33406E-03 24714   0.124E-01    0.162E-01
DAV:  22    -0.499260990218E+03    0.10182E-03   -0.98828E-04 23004   0.676E-02    0.128E-01
DAV:  23    -0.499260858948E+03    0.13127E-03   -0.16327E-03 24183   0.768E-02    0.106E-01
DAV:  24    -0.499260916390E+03   -0.57442E-04   -0.15149E-03 24156   0.792E-02    0.105E-01
DAV:  25    -0.499260957319E+03   -0.40929E-04   -0.31181E-03 24993   0.139E-01    0.884E-02
DAV:  26    -0.499260953853E+03    0.34662E-05   -0.64310E-04 24012   0.662E-02    0.795E-02
DAV:  27    -0.499260967357E+03   -0.13505E-04   -0.62041E-04 24075   0.553E-02    0.646E-02
DAV:  28    -0.499260966469E+03    0.88778E-06   -0.11038E-03 24912   0.798E-02    0.491E-02
DAV:  29    -0.499261017775E+03   -0.51306E-04   -0.14387E-04 17865   0.248E-02    0.534E-02
DAV:  30    -0.499261022898E+03   -0.51228E-05   -0.13953E-05 11439   0.125E-02
   4 F= -.49926102E+03 E0= -.49925330E+03  d E =-.121402E+00  mag=   110.4334
 curvature:  -0.73 expect dE=-0.109E-01 dE for cont linesearch -0.381E-03
 ZBRENT: interpolating
 opt :   1.9090  next Energy=  -499.261296 (dE=-0.122E+00)
 bond charge predicted
       N       E                     dE             d eps       ncg     rms          rms(c)
DAV:   1    -0.499259153752E+03    0.18640E-02   -0.14161E-01 16857   0.107E+00    0.210E-01
DAV:   2    -0.499261222941E+03   -0.20692E-02   -0.20169E-02 15102   0.249E-01    0.149E-01
DAV:   3    -0.499261574597E+03   -0.35166E-03   -0.14862E-03 25245   0.127E-01    0.256E-01
DAV:   4    -0.499261458458E+03    0.11614E-03   -0.23911E-03 22446   0.189E-01    0.209E-01
DAV:   5    -0.499261377276E+03    0.81182E-04   -0.44083E-04 14058   0.910E-02    0.122E-01
DAV:   6    -0.499261470079E+03   -0.92802E-04   -0.94700E-05 19845   0.454E-02    0.858E-02
DAV:   7    -0.499261501856E+03   -0.31777E-04   -0.69942E-05 15723   0.464E-02    0.849E-02
DAV:   8    -0.499261511155E+03   -0.92994E-05   -0.17876E-05  9270   0.180E-02
   5 F= -.49926151E+03 E0= -.49925375E+03  d E =-.121890E+00  mag=   110.4074
 curvature:  -0.52 expect dE=-0.822E-02 dE for cont linesearch -0.110E-03
 ZBRENT: interpolating
 opt :   2.0085  next Energy=  -499.261801 (dE=-0.122E+00)
 bond charge predicted
       N       E                     dE             d eps       ncg     rms          rms(c)
DAV:   1    -0.499257267785E+03    0.42341E-02   -0.27435E-01 16938   0.150E+00    0.309E-01
DAV:   2    -0.499262153096E+03   -0.48853E-02   -0.41654E-02 16578   0.425E-01    0.466E-01
DAV:   3    -0.499263054277E+03   -0.90118E-03   -0.16414E-02 23319   0.526E-01    0.657E-01
DAV:   4    -0.499261527700E+03    0.15266E-02   -0.32472E-03 24741   0.219E-01    0.252E-01
DAV:   5    -0.499261729402E+03   -0.20170E-03   -0.37019E-04 21177   0.708E-02    0.275E-01
DAV:   6    -0.499262014275E+03   -0.28487E-03   -0.30995E-04 23103   0.874E-02    0.282E-01
DAV:   7    -0.499262159695E+03   -0.14542E-03   -0.11906E-04 18171   0.510E-02    0.303E-01
DAV:   8    -0.499262114968E+03    0.44727E-04   -0.89758E-05 15894   0.428E-02    0.269E-01
DAV:   9    -0.499262112762E+03    0.22062E-05   -0.20687E-05 10566   0.123E-02
   6 F= -.49926211E+03 E0= -.49925424E+03  d E =-.122492E+00  mag=   110.3531
 curvature:  -1.37 expect dE=-0.244E-01 dE for cont linesearch -0.139E-04
 trial: gam= 0.14998 g(F)=  0.178E-01 g(S)=  0.000E+00 ort = 0.107E-02 (trialstep = 0.120E+01)
 search vector abs. value=  0.206E-01
 bond charge predicted
       N       E                     dE             d eps       ncg     rms          rms(c)
DAV:   1    -0.499158494764E+03    0.10362E+00   -0.74614E+00 16992   0.776E+00    0.207E+00
DAV:   2    -0.499350122508E+03   -0.19163E+00   -0.13419E+00 20691   0.272E+00    0.448E+00
DAV:   3    -0.499393644851E+03   -0.43522E-01   -0.11628E+00 25119   0.438E+00    0.506E+00
DAV:   4    -0.499268326798E+03    0.12532E+00   -0.41568E-01 26262   0.256E+00    0.119E+00
DAV:   5    -0.499273921636E+03   -0.55948E-02   -0.14014E-02 19494   0.528E-01    0.898E-01
DAV:   6    -0.499278426533E+03   -0.45049E-02   -0.71898E-03 20871   0.474E-01    0.915E-01
DAV:   7    -0.499283307236E+03   -0.48807E-02   -0.42313E-03 23265   0.236E-01    0.827E-01
DAV:   8    -0.499282624432E+03    0.68280E-03   -0.20907E-03 23562   0.198E-01    0.629E-01
DAV:   9    -0.499282816381E+03   -0.19195E-03   -0.27609E-04 18927   0.563E-02    0.633E-01
DAV:  10    -0.499282667485E+03    0.14890E-03   -0.40404E-05 13752   0.192E-02    0.624E-01
DAV:  11    -0.499282253132E+03    0.41435E-03   -0.21545E-04 19944   0.363E-02    0.605E-01
DAV:  12    -0.499281948603E+03    0.30453E-03   -0.14765E-04 20799   0.259E-02    0.577E-01
DAV:  13    -0.499281386028E+03    0.56257E-03   -0.35073E-04 22383   0.557E-02    0.513E-01
DAV:  14    -0.499279612550E+03    0.17735E-02   -0.44939E-03 25452   0.162E-01    0.404E-01
DAV:  15    -0.499278718202E+03    0.89435E-03   -0.38515E-03 24327   0.135E-01    0.381E-01
DAV:  16    -0.499278616769E+03    0.10143E-03   -0.62876E-04 21384   0.534E-02    0.381E-01
DAV:  17    -0.499277886536E+03    0.73023E-03   -0.25642E-03 25695   0.128E-01    0.258E-01
DAV:  18    -0.499277444296E+03    0.44224E-03   -0.63911E-03 25605   0.212E-01    0.207E-01
DAV:  19    -0.499277636199E+03   -0.19190E-03   -0.58297E-04 16911   0.742E-02    0.204E-01
DAV:  20    -0.499277603571E+03    0.32628E-04   -0.27399E-04 21816   0.670E-02    0.122E-01
DAV:  21    -0.499277640598E+03   -0.37027E-04   -0.34733E-04 22599   0.743E-02    0.135E-01
DAV:  22    -0.499277605217E+03    0.35382E-04   -0.30549E-04 23715   0.434E-02    0.137E-01
DAV:  23    -0.499277570280E+03    0.34937E-04   -0.33297E-04 22023   0.389E-02    0.123E-01
DAV:  24    -0.499277560167E+03    0.10112E-04   -0.95146E-05 18198   0.287E-02    0.860E-02
DAV:  25    -0.499277580944E+03   -0.20777E-04   -0.65711E-05 15624   0.272E-02    0.550E-02
DAV:  26    -0.499277611055E+03   -0.30111E-04   -0.89618E-05 18810   0.219E-02    0.545E-02
DAV:  27    -0.499277605904E+03    0.51514E-05   -0.85768E-06  9558   0.105E-02
   7 F= -.49927761E+03 E0= -.49926992E+03  d E =-.154931E-01  mag=   110.6907
 trial-energy change:   -0.015493  1 .order   -0.017199   -0.021600   -0.012797
 step:   2.9486(harm=  2.9486)  dis= 0.02539  next Energy=  -499.288613 (dE=-0.265E-01)
 bond charge predicted
       N       E                     dE             d eps       ncg     rms          rms(c)
DAV:   1    -0.499030226174E+03    0.24738E+00   -0.16074E+01 16812   0.113E+01    0.299E+00
DAV:   2    -0.499348316900E+03   -0.31809E+00   -0.25275E+00 17415   0.340E+00    0.487E+00
DAV:   3    -0.499569174425E+03   -0.22086E+00   -0.19080E+00 25893   0.575E+00    0.780E+00
DAV:   4    -0.499264187089E+03    0.30499E+00   -0.10606E+00 27018   0.403E+00    0.166E+00
DAV:   5    -0.499276625502E+03   -0.12438E-01   -0.27544E-02 21222   0.760E-01    0.123E+00
DAV:   6    -0.499284710433E+03   -0.80849E-02   -0.16547E-02 21627   0.709E-01    0.118E+00
DAV:   7    -0.499293156648E+03   -0.84462E-02   -0.82049E-03 22509   0.374E-01    0.895E-01
DAV:   8    -0.499291869503E+03    0.12871E-02   -0.46967E-03 24012   0.297E-01    0.512E-01
DAV:   9    -0.499292030272E+03   -0.16077E-03   -0.66383E-04 18711   0.971E-02    0.500E-01
DAV:  10    -0.499292168921E+03   -0.13865E-03   -0.23633E-04 23805   0.470E-02    0.505E-01
DAV:  11    -0.499292551762E+03   -0.38284E-03   -0.57901E-04 24984   0.694E-02    0.513E-01
DAV:  12    -0.499293296334E+03   -0.74457E-03   -0.11217E-03 24858   0.859E-02    0.561E-01
DAV:  13    -0.499293469871E+03   -0.17354E-03   -0.20302E-04 20160   0.386E-02    0.558E-01
DAV:  14    -0.499293246886E+03    0.22298E-03   -0.64093E-05 16722   0.238E-02    0.557E-01
DAV:  15    -0.499292813814E+03    0.43307E-03   -0.30830E-04 21843   0.396E-02    0.553E-01
DAV:  16    -0.499291615815E+03    0.11980E-02   -0.17018E-03 25020   0.931E-02    0.485E-01
DAV:  17    -0.499290007344E+03    0.16085E-02   -0.47688E-03 25380   0.155E-01    0.418E-01
DAV:  18    -0.499288498048E+03    0.15093E-02   -0.74157E-03 25236   0.191E-01    0.338E-01
DAV:  19    -0.499288190887E+03    0.30716E-03   -0.18451E-03 23553   0.902E-02    0.327E-01
DAV:  20    -0.499288197616E+03   -0.67291E-05   -0.17100E-04 20988   0.367E-02    0.338E-01
DAV:  21    -0.499288114161E+03    0.83455E-04   -0.10730E-04 19836   0.207E-02    0.343E-01
DAV:  22    -0.499288113628E+03    0.53278E-06   -0.12973E-05 10971   0.105E-02
   8 F= -.49928811E+03 E0= -.49928008E+03  d E =-.260009E-01  mag=   110.6743
 curvature:  -1.69 expect dE=-0.265E-01 dE for cont linesearch -0.550E-03
 trial: gam= 0.49552 g(F)=  0.156E-01 g(S)=  0.000E+00 ort = 0.259E-02 (trialstep = 0.138E+01)
 search vector abs. value=  0.233E-01
 bond charge predicted
       N       E                     dE             d eps       ncg     rms          rms(c)
DAV:   1    -0.499208198269E+03    0.79916E-01   -0.97603E+00 14904   0.714E+00    0.222E+00
DAV:   2    -0.499416918572E+03   -0.20872E+00   -0.11220E+00 22995   0.333E+00    0.579E+00
DAV:   3    -0.499345700270E+03    0.71218E-01   -0.10795E+00 24552   0.442E+00    0.391E+00
DAV:   4    -0.499282582106E+03    0.63118E-01   -0.27306E-01 23805   0.214E+00    0.141E+00
DAV:   5    -0.499295047658E+03   -0.12466E-01   -0.19142E-02 20682   0.678E-01    0.131E+00
DAV:   6    -0.499300071474E+03   -0.50238E-02   -0.13250E-02 20565   0.702E-01    0.822E-01
DAV:   7    -0.499304315721E+03   -0.42442E-02   -0.60331E-03 23031   0.281E-01    0.477E-01
