 
:: initializing oneAPI environment ...
   slurm_script: BASH_VERSION = 4.4.20(1)-release
   args: Using "$@" for setvars.sh arguments: --force
:: advisor -- latest
:: ccl -- latest
:: compiler -- latest
:: dal -- latest
:: debugger -- latest
:: dev-utilities -- latest
:: dnnl -- latest
:: dpcpp-ct -- latest
:: dpl -- latest
:: ipp -- latest
:: ippcp -- latest
:: mkl -- latest
:: mpi -- latest
:: pti -- latest
:: tbb -- latest
:: umf -- latest
:: vtune -- latest
:: oneAPI environment initialized ::
 
 running   96 mpi-ranks, on    1 nodes
 distrk:  each k-point on   12 cores,    8 groups
 distr:  one band on    4 cores,    3 groups
 vasp.6.5.1 10Mar25 (build Oct 09 2025 23:55:08) complex                        
  
 POSCAR found type information on POSCAR FeCr
 POSCAR found :  2 types and      62 ions
 -----------------------------------------------------------------------------
|                                                                             |
|           W    W    AA    RRRRR   N    N  II  N    N   GGGG   !!!           |
|           W    W   A  A   R    R  NN   N  II  NN   N  G    G  !!!           |
|           W    W  A    A  R    R  N N  N  II  N N  N  G       !!!           |
|           W WW W  AAAAAA  RRRRR   N  N N  II  N  N N  G  GGG   !            |
|           WW  WW  A    A  R   R   N   NN  II  N   NN  G    G                |
|           W    W  A    A  R    R  N    N  II  N    N   GGGG   !!!           |
|                                                                             |
|     You requested a magnetic or noncollinear calculation, but did not       |
|     specify the initial magnetic moment with the MAGMOM tag. Note that      |
|     a default of 1 will be used for all atoms. This ferromagnetic setup     |
|     may break the symmetry of the crystal, in particular it may rule        |
|     out finding an antiferromagnetic solution. Thence, we recommend         |
|     setting the initial magnetic moment manually or verifying carefully     |
|     that this magnetic setup is desired.                                    |
|                                                                             |
 -----------------------------------------------------------------------------

 scaLAPACK will be used
 -----------------------------------------------------------------------------
|                                                                             |
|           W    W    AA    RRRRR   N    N  II  N    N   GGGG   !!!           |
|           W    W   A  A   R    R  NN   N  II  NN   N  G    G  !!!           |
|           W    W  A    A  R    R  N N  N  II  N N  N  G       !!!           |
|           W WW W  AAAAAA  RRRRR   N  N N  II  N  N N  G  GGG   !            |
|           WW  WW  A    A  R   R   N   NN  II  N   NN  G    G                |
|           W    W  A    A  R    R  N    N  II  N    N   GGGG   !!!           |
|                                                                             |
|     For optimal performance we recommend to set                             |
|       NCORE = 2 up to number-of-cores-per-socket                            |
|     NCORE specifies how many cores store one orbital (NPAR=cpu/NCORE).      |
|     This setting can greatly improve the performance of VASP for DFT.       |
|     The default, NCORE=1 might be grossly inefficient on modern             |
|     multi-core architectures or massively parallel machines. Do your        |
|     own testing! More info at https://www.vasp.at/wiki/index.php/NCORE      |
|     Unfortunately you need to use the default for GW and RPA                |
|     calculations (for HF NCORE is supported but not extensively tested      |
|     yet).                                                                   |
|                                                                             |
 -----------------------------------------------------------------------------

 LDA part: xc-table for (Slater+PW92), standard interpolation
 POSCAR, INCAR and KPOINTS ok, starting setup
 FFT: planning ... GRIDC
 FFT: planning ... GRID_SOFT
 FFT: planning ... GRID
 WAVECAR not read
 WARNING: chargedensity file is incomplete
 WARNING: random wavefunctions but no delay for mixing, default for NELMDL
 entering main loop
       N       E                     dE             d eps       ncg     rms          rms(c)
DAV:   1     0.528481903225E+04    0.52848E+04   -0.23238E+05 15174   0.142E+03
DAV:   2    -0.966448023047E+02   -0.53815E+04   -0.51908E+04 14400   0.417E+02
DAV:   3    -0.515991659222E+03   -0.41935E+03   -0.36981E+03 14958   0.157E+02
DAV:   4    -0.573342998300E+03   -0.57351E+02   -0.53544E+02 25668   0.444E+01
DAV:   5    -0.576539711042E+03   -0.31967E+01   -0.30293E+01 23481   0.101E+01    0.937E+01
DAV:   6    -0.663634388675E+03   -0.87095E+02   -0.27995E+02 26208   0.778E+01    0.147E+02
DAV:   7    -0.557190210643E+03    0.10644E+03   -0.16478E+02 26694   0.734E+01    0.980E+01
DAV:   8    -0.591349684705E+03   -0.34159E+02   -0.93876E+01 26451   0.653E+01    0.121E+02
DAV:   9    -0.520316970083E+03    0.71033E+02   -0.76160E+01 25353   0.512E+01    0.715E+01
DAV:  10    -0.496053727987E+03    0.24263E+02   -0.10008E+02 22698   0.357E+01    0.520E+01
DAV:  11    -0.488308662136E+03    0.77451E+01   -0.50306E+01 20952   0.269E+01    0.444E+01
DAV:  12    -0.486618178227E+03    0.16905E+01   -0.94181E+00 21978   0.143E+01    0.383E+01
DAV:  13    -0.486252038560E+03    0.36614E+00   -0.17415E+00 19836   0.578E+00    0.360E+01
DAV:  14    -0.485790782417E+03    0.46126E+00   -0.32722E-01 24174   0.154E+00    0.362E+01
DAV:  15    -0.487870646130E+03   -0.20799E+01   -0.88762E-01 25506   0.354E+00    0.361E+01
DAV:  16    -0.492595792118E+03   -0.47251E+01   -0.67796E+00 24453   0.904E+00    0.307E+01
DAV:  17    -0.494501788555E+03   -0.19060E+01   -0.35151E+00 24255   0.691E+00    0.264E+01
DAV:  18    -0.495896664066E+03   -0.13949E+01   -0.17441E+00 23436   0.459E+00    0.233E+01
DAV:  19    -0.496677298036E+03   -0.78063E+00   -0.89569E-01 24732   0.367E+00    0.210E+01
DAV:  20    -0.497335125990E+03   -0.65783E+00   -0.14166E+00 25677   0.472E+00    0.185E+01
DAV:  21    -0.498034508370E+03   -0.69938E+00   -0.18303E+00 25290   0.517E+00    0.157E+01
DAV:  22    -0.498290008005E+03   -0.25550E+00   -0.10241E+00 24921   0.336E+00    0.140E+01
DAV:  23    -0.498572730711E+03   -0.28272E+00   -0.40911E-01 23931   0.255E+00    0.131E+01
DAV:  24    -0.498947368595E+03   -0.37464E+00   -0.46980E-01 25605   0.254E+00    0.125E+01
DAV:  25    -0.499245959892E+03   -0.29859E+00   -0.48124E-01 25614   0.252E+00    0.112E+01
DAV:  26    -0.499660862544E+03   -0.41490E+00   -0.15045E+00 25461   0.392E+00    0.838E+00
DAV:  27    -0.499767906355E+03   -0.10704E+00   -0.77097E-01 25002   0.301E+00    0.628E+00
DAV:  28    -0.499793581972E+03   -0.25676E-01   -0.21466E-01 23355   0.159E+00    0.532E+00
DAV:  29    -0.499816645392E+03   -0.23063E-01   -0.23318E-01 25461   0.161E+00    0.469E+00
DAV:  30    -0.499852305226E+03   -0.35660E-01   -0.11611E-01 23850   0.135E+00    0.418E+00
DAV:  31    -0.499867571364E+03   -0.15266E-01   -0.54309E-02 24417   0.102E+00    0.367E+00
DAV:  32    -0.499883711353E+03   -0.16140E-01   -0.56687E-02 25047   0.954E-01    0.310E+00
DAV:  33    -0.499896515172E+03   -0.12804E-01   -0.98440E-02 24660   0.101E+00    0.253E+00
DAV:  34    -0.499898085462E+03   -0.15703E-02   -0.41572E-02 23337   0.696E-01    0.220E+00
DAV:  35    -0.499901441432E+03   -0.33560E-02   -0.12241E-02 23931   0.342E-01    0.200E+00
DAV:  36    -0.499911449885E+03   -0.10008E-01   -0.82308E-03 25425   0.224E-01    0.199E+00
DAV:  37    -0.499911918868E+03   -0.46898E-03   -0.75339E-04 17577   0.828E-02    0.199E+00
DAV:  38    -0.499912465829E+03   -0.54696E-03   -0.15016E-04 18981   0.437E-02    0.198E+00
DAV:  39    -0.499904315437E+03    0.81504E-02   -0.52202E-03 25713   0.226E-01    0.198E+00
DAV:  40    -0.499889401400E+03    0.14914E-01   -0.18643E-02 25074   0.328E-01    0.201E+00
DAV:  41    -0.499871598143E+03    0.17803E-01   -0.32870E-02 25308   0.439E-01    0.190E+00
DAV:  42    -0.499858593963E+03    0.13004E-01   -0.36638E-02 25263   0.522E-01    0.186E+00
DAV:  43    -0.499850185688E+03    0.84083E-02   -0.56376E-02 25452   0.563E-01    0.178E+00
DAV:  44    -0.499847276974E+03    0.29087E-02   -0.35868E-02 25398   0.527E-01    0.144E+00
DAV:  45    -0.499847194774E+03    0.82199E-04   -0.62148E-03 21861   0.281E-01    0.123E+00
DAV:  46    -0.499847200040E+03   -0.52652E-05   -0.41414E-03 25047   0.198E-01    0.114E+00
DAV:  47    -0.499847883848E+03   -0.68381E-03   -0.63019E-03 24624   0.209E-01    0.941E-01
DAV:  48    -0.499848391059E+03   -0.50721E-03   -0.21273E-03 23985   0.153E-01    0.776E-01
DAV:  49    -0.499849046665E+03   -0.65561E-03   -0.19253E-03 24795   0.138E-01    0.633E-01
DAV:  50    -0.499849457404E+03   -0.41074E-03   -0.25073E-03 24957   0.192E-01    0.433E-01
DAV:  51    -0.499850020674E+03   -0.56327E-03   -0.30550E-03 24237   0.180E-01    0.384E-01
DAV:  52    -0.499849918261E+03    0.10241E-03   -0.10620E-03 21951   0.159E-01    0.248E-01
DAV:  53    -0.499850024453E+03   -0.10619E-03   -0.54418E-04 25317   0.752E-02    0.222E-01
DAV:  54    -0.499850085741E+03   -0.61288E-04   -0.40032E-04 24534   0.773E-02    0.156E-01
DAV:  55    -0.499850152609E+03   -0.66868E-04   -0.36172E-04 25020   0.745E-02    0.125E-01
DAV:  56    -0.499850222865E+03   -0.70256E-04   -0.37957E-04 24156   0.546E-02    0.957E-02
DAV:  57    -0.499850272070E+03   -0.49205E-04   -0.11489E-04 20979   0.292E-02    0.798E-02
DAV:  58    -0.499850329266E+03   -0.57196E-04   -0.22342E-04 23949   0.372E-02    0.643E-02
DAV:  59    -0.499850353615E+03   -0.24349E-04   -0.66648E-05 17073   0.276E-02    0.527E-02
DAV:  60    -0.499850367152E+03   -0.13537E-04   -0.55619E-05 15372   0.166E-02    0.458E-02
DAV:  61    -0.499850385369E+03   -0.18217E-04   -0.48307E-05 15768   0.231E-02    0.419E-02
DAV:  62    -0.499850397014E+03   -0.11645E-04   -0.78025E-05 18783   0.204E-02    0.361E-02
DAV:  63    -0.499850403865E+03   -0.68505E-05   -0.22613E-05 12555   0.112E-02
   1 F= -.49985040E+03 E0= -.49985733E+03  d E =-.499850E+03  mag=   111.4046
 curvature:   0.00 expect dE= 0.000E+00 dE for cont linesearch  0.000E+00
 trial: gam= 0.00000 g(F)=  0.117E+00 g(S)=  0.000E+00 ort = 0.000E+00 (trialstep = 0.100E+01)
 search vector abs. value=  0.117E+00
 bond charge predicted
       N       E                     dE             d eps       ncg     rms          rms(c)
DAV:   1    -0.499613343018E+03    0.23705E+00   -0.31423E+01 15156   0.125E+01    0.309E+00
DAV:   2    -0.499881031315E+03   -0.26769E+00   -0.24601E+00 15795   0.358E+00    0.241E+00
DAV:   3    -0.500059255812E+03   -0.17822E+00   -0.59416E-01 27009   0.366E+00    0.519E+00
DAV:   4    -0.499903676409E+03    0.15558E+00   -0.56195E-01 26730   0.353E+00    0.203E+00
DAV:   5    -0.499923770119E+03   -0.20094E-01   -0.21603E-02 22401   0.575E-01    0.143E+00
DAV:   6    -0.499936390714E+03   -0.12621E-01   -0.24979E-02 25920   0.930E-01    0.102E+00
DAV:   7    -0.499936782533E+03   -0.39182E-03   -0.13084E-02 24777   0.704E-01    0.591E-01
DAV:   8    -0.499936674023E+03    0.10851E-03   -0.38435E-03 22302   0.289E-01    0.460E-01
DAV:   9    -0.499936513876E+03    0.16015E-03   -0.96579E-04 20070   0.129E-01    0.425E-01
DAV:  10    -0.499935936320E+03    0.57756E-03   -0.90765E-04 24345   0.117E-01    0.299E-01
DAV:  11    -0.499935498899E+03    0.43742E-03   -0.12003E-03 22842   0.110E-01    0.208E-01
DAV:  12    -0.499935511505E+03   -0.12606E-04   -0.32429E-04 22167   0.635E-02    0.208E-01
DAV:  13    -0.499935515013E+03   -0.35086E-05   -0.11973E-04 20502   0.473E-02    0.179E-01
DAV:  14    -0.499935463490E+03    0.51524E-04   -0.29906E-04 23877   0.807E-02    0.822E-02
DAV:  15    -0.499935490765E+03   -0.27275E-04   -0.59511E-05 14121   0.348E-02    0.776E-02
DAV:  16    -0.499935500035E+03   -0.92699E-05   -0.47400E-05 14283   0.215E-02
   2 F= -.49993550E+03 E0= -.49994252E+03  d E =-.850962E-01  mag=   111.2875
 trial-energy change:   -0.085096  1 .order   -0.085182   -0.116572   -0.053792
 step:   1.8568(harm=  1.8568)  dis= 0.06724  next Energy=  -499.958632 (dE=-0.108E+00)
 bond charge predicted
       N       E                     dE             d eps       ncg     rms          rms(c)
DAV:   1    -0.499726657806E+03    0.20883E+00   -0.23276E+01 15066   0.107E+01    0.265E+00
DAV:   2    -0.499917530580E+03   -0.19087E+00   -0.17581E+00 15669   0.298E+00    0.199E+00
DAV:   3    -0.499999581954E+03   -0.82051E-01   -0.26210E-01 26982   0.237E+00    0.346E+00
DAV:   4    -0.499940898001E+03    0.58684E-01   -0.29452E-01 26334   0.259E+00    0.187E+00
DAV:   5    -0.499952498524E+03   -0.11601E-01   -0.17128E-02 22860   0.565E-01    0.120E+00
DAV:   6    -0.499959984221E+03   -0.74857E-02   -0.18912E-02 25812   0.825E-01    0.817E-01
DAV:   7    -0.499960118759E+03   -0.13454E-03   -0.85030E-03 24075   0.548E-01    0.468E-01
DAV:   8    -0.499959997469E+03    0.12129E-03   -0.22728E-03 21501   0.216E-01    0.378E-01
DAV:   9    -0.499959896096E+03    0.10137E-03   -0.63225E-04 20835   0.105E-01    0.357E-01
DAV:  10    -0.499959525232E+03    0.37086E-03   -0.55806E-04 23589   0.978E-02    0.267E-01
DAV:  11    -0.499959170711E+03    0.35452E-03   -0.83246E-04 22689   0.979E-02    0.180E-01
DAV:  12    -0.499959171657E+03   -0.94553E-06   -0.21992E-04 21024   0.537E-02    0.174E-01
DAV:  13    -0.499959176770E+03   -0.51134E-05   -0.79643E-05 18414   0.411E-02
   3 F= -.49995918E+03 E0= -.49996598E+03  d E =-.108773E+00  mag=   111.1825
 curvature:  -0.93 expect dE=-0.562E-02 dE for cont linesearch -0.869E-04
 ZBRENT: extrapolating
 opt :   1.9129  next Energy=  -499.959269 (dE=-0.109E+00)
 bond charge predicted
       N       E                     dE             d eps       ncg     rms          rms(c)
DAV:   1    -0.499958168929E+03    0.10027E-02   -0.10024E-01 15408   0.707E-01    0.192E-01
DAV:   2    -0.499959023040E+03   -0.85411E-03   -0.75667E-03 18369   0.205E-01    0.174E-01
DAV:   3    -0.499959807321E+03   -0.78428E-03   -0.33117E-03 26046   0.284E-01    0.361E-01
DAV:   4    -0.499959031291E+03    0.77603E-03   -0.25232E-03 20007   0.241E-01    0.124E-01
DAV:   5    -0.499959145623E+03   -0.11433E-03   -0.11814E-04 18945   0.348E-02    0.846E-02
DAV:   6    -0.499959160665E+03   -0.15042E-04   -0.45685E-05 11124   0.399E-02    0.520E-02
DAV:   7    -0.499959167330E+03   -0.66654E-05   -0.16906E-05  9099   0.223E-02
   4 F= -.49995917E+03 E0= -.49996597E+03  d E =-.108763E+00  mag=   111.1797
 curvature:  -0.99 expect dE=-0.619E-02 dE for cont linesearch -0.157E-04
 ZBRENT: bracketing found
 ZBRENT: interpolating
 opt :   1.8966  next Energy=  -499.959178 (dE=-0.109E+00)
 bond charge predicted
       N       E                     dE             d eps       ncg     rms          rms(c)
DAV:   1    -0.499959101018E+03    0.59647E-04   -0.85595E-03 15219   0.206E-01    0.652E-02
DAV:   2    -0.499959302170E+03   -0.20115E-03   -0.99219E-04 22761   0.119E-01    0.148E-01
DAV:   3    -0.499959176333E+03    0.12584E-03   -0.54871E-04 16497   0.118E-01    0.664E-02
DAV:   4    -0.499959182462E+03   -0.61291E-05   -0.48173E-05 11844   0.386E-02
   5 F= -.49995918E+03 E0= -.49996598E+03  d E =-.108779E+00  mag=   111.1802
 curvature:  -0.70 expect dE=-0.429E-02 dE for cont linesearch -0.332E-06
 trial: gam= 0.05046 g(F)=  0.612E-02 g(S)=  0.000E+00 ort = 0.235E-03 (trialstep = 0.118E+01)
 search vector abs. value=  0.644E-02
 bond charge predicted
       N       E                     dE             d eps       ncg     rms          rms(c)
DAV:   1    -0.499928215509E+03    0.30961E-01   -0.30806E+00 17019   0.439E+00    0.945E-01
DAV:   2    -0.499961172672E+03   -0.32957E-01   -0.29790E-01 15984   0.104E+00    0.825E-01
DAV:   3    -0.499984089299E+03   -0.22917E-01   -0.98219E-02 25956   0.156E+00    0.192E+00
DAV:   4    -0.499961763768E+03    0.22326E-01   -0.65151E-02 27045   0.121E+00    0.533E-01
DAV:   5    -0.499963559135E+03   -0.17954E-02   -0.23218E-03 25479   0.255E-01    0.425E-01
DAV:   6    -0.499965103347E+03   -0.15442E-02   -0.32035E-03 24111   0.331E-01    0.286E-01
DAV:   7    -0.499964942928E+03    0.16042E-03   -0.13103E-03 22752   0.198E-01    0.113E-01
DAV:   8    -0.499964962020E+03   -0.19092E-04   -0.20605E-04 16911   0.459E-02    0.105E-01
DAV:   9    -0.499964951289E+03    0.10731E-04   -0.31076E-05 13365   0.249E-02    0.931E-02
DAV:  10    -0.499964920515E+03    0.30774E-04   -0.94892E-05 18000   0.341E-02    0.612E-02
DAV:  11    -0.499964919034E+03    0.14812E-05   -0.55751E-05 13302   0.221E-02
   6 F= -.49996492E+03 E0= -.49997176E+03  d E =-.573657E-02  mag=   111.1778
 trial-energy change:   -0.005737  1 .order   -0.005843   -0.007229   -0.004458
 step:   3.0765(harm=  3.0765)  dis= 0.03360  next Energy=  -499.968611 (dE=-0.943E-02)
 bond charge predicted
       N       E                     dE             d eps       ncg     rms          rms(c)
DAV:   1    -0.499873446179E+03    0.91474E-01   -0.79884E+00 16974   0.706E+00    0.152E+00
DAV:   2    -0.499959834434E+03   -0.86388E-01   -0.76892E-01 16794   0.174E+00    0.143E+00
DAV:   3    -0.500010448251E+03   -0.50614E-01   -0.24949E-01 26019   0.247E+00    0.294E+00
DAV:   4    -0.499959967646E+03    0.50481E-01   -0.15193E-01 26766   0.184E+00    0.860E-01
DAV:   5    -0.499964702206E+03   -0.47346E-02   -0.58973E-03 24984   0.414E-01    0.700E-01
DAV:   6    -0.499968290907E+03   -0.35887E-02   -0.81169E-03 24048   0.535E-01    0.466E-01
DAV:   7    -0.499968153434E+03    0.13747E-03   -0.31381E-03 22851   0.305E-01    0.201E-01
DAV:   8    -0.499968190440E+03   -0.37006E-04   -0.55823E-04 17163   0.793E-02    0.183E-01
DAV:   9    -0.499968155850E+03    0.34589E-04   -0.10608E-04 19575   0.422E-02    0.165E-01
DAV:  10    -0.499968085787E+03    0.70063E-04   -0.23467E-04 23589   0.537E-02    0.116E-01
DAV:  11    -0.499968077423E+03    0.83646E-05   -0.17093E-04 19854   0.443E-02    0.955E-02
DAV:  12    -0.499968075037E+03    0.23861E-05   -0.42026E-05 12528   0.267E-02
   7 F= -.49996808E+03 E0= -.49997494E+03  d E =-.889258E-02  mag=   111.1782
 curvature:  -1.62 expect dE=-0.326E-02 dE for cont linesearch -0.192E-05
 trial: gam= 0.34309 g(F)=  0.202E-02 g(S)=  0.000E+00 ort =-0.875E-04 (trialstep = 0.156E+01)
 search vector abs. value=  0.271E-02
 bond charge predicted
       N       E                     dE             d eps       ncg     rms          rms(c)
DAV:   1    -0.499937879260E+03    0.30198E-01   -0.25015E+00 17550   0.422E+00    0.847E-01
DAV:   2    -0.499967380746E+03   -0.29501E-01   -0.27032E-01 15804   0.947E-01    0.728E-01
DAV:   3    -0.499986476870E+03   -0.19096E-01   -0.79617E-02 25650   0.141E+00    0.176E+00
DAV:   4    -0.499967726481E+03    0.18750E-01   -0.52311E-02 27018   0.109E+00    0.438E-01
DAV:   5    -0.499969877476E+03   -0.21510E-02   -0.21930E-03 24381   0.215E-01    0.345E-01
DAV:   6    -0.499970645375E+03   -0.76790E-03   -0.16841E-03 24732   0.261E-01    0.297E-01
DAV:   7    -0.499970391101E+03    0.25427E-03   -0.10412E-03 22986   0.184E-01    0.123E-01
DAV:   8    -0.499970406490E+03   -0.15389E-04   -0.19319E-04 21663   0.458E-02    0.111E-01
DAV:   9    -0.499970416835E+03   -0.10345E-04   -0.34606E-05 13374   0.232E-02    0.107E-01
DAV:  10    -0.499970446717E+03   -0.29882E-04   -0.68915E-05 13023   0.263E-02    0.101E-01
DAV:  11    -0.499970488875E+03   -0.42158E-04   -0.10424E-04 21330   0.233E-02    0.105E-01
DAV:  12    -0.499970483843E+03    0.50323E-05   -0.70078E-06  8478   0.879E-03
   8 F= -.49997048E+03 E0= -.49997749E+03  d E =-.240881E-02  mag=   111.1717
 trial-energy change:   -0.002409  1 .order   -0.002343   -0.003096   -0.001589
 step:   2.6885(harm=  3.2029)  dis= 0.01874  next Energy=  -499.971085 (dE=-0.301E-02)
 bond charge predicted
       N       E                     dE             d eps       ncg     rms          rms(c)
DAV:   1    -0.499954037171E+03    0.16452E-01   -0.13129E+00 17577   0.305E+00    0.620E-01
DAV:   2    -0.499969768227E+03   -0.15731E-01   -0.14249E-01 16299   0.703E-01    0.573E-01
DAV:   3    -0.499978072773E+03   -0.83045E-02   -0.39401E-02 25614   0.996E-01    0.120E+00
DAV:   4    -0.499969761524E+03    0.83112E-02   -0.23031E-02 27153   0.728E-01    0.340E-01
DAV:   5    -0.499971017744E+03   -0.12562E-02   -0.11959E-03 23589   0.155E-01    0.273E-01
DAV:   6    -0.499971487925E+03   -0.47018E-03   -0.85978E-04 24579   0.176E-01    0.263E-01
DAV:   7    -0.499971346434E+03    0.14149E-03   -0.59192E-04 23211   0.140E-01    0.168E-01
DAV:   8    -0.499971368068E+03   -0.21634E-04   -0.11701E-04 18477   0.331E-02    0.161E-01
DAV:   9    -0.499971350522E+03    0.17546E-04   -0.12689E-05  9540   0.140E-02    0.163E-01
DAV:  10    -0.499971375634E+03   -0.25112E-04   -0.45476E-06  8730   0.731E-03    0.161E-01
DAV:  11    -0.499971665322E+03   -0.28969E-03   -0.75163E-04 24417   0.550E-02    0.187E-01
DAV:  12    -0.499971458443E+03    0.20688E-03   -0.28128E-04 23373   0.494E-02    0.175E-01
DAV:  13    -0.499971369912E+03    0.88531E-04   -0.95668E-05 18666   0.231E-02    0.165E-01
DAV:  14    -0.499971139626E+03    0.23029E-03   -0.54762E-04 24840   0.489E-02    0.135E-01
DAV:  15    -0.499970899949E+03    0.23968E-03   -0.12489E-03 24417   0.717E-02    0.104E-01
DAV:  16    -0.499970897037E+03    0.29121E-05   -0.12508E-04 19188   0.294E-02    0.909E-02
DAV:  17    -0.499970851962E+03    0.45075E-04   -0.35449E-04 24795   0.417E-02    0.573E-02
DAV:  18    -0.499970858844E+03   -0.68820E-05   -0.42458E-04 24453   0.452E-02    0.534E-02
DAV:  19    -0.499970873878E+03   -0.15035E-04   -0.35329E-05 13365   0.207E-02    0.462E-02
DAV:  20    -0.499970873242E+03    0.63627E-06   -0.52245E-05 12942   0.192E-02
   9 F= -.49997087E+03 E0= -.49997791E+03  d E =-.279821E-02  mag=   111.0928
 curvature:  -1.97 expect dE=-0.808E-03 dE for cont linesearch -0.874E-05
 ZBRENT: extrapolating
 opt :   2.8246  next Energy=  -499.970881 (dE=-0.281E-02)
 bond charge predicted
       N       E                     dE             d eps       ncg     rms          rms(c)
DAV:   1    -0.499970634955E+03    0.23892E-03   -0.18908E-02 17640   0.367E-01    0.826E-02
DAV:   2    -0.499970851798E+03   -0.21684E-03   -0.20680E-03 15498   0.784E-02    0.528E-02
DAV:   3    -0.499970949234E+03   -0.97436E-04   -0.25878E-04 11286   0.812E-02    0.120E-01
DAV:   4    -0.499970861342E+03    0.87892E-04   -0.20883E-04 10350   0.748E-02    0.412E-02
DAV:   5    -0.499970880906E+03   -0.19564E-04   -0.13275E-05 10170   0.202E-02    0.341E-02
DAV:   6    -0.499970886643E+03   -0.57363E-05   -0.11878E-05  8901   0.214E-02
  10 F= -.49997089E+03 E0= -.49997793E+03  d E =-.281161E-02  mag=   111.0930
 curvature:  -1.68 expect dE=-0.723E-03 dE for cont linesearch -0.869E-07
 trial: gam= 0.14286 g(F)=  0.429E-03 g(S)=  0.000E+00 ort =-0.118E-04 (trialstep = 0.181E+01)
 search vector abs. value=  0.481E-03
 bond charge predicted
       N       E                     dE             d eps       ncg     rms          rms(c)
DAV:   1    -0.499967894023E+03    0.29869E-02   -0.35422E-01 14760   0.143E+00    0.356E-01
DAV:   2    -0.499970626481E+03   -0.27325E-02   -0.23327E-02 15264   0.356E-01    0.277E-01
DAV:   3    -0.499973607393E+03   -0.29809E-02   -0.84855E-03 26766   0.464E-01    0.663E-01
DAV:   4    -0.499971030871E+03    0.25765E-02   -0.86788E-03 26766   0.446E-01    0.227E-01
DAV:   5    -0.499971409623E+03   -0.37875E-03   -0.51729E-04 23850   0.112E-01    0.159E-01
DAV:   6    -0.499971540867E+03   -0.13124E-03   -0.46693E-04 24453   0.127E-01    0.103E-01
DAV:   7    -0.499971493989E+03    0.46878E-04   -0.17927E-04 19098   0.734E-02    0.500E-02
DAV:   8    -0.499971497051E+03   -0.30620E-05   -0.21545E-05 10278   0.168E-02
  11 F= -.49997150E+03 E0= -.49997858E+03  d E =-.610408E-03  mag=   111.0975
 trial-energy change:   -0.000610  1 .order   -0.000644   -0.000775   -0.000514
 step:   5.3827(harm=  5.3827)  dis= 0.01415  next Energy=  -499.972037 (dE=-0.115E-02)
 bond charge predicted
       N       E                     dE             d eps       ncg     rms          rms(c)
DAV:   1    -0.499957684344E+03    0.13810E-01   -0.13754E+00 14751   0.282E+00    0.702E-01
DAV:   2    -0.499968271546E+03   -0.10587E-01   -0.90553E-02 15246   0.701E-01    0.543E-01
DAV:   3    -0.499977045699E+03   -0.87742E-02   -0.24010E-02 26928   0.780E-01    0.113E+00
DAV:   4    -0.499970169489E+03    0.68762E-02   -0.27483E-02 27243   0.795E-01    0.484E-01
DAV:   5    -0.499971274866E+03   -0.11054E-02   -0.20856E-03 26145   0.227E-01    0.333E-01
DAV:   6    -0.499971753370E+03   -0.47850E-03   -0.18604E-03 24786   0.249E-01    0.186E-01
DAV:   7    -0.499971631511E+03    0.12186E-03   -0.59159E-04 22689   0.128E-01    0.114E-01
DAV:   8    -0.499971626571E+03    0.49400E-05   -0.88521E-05 17145   0.311E-02
  12 F= -.49997163E+03 E0= -.49997879E+03  d E =-.739928E-03  mag=   111.1069
 curvature:  -3.03 expect dE=-0.802E-03 dE for cont linesearch -0.158E-04
 trial: gam= 0.78436 g(F)=  0.265E-03 g(S)=  0.000E+00 ort =-0.501E-04 (trialstep = 0.252E+01)
 search vector abs. value=  0.482E-03
 bond charge predicted
       N       E                     dE             d eps       ncg     rms          rms(c)
DAV:   1    -0.499963433161E+03    0.81983E-02   -0.74964E-01 15111   0.207E+00    0.532E-01
DAV:   2    -0.499969990541E+03   -0.65574E-02   -0.57139E-02 15336   0.523E-01    0.426E-01
DAV:   3    -0.499976860084E+03   -0.68695E-02   -0.20974E-02 26937   0.720E-01    0.103E+00
DAV:   4    -0.499970647951E+03    0.62121E-02   -0.19282E-02 27171   0.664E-01    0.325E-01
DAV:   5    -0.499971753610E+03   -0.11057E-02   -0.16582E-03 24930   0.201E-01    0.234E-01
DAV:   6    -0.499971735782E+03    0.17828E-04   -0.65541E-04 23643   0.152E-01    0.147E-01
DAV:   7    -0.499971720628E+03    0.15154E-04   -0.19695E-04 21663   0.730E-02    0.113E-01
DAV:   8    -0.499971703232E+03    0.17396E-04   -0.43486E-05 11880   0.380E-02    0.996E-02
DAV:   9    -0.499971698757E+03    0.44748E-05   -0.57853E-05 15201   0.205E-02
  13 F= -.49997170E+03 E0= -.49997895E+03  d E =-.721862E-04  mag=   111.1248
 trial-energy change:   -0.000072  1 .order   -0.000303   -0.000568   -0.000038
 step:   2.7000(harm=  2.7000)  dis= 0.00508  next Energy=  -499.971931 (dE=-0.304E-03)
 bond charge predicted
       N       E                     dE             d eps       ncg     rms          rms(c)
DAV:   1    -0.499971637274E+03    0.65958E-04   -0.39542E-03 15408   0.164E-01    0.808E-02
DAV:   2    -0.499971797537E+03   -0.16026E-03   -0.69726E-04 22212   0.966E-02    0.152E-01
DAV:   3    -0.499971675775E+03    0.12176E-03   -0.44300E-04 18558   0.107E-01    0.851E-02
DAV:   4    -0.499971684362E+03   -0.85877E-05   -0.25351E-05 11754   0.194E-02
  14 F= -.49997168E+03 E0= -.49997896E+03  d E =-.577917E-04  mag=   111.1271
 curvature:  -2.89 expect dE=-0.678E-03 dE for cont linesearch -0.840E-04
 ZBRENT: interpolating
 opt :   2.5404  next Energy=  -499.971699 (dE=-0.723E-04)
 bond charge predicted
       N       E                     dE             d eps       ncg     rms          rms(c)
DAV:   1    -0.499971679912E+03   -0.41375E-05   -0.29840E-03 15282   0.131E-01    0.795E-02
DAV:   2    -0.499971885920E+03   -0.20601E-03   -0.68074E-04 15678   0.110E-01    0.174E-01
DAV:   3    -0.499971708303E+03    0.17762E-03   -0.58478E-04 18072   0.123E-01    0.805E-02
DAV:   4    -0.499971727034E+03   -0.18731E-04   -0.33444E-05 13725   0.173E-02    0.783E-02
DAV:   5    -0.499971737754E+03   -0.10720E-04   -0.99426E-06  9252   0.668E-03    0.781E-02
DAV:   6    -0.499971718015E+03    0.19739E-04   -0.60214E-06  8604   0.915E-03    0.802E-02
DAV:   7    -0.499971764431E+03   -0.46416E-04   -0.57314E-05 11214   0.170E-02    0.832E-02
DAV:   8    -0.499971830477E+03   -0.66046E-04   -0.13257E-04 21501   0.230E-02    0.944E-02
DAV:   9    -0.499971737400E+03    0.93077E-04   -0.16915E-04 21024   0.322E-02    0.834E-02
DAV:  10    -0.499971692105E+03    0.45295E-04   -0.81243E-05 16713   0.259E-02    0.730E-02
DAV:  11    -0.499971669820E+03    0.22285E-04   -0.59442E-05 15273   0.178E-02    0.666E-02
DAV:  12    -0.499971622444E+03    0.47376E-04   -0.22787E-04 22356   0.269E-02    0.538E-02
DAV:  13    -0.499971612009E+03    0.10435E-04   -0.11722E-04 19161   0.238E-02    0.310E-02
DAV:  14    -0.499971612885E+03   -0.87620E-06   -0.78041E-05 16848   0.201E-02
  15 F= -.49997161E+03 E0= -.49997885E+03  d E =0.136854E-04  mag=   111.0901
 curvature:  -0.01 expect dE=-0.130E-05 dE for cont linesearch -0.115E-06
 ZBRENT: interpolating
 opt :   2.5228  next Energy=  -499.971699 (dE=-0.722E-04)
 bond charge predicted
       N       E                     dE             d eps       ncg     rms          rms(c)
DAV:   1    -0.499971619597E+03   -0.75879E-05   -0.68434E-05 16245   0.204E-02    0.168E-02
DAV:   2    -0.499971646290E+03   -0.26693E-04   -0.67865E-05  9261   0.418E-02    0.633E-02
DAV:   3    -0.499971617919E+03    0.28372E-04   -0.55428E-05  8847   0.400E-02    0.144E-02
DAV:   4    -0.499971621831E+03   -0.39124E-05   -0.33392E-06  8568   0.550E-03
  16 F= -.49997162E+03 E0= -.49997885E+03  d E =0.473948E-05  mag=   111.0912
 curvature:  -0.00 expect dE=-0.214E-06 dE for cont linesearch -0.136E-07
 ZBRENT: interpolating
 opt :   2.5206  next Energy=  -499.971699 (dE=-0.722E-04)
 bond charge predicted
       N       E                     dE             d eps       ncg     rms          rms(c)
DAV:   1    -0.499971622800E+03   -0.48811E-05   -0.20033E-06  7821   0.731E-03    0.112E-02
DAV:   2    -0.499971623800E+03   -0.10001E-05   -0.28804E-06  7713   0.104E-02
  17 F= -.49997162E+03 E0= -.49997885E+03  d E =0.277072E-05  mag=   111.0915
 curvature:  -0.00 expect dE=-0.430E-07 dE for cont linesearch -0.152E-08
 ZBRENT: interpolating
 opt :   2.5203  next Energy=  -499.971699 (dE=-0.722E-04)
 bond charge predicted
       N       E                     dE             d eps       ncg     rms          rms(c)
DAV:   1    -0.499971623347E+03   -0.54705E-06   -0.59524E-06  7704   0.132E-02    0.139E-02
DAV:   2    -0.499971664566E+03   -0.41219E-04   -0.10762E-04  8955   0.523E-02    0.788E-02
DAV:   3    -0.499971617638E+03    0.46928E-04   -0.96944E-05  8973   0.506E-02    0.105E-02
DAV:   4    -0.499971623128E+03   -0.54898E-05   -0.62283E-07  8595   0.382E-03
  18 F= -.49997162E+03 E0= -.49997885E+03  d E =0.344255E-05  mag=   111.0922
 curvature:  -0.00 expect dE=-0.155E-07 dE for cont linesearch -0.684E-09
 ZBRENT: interpolating
 opt :   2.5202  next Energy=  -499.971699 (dE=-0.722E-04)
 bond charge predicted
       N       E                     dE             d eps       ncg     rms          rms(c)
DAV:   1    -0.499971623552E+03   -0.59137E-05   -0.73290E-07  7767   0.307E-03    0.754E-03
DAV:   2    -0.499971623656E+03   -0.10342E-06   -0.47906E-07  7713   0.190E-03
  19 F= -.49997162E+03 E0= -.49997886E+03  d E =0.291524E-05  mag=   111.0924
 curvature:  -0.00 expect dE=-0.219E-08 dE for cont linesearch -0.130E-09
 ZBRENT: interpolating
 opt :   2.5202  next Energy=  -499.971699 (dE=-0.722E-04)
 bond charge predicted
       N       E                     dE             d eps       ncg     rms          rms(c)
DAV:   1    -0.499971624100E+03   -0.54808E-06   -0.14952E-06  7686   0.670E-03    0.110E-02
DAV:   2    -0.499971658434E+03   -0.34334E-04   -0.89881E-05  8847   0.479E-02    0.717E-02
DAV:   3    -0.499971618717E+03    0.39717E-04   -0.77855E-05  8865   0.453E-02    0.712E-03
DAV:   4    -0.499971623764E+03   -0.50471E-05   -0.41058E-07  8487   0.124E-03
  20 F= -.49997162E+03 E0= -.49997885E+03  d E =0.280716E-05  mag=   111.0931
 curvature:  -0.00 expect dE=-0.245E-09 dE for cont linesearch -0.159E-10
 ZBRENT: interpolating
 opt :   2.5202  next Energy=  -499.971699 (dE=-0.722E-04)
 bond charge predicted
       N       E                     dE             d eps       ncg     rms          rms(c)
DAV:   1    -0.499971624202E+03   -0.54852E-05   -0.33959E-07  7749   0.245E-03    0.483E-03
DAV:   2    -0.499971625524E+03   -0.13227E-05   -0.35119E-06  7794   0.101E-02
  21 F= -.49997163E+03 E0= -.49997886E+03  d E =0.104638E-05  mag=   111.0932
 curvature:  -0.00 expect dE=-0.326E-10 dE for cont linesearch -0.205E-11
 ZBRENT: interpolating
 opt :   2.5202  next Energy=  -499.971699 (dE=-0.722E-04)
 bond charge predicted
       N       E                     dE             d eps       ncg     rms          rms(c)
DAV:   1    -0.499971623761E+03    0.44079E-06   -0.27865E-06  7731   0.869E-03    0.434E-03
DAV:   2    -0.499971624230E+03   -0.46874E-06   -0.21767E-07  7443   0.916E-04
  22 F= -.49997162E+03 E0= -.49997886E+03  d E =0.234108E-05  mag=   111.0933
 curvature:  -0.00 expect dE=-0.504E-11 dE for cont linesearch -0.320E-12
 ZBRENT:  accuracy reached
 opt :   0.0000  next Energy=     0.000000 (dE= 0.500E+03)
 bond charge predicted
       N       E                     dE             d eps       ncg     rms          rms(c)
DAV:   1    -0.499963358137E+03    0.82656E-02   -0.75069E-01 15129   0.206E+00    0.522E-01
DAV:   2    -0.499969700555E+03   -0.63424E-02   -0.55780E-02 15300   0.506E-01    0.384E-01
DAV:   3    -0.499971391160E+03   -0.16906E-02   -0.36973E-03 25938   0.271E-01    0.464E-01
DAV:   4    -0.499971536857E+03   -0.14570E-03   -0.84144E-03 26775   0.448E-01    0.454E-01
DAV:   5    -0.499971533477E+03    0.33799E-05   -0.29762E-03 26037   0.258E-01    0.163E-01
DAV:   6    -0.499971625744E+03   -0.92267E-04   -0.49896E-04 24138   0.123E-01    0.103E-01
DAV:   7    -0.499971585941E+03    0.39803E-04   -0.19808E-04 21420   0.830E-02    0.631E-02
DAV:   8    -0.499971585396E+03    0.54511E-06   -0.27379E-05 11358   0.173E-02
  23 F= -.49997159E+03 E0= -.49997874E+03  d E =0.411749E-04  mag=   111.0945
 curvature:   0.00 expect dE= 0.104-321 dE for cont linesearch  0.000E+00
 trial: gam= 0.28165 g(F)=  0.320E-03 g(S)=  0.000E+00 ort = 0.572E-04 (trialstep = 0.202E+01)
 search vector abs. value=  0.391E-03
 bond charge predicted
       N       E                     dE             d eps       ncg     rms          rms(c)
DAV:   1    -0.499967317673E+03    0.42683E-02   -0.40246E-01 15138   0.161E+00    0.374E-01
DAV:   2    -0.499971030305E+03   -0.37126E-02   -0.34204E-02 15300   0.405E-01    0.267E-01
DAV:   3    -0.499972589574E+03   -0.15593E-02   -0.42240E-03 26937   0.300E-01    0.476E-01
DAV:   4    -0.499971568011E+03    0.10216E-02   -0.54785E-03 26514   0.359E-01    0.252E-01
DAV:   5    -0.499971908781E+03   -0.34077E-03   -0.10965E-03 24525   0.182E-01    0.158E-01
DAV:   6    -0.499971915912E+03   -0.71310E-05   -0.38748E-04 24147   0.122E-01    0.666E-02
DAV:   7    -0.499971919746E+03   -0.38336E-05   -0.85291E-05 17037   0.430E-02
  24 F= -.49997192E+03 E0= -.49997911E+03  d E =-.334350E-03  mag=   111.0909
 trial-energy change:   -0.000334  1 .order   -0.000383   -0.000678   -0.000088
 step:   2.3175(harm=  2.3175)  dis= 0.00336  next Energy=  -499.971975 (dE=-0.390E-03)
 reached required accuracy - stopping structural energy minimisation
