  62  62   0   0
  0.2762677E+02  0.8509700E-09  0.8539300E-09  0.2357140E-08  0.5000000E-15
  1.000000000000000E-004
  CAR 
 INCAR-For-OPT                           
      5.20731436    -45.78407867  301      0.76781791      1.00000000
    -45.784  0.0000E+00  0.0000E+00  0.0000E+00  0.0000E+00
    -45.614  0.0000E+00  0.0000E+00  0.0000E+00  0.0000E+00
    -45.444  0.0000E+00  0.0000E+00  0.0000E+00  0.0000E+00
    -45.274  0.0000E+00  0.0000E+00  0.0000E+00  0.0000E+00
    -45.104  0.0000E+00  0.0000E+00  0.0000E+00  0.0000E+00
    -44.934  0.0000E+00  0.0000E+00  0.0000E+00  0.0000E+00
    -44.764  0.0000E+00 -0.1450E-33  0.0000E+00 -0.2465E-34
    -44.594  0.0000E+00 -0.1148E-25  0.0000E+00 -0.1951E-26
    -44.424  0.0000E+00 -0.6817E-19  0.0000E+00 -0.1159E-19
    -44.254 -0.3574E-30 -0.2912E-13 -0.6075E-31 -0.4950E-14
    -44.084 -0.9764E-23 -0.9351E-09 -0.1660E-23 -0.1589E-09
    -43.914 -0.1894E-16 -0.2173E-05 -0.3219E-17 -0.3695E-06
    -43.744 -0.2940E-11 -0.3595E-03 -0.4997E-12 -0.6147E-04
    -43.574 -0.3264E-07 -0.2731E-02 -0.5549E-08 -0.5257E-03
    -43.404 -0.2610E-04  0.4371E-01 -0.4442E-05  0.6904E-02
    -43.235 -0.1320E-02  0.1643E+00 -0.2288E-03  0.3483E-01
    -43.065  0.6893E-02  0.8831E-01  0.9429E-03  0.4984E-01
    -42.895  0.7581E-01  0.5368E-01  0.1383E-01  0.5896E-01
    -42.725  0.3910E-01  0.1335E+00  0.2047E-01  0.8165E-01
    -42.555 -0.4104E-02  0.6360E-01  0.1978E-01  0.9246E-01
    -42.385  0.1728E-01  0.2154E-01  0.2271E-01  0.9612E-01
    -42.215  0.5970E-01  0.3002E-01  0.3286E-01  0.1012E+00
    -42.045  0.1142E+00  0.3926E-01  0.5227E-01  0.1079E+00
    -41.875  0.2507E+00  0.1376E-01  0.9488E-01  0.1102E+00
    -41.705  0.1399E+00 -0.1331E-02  0.1187E+00  0.1100E+00
    -41.535  0.1008E-01 -0.5731E-04  0.1204E+00  0.1100E+00
    -41.365 -0.2153E-02 -0.1069E-06  0.1200E+00  0.1100E+00
    -41.195 -0.7051E-04 -0.1344E-10  0.1200E+00  0.1100E+00
    -41.025 -0.1484E-06 -0.2875E-11  0.1200E+00  0.1100E+00
    -40.855 -0.2954E-06 -0.3089E-07  0.1200E+00  0.1100E+00
    -40.685 -0.1100E-03 -0.2272E-04  0.1200E+00  0.1100E+00
    -40.515 -0.1402E-02 -0.8581E-03  0.1197E+00  0.1099E+00
    -40.345  0.2007E-01  0.7059E-02  0.1232E+00  0.1111E+00
    -40.175  0.3682E-01  0.3024E-01  0.1294E+00  0.1162E+00
    -40.005  0.4174E-02  0.1928E-01  0.1301E+00  0.1195E+00
    -39.835 -0.7052E-03  0.2132E-02  0.1300E+00  0.1198E+00
    -39.665 -0.1515E-04  0.1376E-01  0.1300E+00  0.1222E+00
    -39.495 -0.1774E-07  0.4305E-01  0.1300E+00  0.1295E+00
    -39.325 -0.1406E-11  0.3804E-02  0.1300E+00  0.1301E+00
    -39.155 -0.8709E-17 -0.7671E-03  0.1300E+00  0.1300E+00
    -38.985  0.0000E+00 -0.1079E-04  0.1300E+00  0.1300E+00
    -38.815  0.0000E+00 -0.9344E-08  0.1300E+00  0.1300E+00
    -38.645  0.0000E+00 -0.5769E-12  0.1300E+00  0.1300E+00
    -38.475  0.0000E+00 -0.4355E-17  0.1300E+00  0.1300E+00
    -38.305  0.0000E+00  0.0000E+00  0.1300E+00  0.1300E+00
    -38.135  0.0000E+00  0.0000E+00  0.1300E+00  0.1300E+00
    -37.965  0.0000E+00  0.0000E+00  0.1300E+00  0.1300E+00
    -37.795  0.0000E+00  0.0000E+00  0.1300E+00  0.1300E+00
    -37.625  0.0000E+00  0.0000E+00  0.1300E+00  0.1300E+00
    -37.455  0.0000E+00  0.0000E+00  0.1300E+00  0.1300E+00
    -37.286  0.0000E+00  0.0000E+00  0.1300E+00  0.1300E+00
    -37.116  0.0000E+00  0.0000E+00  0.1300E+00  0.1300E+00
    -36.946  0.0000E+00  0.0000E+00  0.1300E+00  0.1300E+00
    -36.776  0.0000E+00  0.0000E+00  0.1300E+00  0.1300E+00
    -36.606  0.0000E+00  0.0000E+00  0.1300E+00  0.1300E+00
    -36.436  0.0000E+00  0.0000E+00  0.1300E+00  0.1300E+00
    -36.266  0.0000E+00  0.0000E+00  0.1300E+00  0.1300E+00
    -36.096  0.0000E+00  0.0000E+00  0.1300E+00  0.1300E+00
    -35.926  0.0000E+00  0.0000E+00  0.1300E+00  0.1300E+00
    -35.756  0.0000E+00  0.0000E+00  0.1300E+00  0.1300E+00
    -35.586  0.0000E+00  0.0000E+00  0.1300E+00  0.1300E+00
    -35.416  0.0000E+00  0.0000E+00  0.1300E+00  0.1300E+00
    -35.246  0.0000E+00  0.0000E+00  0.1300E+00  0.1300E+00
    -35.076  0.0000E+00  0.0000E+00  0.1300E+00  0.1300E+00
    -34.906  0.0000E+00  0.0000E+00  0.1300E+00  0.1300E+00
    -34.736  0.0000E+00  0.0000E+00  0.1300E+00  0.1300E+00
    -34.566  0.0000E+00  0.0000E+00  0.1300E+00  0.1300E+00
    -34.396  0.0000E+00  0.0000E+00  0.1300E+00  0.1300E+00
    -34.226  0.0000E+00  0.0000E+00  0.1300E+00  0.1300E+00
    -34.056  0.0000E+00  0.0000E+00  0.1300E+00  0.1300E+00
    -33.886  0.0000E+00  0.0000E+00  0.1300E+00  0.1300E+00
    -33.716  0.0000E+00  0.0000E+00  0.1300E+00  0.1300E+00
    -33.546  0.0000E+00  0.0000E+00  0.1300E+00  0.1300E+00
    -33.376  0.0000E+00  0.0000E+00  0.1300E+00  0.1300E+00
    -33.206  0.0000E+00  0.0000E+00  0.1300E+00  0.1300E+00
    -33.036  0.0000E+00  0.0000E+00  0.1300E+00  0.1300E+00
    -32.866  0.0000E+00  0.0000E+00  0.1300E+00  0.1300E+00
    -32.696  0.0000E+00  0.0000E+00  0.1300E+00  0.1300E+00
    -32.526  0.0000E+00  0.0000E+00  0.1300E+00  0.1300E+00
    -32.356  0.0000E+00  0.0000E+00  0.1300E+00  0.1300E+00
    -32.186  0.0000E+00  0.0000E+00  0.1300E+00  0.1300E+00
    -32.016  0.0000E+00  0.0000E+00  0.1300E+00  0.1300E+00
    -31.846  0.0000E+00  0.0000E+00  0.1300E+00  0.1300E+00
    -31.676  0.0000E+00  0.0000E+00  0.1300E+00  0.1300E+00
    -31.506  0.0000E+00  0.0000E+00  0.1300E+00  0.1300E+00
    -31.337  0.0000E+00  0.0000E+00  0.1300E+00  0.1300E+00
    -31.167  0.0000E+00  0.0000E+00  0.1300E+00  0.1300E+00
    -30.997  0.0000E+00  0.0000E+00  0.1300E+00  0.1300E+00
    -30.827  0.0000E+00  0.0000E+00  0.1300E+00  0.1300E+00
    -30.657  0.0000E+00  0.0000E+00  0.1300E+00  0.1300E+00
    -30.487  0.0000E+00  0.0000E+00  0.1300E+00  0.1300E+00
    -30.317  0.0000E+00  0.0000E+00  0.1300E+00  0.1300E+00
    -30.147  0.0000E+00  0.0000E+00  0.1300E+00  0.1300E+00
    -29.977  0.0000E+00  0.0000E+00  0.1300E+00  0.1300E+00
    -29.807  0.0000E+00  0.0000E+00  0.1300E+00  0.1300E+00
    -29.637  0.0000E+00  0.0000E+00  0.1300E+00  0.1300E+00
    -29.467  0.0000E+00  0.0000E+00  0.1300E+00  0.1300E+00
    -29.297  0.0000E+00  0.0000E+00  0.1300E+00  0.1300E+00
    -29.127  0.0000E+00  0.0000E+00  0.1300E+00  0.1300E+00
    -28.957  0.0000E+00  0.0000E+00  0.1300E+00  0.1300E+00
    -28.787  0.0000E+00  0.0000E+00  0.1300E+00  0.1300E+00
    -28.617  0.0000E+00  0.0000E+00  0.1300E+00  0.1300E+00
    -28.447  0.0000E+00  0.0000E+00  0.1300E+00  0.1300E+00
    -28.277  0.0000E+00  0.0000E+00  0.1300E+00  0.1300E+00
    -28.107  0.0000E+00  0.0000E+00  0.1300E+00  0.1300E+00
    -27.937  0.0000E+00  0.0000E+00  0.1300E+00  0.1300E+00
    -27.767  0.0000E+00  0.0000E+00  0.1300E+00  0.1300E+00
    -27.597  0.0000E+00  0.0000E+00  0.1300E+00  0.1300E+00
    -27.427  0.0000E+00  0.0000E+00  0.1300E+00  0.1300E+00
    -27.257  0.0000E+00  0.0000E+00  0.1300E+00  0.1300E+00
    -27.087  0.0000E+00  0.0000E+00  0.1300E+00  0.1300E+00
    -26.917  0.0000E+00  0.0000E+00  0.1300E+00  0.1300E+00
    -26.747  0.0000E+00  0.0000E+00  0.1300E+00  0.1300E+00
    -26.577  0.0000E+00  0.0000E+00  0.1300E+00  0.1300E+00
    -26.407  0.0000E+00  0.0000E+00  0.1300E+00  0.1300E+00
    -26.237  0.0000E+00  0.0000E+00  0.1300E+00  0.1300E+00
    -26.067  0.0000E+00  0.0000E+00  0.1300E+00  0.1300E+00
    -25.897  0.0000E+00  0.0000E+00  0.1300E+00  0.1300E+00
    -25.727  0.0000E+00  0.0000E+00  0.1300E+00  0.1300E+00
    -25.557  0.0000E+00  0.0000E+00  0.1300E+00  0.1300E+00
    -25.388  0.0000E+00  0.0000E+00  0.1300E+00  0.1300E+00
    -25.218  0.0000E+00  0.0000E+00  0.1300E+00  0.1300E+00
    -25.048  0.0000E+00  0.0000E+00  0.1300E+00  0.1300E+00
    -24.878  0.0000E+00  0.0000E+00  0.1300E+00  0.1300E+00
    -24.708  0.0000E+00  0.0000E+00  0.1300E+00  0.1300E+00
    -24.538  0.0000E+00  0.0000E+00  0.1300E+00  0.1300E+00
    -24.368  0.0000E+00  0.0000E+00  0.1300E+00  0.1300E+00
    -24.198  0.0000E+00  0.0000E+00  0.1300E+00  0.1300E+00
    -24.028  0.0000E+00  0.0000E+00  0.1300E+00  0.1300E+00
    -23.858  0.0000E+00  0.0000E+00  0.1300E+00  0.1300E+00
    -23.688  0.0000E+00  0.0000E+00  0.1300E+00  0.1300E+00
    -23.518  0.0000E+00  0.0000E+00  0.1300E+00  0.1300E+00
    -23.348  0.0000E+00  0.0000E+00  0.1300E+00  0.1300E+00
    -23.178  0.0000E+00  0.0000E+00  0.1300E+00  0.1300E+00
    -23.008  0.0000E+00  0.0000E+00  0.1300E+00  0.1300E+00
    -22.838  0.0000E+00  0.0000E+00  0.1300E+00  0.1300E+00
    -22.668  0.0000E+00  0.0000E+00  0.1300E+00  0.1300E+00
    -22.498  0.0000E+00  0.0000E+00  0.1300E+00  0.1300E+00
    -22.328  0.0000E+00  0.0000E+00  0.1300E+00  0.1300E+00
    -22.158  0.0000E+00  0.0000E+00  0.1300E+00  0.1300E+00
    -21.988  0.0000E+00  0.0000E+00  0.1300E+00  0.1300E+00
    -21.818  0.0000E+00  0.0000E+00  0.1300E+00  0.1300E+00
    -21.648  0.0000E+00  0.0000E+00  0.1300E+00  0.1300E+00
    -21.478  0.0000E+00  0.0000E+00  0.1300E+00  0.1300E+00
    -21.308  0.0000E+00  0.0000E+00  0.1300E+00  0.1300E+00
    -21.138  0.0000E+00  0.0000E+00  0.1300E+00  0.1300E+00
    -20.968  0.0000E+00  0.0000E+00  0.1300E+00  0.1300E+00
    -20.798  0.0000E+00  0.0000E+00  0.1300E+00  0.1300E+00
    -20.628  0.0000E+00  0.0000E+00  0.1300E+00  0.1300E+00
    -20.458  0.0000E+00  0.0000E+00  0.1300E+00  0.1300E+00
    -20.288  0.0000E+00  0.0000E+00  0.1300E+00  0.1300E+00
    -20.118  0.0000E+00  0.0000E+00  0.1300E+00  0.1300E+00
    -19.948  0.0000E+00  0.0000E+00  0.1300E+00  0.1300E+00
    -19.778  0.0000E+00  0.0000E+00  0.1300E+00  0.1300E+00
    -19.608  0.0000E+00  0.0000E+00  0.1300E+00  0.1300E+00
    -19.439  0.0000E+00  0.0000E+00  0.1300E+00  0.1300E+00
    -19.269  0.0000E+00  0.0000E+00  0.1300E+00  0.1300E+00
    -19.099  0.0000E+00  0.0000E+00  0.1300E+00  0.1300E+00
    -18.929  0.0000E+00  0.0000E+00  0.1300E+00  0.1300E+00
    -18.759  0.0000E+00  0.0000E+00  0.1300E+00  0.1300E+00
    -18.589  0.0000E+00  0.0000E+00  0.1300E+00  0.1300E+00
    -18.419  0.0000E+00  0.0000E+00  0.1300E+00  0.1300E+00
    -18.249  0.0000E+00  0.0000E+00  0.1300E+00  0.1300E+00
    -18.079  0.0000E+00  0.0000E+00  0.1300E+00  0.1300E+00
    -17.909  0.0000E+00  0.0000E+00  0.1300E+00  0.1300E+00
    -17.739  0.0000E+00  0.0000E+00  0.1300E+00  0.1300E+00
    -17.569  0.0000E+00  0.0000E+00  0.1300E+00  0.1300E+00
    -17.399  0.0000E+00  0.0000E+00  0.1300E+00  0.1300E+00
    -17.229  0.0000E+00  0.0000E+00  0.1300E+00  0.1300E+00
    -17.059  0.0000E+00  0.0000E+00  0.1300E+00  0.1300E+00
    -16.889  0.0000E+00  0.0000E+00  0.1300E+00  0.1300E+00
    -16.719  0.0000E+00  0.0000E+00  0.1300E+00  0.1300E+00
    -16.549  0.0000E+00  0.0000E+00  0.1300E+00  0.1300E+00
    -16.379  0.0000E+00  0.0000E+00  0.1300E+00  0.1300E+00
    -16.209  0.0000E+00  0.0000E+00  0.1300E+00  0.1300E+00
    -16.039  0.0000E+00  0.0000E+00  0.1300E+00  0.1300E+00
    -15.869  0.0000E+00  0.0000E+00  0.1300E+00  0.1300E+00
    -15.699  0.0000E+00  0.0000E+00  0.1300E+00  0.1300E+00
    -15.529  0.0000E+00  0.0000E+00  0.1300E+00  0.1300E+00
    -15.359  0.0000E+00  0.0000E+00  0.1300E+00  0.1300E+00
    -15.189  0.0000E+00  0.0000E+00  0.1300E+00  0.1300E+00
    -15.019  0.0000E+00  0.0000E+00  0.1300E+00  0.1300E+00
    -14.849  0.0000E+00  0.0000E+00  0.1300E+00  0.1300E+00
    -14.679  0.0000E+00  0.0000E+00  0.1300E+00  0.1300E+00
    -14.509  0.0000E+00  0.0000E+00  0.1300E+00  0.1300E+00
    -14.339  0.0000E+00  0.0000E+00  0.1300E+00  0.1300E+00
    -14.169  0.0000E+00  0.0000E+00  0.1300E+00  0.1300E+00
    -13.999  0.0000E+00  0.0000E+00  0.1300E+00  0.1300E+00
    -13.829  0.0000E+00  0.0000E+00  0.1300E+00  0.1300E+00
    -13.660  0.0000E+00  0.0000E+00  0.1300E+00  0.1300E+00
    -13.490  0.0000E+00  0.0000E+00  0.1300E+00  0.1300E+00
    -13.320  0.0000E+00  0.0000E+00  0.1300E+00  0.1300E+00
    -13.150  0.0000E+00  0.0000E+00  0.1300E+00  0.1300E+00
    -12.980  0.0000E+00  0.0000E+00  0.1300E+00  0.1300E+00
    -12.810  0.0000E+00  0.0000E+00  0.1300E+00  0.1300E+00
    -12.640  0.0000E+00  0.0000E+00  0.1300E+00  0.1300E+00
    -12.470  0.0000E+00  0.0000E+00  0.1300E+00  0.1300E+00
    -12.300  0.0000E+00  0.0000E+00  0.1300E+00  0.1300E+00
    -12.130  0.0000E+00  0.0000E+00  0.1300E+00  0.1300E+00
    -11.960  0.0000E+00  0.0000E+00  0.1300E+00  0.1300E+00
    -11.790  0.0000E+00  0.0000E+00  0.1300E+00  0.1300E+00
    -11.620  0.0000E+00  0.0000E+00  0.1300E+00  0.1300E+00
    -11.450  0.0000E+00  0.0000E+00  0.1300E+00  0.1300E+00
    -11.280  0.0000E+00  0.0000E+00  0.1300E+00  0.1300E+00
    -11.110  0.0000E+00  0.0000E+00  0.1300E+00  0.1300E+00
    -10.940  0.0000E+00  0.0000E+00  0.1300E+00  0.1300E+00
    -10.770  0.0000E+00  0.0000E+00  0.1300E+00  0.1300E+00
    -10.600  0.0000E+00  0.0000E+00  0.1300E+00  0.1300E+00
    -10.430  0.0000E+00  0.0000E+00  0.1300E+00  0.1300E+00
    -10.260  0.0000E+00  0.0000E+00  0.1300E+00  0.1300E+00
    -10.090  0.0000E+00  0.0000E+00  0.1300E+00  0.1300E+00
     -9.920  0.0000E+00  0.0000E+00  0.1300E+00  0.1300E+00
     -9.750  0.0000E+00  0.0000E+00  0.1300E+00  0.1300E+00
     -9.580  0.0000E+00  0.0000E+00  0.1300E+00  0.1300E+00
     -9.410  0.0000E+00  0.0000E+00  0.1300E+00  0.1300E+00
     -9.240  0.0000E+00  0.0000E+00  0.1300E+00  0.1300E+00
     -9.070  0.0000E+00  0.0000E+00  0.1300E+00  0.1300E+00
     -8.900  0.0000E+00  0.0000E+00  0.1300E+00  0.1300E+00
     -8.730 -0.2931E-36  0.0000E+00  0.1300E+00  0.1300E+00
     -8.560 -0.3638E-28 -0.1136E-33  0.1300E+00  0.1300E+00
     -8.390 -0.3388E-21 -0.6400E-26  0.1300E+00  0.1300E+00
     -8.220 -0.2270E-15 -0.2701E-19  0.1300E+00  0.1300E+00
     -8.050 -0.1132E-10 -0.8135E-14  0.1300E+00  0.1300E+00
     -7.880 -0.3947E-07 -0.1812E-09  0.1300E+00  0.1300E+00
     -7.711 -0.8712E-05 -0.2763E-06  0.1300E+00  0.1300E+00
     -7.541 -0.7113E-04 -0.2496E-04  0.1300E+00  0.1300E+00
     -7.371  0.9669E-03  0.3533E-06  0.1302E+00  0.1300E+00
     -7.201  0.4962E-02  0.1937E-02  0.1310E+00  0.1303E+00
     -7.031  0.4747E-02  0.5759E-02  0.1318E+00  0.1313E+00
     -6.861  0.2628E-02  0.3359E-02  0.1322E+00  0.1319E+00
     -6.691  0.8975E-02  0.3991E-02  0.1338E+00  0.1326E+00
     -6.521  0.3602E-02  0.9164E-02  0.1344E+00  0.1341E+00
     -6.351  0.3641E-02  0.1601E-02  0.1350E+00  0.1344E+00
     -6.181  0.1254E-01  0.4747E-02  0.1371E+00  0.1352E+00
     -6.011  0.1273E-01  0.1326E-01  0.1393E+00  0.1374E+00
     -5.841  0.9511E-02  0.1198E-01  0.1409E+00  0.1395E+00
     -5.671  0.1181E-01  0.8000E-02  0.1429E+00  0.1408E+00
     -5.501  0.6242E-02  0.1350E-01  0.1440E+00  0.1431E+00
     -5.331  0.1329E-01  0.4456E-02  0.1462E+00  0.1439E+00
     -5.161  0.2013E-01  0.1021E-01  0.1497E+00  0.1456E+00
     -4.991  0.1408E-01  0.2126E-01  0.1521E+00  0.1492E+00
     -4.821  0.1851E-01  0.1066E-01  0.1552E+00  0.1511E+00
     -4.651  0.2098E-01  0.1685E-01  0.1588E+00  0.1539E+00
     -4.481  0.2742E-01  0.1181E-01  0.1634E+00  0.1559E+00
     -4.311  0.3171E-01  0.2013E-01  0.1688E+00  0.1593E+00
     -4.141  0.5420E-01  0.2880E-01  0.1780E+00  0.1642E+00
     -3.971  0.7765E-01  0.2001E-01  0.1912E+00  0.1676E+00
     -3.801  0.1138E+00  0.2468E-01  0.2106E+00  0.1718E+00
     -3.631  0.1216E+00  0.2058E-01  0.2312E+00  0.1753E+00
     -3.461  0.1436E+00  0.3403E-01  0.2556E+00  0.1811E+00
     -3.291  0.1818E+00  0.4568E-01  0.2865E+00  0.1889E+00
     -3.121  0.1517E+00  0.6249E-01  0.3123E+00  0.1995E+00
     -2.951  0.1428E+00  0.7332E-01  0.3366E+00  0.2120E+00
     -2.781  0.1799E+00  0.7177E-01  0.3672E+00  0.2242E+00
     -2.611  0.2570E+00  0.6556E-01  0.4109E+00  0.2353E+00
     -2.441  0.2447E+00  0.9402E-01  0.4525E+00  0.2513E+00
     -2.271  0.2389E+00  0.1101E+00  0.4931E+00  0.2700E+00
     -2.101  0.2382E+00  0.1138E+00  0.5336E+00  0.2894E+00
     -1.931  0.2329E+00  0.1283E+00  0.5731E+00  0.3112E+00
     -1.762  0.2323E+00  0.1195E+00  0.6126E+00  0.3315E+00
     -1.592  0.2267E+00  0.1117E+00  0.6512E+00  0.3505E+00
     -1.422  0.2030E+00  0.1372E+00  0.6857E+00  0.3738E+00
     -1.252  0.1715E+00  0.1615E+00  0.7148E+00  0.4012E+00
     -1.082  0.1438E+00  0.1796E+00  0.7393E+00  0.4317E+00
     -0.912  0.1784E+00  0.1966E+00  0.7696E+00  0.4652E+00
     -0.742  0.2303E+00  0.2037E+00  0.8087E+00  0.4998E+00
     -0.572  0.2982E+00  0.2118E+00  0.8594E+00  0.5358E+00
     -0.402  0.3228E+00  0.2079E+00  0.9143E+00  0.5711E+00
     -0.232  0.2604E+00  0.1878E+00  0.9585E+00  0.6030E+00
     -0.062  0.1904E+00  0.1680E+00  0.9909E+00  0.6316E+00
      0.108  0.1482E+00  0.1386E+00  0.1016E+01  0.6552E+00
      0.278  0.1473E+00  0.1077E+00  0.1041E+01  0.6735E+00
      0.448  0.1400E+00  0.1019E+00  0.1065E+01  0.6908E+00
      0.618  0.1108E+00  0.1186E+00  0.1084E+01  0.7109E+00
      0.788  0.9809E-01  0.1160E+00  0.1100E+01  0.7307E+00
      0.958  0.9364E-01  0.1463E+00  0.1116E+01  0.7555E+00
      1.128  0.9193E-01  0.1666E+00  0.1132E+01  0.7838E+00
      1.298  0.9509E-01  0.1692E+00  0.1148E+01  0.8126E+00
      1.468  0.9616E-01  0.1875E+00  0.1164E+01  0.8445E+00
      1.638  0.1171E+00  0.2256E+00  0.1184E+01  0.8828E+00
      1.808  0.8633E-01  0.2622E+00  0.1199E+01  0.9274E+00
      1.978  0.6986E-02  0.3007E+00  0.1200E+01  0.9785E+00
      2.148 -0.1524E-02  0.3001E+00  0.1200E+01  0.1030E+01
      2.318 -0.2787E-04  0.3171E+00  0.1200E+01  0.1083E+01
      2.488 -0.3177E-07  0.3195E+00  0.1200E+01  0.1138E+01
      2.658 -0.2655E-11  0.2235E+00  0.1200E+01  0.1176E+01
      2.828 -0.1551E-16  0.1259E+00  0.1200E+01  0.1197E+01
      2.998  0.0000E+00  0.1939E-01  0.1200E+01  0.1200E+01
      3.168  0.0000E+00 -0.2238E-02  0.1200E+01  0.1200E+01
      3.338  0.0000E+00 -0.1413E-03  0.1200E+01  0.1200E+01
      3.508  0.0000E+00 -0.5770E-06  0.1200E+01  0.1200E+01
      3.678  0.0000E+00 -0.1859E-09  0.1200E+01  0.1200E+01
      3.848  0.0000E+00 -0.4695E-14  0.1200E+01  0.1200E+01
      4.018  0.0000E+00  0.0000E+00  0.1200E+01  0.1200E+01
      4.187  0.0000E+00  0.0000E+00  0.1200E+01  0.1200E+01
      4.357  0.0000E+00  0.0000E+00  0.1200E+01  0.1200E+01
      4.527  0.0000E+00  0.0000E+00  0.1200E+01  0.1200E+01
      4.697  0.0000E+00  0.0000E+00  0.1200E+01  0.1200E+01
      4.867  0.0000E+00  0.0000E+00  0.1200E+01  0.1200E+01
      5.037  0.0000E+00  0.0000E+00  0.1200E+01  0.1200E+01
      5.207  0.0000E+00  0.0000E+00  0.1200E+01  0.1200E+01
