INCAR-For-OPT                           
           1
     8.509700    0.000000    0.000000
    -0.003726    8.539299    0.000000
     0.000000    0.000000   23.571400
   Fe   Cr
    49    13
Direct configuration=     1
   0.83310000  0.49871000  0.06001000
   0.83472000  0.83192000  0.06027000
   0.00081000  0.66425000  0.00034000
   0.16255722  0.83083068  0.30025583
   0.66409129  0.33076924  0.35910156
   0.66559000  0.33138000  0.00044000
   0.49968000  0.83322000  0.06046000
   0.66721000  0.33321000  0.24067000
   0.50058000  0.49950000  0.18024000
   0.33595000  0.33196000  0.11912000
   0.33462000  0.33376000  0.24059000
   0.50197467  0.50135019  0.30137089
   0.00055000  0.33190000  0.12006000
   0.16752000  0.49945000  0.18065000
   0.00021000  0.33145000  0.00038000
   0.33510000  0.33170000  0.00029000
   0.00578323  0.33306938  0.36087778
   0.00077000  0.99959000  0.12036000
   0.16814000  0.16634000  0.18048000
   0.33405000  0.66593000  0.12095000
   0.50078000  0.83242000  0.18121000
   0.99462486  0.66558141  0.35819095
   0.99982000  0.33359000  0.24030000
   0.00025000  0.66569000  0.12051000
   0.16581000  0.83217000  0.18114000
   0.66566000  0.33123000  0.11970000
   0.82843235  0.83301874  0.30317261
   0.16782520  0.50007496  0.30216548
   0.16806269  0.16625316  0.30206229
   0.00161000  0.99891000  0.00024000
   0.00929723  0.99931724  0.36058741
   0.16807000  0.16539000  0.06004000
   0.50427341  0.83133033  0.30038149
   0.83476000  0.83303000  0.18132000
   0.66715000  0.66559000  0.00000000
   0.66719000  0.66640000  0.12032000
   0.83302000  0.49937000  0.17995000
   0.16769000  0.83389000  0.06029000
   0.49857052  0.16501684  0.30260920
   0.33289000  0.99824000  0.24130000
   0.66679000  0.99914000  0.24097000
   0.33466000  0.00023000  0.12082000
   0.66746000  0.99815000  0.00001000
   0.83457364  0.16640826  0.30306707
   0.83358000  0.16456000  0.06013000
   0.66296379  0.00170222  0.36002266
   0.83364000  0.16593000  0.18062000
   0.66653000  0.99972000  0.12044000
   0.33371389  0.33344222  0.35989928
   0.33487000  0.00167000  0.00066000
   0.33139842  0.98881879  0.35407984
   0.00122000  0.00217000  0.24080000
   0.16722000  0.50179000  0.05903000
   0.50000000  0.50344000  0.05949000
   0.49861000  0.16115000  0.05868000
   0.49968000  0.16444000  0.18182000
   0.83426999  0.50799479  0.29961180
   0.99722000  0.66135000  0.24151000
   0.33419000  0.66573000  0.24040000
   0.33414000  0.65855000  0.00278000
   0.33375953  0.67535822  0.36849802
   0.66923000  0.66337000  0.24097000
Direct configuration=     2
   0.83310000  0.49871000  0.06001000
   0.83472000  0.83192000  0.06027000
   0.00081000  0.66425000  0.00034000
   0.15846656  0.82840328  0.30001692
   0.66385308  0.33071919  0.35894340
   0.66559000  0.33138000  0.00044000
   0.49968000  0.83322000  0.06046000
   0.66721000  0.33321000  0.24067000
   0.50058000  0.49950000  0.18024000
   0.33595000  0.33196000  0.11912000
   0.33462000  0.33376000  0.24059000
   0.50248254  0.50116653  0.30120663
   0.00055000  0.33190000  0.12006000
   0.16752000  0.49945000  0.18065000
   0.00021000  0.33145000  0.00038000
   0.33510000  0.33170000  0.00029000
   0.00614450  0.33258410  0.36069412
   0.00077000  0.99959000  0.12036000
   0.16814000  0.16634000  0.18048000
   0.33405000  0.66593000  0.12095000
   0.50078000  0.83242000  0.18121000
   0.99550574  0.66630092  0.35802966
   0.99982000  0.33359000  0.24030000
   0.00025000  0.66569000  0.12051000
   0.16581000  0.83217000  0.18114000
   0.66566000  0.33123000  0.11970000
   0.82865342  0.83338938  0.30306768
   0.16761867  0.49972526  0.30195023
   0.16656106  0.16875043  0.30195288
   0.00161000  0.99891000  0.00024000
   0.00924069  0.99900042  0.36055121
   0.16807000  0.16539000  0.06004000
   0.50746735  0.83003623  0.29971865
   0.83476000  0.83303000  0.18132000
   0.66715000  0.66559000  0.00000000
   0.66719000  0.66640000  0.12032000
   0.83302000  0.49937000  0.17995000
   0.16769000  0.83389000  0.06029000
   0.50021939  0.16685291  0.30252721
   0.33289000  0.99824000  0.24130000
   0.66679000  0.99914000  0.24097000
   0.33466000  0.00023000  0.12082000
   0.66746000  0.99815000  0.00001000
   0.83463596  0.16622840  0.30279052
   0.83358000  0.16456000  0.06013000
   0.66265608  0.00194587  0.35996566
   0.83364000  0.16593000  0.18062000
   0.66653000  0.99972000  0.12044000
   0.33387162  0.33318389  0.35975160
   0.33487000  0.00167000  0.00066000
   0.33169669  0.98964438  0.35561611
   0.00122000  0.00217000  0.24080000
   0.16722000  0.50179000  0.05903000
   0.50000000  0.50344000  0.05949000
   0.49861000  0.16115000  0.05868000
   0.49968000  0.16444000  0.18182000
   0.83427672  0.50764893  0.29971878
   0.99722000  0.66135000  0.24151000
   0.33419000  0.66573000  0.24040000
   0.33414000  0.65855000  0.00278000
   0.33367525  0.67475352  0.36865962
   0.66923000  0.66337000  0.24097000
Direct configuration=     3
   0.83310000  0.49871000  0.06001000
   0.83472000  0.83192000  0.06027000
   0.00081000  0.66425000  0.00034000
   0.15496151  0.82632338  0.29981221
   0.66364897  0.33067631  0.35880789
   0.66559000  0.33138000  0.00044000
   0.49968000  0.83322000  0.06046000
   0.66721000  0.33321000  0.24067000
   0.50058000  0.49950000  0.18024000
   0.33595000  0.33196000  0.11912000
   0.33462000  0.33376000  0.24059000
   0.50291771  0.50100917  0.30106588
   0.00055000  0.33190000  0.12006000
   0.16752000  0.49945000  0.18065000
   0.00021000  0.33145000  0.00038000
   0.33510000  0.33170000  0.00029000
   0.00645406  0.33216830  0.36053675
   0.00077000  0.99959000  0.12036000
   0.16814000  0.16634000  0.18048000
   0.33405000  0.66593000  0.12095000
   0.50078000  0.83242000  0.18121000
   0.99626051  0.66691743  0.35789145
   0.99982000  0.33359000  0.24030000
   0.00025000  0.66569000  0.12051000
   0.16581000  0.83217000  0.18114000
   0.66566000  0.33123000  0.11970000
   0.82884284  0.83370695  0.30297778
   0.16744171  0.49942563  0.30176579
   0.16527440  0.17089019  0.30185913
   0.00161000  0.99891000  0.00024000
   0.00919225  0.99872896  0.36052020
   0.16807000  0.16539000  0.06004000
   0.51020406  0.82892739  0.29915070
   0.83476000  0.83303000  0.18132000
   0.66715000  0.66559000  0.00000000
   0.66719000  0.66640000  0.12032000
   0.83302000  0.49937000  0.17995000
   0.16769000  0.83389000  0.06029000
   0.50163223  0.16842613  0.30245696
   0.33289000  0.99824000  0.24130000
   0.66679000  0.99914000  0.24097000
   0.33466000  0.00023000  0.12082000
   0.66746000  0.99815000  0.00001000
   0.83468935  0.16607429  0.30255357
   0.83358000  0.16456000  0.06013000
   0.66239243  0.00215464  0.35991682
   0.83364000  0.16593000  0.18062000
   0.66653000  0.99972000  0.12044000
   0.33400676  0.33296254  0.35962507
   0.33487000  0.00167000  0.00066000
   0.33195226  0.99035178  0.35693245
   0.00122000  0.00217000  0.24080000
   0.16722000  0.50179000  0.05903000
   0.50000000  0.50344000  0.05949000
   0.49861000  0.16115000  0.05868000
   0.49968000  0.16444000  0.18182000
   0.83428249  0.50735258  0.29981044
   0.99722000  0.66135000  0.24151000
   0.33419000  0.66573000  0.24040000
   0.33414000  0.65855000  0.00278000
   0.33360303  0.67423539  0.36879809
   0.66923000  0.66337000  0.24097000
Direct configuration=     4
   0.83310000  0.49871000  0.06001000
   0.83472000  0.83192000  0.06027000
   0.00081000  0.66425000  0.00034000
   0.15473217  0.82618728  0.29979881
   0.66363562  0.33067350  0.35879902
   0.66559000  0.33138000  0.00044000
   0.49968000  0.83322000  0.06046000
   0.66721000  0.33321000  0.24067000
   0.50058000  0.49950000  0.18024000
   0.33595000  0.33196000  0.11912000
   0.33462000  0.33376000  0.24059000
   0.50294618  0.50099887  0.30105667
   0.00055000  0.33190000  0.12006000
   0.16752000  0.49945000  0.18065000
   0.00021000  0.33145000  0.00038000
   0.33510000  0.33170000  0.00029000
   0.00647431  0.33214109  0.36052645
   0.00077000  0.99959000  0.12036000
   0.16814000  0.16634000  0.18048000
   0.33405000  0.66593000  0.12095000
   0.50078000  0.83242000  0.18121000
   0.99630989  0.66695777  0.35788241
   0.99982000  0.33359000  0.24030000
   0.00025000  0.66569000  0.12051000
   0.16581000  0.83217000  0.18114000
   0.66566000  0.33123000  0.11970000
   0.82885523  0.83372773  0.30297190
   0.16743013  0.49940602  0.30175373
   0.16519021  0.17103020  0.30185300
   0.00161000  0.99891000  0.00024000
   0.00918908  0.99871119  0.36051817
   0.16807000  0.16539000  0.06004000
   0.51038313  0.82885483  0.29911354
   0.83476000  0.83303000  0.18132000
   0.66715000  0.66559000  0.00000000
   0.66719000  0.66640000  0.12032000
   0.83302000  0.49937000  0.17995000
   0.16769000  0.83389000  0.06029000
   0.50172467  0.16852907  0.30245236
   0.33289000  0.99824000  0.24130000
   0.66679000  0.99914000  0.24097000
   0.33466000  0.00023000  0.12082000
   0.66746000  0.99815000  0.00001000
   0.83469285  0.16606420  0.30253807
   0.83358000  0.16456000  0.06013000
   0.66237518  0.00216830  0.35991363
   0.83364000  0.16593000  0.18062000
   0.66653000  0.99972000  0.12044000
   0.33401561  0.33294806  0.35961679
   0.33487000  0.00167000  0.00066000
   0.33196898  0.99039807  0.35701859
   0.00122000  0.00217000  0.24080000
   0.16722000  0.50179000  0.05903000
   0.50000000  0.50344000  0.05949000
   0.49861000  0.16115000  0.05868000
   0.49968000  0.16444000  0.18182000
   0.83428287  0.50733319  0.29981644
   0.99722000  0.66135000  0.24151000
   0.33419000  0.66573000  0.24040000
   0.33414000  0.65855000  0.00278000
   0.33359830  0.67420149  0.36880715
   0.66923000  0.66337000  0.24097000
Direct configuration=     5
   0.83310000  0.49871000  0.06001000
   0.83472000  0.83192000  0.06027000
   0.00081000  0.66425000  0.00034000
   0.15479907  0.82622698  0.29980272
   0.66363951  0.33067432  0.35880161
   0.66559000  0.33138000  0.00044000
   0.49968000  0.83322000  0.06046000
   0.66721000  0.33321000  0.24067000
   0.50058000  0.49950000  0.18024000
   0.33595000  0.33196000  0.11912000
   0.33462000  0.33376000  0.24059000
   0.50293787  0.50100187  0.30105936
   0.00055000  0.33190000  0.12006000
   0.16752000  0.49945000  0.18065000
   0.00021000  0.33145000  0.00038000
   0.33510000  0.33170000  0.00029000
   0.00646841  0.33214903  0.36052945
   0.00077000  0.99959000  0.12036000
   0.16814000  0.16634000  0.18048000
   0.33405000  0.66593000  0.12095000
   0.50078000  0.83242000  0.18121000
   0.99629549  0.66694600  0.35788504
   0.99982000  0.33359000  0.24030000
   0.00025000  0.66569000  0.12051000
   0.16581000  0.83217000  0.18114000
   0.66566000  0.33123000  0.11970000
   0.82885162  0.83372167  0.30297362
   0.16743350  0.49941174  0.30175725
   0.16521477  0.17098936  0.30185478
   0.00161000  0.99891000  0.00024000
   0.00919000  0.99871638  0.36051876
   0.16807000  0.16539000  0.06004000
   0.51033089  0.82887600  0.29912438
   0.83476000  0.83303000  0.18132000
   0.66715000  0.66559000  0.00000000
   0.66719000  0.66640000  0.12032000
   0.83302000  0.49937000  0.17995000
   0.16769000  0.83389000  0.06029000
   0.50169770  0.16849904  0.30245370
   0.33289000  0.99824000  0.24130000
   0.66679000  0.99914000  0.24097000
   0.33466000  0.00023000  0.12082000
   0.66746000  0.99815000  0.00001000
   0.83469183  0.16606714  0.30254259
   0.83358000  0.16456000  0.06013000
   0.66238021  0.00216431  0.35991456
   0.83364000  0.16593000  0.18062000
   0.66653000  0.99972000  0.12044000
   0.33401303  0.33295228  0.35961921
   0.33487000  0.00167000  0.00066000
   0.33196410  0.99038457  0.35699346
   0.00122000  0.00217000  0.24080000
   0.16722000  0.50179000  0.05903000
   0.50000000  0.50344000  0.05949000
   0.49861000  0.16115000  0.05868000
   0.49968000  0.16444000  0.18182000
   0.83428276  0.50733885  0.29981469
   0.99722000  0.66135000  0.24151000
   0.33419000  0.66573000  0.24040000
   0.33414000  0.65855000  0.00278000
   0.33359968  0.67421138  0.36880451
   0.66923000  0.66337000  0.24097000
Direct configuration=     6
   0.83310000  0.49871000  0.06001000
   0.83472000  0.83192000  0.06027000
   0.00081000  0.66425000  0.00034000
   0.15475090  0.82647223  0.29977292
   0.66401866  0.33099083  0.35884117
   0.66559000  0.33138000  0.00044000
   0.49968000  0.83322000  0.06046000
   0.66721000  0.33321000  0.24067000
   0.50058000  0.49950000  0.18024000
   0.33595000  0.33196000  0.11912000
   0.33462000  0.33376000  0.24059000
   0.50299152  0.50098967  0.30090309
   0.00055000  0.33190000  0.12006000
   0.16752000  0.49945000  0.18065000
   0.00021000  0.33145000  0.00038000
   0.33510000  0.33170000  0.00029000
   0.00627495  0.33216667  0.36055082
   0.00077000  0.99959000  0.12036000
   0.16814000  0.16634000  0.18048000
   0.33405000  0.66593000  0.12095000
   0.50078000  0.83242000  0.18121000
   0.99651741  0.66684009  0.35805792
   0.99982000  0.33359000  0.24030000
   0.00025000  0.66569000  0.12051000
   0.16581000  0.83217000  0.18114000
   0.66566000  0.33123000  0.11970000
   0.82863772  0.83404046  0.30293343
   0.16757653  0.49918798  0.30161806
   0.16568609  0.17032999  0.30180201
   0.00161000  0.99891000  0.00024000
   0.00925713  0.99848680  0.36040922
   0.16807000  0.16539000  0.06004000
   0.51066157  0.82848925  0.29910191
   0.83476000  0.83303000  0.18132000
   0.66715000  0.66559000  0.00000000
   0.66719000  0.66640000  0.12032000
   0.83302000  0.49937000  0.17995000
   0.16769000  0.83389000  0.06029000
   0.50126029  0.16812007  0.30233867
   0.33289000  0.99824000  0.24130000
   0.66679000  0.99914000  0.24097000
   0.33466000  0.00023000  0.12082000
   0.66746000  0.99815000  0.00001000
   0.83459509  0.16589389  0.30244315
   0.83358000  0.16456000  0.06013000
   0.66233002  0.00238874  0.35983185
   0.83364000  0.16593000  0.18062000
   0.66653000  0.99972000  0.12044000
   0.33429548  0.33283514  0.35955209
   0.33487000  0.00167000  0.00066000
   0.33193935  0.99067151  0.35753985
   0.00122000  0.00217000  0.24080000
   0.16722000  0.50179000  0.05903000
   0.50000000  0.50344000  0.05949000
   0.49861000  0.16115000  0.05868000
   0.49968000  0.16444000  0.18182000
   0.83439767  0.50723155  0.29988259
   0.99722000  0.66135000  0.24151000
   0.33419000  0.66573000  0.24040000
   0.33414000  0.65855000  0.00278000
   0.33366765  0.67456024  0.36860875
   0.66923000  0.66337000  0.24097000
Direct configuration=     7
   0.83310000  0.49871000  0.06001000
   0.83472000  0.83192000  0.06027000
   0.00081000  0.66425000  0.00034000
   0.15467342  0.82686677  0.29972499
   0.66462858  0.33149999  0.35890480
   0.66559000  0.33138000  0.00044000
   0.49968000  0.83322000  0.06046000
   0.66721000  0.33321000  0.24067000
   0.50058000  0.49950000  0.18024000
   0.33595000  0.33196000  0.11912000
   0.33462000  0.33376000  0.24059000
   0.50307782  0.50097003  0.30065170
   0.00055000  0.33190000  0.12006000
   0.16752000  0.49945000  0.18065000
   0.00021000  0.33145000  0.00038000
   0.33510000  0.33170000  0.00029000
   0.00596374  0.33219506  0.36058521
   0.00077000  0.99959000  0.12036000
   0.16814000  0.16634000  0.18048000
   0.33405000  0.66593000  0.12095000
   0.50078000  0.83242000  0.18121000
   0.99687441  0.66666970  0.35833603
   0.99982000  0.33359000  0.24030000
   0.00025000  0.66569000  0.12051000
   0.16581000  0.83217000  0.18114000
   0.66566000  0.33123000  0.11970000
   0.82829362  0.83455330  0.30286878
   0.16780661  0.49882803  0.30139416
   0.16644431  0.16926927  0.30171710
   0.00161000  0.99891000  0.00024000
   0.00936513  0.99811749  0.36023300
   0.16807000  0.16539000  0.06004000
   0.51119354  0.82786709  0.29906578
   0.83476000  0.83303000  0.18132000
   0.66715000  0.66559000  0.00000000
   0.66719000  0.66640000  0.12032000
   0.83302000  0.49937000  0.17995000
   0.16769000  0.83389000  0.06029000
   0.50055662  0.16751042  0.30215363
   0.33289000  0.99824000  0.24130000
   0.66679000  0.99914000  0.24097000
   0.33466000  0.00023000  0.12082000
   0.66746000  0.99815000  0.00001000
   0.83443946  0.16561518  0.30228318
   0.83358000  0.16456000  0.06013000
   0.66224927  0.00274978  0.35969880
   0.83364000  0.16593000  0.18062000
   0.66653000  0.99972000  0.12044000
   0.33474985  0.33264668  0.35944411
   0.33487000  0.00167000  0.00066000
   0.33189953  0.99113311  0.35841881
   0.00122000  0.00217000  0.24080000
   0.16722000  0.50179000  0.05903000
   0.50000000  0.50344000  0.05949000
   0.49861000  0.16115000  0.05868000
   0.49968000  0.16444000  0.18182000
   0.83458253  0.50705894  0.29999183
   0.99722000  0.66135000  0.24151000
   0.33419000  0.66573000  0.24040000
   0.33414000  0.65855000  0.00278000
   0.33377699  0.67512144  0.36829383
   0.66923000  0.66337000  0.24097000
Direct configuration=     8
   0.83310000  0.49871000  0.06001000
   0.83472000  0.83192000  0.06027000
   0.00081000  0.66425000  0.00034000
   0.15500372  0.82695233  0.29972868
   0.66473490  0.33158208  0.35873536
   0.66559000  0.33138000  0.00044000
   0.49968000  0.83322000  0.06046000
   0.66721000  0.33321000  0.24067000
   0.50058000  0.49950000  0.18024000
   0.33595000  0.33196000  0.11912000
   0.33462000  0.33376000  0.24059000
   0.50319487  0.50078153  0.30063537
   0.00055000  0.33190000  0.12006000
   0.16752000  0.49945000  0.18065000
   0.00021000  0.33145000  0.00038000
   0.33510000  0.33170000  0.00029000
   0.00599466  0.33197321  0.36042302
   0.00077000  0.99959000  0.12036000
   0.16814000  0.16634000  0.18048000
   0.33405000  0.66593000  0.12095000
   0.50078000  0.83242000  0.18121000
   0.99715049  0.66667730  0.35832367
   0.99982000  0.33359000  0.24030000
   0.00025000  0.66569000  0.12051000
   0.16581000  0.83217000  0.18114000
   0.66566000  0.33123000  0.11970000
   0.82860789  0.83421419  0.30291270
   0.16774379  0.49875210  0.30145852
   0.16642290  0.16896876  0.30177157
   0.00161000  0.99891000  0.00024000
   0.00930164  0.99786838  0.36021245
   0.16807000  0.16539000  0.06004000
   0.51089651  0.82802758  0.29913059
   0.83476000  0.83303000  0.18132000
   0.66715000  0.66559000  0.00000000
   0.66719000  0.66640000  0.12032000
   0.83302000  0.49937000  0.17995000
   0.16769000  0.83389000  0.06029000
   0.50063256  0.16740876  0.30219609
   0.33289000  0.99824000  0.24130000
   0.66679000  0.99914000  0.24097000
   0.33466000  0.00023000  0.12082000
   0.66746000  0.99815000  0.00001000
   0.83452530  0.16589710  0.30228135
   0.83358000  0.16456000  0.06013000
   0.66211625  0.00303462  0.35968340
   0.83364000  0.16593000  0.18062000
   0.66653000  0.99972000  0.12044000
   0.33511710  0.33250758  0.35933764
   0.33487000  0.00167000  0.00066000
   0.33205355  0.99114594  0.35887973
   0.00122000  0.00217000  0.24080000
   0.16722000  0.50179000  0.05903000
   0.50000000  0.50344000  0.05949000
   0.49861000  0.16115000  0.05868000
   0.49968000  0.16444000  0.18182000
   0.83483789  0.50718313  0.30003142
   0.99722000  0.66135000  0.24151000
   0.33419000  0.66573000  0.24040000
   0.33414000  0.65855000  0.00278000
   0.33388949  0.67549032  0.36799202
   0.66923000  0.66337000  0.24097000
Direct configuration=     9
   0.83310000  0.49871000  0.06001000
   0.83472000  0.83192000  0.06027000
   0.00081000  0.66425000  0.00034000
   0.15524312  0.82701434  0.29973135
   0.66481195  0.33164157  0.35861254
   0.66559000  0.33138000  0.00044000
   0.49968000  0.83322000  0.06046000
   0.66721000  0.33321000  0.24067000
   0.50058000  0.49950000  0.18024000
   0.33595000  0.33196000  0.11912000
   0.33462000  0.33376000  0.24059000
   0.50327970  0.50064491  0.30062353
   0.00055000  0.33190000  0.12006000
   0.16752000  0.49945000  0.18065000
   0.00021000  0.33145000  0.00038000
   0.33510000  0.33170000  0.00029000
   0.00601707  0.33181241  0.36030547
   0.00077000  0.99959000  0.12036000
   0.16814000  0.16634000  0.18048000
   0.33405000  0.66593000  0.12095000
   0.50078000  0.83242000  0.18121000
   0.99735059  0.66668281  0.35831471
   0.99982000  0.33359000  0.24030000
   0.00025000  0.66569000  0.12051000
   0.16581000  0.83217000  0.18114000
   0.66566000  0.33123000  0.11970000
   0.82883567  0.83396841  0.30294454
   0.16769825  0.49869707  0.30150517
   0.16640737  0.16875095  0.30181106
   0.00161000  0.99891000  0.00024000
   0.00925563  0.99768782  0.36019755
   0.16807000  0.16539000  0.06004000
   0.51068123  0.82814390  0.29917756
   0.83476000  0.83303000  0.18132000
   0.66715000  0.66559000  0.00000000
   0.66719000  0.66640000  0.12032000
   0.83302000  0.49937000  0.17995000
   0.16769000  0.83389000  0.06029000
   0.50068760  0.16733508  0.30222687
   0.33289000  0.99824000  0.24130000
   0.66679000  0.99914000  0.24097000
   0.33466000  0.00023000  0.12082000
   0.66746000  0.99815000  0.00001000
   0.83458752  0.16610143  0.30228003
   0.83358000  0.16456000  0.06013000
   0.66201984  0.00324106  0.35967224
   0.83364000  0.16593000  0.18062000
   0.66653000  0.99972000  0.12044000
   0.33538328  0.33240675  0.35926046
   0.33487000  0.00167000  0.00066000
   0.33216517  0.99115523  0.35921380
   0.00122000  0.00217000  0.24080000
   0.16722000  0.50179000  0.05903000
   0.50000000  0.50344000  0.05949000
   0.49861000  0.16115000  0.05868000
   0.49968000  0.16444000  0.18182000
   0.83502298  0.50727314  0.30006013
   0.99722000  0.66135000  0.24151000
   0.33419000  0.66573000  0.24040000
   0.33414000  0.65855000  0.00278000
   0.33397102  0.67575768  0.36777327
   0.66923000  0.66337000  0.24097000
Direct configuration=    10
   0.83310000  0.49871000  0.06001000
   0.83472000  0.83192000  0.06027000
   0.00081000  0.66425000  0.00034000
   0.15527195  0.82702181  0.29973168
   0.66482123  0.33164874  0.35859775
   0.66559000  0.33138000  0.00044000
   0.49968000  0.83322000  0.06046000
   0.66721000  0.33321000  0.24067000
   0.50058000  0.49950000  0.18024000
   0.33595000  0.33196000  0.11912000
   0.33462000  0.33376000  0.24059000
   0.50328992  0.50062846  0.30062211
   0.00055000  0.33190000  0.12006000
   0.16752000  0.49945000  0.18065000
   0.00021000  0.33145000  0.00038000
   0.33510000  0.33170000  0.00029000
   0.00601977  0.33179305  0.36029131
   0.00077000  0.99959000  0.12036000
   0.16814000  0.16634000  0.18048000
   0.33405000  0.66593000  0.12095000
   0.50078000  0.83242000  0.18121000
   0.99737468  0.66668347  0.35831364
   0.99982000  0.33359000  0.24030000
   0.00025000  0.66569000  0.12051000
   0.16581000  0.83217000  0.18114000
   0.66566000  0.33123000  0.11970000
   0.82886310  0.83393880  0.30294837
   0.16769277  0.49869044  0.30151079
   0.16640550  0.16872471  0.30181581
   0.00161000  0.99891000  0.00024000
   0.00925009  0.99766608  0.36019576
   0.16807000  0.16539000  0.06004000
   0.51065530  0.82815791  0.29918322
   0.83476000  0.83303000  0.18132000
   0.66715000  0.66559000  0.00000000
   0.66719000  0.66640000  0.12032000
   0.83302000  0.49937000  0.17995000
   0.16769000  0.83389000  0.06029000
   0.50069423  0.16732620  0.30223057
   0.33289000  0.99824000  0.24130000
   0.66679000  0.99914000  0.24097000
   0.33466000  0.00023000  0.12082000
   0.66746000  0.99815000  0.00001000
   0.83459501  0.16612604  0.30227987
   0.83358000  0.16456000  0.06013000
   0.66200823  0.00326593  0.35967090
   0.83364000  0.16593000  0.18062000
   0.66653000  0.99972000  0.12044000
   0.33541534  0.33239461  0.35925117
   0.33487000  0.00167000  0.00066000
   0.33217861  0.99115635  0.35925404
   0.00122000  0.00217000  0.24080000
   0.16722000  0.50179000  0.05903000
   0.50000000  0.50344000  0.05949000
   0.49861000  0.16115000  0.05868000
   0.49968000  0.16444000  0.18182000
   0.83504527  0.50728398  0.30006358
   0.99722000  0.66135000  0.24151000
   0.33419000  0.66573000  0.24040000
   0.33414000  0.65855000  0.00278000
   0.33398084  0.67578987  0.36774692
   0.66923000  0.66337000  0.24097000
Direct configuration=    11
   0.83310000  0.49871000  0.06001000
   0.83472000  0.83192000  0.06027000
   0.00081000  0.66425000  0.00034000
   0.15546630  0.82707669  0.29967665
   0.66475805  0.33162509  0.35856205
   0.66559000  0.33138000  0.00044000
   0.49968000  0.83322000  0.06046000
   0.66721000  0.33321000  0.24067000
   0.50058000  0.49950000  0.18024000
   0.33595000  0.33196000  0.11912000
   0.33462000  0.33376000  0.24059000
   0.50335415  0.50073134  0.30062017
   0.00055000  0.33190000  0.12006000
   0.16752000  0.49945000  0.18065000
   0.00021000  0.33145000  0.00038000
   0.33510000  0.33170000  0.00029000
   0.00610726  0.33159747  0.36024900
   0.00077000  0.99959000  0.12036000
   0.16814000  0.16634000  0.18048000
   0.33405000  0.66593000  0.12095000
   0.50078000  0.83242000  0.18121000
   0.99765991  0.66678595  0.35827167
   0.99982000  0.33359000  0.24030000
   0.00025000  0.66569000  0.12051000
   0.16581000  0.83217000  0.18114000
   0.66566000  0.33123000  0.11970000
   0.82885134  0.83382479  0.30295352
   0.16778131  0.49872454  0.30153096
   0.16639893  0.16875135  0.30184689
   0.00161000  0.99891000  0.00024000
   0.00909115  0.99747133  0.36027691
   0.16807000  0.16539000  0.06004000
   0.51057412  0.82871552  0.29911497
   0.83476000  0.83303000  0.18132000
   0.66715000  0.66559000  0.00000000
   0.66719000  0.66640000  0.12032000
   0.83302000  0.49937000  0.17995000
   0.16769000  0.83389000  0.06029000
   0.50082085  0.16734329  0.30220600
   0.33289000  0.99824000  0.24130000
   0.66679000  0.99914000  0.24097000
   0.33466000  0.00023000  0.12082000
   0.66746000  0.99815000  0.00001000
   0.83465979  0.16594735  0.30224784
   0.83358000  0.16456000  0.06013000
   0.66213784  0.00330416  0.35972604
   0.83364000  0.16593000  0.18062000
   0.66653000  0.99972000  0.12044000
   0.33554356  0.33239838  0.35928141
   0.33487000  0.00167000  0.00066000
   0.33226254  0.99118725  0.35929831
   0.00122000  0.00217000  0.24080000
   0.16722000  0.50179000  0.05903000
   0.50000000  0.50344000  0.05949000
   0.49861000  0.16115000  0.05868000
   0.49968000  0.16444000  0.18182000
   0.83514005  0.50742105  0.29999622
   0.99722000  0.66135000  0.24151000
   0.33419000  0.66573000  0.24040000
   0.33414000  0.65855000  0.00278000
   0.33409708  0.67562507  0.36768033
   0.66923000  0.66337000  0.24097000
Direct configuration=    12
   0.83310000  0.49871000  0.06001000
   0.83472000  0.83192000  0.06027000
   0.00081000  0.66425000  0.00034000
   0.15584931  0.82718485  0.29956820
   0.66463352  0.33157847  0.35849170
   0.66559000  0.33138000  0.00044000
   0.49968000  0.83322000  0.06046000
   0.66721000  0.33321000  0.24067000
   0.50058000  0.49950000  0.18024000
   0.33595000  0.33196000  0.11912000
   0.33462000  0.33376000  0.24059000
   0.50348072  0.50093411  0.30061634
   0.00055000  0.33190000  0.12006000
   0.16752000  0.49945000  0.18065000
   0.00021000  0.33145000  0.00038000
   0.33510000  0.33170000  0.00029000
   0.00627968  0.33121203  0.36016562
   0.00077000  0.99959000  0.12036000
   0.16814000  0.16634000  0.18048000
   0.33405000  0.66593000  0.12095000
   0.50078000  0.83242000  0.18121000
   0.99822203  0.66698789  0.35818897
   0.99982000  0.33359000  0.24030000
   0.00025000  0.66569000  0.12051000
   0.16581000  0.83217000  0.18114000
   0.66566000  0.33123000  0.11970000
   0.82882817  0.83360008  0.30296367
   0.16795581  0.49879175  0.30157072
   0.16638597  0.16880384  0.30190813
   0.00161000  0.99891000  0.00024000
   0.00877792  0.99708753  0.36043686
   0.16807000  0.16539000  0.06004000
   0.51041412  0.82981443  0.29898046
   0.83476000  0.83303000  0.18132000
   0.66715000  0.66559000  0.00000000
   0.66719000  0.66640000  0.12032000
   0.83302000  0.49937000  0.17995000
   0.16769000  0.83389000  0.06029000
   0.50107037  0.16737698  0.30215758
   0.33289000  0.99824000  0.24130000
   0.66679000  0.99914000  0.24097000
   0.33466000  0.00023000  0.12082000
   0.66746000  0.99815000  0.00001000
   0.83478745  0.16559522  0.30218471
   0.83358000  0.16456000  0.06013000
   0.66239327  0.00337951  0.35983472
   0.83364000  0.16593000  0.18062000
   0.66653000  0.99972000  0.12044000
   0.33579624  0.33240582  0.35934102
   0.33487000  0.00167000  0.00066000
   0.33242793  0.99124815  0.35938557
   0.00122000  0.00217000  0.24080000
   0.16722000  0.50179000  0.05903000
   0.50000000  0.50344000  0.05949000
   0.49861000  0.16115000  0.05868000
   0.49968000  0.16444000  0.18182000
   0.83532683  0.50769118  0.29986348
   0.99722000  0.66135000  0.24151000
   0.33419000  0.66573000  0.24040000
   0.33414000  0.65855000  0.00278000
   0.33432617  0.67530028  0.36754909
   0.66923000  0.66337000  0.24097000
Direct configuration=    13
   0.83310000  0.49871000  0.06001000
   0.83472000  0.83192000  0.06027000
   0.00081000  0.66425000  0.00034000
   0.15603802  0.82750501  0.29957072
   0.66474405  0.33154165  0.35844277
   0.66559000  0.33138000  0.00044000
   0.49968000  0.83322000  0.06046000
   0.66721000  0.33321000  0.24067000
   0.50058000  0.49950000  0.18024000
   0.33595000  0.33196000  0.11912000
   0.33462000  0.33376000  0.24059000
   0.50368649  0.50103192  0.30051233
   0.00055000  0.33190000  0.12006000
   0.16752000  0.49945000  0.18065000
   0.00021000  0.33145000  0.00038000
   0.33510000  0.33170000  0.00029000
   0.00630513  0.33092666  0.36014342
   0.00077000  0.99959000  0.12036000
   0.16814000  0.16634000  0.18048000
   0.33405000  0.66593000  0.12095000
   0.50078000  0.83242000  0.18121000
   0.99877979  0.66715961  0.35815514
   0.99982000  0.33359000  0.24030000
   0.00025000  0.66569000  0.12051000
   0.16581000  0.83217000  0.18114000
   0.66566000  0.33123000  0.11970000
   0.82871289  0.83361176  0.30298638
   0.16809766  0.49861606  0.30151727
   0.16655995  0.16853585  0.30199034
   0.00161000  0.99891000  0.00024000
   0.00864957  0.99665080  0.36043361
   0.16807000  0.16539000  0.06004000
   0.51033550  0.83029807  0.29899238
   0.83476000  0.83303000  0.18132000
   0.66715000  0.66559000  0.00000000
   0.66719000  0.66640000  0.12032000
   0.83302000  0.49937000  0.17995000
   0.16769000  0.83389000  0.06029000
   0.50100786  0.16744093  0.30218186
   0.33289000  0.99824000  0.24130000
   0.66679000  0.99914000  0.24097000
   0.33466000  0.00023000  0.12082000
   0.66746000  0.99815000  0.00001000
   0.83482991  0.16544296  0.30221129
   0.83358000  0.16456000  0.06013000
   0.66261751  0.00347632  0.35986320
   0.83364000  0.16593000  0.18062000
   0.66653000  0.99972000  0.12044000
   0.33604623  0.33241187  0.35936495
   0.33487000  0.00167000  0.00066000
   0.33240495  0.99149795  0.35942158
   0.00122000  0.00217000  0.24080000
   0.16722000  0.50179000  0.05903000
   0.50000000  0.50344000  0.05949000
   0.49861000  0.16115000  0.05868000
   0.49968000  0.16444000  0.18182000
   0.83548998  0.50770830  0.29980888
   0.99722000  0.66135000  0.24151000
   0.33419000  0.66573000  0.24040000
   0.33414000  0.65855000  0.00278000
   0.33479699  0.67527005  0.36744614
   0.66923000  0.66337000  0.24097000
Direct configuration=    14
   0.83310000  0.49871000  0.06001000
   0.83472000  0.83192000  0.06027000
   0.00081000  0.66425000  0.00034000
   0.15605147  0.82752785  0.29957091
   0.66475193  0.33153903  0.35843928
   0.66559000  0.33138000  0.00044000
   0.49968000  0.83322000  0.06046000
   0.66721000  0.33321000  0.24067000
   0.50058000  0.49950000  0.18024000
   0.33595000  0.33196000  0.11912000
   0.33462000  0.33376000  0.24059000
   0.50370117  0.50103890  0.30050491
   0.00055000  0.33190000  0.12006000
   0.16752000  0.49945000  0.18065000
   0.00021000  0.33145000  0.00038000
   0.33510000  0.33170000  0.00029000
   0.00630694  0.33090631  0.36014184
   0.00077000  0.99959000  0.12036000
   0.16814000  0.16634000  0.18048000
   0.33405000  0.66593000  0.12095000
   0.50078000  0.83242000  0.18121000
   0.99881957  0.66717186  0.35815273
   0.99982000  0.33359000  0.24030000
   0.00025000  0.66569000  0.12051000
   0.16581000  0.83217000  0.18114000
   0.66566000  0.33123000  0.11970000
   0.82870466  0.83361259  0.30298800
   0.16810778  0.49860353  0.30151345
   0.16657235  0.16851674  0.30199620
   0.00161000  0.99891000  0.00024000
   0.00864041  0.99661965  0.36043338
   0.16807000  0.16539000  0.06004000
   0.51032989  0.83033256  0.29899323
   0.83476000  0.83303000  0.18132000
   0.66715000  0.66559000  0.00000000
   0.66719000  0.66640000  0.12032000
   0.83302000  0.49937000  0.17995000
   0.16769000  0.83389000  0.06029000
   0.50100340  0.16744549  0.30218359
   0.33289000  0.99824000  0.24130000
   0.66679000  0.99914000  0.24097000
   0.33466000  0.00023000  0.12082000
   0.66746000  0.99815000  0.00001000
   0.83483293  0.16543210  0.30221318
   0.83358000  0.16456000  0.06013000
   0.66263351  0.00348322  0.35986523
   0.83364000  0.16593000  0.18062000
   0.66653000  0.99972000  0.12044000
   0.33606406  0.33241230  0.35936665
   0.33487000  0.00167000  0.00066000
   0.33240331  0.99151576  0.35942415
   0.00122000  0.00217000  0.24080000
   0.16722000  0.50179000  0.05903000
   0.50000000  0.50344000  0.05949000
   0.49861000  0.16115000  0.05868000
   0.49968000  0.16444000  0.18182000
   0.83550162  0.50770953  0.29980498
   0.99722000  0.66135000  0.24151000
   0.33419000  0.66573000  0.24040000
   0.33414000  0.65855000  0.00278000
   0.33483057  0.67526789  0.36743880
   0.66923000  0.66337000  0.24097000
Direct configuration=    15
   0.83310000  0.49871000  0.06001000
   0.83472000  0.83192000  0.06027000
   0.00081000  0.66425000  0.00034000
   0.15603953  0.82750758  0.29957075
   0.66474493  0.33154136  0.35844237
   0.66559000  0.33138000  0.00044000
   0.49968000  0.83322000  0.06046000
   0.66721000  0.33321000  0.24067000
   0.50058000  0.49950000  0.18024000
   0.33595000  0.33196000  0.11912000
   0.33462000  0.33376000  0.24059000
   0.50368814  0.50103271  0.30051149
   0.00055000  0.33190000  0.12006000
   0.16752000  0.49945000  0.18065000
   0.00021000  0.33145000  0.00038000
   0.33510000  0.33170000  0.00029000
   0.00630533  0.33092437  0.36014324
   0.00077000  0.99959000  0.12036000
   0.16814000  0.16634000  0.18048000
   0.33405000  0.66593000  0.12095000
   0.50078000  0.83242000  0.18121000
   0.99878427  0.66716099  0.35815487
   0.99982000  0.33359000  0.24030000
   0.00025000  0.66569000  0.12051000
   0.16581000  0.83217000  0.18114000
   0.66566000  0.33123000  0.11970000
   0.82871196  0.83361185  0.30298656
   0.16809880  0.49861465  0.30151684
   0.16656134  0.16853370  0.30199100
   0.00161000  0.99891000  0.00024000
   0.00864854  0.99664729  0.36043359
   0.16807000  0.16539000  0.06004000
   0.51033487  0.83030195  0.29899247
   0.83476000  0.83303000  0.18132000
   0.66715000  0.66559000  0.00000000
   0.66719000  0.66640000  0.12032000
   0.83302000  0.49937000  0.17995000
   0.16769000  0.83389000  0.06029000
   0.50100736  0.16744145  0.30218206
   0.33289000  0.99824000  0.24130000
   0.66679000  0.99914000  0.24097000
   0.33466000  0.00023000  0.12082000
   0.66746000  0.99815000  0.00001000
   0.83483025  0.16544174  0.30221150
   0.83358000  0.16456000  0.06013000
   0.66261931  0.00347709  0.35986343
   0.83364000  0.16593000  0.18062000
   0.66653000  0.99972000  0.12044000
   0.33604824  0.33241191  0.35936514
   0.33487000  0.00167000  0.00066000
   0.33240476  0.99149995  0.35942187
   0.00122000  0.00217000  0.24080000
   0.16722000  0.50179000  0.05903000
   0.50000000  0.50344000  0.05949000
   0.49861000  0.16115000  0.05868000
   0.49968000  0.16444000  0.18182000
   0.83549129  0.50770844  0.29980844
   0.99722000  0.66135000  0.24151000
   0.33419000  0.66573000  0.24040000
   0.33414000  0.65855000  0.00278000
   0.33480077  0.67526981  0.36744531
   0.66923000  0.66337000  0.24097000
Direct configuration=    16
   0.83310000  0.49871000  0.06001000
   0.83472000  0.83192000  0.06027000
   0.00081000  0.66425000  0.00034000
   0.15603821  0.82750534  0.29957073
   0.66474416  0.33154162  0.35844272
   0.66559000  0.33138000  0.00044000
   0.49968000  0.83322000  0.06046000
   0.66721000  0.33321000  0.24067000
   0.50058000  0.49950000  0.18024000
   0.33595000  0.33196000  0.11912000
   0.33462000  0.33376000  0.24059000
   0.50368670  0.50103202  0.30051222
   0.00055000  0.33190000  0.12006000
   0.16752000  0.49945000  0.18065000
   0.00021000  0.33145000  0.00038000
   0.33510000  0.33170000  0.00029000
   0.00630515  0.33092637  0.36014340
   0.00077000  0.99959000  0.12036000
   0.16814000  0.16634000  0.18048000
   0.33405000  0.66593000  0.12095000
   0.50078000  0.83242000  0.18121000
   0.99878036  0.66715979  0.35815510
   0.99982000  0.33359000  0.24030000
   0.00025000  0.66569000  0.12051000
   0.16581000  0.83217000  0.18114000
   0.66566000  0.33123000  0.11970000
   0.82871277  0.83361177  0.30298640
   0.16809781  0.49861588  0.30151721
   0.16656012  0.16853558  0.30199042
   0.00161000  0.99891000  0.00024000
   0.00864944  0.99665035  0.36043361
   0.16807000  0.16539000  0.06004000
   0.51033542  0.83029856  0.29899239
   0.83476000  0.83303000  0.18132000
   0.66715000  0.66559000  0.00000000
   0.66719000  0.66640000  0.12032000
   0.83302000  0.49937000  0.17995000
   0.16769000  0.83389000  0.06029000
   0.50100780  0.16744100  0.30218189
   0.33289000  0.99824000  0.24130000
   0.66679000  0.99914000  0.24097000
   0.33466000  0.00023000  0.12082000
   0.66746000  0.99815000  0.00001000
   0.83482995  0.16544280  0.30221131
   0.83358000  0.16456000  0.06013000
   0.66261774  0.00347641  0.35986323
   0.83364000  0.16593000  0.18062000
   0.66653000  0.99972000  0.12044000
   0.33604649  0.33241187  0.35936497
   0.33487000  0.00167000  0.00066000
   0.33240492  0.99149820  0.35942162
   0.00122000  0.00217000  0.24080000
   0.16722000  0.50179000  0.05903000
   0.50000000  0.50344000  0.05949000
   0.49861000  0.16115000  0.05868000
   0.49968000  0.16444000  0.18182000
   0.83549015  0.50770832  0.29980882
   0.99722000  0.66135000  0.24151000
   0.33419000  0.66573000  0.24040000
   0.33414000  0.65855000  0.00278000
   0.33479747  0.67527002  0.36744604
   0.66923000  0.66337000  0.24097000
Direct configuration=    17
   0.83310000  0.49871000  0.06001000
   0.83472000  0.83192000  0.06027000
   0.00081000  0.66425000  0.00034000
   0.15603805  0.82750506  0.29957073
   0.66474406  0.33154165  0.35844276
   0.66559000  0.33138000  0.00044000
   0.49968000  0.83322000  0.06046000
   0.66721000  0.33321000  0.24067000
   0.50058000  0.49950000  0.18024000
   0.33595000  0.33196000  0.11912000
   0.33462000  0.33376000  0.24059000
   0.50368652  0.50103194  0.30051231
   0.00055000  0.33190000  0.12006000
   0.16752000  0.49945000  0.18065000
   0.00021000  0.33145000  0.00038000
   0.33510000  0.33170000  0.00029000
   0.00630513  0.33092662  0.36014342
   0.00077000  0.99959000  0.12036000
   0.16814000  0.16634000  0.18048000
   0.33405000  0.66593000  0.12095000
   0.50078000  0.83242000  0.18121000
   0.99877988  0.66715964  0.35815513
   0.99982000  0.33359000  0.24030000
   0.00025000  0.66569000  0.12051000
   0.16581000  0.83217000  0.18114000
   0.66566000  0.33123000  0.11970000
   0.82871287  0.83361176  0.30298638
   0.16809768  0.49861604  0.30151726
   0.16655997  0.16853581  0.30199035
   0.00161000  0.99891000  0.00024000
   0.00864955  0.99665073  0.36043361
   0.16807000  0.16539000  0.06004000
   0.51033549  0.83029814  0.29899238
   0.83476000  0.83303000  0.18132000
   0.66715000  0.66559000  0.00000000
   0.66719000  0.66640000  0.12032000
   0.83302000  0.49937000  0.17995000
   0.16769000  0.83389000  0.06029000
   0.50100785  0.16744094  0.30218187
   0.33289000  0.99824000  0.24130000
   0.66679000  0.99914000  0.24097000
   0.33466000  0.00023000  0.12082000
   0.66746000  0.99815000  0.00001000
   0.83482991  0.16544294  0.30221129
   0.83358000  0.16456000  0.06013000
   0.66261755  0.00347633  0.35986321
   0.83364000  0.16593000  0.18062000
   0.66653000  0.99972000  0.12044000
   0.33604627  0.33241187  0.35936495
   0.33487000  0.00167000  0.00066000
   0.33240494  0.99149798  0.35942159
   0.00122000  0.00217000  0.24080000
   0.16722000  0.50179000  0.05903000
   0.50000000  0.50344000  0.05949000
   0.49861000  0.16115000  0.05868000
   0.49968000  0.16444000  0.18182000
   0.83549001  0.50770831  0.29980887
   0.99722000  0.66135000  0.24151000
   0.33419000  0.66573000  0.24040000
   0.33414000  0.65855000  0.00278000
   0.33479706  0.67527004  0.36744613
   0.66923000  0.66337000  0.24097000
Direct configuration=    18
   0.83310000  0.49871000  0.06001000
   0.83472000  0.83192000  0.06027000
   0.00081000  0.66425000  0.00034000
   0.15603802  0.82750502  0.29957072
   0.66474405  0.33154165  0.35844277
   0.66559000  0.33138000  0.00044000
   0.49968000  0.83322000  0.06046000
   0.66721000  0.33321000  0.24067000
   0.50058000  0.49950000  0.18024000
   0.33595000  0.33196000  0.11912000
   0.33462000  0.33376000  0.24059000
   0.50368650  0.50103193  0.30051233
   0.00055000  0.33190000  0.12006000
   0.16752000  0.49945000  0.18065000
   0.00021000  0.33145000  0.00038000
   0.33510000  0.33170000  0.00029000
   0.00630513  0.33092665  0.36014342
   0.00077000  0.99959000  0.12036000
   0.16814000  0.16634000  0.18048000
   0.33405000  0.66593000  0.12095000
   0.50078000  0.83242000  0.18121000
   0.99877981  0.66715962  0.35815514
   0.99982000  0.33359000  0.24030000
   0.00025000  0.66569000  0.12051000
   0.16581000  0.83217000  0.18114000
   0.66566000  0.33123000  0.11970000
   0.82871288  0.83361176  0.30298638
   0.16809767  0.49861606  0.30151726
   0.16655995  0.16853585  0.30199034
   0.00161000  0.99891000  0.00024000
   0.00864956  0.99665078  0.36043361
   0.16807000  0.16539000  0.06004000
   0.51033549  0.83029808  0.29899238
   0.83476000  0.83303000  0.18132000
   0.66715000  0.66559000  0.00000000
   0.66719000  0.66640000  0.12032000
   0.83302000  0.49937000  0.17995000
   0.16769000  0.83389000  0.06029000
   0.50100786  0.16744093  0.30218186
   0.33289000  0.99824000  0.24130000
   0.66679000  0.99914000  0.24097000
   0.33466000  0.00023000  0.12082000
   0.66746000  0.99815000  0.00001000
   0.83482991  0.16544295  0.30221129
   0.83358000  0.16456000  0.06013000
   0.66261752  0.00347632  0.35986320
   0.83364000  0.16593000  0.18062000
   0.66653000  0.99972000  0.12044000
   0.33604624  0.33241187  0.35936495
   0.33487000  0.00167000  0.00066000
   0.33240495  0.99149795  0.35942158
   0.00122000  0.00217000  0.24080000
   0.16722000  0.50179000  0.05903000
   0.50000000  0.50344000  0.05949000
   0.49861000  0.16115000  0.05868000
   0.49968000  0.16444000  0.18182000
   0.83548999  0.50770831  0.29980887
   0.99722000  0.66135000  0.24151000
   0.33419000  0.66573000  0.24040000
   0.33414000  0.65855000  0.00278000
   0.33479701  0.67527005  0.36744614
   0.66923000  0.66337000  0.24097000
Direct configuration=    19
   0.83310000  0.49871000  0.06001000
   0.83472000  0.83192000  0.06027000
   0.00081000  0.66425000  0.00034000
   0.15603802  0.82750502  0.29957072
   0.66474405  0.33154165  0.35844277
   0.66559000  0.33138000  0.00044000
   0.49968000  0.83322000  0.06046000
   0.66721000  0.33321000  0.24067000
   0.50058000  0.49950000  0.18024000
   0.33595000  0.33196000  0.11912000
   0.33462000  0.33376000  0.24059000
   0.50368649  0.50103192  0.30051233
   0.00055000  0.33190000  0.12006000
   0.16752000  0.49945000  0.18065000
   0.00021000  0.33145000  0.00038000
   0.33510000  0.33170000  0.00029000
   0.00630513  0.33092666  0.36014342
   0.00077000  0.99959000  0.12036000
   0.16814000  0.16634000  0.18048000
   0.33405000  0.66593000  0.12095000
   0.50078000  0.83242000  0.18121000
   0.99877980  0.66715961  0.35815514
   0.99982000  0.33359000  0.24030000
   0.00025000  0.66569000  0.12051000
   0.16581000  0.83217000  0.18114000
   0.66566000  0.33123000  0.11970000
   0.82871289  0.83361176  0.30298638
   0.16809766  0.49861606  0.30151726
   0.16655995  0.16853585  0.30199034
   0.00161000  0.99891000  0.00024000
   0.00864957  0.99665079  0.36043361
   0.16807000  0.16539000  0.06004000
   0.51033550  0.83029807  0.29899238
   0.83476000  0.83303000  0.18132000
   0.66715000  0.66559000  0.00000000
   0.66719000  0.66640000  0.12032000
   0.83302000  0.49937000  0.17995000
   0.16769000  0.83389000  0.06029000
   0.50100786  0.16744093  0.30218186
   0.33289000  0.99824000  0.24130000
   0.66679000  0.99914000  0.24097000
   0.33466000  0.00023000  0.12082000
   0.66746000  0.99815000  0.00001000
   0.83482991  0.16544296  0.30221129
   0.83358000  0.16456000  0.06013000
   0.66261752  0.00347632  0.35986320
   0.83364000  0.16593000  0.18062000
   0.66653000  0.99972000  0.12044000
   0.33604623  0.33241187  0.35936495
   0.33487000  0.00167000  0.00066000
   0.33240495  0.99149795  0.35942158
   0.00122000  0.00217000  0.24080000
   0.16722000  0.50179000  0.05903000
   0.50000000  0.50344000  0.05949000
   0.49861000  0.16115000  0.05868000
   0.49968000  0.16444000  0.18182000
   0.83548998  0.50770830  0.29980888
   0.99722000  0.66135000  0.24151000
   0.33419000  0.66573000  0.24040000
   0.33414000  0.65855000  0.00278000
   0.33479700  0.67527005  0.36744614
   0.66923000  0.66337000  0.24097000
Direct configuration=    20
   0.83310000  0.49871000  0.06001000
   0.83472000  0.83192000  0.06027000
   0.00081000  0.66425000  0.00034000
   0.15603802  0.82750501  0.29957072
   0.66474405  0.33154165  0.35844277
   0.66559000  0.33138000  0.00044000
   0.49968000  0.83322000  0.06046000
   0.66721000  0.33321000  0.24067000
   0.50058000  0.49950000  0.18024000
   0.33595000  0.33196000  0.11912000
   0.33462000  0.33376000  0.24059000
   0.50368649  0.50103192  0.30051233
   0.00055000  0.33190000  0.12006000
   0.16752000  0.49945000  0.18065000
   0.00021000  0.33145000  0.00038000
   0.33510000  0.33170000  0.00029000
   0.00630513  0.33092666  0.36014342
   0.00077000  0.99959000  0.12036000
   0.16814000  0.16634000  0.18048000
   0.33405000  0.66593000  0.12095000
   0.50078000  0.83242000  0.18121000
   0.99877979  0.66715961  0.35815514
   0.99982000  0.33359000  0.24030000
   0.00025000  0.66569000  0.12051000
   0.16581000  0.83217000  0.18114000
   0.66566000  0.33123000  0.11970000
   0.82871289  0.83361176  0.30298638
   0.16809766  0.49861606  0.30151726
   0.16655995  0.16853585  0.30199034
   0.00161000  0.99891000  0.00024000
   0.00864957  0.99665080  0.36043361
   0.16807000  0.16539000  0.06004000
   0.51033550  0.83029807  0.29899238
   0.83476000  0.83303000  0.18132000
   0.66715000  0.66559000  0.00000000
   0.66719000  0.66640000  0.12032000
   0.83302000  0.49937000  0.17995000
   0.16769000  0.83389000  0.06029000
   0.50100786  0.16744093  0.30218186
   0.33289000  0.99824000  0.24130000
   0.66679000  0.99914000  0.24097000
   0.33466000  0.00023000  0.12082000
   0.66746000  0.99815000  0.00001000
   0.83482991  0.16544296  0.30221129
   0.83358000  0.16456000  0.06013000
   0.66261751  0.00347632  0.35986320
   0.83364000  0.16593000  0.18062000
   0.66653000  0.99972000  0.12044000
   0.33604623  0.33241187  0.35936495
   0.33487000  0.00167000  0.00066000
   0.33240495  0.99149795  0.35942158
   0.00122000  0.00217000  0.24080000
   0.16722000  0.50179000  0.05903000
   0.50000000  0.50344000  0.05949000
   0.49861000  0.16115000  0.05868000
   0.49968000  0.16444000  0.18182000
   0.83548998  0.50770830  0.29980888
   0.99722000  0.66135000  0.24151000
   0.33419000  0.66573000  0.24040000
   0.33414000  0.65855000  0.00278000
   0.33479699  0.67527005  0.36744614
   0.66923000  0.66337000  0.24097000
Direct configuration=    21
   0.83310000  0.49871000  0.06001000
   0.83472000  0.83192000  0.06027000
   0.00081000  0.66425000  0.00034000
   0.15603802  0.82750501  0.29957072
   0.66474405  0.33154165  0.35844277
   0.66559000  0.33138000  0.00044000
   0.49968000  0.83322000  0.06046000
   0.66721000  0.33321000  0.24067000
   0.50058000  0.49950000  0.18024000
   0.33595000  0.33196000  0.11912000
   0.33462000  0.33376000  0.24059000
   0.50368649  0.50103192  0.30051233
   0.00055000  0.33190000  0.12006000
   0.16752000  0.49945000  0.18065000
   0.00021000  0.33145000  0.00038000
   0.33510000  0.33170000  0.00029000
   0.00630513  0.33092666  0.36014342
   0.00077000  0.99959000  0.12036000
   0.16814000  0.16634000  0.18048000
   0.33405000  0.66593000  0.12095000
   0.50078000  0.83242000  0.18121000
   0.99877979  0.66715961  0.35815514
   0.99982000  0.33359000  0.24030000
   0.00025000  0.66569000  0.12051000
   0.16581000  0.83217000  0.18114000
   0.66566000  0.33123000  0.11970000
   0.82871289  0.83361176  0.30298638
   0.16809766  0.49861606  0.30151727
   0.16655995  0.16853585  0.30199034
   0.00161000  0.99891000  0.00024000
   0.00864957  0.99665080  0.36043361
   0.16807000  0.16539000  0.06004000
   0.51033550  0.83029807  0.29899238
   0.83476000  0.83303000  0.18132000
   0.66715000  0.66559000  0.00000000
   0.66719000  0.66640000  0.12032000
   0.83302000  0.49937000  0.17995000
   0.16769000  0.83389000  0.06029000
   0.50100786  0.16744093  0.30218186
   0.33289000  0.99824000  0.24130000
   0.66679000  0.99914000  0.24097000
   0.33466000  0.00023000  0.12082000
   0.66746000  0.99815000  0.00001000
   0.83482991  0.16544296  0.30221129
   0.83358000  0.16456000  0.06013000
   0.66261751  0.00347632  0.35986320
   0.83364000  0.16593000  0.18062000
   0.66653000  0.99972000  0.12044000
   0.33604623  0.33241187  0.35936495
   0.33487000  0.00167000  0.00066000
   0.33240495  0.99149795  0.35942158
   0.00122000  0.00217000  0.24080000
   0.16722000  0.50179000  0.05903000
   0.50000000  0.50344000  0.05949000
   0.49861000  0.16115000  0.05868000
   0.49968000  0.16444000  0.18182000
   0.83548998  0.50770830  0.29980888
   0.99722000  0.66135000  0.24151000
   0.33419000  0.66573000  0.24040000
   0.33414000  0.65855000  0.00278000
   0.33479699  0.67527005  0.36744614
   0.66923000  0.66337000  0.24097000
Direct configuration=    22
   0.83310000  0.49871000  0.06001000
   0.83472000  0.83192000  0.06027000
   0.00081000  0.66425000  0.00034000
   0.15603802  0.82750501  0.29957072
   0.66474405  0.33154165  0.35844277
   0.66559000  0.33138000  0.00044000
   0.49968000  0.83322000  0.06046000
   0.66721000  0.33321000  0.24067000
   0.50058000  0.49950000  0.18024000
   0.33595000  0.33196000  0.11912000
   0.33462000  0.33376000  0.24059000
   0.50368649  0.50103192  0.30051233
   0.00055000  0.33190000  0.12006000
   0.16752000  0.49945000  0.18065000
   0.00021000  0.33145000  0.00038000
   0.33510000  0.33170000  0.00029000
   0.00630513  0.33092666  0.36014342
   0.00077000  0.99959000  0.12036000
   0.16814000  0.16634000  0.18048000
   0.33405000  0.66593000  0.12095000
   0.50078000  0.83242000  0.18121000
   0.99877979  0.66715961  0.35815514
   0.99982000  0.33359000  0.24030000
   0.00025000  0.66569000  0.12051000
   0.16581000  0.83217000  0.18114000
   0.66566000  0.33123000  0.11970000
   0.82871289  0.83361176  0.30298638
   0.16809766  0.49861606  0.30151727
   0.16655995  0.16853585  0.30199034
   0.00161000  0.99891000  0.00024000
   0.00864957  0.99665080  0.36043361
   0.16807000  0.16539000  0.06004000
   0.51033550  0.83029807  0.29899238
   0.83476000  0.83303000  0.18132000
   0.66715000  0.66559000  0.00000000
   0.66719000  0.66640000  0.12032000
   0.83302000  0.49937000  0.17995000
   0.16769000  0.83389000  0.06029000
   0.50100786  0.16744093  0.30218186
   0.33289000  0.99824000  0.24130000
   0.66679000  0.99914000  0.24097000
   0.33466000  0.00023000  0.12082000
   0.66746000  0.99815000  0.00001000
   0.83482991  0.16544296  0.30221129
   0.83358000  0.16456000  0.06013000
   0.66261751  0.00347632  0.35986320
   0.83364000  0.16593000  0.18062000
   0.66653000  0.99972000  0.12044000
   0.33604623  0.33241187  0.35936495
   0.33487000  0.00167000  0.00066000
   0.33240495  0.99149795  0.35942158
   0.00122000  0.00217000  0.24080000
   0.16722000  0.50179000  0.05903000
   0.50000000  0.50344000  0.05949000
   0.49861000  0.16115000  0.05868000
   0.49968000  0.16444000  0.18182000
   0.83548998  0.50770830  0.29980888
   0.99722000  0.66135000  0.24151000
   0.33419000  0.66573000  0.24040000
   0.33414000  0.65855000  0.00278000
   0.33479699  0.67527005  0.36744614
   0.66923000  0.66337000  0.24097000
Direct configuration=    23
   0.83310000  0.49871000  0.06001000
   0.83472000  0.83192000  0.06027000
   0.00081000  0.66425000  0.00034000
   0.15584931  0.82718485  0.29956820
   0.66463352  0.33157847  0.35849170
   0.66559000  0.33138000  0.00044000
   0.49968000  0.83322000  0.06046000
   0.66721000  0.33321000  0.24067000
   0.50058000  0.49950000  0.18024000
   0.33595000  0.33196000  0.11912000
   0.33462000  0.33376000  0.24059000
   0.50348072  0.50093411  0.30061634
   0.00055000  0.33190000  0.12006000
   0.16752000  0.49945000  0.18065000
   0.00021000  0.33145000  0.00038000
   0.33510000  0.33170000  0.00029000
   0.00627968  0.33121203  0.36016562
   0.00077000  0.99959000  0.12036000
   0.16814000  0.16634000  0.18048000
   0.33405000  0.66593000  0.12095000
   0.50078000  0.83242000  0.18121000
   0.99822203  0.66698789  0.35818897
   0.99982000  0.33359000  0.24030000
   0.00025000  0.66569000  0.12051000
   0.16581000  0.83217000  0.18114000
   0.66566000  0.33123000  0.11970000
   0.82882817  0.83360008  0.30296367
   0.16795581  0.49879175  0.30157072
   0.16638597  0.16880384  0.30190813
   0.00161000  0.99891000  0.00024000
   0.00877792  0.99708753  0.36043686
   0.16807000  0.16539000  0.06004000
   0.51041412  0.82981443  0.29898046
   0.83476000  0.83303000  0.18132000
   0.66715000  0.66559000  0.00000000
   0.66719000  0.66640000  0.12032000
   0.83302000  0.49937000  0.17995000
   0.16769000  0.83389000  0.06029000
   0.50107037  0.16737698  0.30215758
   0.33289000  0.99824000  0.24130000
   0.66679000  0.99914000  0.24097000
   0.33466000  0.00023000  0.12082000
   0.66746000  0.99815000  0.00001000
   0.83478745  0.16559522  0.30218471
   0.83358000  0.16456000  0.06013000
   0.66239327  0.00337951  0.35983472
   0.83364000  0.16593000  0.18062000
   0.66653000  0.99972000  0.12044000
   0.33579624  0.33240582  0.35934102
   0.33487000  0.00167000  0.00066000
   0.33242793  0.99124815  0.35938557
   0.00122000  0.00217000  0.24080000
   0.16722000  0.50179000  0.05903000
   0.50000000  0.50344000  0.05949000
   0.49861000  0.16115000  0.05868000
   0.49968000  0.16444000  0.18182000
   0.83532683  0.50769118  0.29986348
   0.99722000  0.66135000  0.24151000
   0.33419000  0.66573000  0.24040000
   0.33414000  0.65855000  0.00278000
   0.33432617  0.67530028  0.36754909
   0.66923000  0.66337000  0.24097000
Direct configuration=    24
   0.83310000  0.49871000  0.06001000
   0.83472000  0.83192000  0.06027000
   0.00081000  0.66425000  0.00034000
   0.15576546  0.82737968  0.29964122
   0.66479961  0.33156345  0.35849388
   0.66559000  0.33138000  0.00044000
   0.49968000  0.83322000  0.06046000
   0.66721000  0.33321000  0.24067000
   0.50058000  0.49950000  0.18024000
   0.33595000  0.33196000  0.11912000
   0.33462000  0.33376000  0.24059000
   0.50359170  0.50091082  0.30052718
   0.00055000  0.33190000  0.12006000
   0.16752000  0.49945000  0.18065000
   0.00021000  0.33145000  0.00038000
   0.33510000  0.33170000  0.00029000
   0.00621137  0.33115984  0.36019060
   0.00077000  0.99959000  0.12036000
   0.16814000  0.16634000  0.18048000
   0.33405000  0.66593000  0.12095000
   0.50078000  0.83242000  0.18121000
   0.99841334  0.66704774  0.35820695
   0.99982000  0.33359000  0.24030000
   0.00025000  0.66569000  0.12051000
   0.16581000  0.83217000  0.18114000
   0.66566000  0.33123000  0.11970000
   0.82875368  0.83375352  0.30297141
   0.16797500  0.49862392  0.30149244
   0.16656848  0.16855063  0.30193091
   0.00161000  0.99891000  0.00024000
   0.00883543  0.99691228  0.36035739
   0.16807000  0.16539000  0.06004000
   0.51044749  0.82951673  0.29907045
   0.83476000  0.83303000  0.18132000
   0.66715000  0.66559000  0.00000000
   0.66719000  0.66640000  0.12032000
   0.83302000  0.49937000  0.17995000
   0.16769000  0.83389000  0.06029000
   0.50086331  0.16743061  0.30220451
   0.33289000  0.99824000  0.24130000
   0.66679000  0.99914000  0.24097000
   0.33466000  0.00023000  0.12082000
   0.66746000  0.99815000  0.00001000
   0.83475035  0.16569441  0.30224061
   0.83358000  0.16456000  0.06013000
   0.66247018  0.00342990  0.35980950
   0.83364000  0.16593000  0.18062000
   0.66653000  0.99972000  0.12044000
   0.33588604  0.33239528  0.35933882
   0.33487000  0.00167000  0.00066000
   0.33232341  0.99143415  0.35937256
   0.00122000  0.00217000  0.24080000
   0.16722000  0.50179000  0.05903000
   0.50000000  0.50344000  0.05949000
   0.49861000  0.16115000  0.05868000
   0.49968000  0.16444000  0.18182000
   0.83532126  0.50749012  0.29991375
   0.99722000  0.66135000  0.24151000
   0.33419000  0.66573000  0.24040000
   0.33414000  0.65855000  0.00278000
   0.33467024  0.67545744  0.36752980
   0.66923000  0.66337000  0.24097000
