INCAR-For-OPT                           
           1
     8.526200    0.000000    0.000000
    -0.001766    8.504600    0.000000
     0.000000    0.000000   23.555800
   Cr   Fe   Pb
    14    49     1
Direct configuration=     1
   0.66879000  0.99689000  0.12225000
   0.00127000  0.66476000  0.12046000
   0.50272000  0.83391000  0.18098000
   0.33662000  0.99784000  0.24172000
   0.00240000  0.33332000  0.24079000
   0.17485000  0.83023000  0.30266000
   0.83345000  0.83367000  0.30251000
   0.99962000  0.33431000  0.00199000
   0.01118000  0.32952000  0.37166000
   0.33922000  0.33072000  0.00000000
   0.32947000  0.33744000  0.36025000
   0.83779000  0.49999000  0.06135000
   0.33524000  0.67037000  0.00023000
   0.32893000  0.67167000  0.37043000
   0.00245000  0.99865000  0.12117000
   0.16980000  0.16587000  0.18099000
   0.33623000  0.99852000  0.12110000
   0.50164000  0.16594000  0.18135000
   0.83615000  0.16559000  0.18099000
   0.00260000  0.33284000  0.12101000
   0.16994000  0.49925000  0.18104000
   0.33651000  0.33287000  0.12086000
   0.50180000  0.49937000  0.18123000
   0.66965000  0.33304000  0.12103000
   0.83626000  0.49963000  0.18117000
   0.16899000  0.83329000  0.18177000
   0.33582000  0.66689000  0.12095000
   0.66914000  0.66722000  0.12117000
   0.83680000  0.83220000  0.18114000
   0.00172000  0.99944000  0.24151000
   0.16893000  0.15892000  0.30182000
   0.50263000  0.16587000  0.30262000
   0.66988000  0.99924000  0.24142000
   0.83602000  0.16445000  0.30285000
   0.16469000  0.50032000  0.30111000
   0.33524000  0.33246000  0.24183000
   0.50456000  0.50029000  0.30324000
   0.66902000  0.33317000  0.24123000
   0.83551000  0.49643000  0.30280000
   0.00318000  0.66598000  0.24177000
   0.33605000  0.66588000  0.24146000
   0.50221000  0.83516000  0.30229000
   0.66918000  0.66674000  0.24131000
   0.00271000  0.99869000  0.00034000
   0.01094000  0.99476000  0.35889000
   0.16929000  0.16694000  0.06071000
   0.33657000  0.00075000  0.00067000
   0.33797000  0.00893000  0.36268000
   0.50343000  0.16520000  0.06105000
   0.66948000  0.99883000  0.00053000
   0.65780000  0.00445000  0.36205000
   0.83570000  0.16556000  0.06094000
   0.17061000  0.49746000  0.06032000
   0.50215000  0.49992000  0.06086000
   0.66930000  0.33358000  0.00050000
   0.67043000  0.32974000  0.36034000
   0.00239000  0.66441000  0.00051000
   0.00065000  0.66335000  0.35797000
   0.16894000  0.83304000  0.06062000
   0.50222000  0.83318000  0.06077000
   0.66882000  0.66655000  0.00068000
   0.66795000  0.66504000  0.35952000
   0.83620000  0.83206000  0.06086000
   0.83887000  0.85184000  0.44616000
Direct configuration=     2
   0.66879000  0.99689000  0.12225000
   0.00127000  0.66476000  0.12046000
   0.50272000  0.83391000  0.18098000
   0.33662000  0.99784000  0.24172000
   0.00240000  0.33332000  0.24079000
   0.17467022  0.82998140  0.30287959
   0.83357730  0.83377172  0.30303751
   0.99962000  0.33431000  0.00199000
   0.01107015  0.32941046  0.37169412
   0.33922000  0.33072000  0.00000000
   0.32939467  0.33744164  0.36025813
   0.83779000  0.49999000  0.06135000
   0.33524000  0.67037000  0.00023000
   0.32892579  0.67173713  0.37041079
   0.00245000  0.99865000  0.12117000
   0.16980000  0.16587000  0.18099000
   0.33623000  0.99852000  0.12110000
   0.50164000  0.16594000  0.18135000
   0.83615000  0.16559000  0.18099000
   0.00260000  0.33284000  0.12101000
   0.16994000  0.49925000  0.18104000
   0.33651000  0.33287000  0.12086000
   0.50180000  0.49937000  0.18123000
   0.66965000  0.33304000  0.12103000
   0.83626000  0.49963000  0.18117000
   0.16899000  0.83329000  0.18177000
   0.33582000  0.66689000  0.12095000
   0.66914000  0.66722000  0.12117000
   0.83680000  0.83220000  0.18114000
   0.00172000  0.99944000  0.24151000
   0.16923786  0.15957934  0.30175774
   0.50247491  0.16618454  0.30253884
   0.66988000  0.99924000  0.24142000
   0.83621146  0.16462945  0.30284101
   0.16482785  0.50004509  0.30109686
   0.33524000  0.33246000  0.24183000
   0.50428010  0.50022329  0.30318877
   0.66902000  0.33317000  0.24123000
   0.83580513  0.49629074  0.30273018
   0.00318000  0.66598000  0.24177000
   0.33605000  0.66588000  0.24146000
   0.50203484  0.83517206  0.30223945
   0.66918000  0.66674000  0.24131000
   0.00271000  0.99869000  0.00034000
   0.01132703  0.99495645  0.35890936
   0.16929000  0.16694000  0.06071000
   0.33657000  0.00075000  0.00067000
   0.33796198  0.00924445  0.36259837
   0.50343000  0.16520000  0.06105000
   0.66948000  0.99883000  0.00053000
   0.65761167  0.00481450  0.36222528
   0.83570000  0.16556000  0.06094000
   0.17061000  0.49746000  0.06032000
   0.50215000  0.49992000  0.06086000
   0.66930000  0.33358000  0.00050000
   0.67024073  0.32972554  0.36030905
   0.00239000  0.66441000  0.00051000
   0.00073188  0.66355643  0.35830803
   0.16894000  0.83304000  0.06062000
   0.50222000  0.83318000  0.06077000
   0.66882000  0.66655000  0.00068000
   0.66791384  0.66504738  0.35985631
   0.83620000  0.83206000  0.06086000
   0.83889041  0.85063440  0.44473980
Direct configuration=     3
   0.66879000  0.99689000  0.12225000
   0.00127000  0.66476000  0.12046000
   0.50272000  0.83391000  0.18098000
   0.33662000  0.99784000  0.24172000
   0.00240000  0.33332000  0.24079000
   0.17421405  0.82935063  0.30343675
   0.83390029  0.83402982  0.30437597
   0.99962000  0.33431000  0.00199000
   0.01079144  0.32913251  0.37178069
   0.33922000  0.33072000  0.00000000
   0.32920355  0.33744580  0.36027874
   0.83779000  0.49999000  0.06135000
   0.33524000  0.67037000  0.00023000
   0.32891511  0.67190746  0.37036205
   0.00245000  0.99865000  0.12117000
   0.16980000  0.16587000  0.18099000
   0.33623000  0.99852000  0.12110000
   0.50164000  0.16594000  0.18135000
   0.83615000  0.16559000  0.18099000
   0.00260000  0.33284000  0.12101000
   0.16994000  0.49925000  0.18104000
   0.33651000  0.33287000  0.12086000
   0.50180000  0.49937000  0.18123000
   0.66965000  0.33304000  0.12103000
   0.83626000  0.49963000  0.18117000
   0.16899000  0.83329000  0.18177000
   0.33582000  0.66689000  0.12095000
   0.66914000  0.66722000  0.12117000
   0.83680000  0.83220000  0.18114000
   0.00172000  0.99944000  0.24151000
   0.17001899  0.16125230  0.30159976
   0.50208139  0.16698264  0.30233293
   0.66988000  0.99924000  0.24142000
   0.83669726  0.16508478  0.30281819
   0.16517763  0.49934754  0.30106352
   0.33524000  0.33246000  0.24183000
   0.50356989  0.50005401  0.30305879
   0.66902000  0.33317000  0.24123000
   0.83655398  0.49593740  0.30255303
   0.00318000  0.66598000  0.24177000
   0.33605000  0.66588000  0.24146000
   0.50159041  0.83520266  0.30211119
   0.66918000  0.66674000  0.24131000
   0.00271000  0.99869000  0.00034000
   0.01230906  0.99545489  0.35895849
   0.16929000  0.16694000  0.06071000
   0.33657000  0.00075000  0.00067000
   0.33794162  0.01004231  0.36239125
   0.50343000  0.16520000  0.06105000
   0.66948000  0.99883000  0.00053000
   0.65713382  0.00573934  0.36267004
   0.83570000  0.16556000  0.06094000
   0.17061000  0.49746000  0.06032000
   0.50215000  0.49992000  0.06086000
   0.66930000  0.33358000  0.00050000
   0.66976047  0.32968886  0.36023053
   0.00239000  0.66441000  0.00051000
   0.00093965  0.66408020  0.35916573
   0.16894000  0.83304000  0.06062000
   0.50222000  0.83318000  0.06077000
   0.66882000  0.66655000  0.00068000
   0.66782207  0.66506611  0.36070963
   0.83620000  0.83206000  0.06086000
   0.83894219  0.84757538  0.44113629
Direct configuration=     4
   0.66879000  0.99689000  0.12225000
   0.00127000  0.66476000  0.12046000
   0.50272000  0.83391000  0.18098000
   0.33662000  0.99784000  0.24172000
   0.00240000  0.33332000  0.24079000
   0.17415145  0.82923586  0.30363548
   0.83362647  0.83397902  0.30474273
   0.99962000  0.33431000  0.00199000
   0.01070705  0.32915316  0.37188910
   0.33922000  0.33072000  0.00000000
   0.32923633  0.33755523  0.36039727
   0.83779000  0.49999000  0.06135000
   0.33524000  0.67037000  0.00023000
   0.32898557  0.67197122  0.37032738
   0.00245000  0.99865000  0.12117000
   0.16980000  0.16587000  0.18099000
   0.33623000  0.99852000  0.12110000
   0.50164000  0.16594000  0.18135000
   0.83615000  0.16559000  0.18099000
   0.00260000  0.33284000  0.12101000
   0.16994000  0.49925000  0.18104000
   0.33651000  0.33287000  0.12086000
   0.50180000  0.49937000  0.18123000
   0.66965000  0.33304000  0.12103000
   0.83626000  0.49963000  0.18117000
   0.16899000  0.83329000  0.18177000
   0.33582000  0.66689000  0.12095000
   0.66914000  0.66722000  0.12117000
   0.83680000  0.83220000  0.18114000
   0.00172000  0.99944000  0.24151000
   0.16983964  0.16115419  0.30146894
   0.50241936  0.16689575  0.30228054
   0.66988000  0.99924000  0.24142000
   0.83654948  0.16491560  0.30287327
   0.16480403  0.49981002  0.30117023
   0.33524000  0.33246000  0.24183000
   0.50394079  0.50046874  0.30314630
   0.66902000  0.33317000  0.24123000
   0.83641070  0.49663186  0.30281076
   0.00318000  0.66598000  0.24177000
   0.33605000  0.66588000  0.24146000
   0.50202921  0.83540714  0.30230253
   0.66918000  0.66674000  0.24131000
   0.00271000  0.99869000  0.00034000
   0.01423165  0.99712770  0.35852391
   0.16929000  0.16694000  0.06071000
   0.33657000  0.00075000  0.00067000
   0.33794224  0.01060566  0.36229137
   0.50343000  0.16520000  0.06105000
   0.66948000  0.99883000  0.00053000
   0.65555783  0.00739100  0.36234820
   0.83570000  0.16556000  0.06094000
   0.17061000  0.49746000  0.06032000
   0.50215000  0.49992000  0.06086000
   0.66930000  0.33358000  0.00050000
   0.66943824  0.32992325  0.36010720
   0.00239000  0.66441000  0.00051000
   0.00184943  0.66267947  0.35909368
   0.16894000  0.83304000  0.06062000
   0.50222000  0.83318000  0.06077000
   0.66882000  0.66655000  0.00068000
   0.66682945  0.66363898  0.36051131
   0.83620000  0.83206000  0.06086000
   0.83892121  0.84500623  0.43980147
Direct configuration=     5
   0.66879000  0.99689000  0.12225000
   0.00127000  0.66476000  0.12046000
   0.50272000  0.83391000  0.18098000
   0.33662000  0.99784000  0.24172000
   0.00240000  0.33332000  0.24079000
   0.17409763  0.82913717  0.30380636
   0.83339104  0.83393534  0.30505808
   0.99962000  0.33431000  0.00199000
   0.01063448  0.32917092  0.37198232
   0.33922000  0.33072000  0.00000000
   0.32926451  0.33764932  0.36049919
   0.83779000  0.49999000  0.06135000
   0.33524000  0.67037000  0.00023000
   0.32904615  0.67202604  0.37029758
   0.00245000  0.99865000  0.12117000
   0.16980000  0.16587000  0.18099000
   0.33623000  0.99852000  0.12110000
   0.50164000  0.16594000  0.18135000
   0.83615000  0.16559000  0.18099000
   0.00260000  0.33284000  0.12101000
   0.16994000  0.49925000  0.18104000
   0.33651000  0.33287000  0.12086000
   0.50180000  0.49937000  0.18123000
   0.66965000  0.33304000  0.12103000
   0.83626000  0.49963000  0.18117000
   0.16899000  0.83329000  0.18177000
   0.33582000  0.66689000  0.12095000
   0.66914000  0.66722000  0.12117000
   0.83680000  0.83220000  0.18114000
   0.00172000  0.99944000  0.24151000
   0.16968543  0.16106983  0.30135645
   0.50270996  0.16682104  0.30223549
   0.66988000  0.99924000  0.24142000
   0.83642242  0.16477013  0.30292062
   0.16448280  0.50020766  0.30126199
   0.33524000  0.33246000  0.24183000
   0.50425970  0.50082534  0.30322155
   0.66902000  0.33317000  0.24123000
   0.83628750  0.49722897  0.30303236
   0.00318000  0.66598000  0.24177000
   0.33605000  0.66588000  0.24146000
   0.50240650  0.83558295  0.30246704
   0.66918000  0.66674000  0.24131000
   0.00271000  0.99869000  0.00034000
   0.01588474  0.99856604  0.35815024
   0.16929000  0.16694000  0.06071000
   0.33657000  0.00075000  0.00067000
   0.33794277  0.01109004  0.36220549
   0.50343000  0.16520000  0.06105000
   0.66948000  0.99883000  0.00053000
   0.65420274  0.00881115  0.36207148
   0.83570000  0.16556000  0.06094000
   0.17061000  0.49746000  0.06032000
   0.50215000  0.49992000  0.06086000
   0.66930000  0.33358000  0.00050000
   0.66916117  0.33012478  0.36000116
   0.00239000  0.66441000  0.00051000
   0.00263168  0.66147509  0.35903173
   0.16894000  0.83304000  0.06062000
   0.50222000  0.83318000  0.06077000
   0.66882000  0.66655000  0.00068000
   0.66597595  0.66241189  0.36034079
   0.83620000  0.83206000  0.06086000
   0.83890316  0.84279718  0.43865375
Direct configuration=     6
   0.66879000  0.99689000  0.12225000
   0.00127000  0.66476000  0.12046000
   0.50272000  0.83391000  0.18098000
   0.33662000  0.99784000  0.24172000
   0.00240000  0.33332000  0.24079000
   0.17408656  0.82911687  0.30384150
   0.83334262  0.83392636  0.30512293
   0.99962000  0.33431000  0.00199000
   0.01061956  0.32917457  0.37200149
   0.33922000  0.33072000  0.00000000
   0.32927031  0.33766867  0.36052015
   0.83779000  0.49999000  0.06135000
   0.33524000  0.67037000  0.00023000
   0.32905861  0.67203731  0.37029145
   0.00245000  0.99865000  0.12117000
   0.16980000  0.16587000  0.18099000
   0.33623000  0.99852000  0.12110000
   0.50164000  0.16594000  0.18135000
   0.83615000  0.16559000  0.18099000
   0.00260000  0.33284000  0.12101000
   0.16994000  0.49925000  0.18104000
   0.33651000  0.33287000  0.12086000
   0.50180000  0.49937000  0.18123000
   0.66965000  0.33304000  0.12103000
   0.83626000  0.49963000  0.18117000
   0.16899000  0.83329000  0.18177000
   0.33582000  0.66689000  0.12095000
   0.66914000  0.66722000  0.12117000
   0.83680000  0.83220000  0.18114000
   0.00172000  0.99944000  0.24151000
   0.16965372  0.16105249  0.30133332
   0.50276972  0.16680568  0.30222623
   0.66988000  0.99924000  0.24142000
   0.83639629  0.16474022  0.30293036
   0.16441674  0.50028944  0.30128086
   0.33524000  0.33246000  0.24183000
   0.50432529  0.50089867  0.30323702
   0.66902000  0.33317000  0.24123000
   0.83626217  0.49735177  0.30307794
   0.00318000  0.66598000  0.24177000
   0.33605000  0.66588000  0.24146000
   0.50248409  0.83561911  0.30250088
   0.66918000  0.66674000  0.24131000
   0.00271000  0.99869000  0.00034000
   0.01622470  0.99886183  0.35807340
   0.16929000  0.16694000  0.06071000
   0.33657000  0.00075000  0.00067000
   0.33794288  0.01118965  0.36218783
   0.50343000  0.16520000  0.06105000
   0.66948000  0.99883000  0.00053000
   0.65392407  0.00910321  0.36201457
   0.83570000  0.16556000  0.06094000
   0.17061000  0.49746000  0.06032000
   0.50215000  0.49992000  0.06086000
   0.66930000  0.33358000  0.00050000
   0.66910419  0.33016622  0.35997935
   0.00239000  0.66441000  0.00051000
   0.00279256  0.66122741  0.35901899
   0.16894000  0.83304000  0.06062000
   0.50222000  0.83318000  0.06077000
   0.66882000  0.66655000  0.00068000
   0.66580043  0.66215954  0.36030572
   0.83620000  0.83206000  0.06086000
   0.83889945  0.84234289  0.43841772
Direct configuration=     7
   0.66879000  0.99689000  0.12225000
   0.00127000  0.66476000  0.12046000
   0.50272000  0.83391000  0.18098000
   0.33662000  0.99784000  0.24172000
   0.00240000  0.33332000  0.24079000
   0.17444741  0.82884481  0.30365516
   0.83324705  0.83385721  0.30499178
   0.99962000  0.33431000  0.00199000
   0.01080985  0.32924923  0.37194957
   0.33922000  0.33072000  0.00000000
   0.32937174  0.33762389  0.36055188
   0.83779000  0.49999000  0.06135000
   0.33524000  0.67037000  0.00023000
   0.32918537  0.67214609  0.37027412
   0.00245000  0.99865000  0.12117000
   0.16980000  0.16587000  0.18099000
   0.33623000  0.99852000  0.12110000
   0.50164000  0.16594000  0.18135000
   0.83615000  0.16559000  0.18099000
   0.00260000  0.33284000  0.12101000
   0.16994000  0.49925000  0.18104000
   0.33651000  0.33287000  0.12086000
   0.50180000  0.49937000  0.18123000
   0.66965000  0.33304000  0.12103000
   0.83626000  0.49963000  0.18117000
   0.16899000  0.83329000  0.18177000
   0.33582000  0.66689000  0.12095000
   0.66914000  0.66722000  0.12117000
   0.83680000  0.83220000  0.18114000
   0.00172000  0.99944000  0.24151000
   0.17016551  0.16227721  0.30095785
   0.50172607  0.16803589  0.30177560
   0.66988000  0.99924000  0.24142000
   0.83627751  0.16494878  0.30290634
   0.16468833  0.49986216  0.30121802
   0.33524000  0.33246000  0.24183000
   0.50355331  0.50043019  0.30298707
   0.66902000  0.33317000  0.24123000
   0.83611792  0.49727462  0.30311761
   0.00318000  0.66598000  0.24177000
   0.33605000  0.66588000  0.24146000
   0.50241633  0.83543940  0.30254294
   0.66918000  0.66674000  0.24131000
   0.00271000  0.99869000  0.00034000
   0.01717676  0.99999179  0.35813617
   0.16929000  0.16694000  0.06071000
   0.33657000  0.00075000  0.00067000
   0.33778865  0.01143452  0.36232716
   0.50343000  0.16520000  0.06105000
   0.66948000  0.99883000  0.00053000
   0.65327549  0.01010431  0.36194629
   0.83570000  0.16556000  0.06094000
   0.17061000  0.49746000  0.06032000
   0.50215000  0.49992000  0.06086000
   0.66930000  0.33358000  0.00050000
   0.66903176  0.33068847  0.36011569
   0.00239000  0.66441000  0.00051000
   0.00434512  0.65943118  0.35872690
   0.16894000  0.83304000  0.06062000
   0.50222000  0.83318000  0.06077000
   0.66882000  0.66655000  0.00068000
   0.66440298  0.66058524  0.35998856
   0.83620000  0.83206000  0.06086000
   0.83879730  0.84047201  0.43786433
Direct configuration=     8
   0.66879000  0.99689000  0.12225000
   0.00127000  0.66476000  0.12046000
   0.50272000  0.83391000  0.18098000
   0.33662000  0.99784000  0.24172000
   0.00240000  0.33332000  0.24079000
   0.17462038  0.82871439  0.30356584
   0.83320124  0.83382406  0.30492891
   0.99962000  0.33431000  0.00199000
   0.01090107  0.32928502  0.37192469
   0.33922000  0.33072000  0.00000000
   0.32942036  0.33760242  0.36056709
   0.83779000  0.49999000  0.06135000
   0.33524000  0.67037000  0.00023000
   0.32924614  0.67219823  0.37026582
   0.00245000  0.99865000  0.12117000
   0.16980000  0.16587000  0.18099000
   0.33623000  0.99852000  0.12110000
   0.50164000  0.16594000  0.18135000
   0.83615000  0.16559000  0.18099000
   0.00260000  0.33284000  0.12101000
   0.16994000  0.49925000  0.18104000
   0.33651000  0.33287000  0.12086000
   0.50180000  0.49937000  0.18123000
   0.66965000  0.33304000  0.12103000
   0.83626000  0.49963000  0.18117000
   0.16899000  0.83329000  0.18177000
   0.33582000  0.66689000  0.12095000
   0.66914000  0.66722000  0.12117000
   0.83680000  0.83220000  0.18114000
   0.00172000  0.99944000  0.24151000
   0.17041083  0.16286428  0.30077787
   0.50122579  0.16862559  0.30155959
   0.66988000  0.99924000  0.24142000
   0.83622057  0.16504876  0.30289482
   0.16481851  0.49965735  0.30118790
   0.33524000  0.33246000  0.24183000
   0.50318327  0.50020563  0.30286726
   0.66902000  0.33317000  0.24123000
   0.83604877  0.49723764  0.30313663
   0.00318000  0.66598000  0.24177000
   0.33605000  0.66588000  0.24146000
   0.50238385  0.83535325  0.30256310
   0.66918000  0.66674000  0.24131000
   0.00271000  0.99869000  0.00034000
   0.01763312  0.00053343  0.35816626
   0.16929000  0.16694000  0.06071000
   0.33657000  0.00075000  0.00067000
   0.33771471  0.01155189  0.36239395
   0.50343000  0.16520000  0.06105000
   0.66948000  0.99883000  0.00053000
   0.65296460  0.01058419  0.36191356
   0.83570000  0.16556000  0.06094000
   0.17061000  0.49746000  0.06032000
   0.50215000  0.49992000  0.06086000
   0.66930000  0.33358000  0.00050000
   0.66899703  0.33093880  0.36018104
   0.00239000  0.66441000  0.00051000
   0.00508935  0.65857016  0.35858689
   0.16894000  0.83304000  0.06062000
   0.50222000  0.83318000  0.06077000
   0.66882000  0.66655000  0.00068000
   0.66373311  0.65983060  0.35983653
   0.83620000  0.83206000  0.06086000
   0.83874834  0.83957520  0.43759906
Direct configuration=     9
   0.66879000  0.99689000  0.12225000
   0.00127000  0.66476000  0.12046000
   0.50272000  0.83391000  0.18098000
   0.33662000  0.99784000  0.24172000
   0.00240000  0.33332000  0.24079000
   0.17467529  0.82867299  0.30353749
   0.83318670  0.83381354  0.30490895
   0.99962000  0.33431000  0.00199000
   0.01093003  0.32929638  0.37191679
   0.33922000  0.33072000  0.00000000
   0.32943580  0.33759561  0.36057191
   0.83779000  0.49999000  0.06135000
   0.33524000  0.67037000  0.00023000
   0.32926543  0.67221479  0.37026318
   0.00245000  0.99865000  0.12117000
   0.16980000  0.16587000  0.18099000
   0.33623000  0.99852000  0.12110000
   0.50164000  0.16594000  0.18135000
   0.83615000  0.16559000  0.18099000
   0.00260000  0.33284000  0.12101000
   0.16994000  0.49925000  0.18104000
   0.33651000  0.33287000  0.12086000
   0.50180000  0.49937000  0.18123000
   0.66965000  0.33304000  0.12103000
   0.83626000  0.49963000  0.18117000
   0.16899000  0.83329000  0.18177000
   0.33582000  0.66689000  0.12095000
   0.66914000  0.66722000  0.12117000
   0.83680000  0.83220000  0.18114000
   0.00172000  0.99944000  0.24151000
   0.17048871  0.16305063  0.30072074
   0.50106699  0.16881278  0.30149102
   0.66988000  0.99924000  0.24142000
   0.83620250  0.16508049  0.30289117
   0.16485984  0.49959234  0.30117833
   0.33524000  0.33246000  0.24183000
   0.50306580  0.50013434  0.30282923
   0.66902000  0.33317000  0.24123000
   0.83602682  0.49722590  0.30314267
   0.00318000  0.66598000  0.24177000
   0.33605000  0.66588000  0.24146000
   0.50237354  0.83532590  0.30256950
   0.66918000  0.66674000  0.24131000
   0.00271000  0.99869000  0.00034000
   0.01777799  0.00070537  0.35817581
   0.16929000  0.16694000  0.06071000
   0.33657000  0.00075000  0.00067000
   0.33769124  0.01158915  0.36241515
   0.50343000  0.16520000  0.06105000
   0.66948000  0.99883000  0.00053000
   0.65286591  0.01073652  0.36190317
   0.83570000  0.16556000  0.06094000
   0.17061000  0.49746000  0.06032000
   0.50215000  0.49992000  0.06086000
   0.66930000  0.33358000  0.00050000
   0.66898601  0.33101827  0.36020179
   0.00239000  0.66441000  0.00051000
   0.00532559  0.65829685  0.35854245
   0.16894000  0.83304000  0.06062000
   0.50222000  0.83318000  0.06077000
   0.66882000  0.66655000  0.00068000
   0.66352047  0.65959105  0.35978827
   0.83620000  0.83206000  0.06086000
   0.83873279  0.83929053  0.43751486
Direct configuration=    10
   0.66879000  0.99689000  0.12225000
   0.00127000  0.66476000  0.12046000
   0.50272000  0.83391000  0.18098000
   0.33662000  0.99784000  0.24172000
   0.00240000  0.33332000  0.24079000
   0.17465163  0.82900295  0.30338007
   0.83349082  0.83369746  0.30473987
   0.99962000  0.33431000  0.00199000
   0.01125723  0.32919197  0.37172790
   0.33922000  0.33072000  0.00000000
   0.32947591  0.33748954  0.36073373
   0.83779000  0.49999000  0.06135000
   0.33524000  0.67037000  0.00023000
   0.32923498  0.67205492  0.37017355
   0.00245000  0.99865000  0.12117000
   0.16980000  0.16587000  0.18099000
   0.33623000  0.99852000  0.12110000
   0.50164000  0.16594000  0.18135000
   0.83615000  0.16559000  0.18099000
   0.00260000  0.33284000  0.12101000
   0.16994000  0.49925000  0.18104000
   0.33651000  0.33287000  0.12086000
   0.50180000  0.49937000  0.18123000
   0.66965000  0.33304000  0.12103000
   0.83626000  0.49963000  0.18117000
   0.16899000  0.83329000  0.18177000
   0.33582000  0.66689000  0.12095000
   0.66914000  0.66722000  0.12117000
   0.83680000  0.83220000  0.18114000
   0.00172000  0.99944000  0.24151000
   0.17024992  0.16315558  0.30070915
   0.50123155  0.16855041  0.30159743
   0.66988000  0.99924000  0.24142000
   0.83627070  0.16523738  0.30295879
   0.16568434  0.49883724  0.30090475
   0.33524000  0.33246000  0.24183000
   0.50214776  0.49963884  0.30254129
   0.66902000  0.33317000  0.24123000
   0.83617306  0.49670451  0.30286352
   0.00318000  0.66598000  0.24177000
   0.33605000  0.66588000  0.24146000
   0.50217625  0.83553695  0.30248944
   0.66918000  0.66674000  0.24131000
   0.00271000  0.99869000  0.00034000
   0.01765956  0.00071885  0.35834855
   0.16929000  0.16694000  0.06071000
   0.33657000  0.00075000  0.00067000
   0.33743603  0.01177212  0.36242602
   0.50343000  0.16520000  0.06105000
   0.66948000  0.99883000  0.00053000
   0.65285441  0.01101381  0.36179945
   0.83570000  0.16556000  0.06094000
   0.17061000  0.49746000  0.06032000
   0.50215000  0.49992000  0.06086000
   0.66930000  0.33358000  0.00050000
   0.66875125  0.33115892  0.36032201
   0.00239000  0.66441000  0.00051000
   0.00597153  0.65810859  0.35848547
   0.16894000  0.83304000  0.06062000
   0.50222000  0.83318000  0.06077000
   0.66882000  0.66655000  0.00068000
   0.66301261  0.65937683  0.35973617
   0.83620000  0.83206000  0.06086000
   0.83863209  0.83856728  0.43736809
Direct configuration=    11
   0.66879000  0.99689000  0.12225000
   0.00127000  0.66476000  0.12046000
   0.50272000  0.83391000  0.18098000
   0.33662000  0.99784000  0.24172000
   0.00240000  0.33332000  0.24079000
   0.17464286  0.82912533  0.30332168
   0.83360360  0.83365441  0.30467716
   0.99962000  0.33431000  0.00199000
   0.01137858  0.32915324  0.37165786
   0.33922000  0.33072000  0.00000000
   0.32949078  0.33745020  0.36079374
   0.83779000  0.49999000  0.06135000
   0.33524000  0.67037000  0.00023000
   0.32922369  0.67199563  0.37014031
   0.00245000  0.99865000  0.12117000
   0.16980000  0.16587000  0.18099000
   0.33623000  0.99852000  0.12110000
   0.50164000  0.16594000  0.18135000
   0.83615000  0.16559000  0.18099000
   0.00260000  0.33284000  0.12101000
   0.16994000  0.49925000  0.18104000
   0.33651000  0.33287000  0.12086000
   0.50180000  0.49937000  0.18123000
   0.66965000  0.33304000  0.12103000
   0.83626000  0.49963000  0.18117000
   0.16899000  0.83329000  0.18177000
   0.33582000  0.66689000  0.12095000
   0.66914000  0.66722000  0.12117000
   0.83680000  0.83220000  0.18114000
   0.00172000  0.99944000  0.24151000
   0.17016136  0.16319450  0.30070485
   0.50129258  0.16845311  0.30163690
   0.66988000  0.99924000  0.24142000
   0.83629600  0.16529556  0.30298386
   0.16599012  0.49855720  0.30080329
   0.33524000  0.33246000  0.24183000
   0.50180728  0.49945507  0.30243451
   0.66902000  0.33317000  0.24123000
   0.83622729  0.49651114  0.30276000
   0.00318000  0.66598000  0.24177000
   0.33605000  0.66588000  0.24146000
   0.50210308  0.83561522  0.30245975
   0.66918000  0.66674000  0.24131000
   0.00271000  0.99869000  0.00034000
   0.01761564  0.00072385  0.35841262
   0.16929000  0.16694000  0.06071000
   0.33657000  0.00075000  0.00067000
   0.33734138  0.01183997  0.36243006
   0.50343000  0.16520000  0.06105000
   0.66948000  0.99883000  0.00053000
   0.65285015  0.01111664  0.36176099
   0.83570000  0.16556000  0.06094000
   0.17061000  0.49746000  0.06032000
   0.50215000  0.49992000  0.06086000
   0.66930000  0.33358000  0.00050000
   0.66866419  0.33121108  0.36036659
   0.00239000  0.66441000  0.00051000
   0.00621109  0.65803877  0.35846433
   0.16894000  0.83304000  0.06062000
   0.50222000  0.83318000  0.06077000
   0.66882000  0.66655000  0.00068000
   0.66282426  0.65929739  0.35971685
   0.83620000  0.83206000  0.06086000
   0.83859475  0.83829906  0.43731367
Direct configuration=    12
   0.66879000  0.99689000  0.12225000
   0.00127000  0.66476000  0.12046000
   0.50272000  0.83391000  0.18098000
   0.33662000  0.99784000  0.24172000
   0.00240000  0.33332000  0.24079000
   0.17449190  0.82937576  0.30324939
   0.83375014  0.83340746  0.30458684
   0.99962000  0.33431000  0.00199000
   0.01178679  0.32927432  0.37144497
   0.33922000  0.33072000  0.00000000
   0.32964811  0.33708209  0.36105680
   0.83779000  0.49999000  0.06135000
   0.33524000  0.67037000  0.00023000
   0.32914606  0.67173255  0.36994275
   0.00245000  0.99865000  0.12117000
   0.16980000  0.16587000  0.18099000
   0.33623000  0.99852000  0.12110000
   0.50164000  0.16594000  0.18135000
   0.83615000  0.16559000  0.18099000
   0.00260000  0.33284000  0.12101000
   0.16994000  0.49925000  0.18104000
   0.33651000  0.33287000  0.12086000
   0.50180000  0.49937000  0.18123000
   0.66965000  0.33304000  0.12103000
   0.83626000  0.49963000  0.18117000
   0.16899000  0.83329000  0.18177000
   0.33582000  0.66689000  0.12095000
   0.66914000  0.66722000  0.12117000
   0.83680000  0.83220000  0.18114000
   0.00172000  0.99944000  0.24151000
   0.16992418  0.16264648  0.30077419
   0.50138811  0.16829108  0.30177400
   0.66988000  0.99924000  0.24142000
   0.83632716  0.16515429  0.30305240
   0.16619938  0.49854724  0.30064634
   0.33524000  0.33246000  0.24183000
   0.50185402  0.49945121  0.30238988
   0.66902000  0.33317000  0.24123000
   0.83634049  0.49653143  0.30268891
   0.00318000  0.66598000  0.24177000
   0.33605000  0.66588000  0.24146000
   0.50207692  0.83566307  0.30243248
   0.66918000  0.66674000  0.24131000
   0.00271000  0.99869000  0.00034000
   0.01731108  0.00060391  0.35851800
   0.16929000  0.16694000  0.06071000
   0.33657000  0.00075000  0.00067000
   0.33694097  0.01200342  0.36245024
   0.50343000  0.16520000  0.06105000
   0.66948000  0.99883000  0.00053000
   0.65332264  0.01094901  0.36174612
   0.83570000  0.16556000  0.06094000
   0.17061000  0.49746000  0.06032000
   0.50215000  0.49992000  0.06086000
   0.66930000  0.33358000  0.00050000
   0.66832889  0.33144461  0.36039168
   0.00239000  0.66441000  0.00051000
   0.00664895  0.65778253  0.35821926
   0.16894000  0.83304000  0.06062000
   0.50222000  0.83318000  0.06077000
   0.66882000  0.66655000  0.00068000
   0.66245754  0.65897917  0.35945272
   0.83620000  0.83206000  0.06086000
   0.83837241  0.83763266  0.43721930
Direct configuration=    13
   0.66879000  0.99689000  0.12225000
   0.00127000  0.66476000  0.12046000
   0.50272000  0.83391000  0.18098000
   0.33662000  0.99784000  0.24172000
   0.00240000  0.33332000  0.24079000
   0.17438805  0.82954802  0.30319966
   0.83385094  0.83323758  0.30452470
   0.99962000  0.33431000  0.00199000
   0.01206759  0.32935760  0.37129853
   0.33922000  0.33072000  0.00000000
   0.32975633  0.33682887  0.36123776
   0.83779000  0.49999000  0.06135000
   0.33524000  0.67037000  0.00023000
   0.32909265  0.67155158  0.36980685
   0.00245000  0.99865000  0.12117000
   0.16980000  0.16587000  0.18099000
   0.33623000  0.99852000  0.12110000
   0.50164000  0.16594000  0.18135000
   0.83615000  0.16559000  0.18099000
   0.00260000  0.33284000  0.12101000
   0.16994000  0.49925000  0.18104000
   0.33651000  0.33287000  0.12086000
   0.50180000  0.49937000  0.18123000
   0.66965000  0.33304000  0.12103000
   0.83626000  0.49963000  0.18117000
   0.16899000  0.83329000  0.18177000
   0.33582000  0.66689000  0.12095000
   0.66914000  0.66722000  0.12117000
   0.83680000  0.83220000  0.18114000
   0.00172000  0.99944000  0.24151000
   0.16976103  0.16226951  0.30082188
   0.50145382  0.16817962  0.30186830
   0.66988000  0.99924000  0.24142000
   0.83634860  0.16505711  0.30309955
   0.16634333  0.49854038  0.30053838
   0.33524000  0.33246000  0.24183000
   0.50188617  0.49944856  0.30235919
   0.66902000  0.33317000  0.24123000
   0.83641835  0.49654539  0.30264000
   0.00318000  0.66598000  0.24177000
   0.33605000  0.66588000  0.24146000
   0.50205893  0.83569599  0.30241373
   0.66918000  0.66674000  0.24131000
   0.00271000  0.99869000  0.00034000
   0.01710157  0.00052140  0.35859049
   0.16929000  0.16694000  0.06071000
   0.33657000  0.00075000  0.00067000
   0.33666554  0.01211586  0.36246413
   0.50343000  0.16520000  0.06105000
   0.66948000  0.99883000  0.00053000
   0.65364766  0.01083370  0.36173589
   0.83570000  0.16556000  0.06094000
   0.17061000  0.49746000  0.06032000
   0.50215000  0.49992000  0.06086000
   0.66930000  0.33358000  0.00050000
   0.66809825  0.33160526  0.36040894
   0.00239000  0.66441000  0.00051000
   0.00695015  0.65760626  0.35805068
   0.16894000  0.83304000  0.06062000
   0.50222000  0.83318000  0.06077000
   0.66882000  0.66655000  0.00068000
   0.66220528  0.65876027  0.35927103
   0.83620000  0.83206000  0.06086000
   0.83821948  0.83717426  0.43715438
Direct configuration=    14
   0.66879000  0.99689000  0.12225000
   0.00127000  0.66476000  0.12046000
   0.50272000  0.83391000  0.18098000
   0.33662000  0.99784000  0.24172000
   0.00240000  0.33332000  0.24079000
   0.17445218  0.82937956  0.30320896
   0.83357704  0.83320136  0.30456141
   0.99962000  0.33431000  0.00199000
   0.01228964  0.32955341  0.37117277
   0.33922000  0.33072000  0.00000000
   0.32989744  0.33642645  0.36132086
   0.83779000  0.49999000  0.06135000
   0.33524000  0.67037000  0.00023000
   0.32907142  0.67139062  0.36962290
   0.00245000  0.99865000  0.12117000
   0.16980000  0.16587000  0.18099000
   0.33623000  0.99852000  0.12110000
   0.50164000  0.16594000  0.18135000
   0.83615000  0.16559000  0.18099000
   0.00260000  0.33284000  0.12101000
   0.16994000  0.49925000  0.18104000
   0.33651000  0.33287000  0.12086000
   0.50180000  0.49937000  0.18123000
   0.66965000  0.33304000  0.12103000
   0.83626000  0.49963000  0.18117000
   0.16899000  0.83329000  0.18177000
   0.33582000  0.66689000  0.12095000
   0.66914000  0.66722000  0.12117000
   0.83680000  0.83220000  0.18114000
   0.00172000  0.99944000  0.24151000
   0.17011419  0.16223480  0.30078026
   0.50120892  0.16840925  0.30184350
   0.66988000  0.99924000  0.24142000
   0.83620589  0.16499191  0.30308421
   0.16632965  0.49854206  0.30054585
   0.33524000  0.33246000  0.24183000
   0.50202226  0.49924735  0.30238816
   0.66902000  0.33317000  0.24123000
   0.83631054  0.49659353  0.30270340
   0.00318000  0.66598000  0.24177000
   0.33605000  0.66588000  0.24146000
   0.50208064  0.83574167  0.30242970
   0.66918000  0.66674000  0.24131000
   0.00271000  0.99869000  0.00034000
   0.01670362  0.00031333  0.35863999
   0.16929000  0.16694000  0.06071000
   0.33657000  0.00075000  0.00067000
   0.33643845  0.01203201  0.36254784
   0.50343000  0.16520000  0.06105000
   0.66948000  0.99883000  0.00053000
   0.65427265  0.01036753  0.36178065
   0.83570000  0.16556000  0.06094000
   0.17061000  0.49746000  0.06032000
   0.50215000  0.49992000  0.06086000
   0.66930000  0.33358000  0.00050000
   0.66800812  0.33185431  0.36036894
   0.00239000  0.66441000  0.00051000
   0.00692416  0.65762064  0.35795611
   0.16894000  0.83304000  0.06062000
   0.50222000  0.83318000  0.06077000
   0.66882000  0.66655000  0.00068000
   0.66236236  0.65877239  0.35920265
   0.83620000  0.83206000  0.06086000
   0.83802048  0.83631013  0.43706971
Direct configuration=    15
   0.66879000  0.99689000  0.12225000
   0.00127000  0.66476000  0.12046000
   0.50272000  0.83391000  0.18098000
   0.33662000  0.99784000  0.24172000
   0.00240000  0.33332000  0.24079000
   0.17446317  0.82935071  0.30321055
   0.83353013  0.83319515  0.30456770
   0.99962000  0.33431000  0.00199000
   0.01232767  0.32958694  0.37115124
   0.33922000  0.33072000  0.00000000
   0.32992161  0.33635753  0.36133509
   0.83779000  0.49999000  0.06135000
   0.33524000  0.67037000  0.00023000
   0.32906778  0.67136305  0.36959139
   0.00245000  0.99865000  0.12117000
   0.16980000  0.16587000  0.18099000
   0.33623000  0.99852000  0.12110000
   0.50164000  0.16594000  0.18135000
   0.83615000  0.16559000  0.18099000
   0.00260000  0.33284000  0.12101000
   0.16994000  0.49925000  0.18104000
   0.33651000  0.33287000  0.12086000
   0.50180000  0.49937000  0.18123000
   0.66965000  0.33304000  0.12103000
   0.83626000  0.49963000  0.18117000
   0.16899000  0.83329000  0.18177000
   0.33582000  0.66689000  0.12095000
   0.66914000  0.66722000  0.12117000
   0.83680000  0.83220000  0.18114000
   0.00172000  0.99944000  0.24151000
   0.17017468  0.16222886  0.30077314
   0.50116697  0.16844858  0.30183926
   0.66988000  0.99924000  0.24142000
   0.83618145  0.16498074  0.30308158
   0.16632731  0.49854235  0.30054713
   0.33524000  0.33246000  0.24183000
   0.50204556  0.49921289  0.30239312
   0.66902000  0.33317000  0.24123000
   0.83629208  0.49660178  0.30271426
   0.00318000  0.66598000  0.24177000
   0.33605000  0.66588000  0.24146000
   0.50208436  0.83574949  0.30243243
   0.66918000  0.66674000  0.24131000
   0.00271000  0.99869000  0.00034000
   0.01663546  0.00027770  0.35864847
   0.16929000  0.16694000  0.06071000
   0.33657000  0.00075000  0.00067000
   0.33639956  0.01201765  0.36256217
   0.50343000  0.16520000  0.06105000
   0.66948000  0.99883000  0.00053000
   0.65437969  0.01028769  0.36178831
   0.83570000  0.16556000  0.06094000
   0.17061000  0.49746000  0.06032000
   0.50215000  0.49992000  0.06086000
   0.66930000  0.33358000  0.00050000
   0.66799268  0.33189696  0.36036209
   0.00239000  0.66441000  0.00051000
   0.00691971  0.65762310  0.35793991
   0.16894000  0.83304000  0.06062000
   0.50222000  0.83318000  0.06077000
   0.66882000  0.66655000  0.00068000
   0.66238927  0.65877446  0.35919094
   0.83620000  0.83206000  0.06086000
   0.83798640  0.83616213  0.43705521
Direct configuration=    16
   0.66879000  0.99689000  0.12225000
   0.00127000  0.66476000  0.12046000
   0.50272000  0.83391000  0.18098000
   0.33662000  0.99784000  0.24172000
   0.00240000  0.33332000  0.24079000
   0.17445556  0.82937068  0.30320945
   0.83356260  0.83319945  0.30456334
   0.99962000  0.33431000  0.00199000
   0.01230134  0.32956373  0.37116614
   0.33922000  0.33072000  0.00000000
   0.32990488  0.33640524  0.36132524
   0.83779000  0.49999000  0.06135000
   0.33524000  0.67037000  0.00023000
   0.32907030  0.67138213  0.36961320
   0.00245000  0.99865000  0.12117000
   0.16980000  0.16587000  0.18099000
   0.33623000  0.99852000  0.12110000
   0.50164000  0.16594000  0.18135000
   0.83615000  0.16559000  0.18099000
   0.00260000  0.33284000  0.12101000
   0.16994000  0.49925000  0.18104000
   0.33651000  0.33287000  0.12086000
   0.50180000  0.49937000  0.18123000
   0.66965000  0.33304000  0.12103000
   0.83626000  0.49963000  0.18117000
   0.16899000  0.83329000  0.18177000
   0.33582000  0.66689000  0.12095000
   0.66914000  0.66722000  0.12117000
   0.83680000  0.83220000  0.18114000
   0.00172000  0.99944000  0.24151000
   0.17013281  0.16223297  0.30077807
   0.50119601  0.16842136  0.30184220
   0.66988000  0.99924000  0.24142000
   0.83619837  0.16498847  0.30308340
   0.16632893  0.49854215  0.30054625
   0.33524000  0.33246000  0.24183000
   0.50202943  0.49923674  0.30238969
   0.66902000  0.33317000  0.24123000
   0.83630486  0.49659607  0.30270674
   0.00318000  0.66598000  0.24177000
   0.33605000  0.66588000  0.24146000
   0.50208178  0.83574408  0.30243054
   0.66918000  0.66674000  0.24131000
   0.00271000  0.99869000  0.00034000
   0.01668264  0.00030236  0.35864260
   0.16929000  0.16694000  0.06071000
   0.33657000  0.00075000  0.00067000
   0.33642648  0.01202759  0.36255225
   0.50343000  0.16520000  0.06105000
   0.66948000  0.99883000  0.00053000
   0.65430559  0.01034296  0.36178301
   0.83570000  0.16556000  0.06094000
   0.17061000  0.49746000  0.06032000
   0.50215000  0.49992000  0.06086000
   0.66930000  0.33358000  0.00050000
   0.66800336  0.33186743  0.36036684
   0.00239000  0.66441000  0.00051000
   0.00692279  0.65762140  0.35795112
   0.16894000  0.83304000  0.06062000
   0.50222000  0.83318000  0.06077000
   0.66882000  0.66655000  0.00068000
   0.66237064  0.65877302  0.35919905
   0.83620000  0.83206000  0.06086000
   0.83800999  0.83626458  0.43706525
Direct configuration=    17
   0.66879000  0.99689000  0.12225000
   0.00127000  0.66476000  0.12046000
   0.50272000  0.83391000  0.18098000
   0.33662000  0.99784000  0.24172000
   0.00240000  0.33332000  0.24079000
   0.17451420  0.82922221  0.30327241
   0.83334267  0.83332798  0.30458959
   0.99962000  0.33431000  0.00199000
   0.01236535  0.32965149  0.37108586
   0.33922000  0.33072000  0.00000000
   0.32999860  0.33610241  0.36135495
   0.83779000  0.49999000  0.06135000
   0.33524000  0.67037000  0.00023000
   0.32911900  0.67128685  0.36948454
   0.00245000  0.99865000  0.12117000
   0.16980000  0.16587000  0.18099000
   0.33623000  0.99852000  0.12110000
   0.50164000  0.16594000  0.18135000
   0.83615000  0.16559000  0.18099000
   0.00260000  0.33284000  0.12101000
   0.16994000  0.49925000  0.18104000
   0.33651000  0.33287000  0.12086000
   0.50180000  0.49937000  0.18123000
   0.66965000  0.33304000  0.12103000
   0.83626000  0.49963000  0.18117000
   0.16899000  0.83329000  0.18177000
   0.33582000  0.66689000  0.12095000
   0.66914000  0.66722000  0.12117000
   0.83680000  0.83220000  0.18114000
   0.00172000  0.99944000  0.24151000
   0.17018742  0.16216203  0.30077074
   0.50136072  0.16814887  0.30187755
   0.66988000  0.99924000  0.24142000
   0.83616855  0.16505866  0.30305172
   0.16632457  0.49844367  0.30056713
   0.33524000  0.33246000  0.24183000
   0.50200793  0.49917396  0.30239118
   0.66902000  0.33317000  0.24123000
   0.83622615  0.49656521  0.30270536
   0.00318000  0.66598000  0.24177000
   0.33605000  0.66588000  0.24146000
   0.50208125  0.83582694  0.30245157
   0.66918000  0.66674000  0.24131000
   0.00271000  0.99869000  0.00034000
   0.01662255  0.00029450  0.35855361
   0.16929000  0.16694000  0.06071000
   0.33657000  0.00075000  0.00067000
   0.33640328  0.01191803  0.36259454
   0.50343000  0.16520000  0.06105000
   0.66948000  0.99883000  0.00053000
   0.65443263  0.01019302  0.36170581
   0.83570000  0.16556000  0.06094000
   0.17061000  0.49746000  0.06032000
   0.50215000  0.49992000  0.06086000
   0.66930000  0.33358000  0.00050000
   0.66799028  0.33193968  0.36034510
   0.00239000  0.66441000  0.00051000
   0.00679244  0.65775281  0.35797430
   0.16894000  0.83304000  0.06062000
   0.50222000  0.83318000  0.06077000
   0.66882000  0.66655000  0.00068000
   0.66250462  0.65881938  0.35925672
   0.83620000  0.83206000  0.06086000
   0.83791677  0.83525388  0.43709617
