Generated by VASPKIT code               
   1.00000000000000     
     8.5097000000000005    0.0000000000000000    0.0000000000000000
    -0.0037262700000000    8.5392991899999995    0.0000000000000000
     0.0000000000000000    0.0000000000000000   23.5714000000000006
   Fe   Cr
    49    13
Selective dynamics
Direct
     0.8331000000000017    0.4987100000000027    0.0600099999999983   F   F   F
     0.8347199999999972    0.8319199999999967    0.0602700000000027   F   F   F
     0.0008100000000013    0.6642500000000027    0.0003400000000013   F   F   F
     0.1625572175131685    0.8308306846298237    0.3002558319576367   T   T   T
     0.6640912899516549    0.3307692398388846    0.3591015594903902   T   T   T
     0.6655900000000017    0.3313800000000029    0.0004399999999976   F   F   F
     0.4996799999999979    0.8332199999999972    0.0604599999999991   F   F   F
     0.6672099999999972    0.3332100000000011    0.2406700000000015   F   F   F
     0.5005799999999994    0.4994999999999976    0.1802399999999977   F   F   F
     0.3359499999999969    0.3319600000000023    0.1191200000000023   F   F   F
     0.3346200000000010    0.3337599999999981    0.2405899999999974   F   F   F
     0.5019746728575638    0.5013501910430095    0.3013708900918741   T   T   T
     0.0005499999999969    0.3318999999999974    0.1200600000000023   F   F   F
     0.1675200000000032    0.4994500000000031    0.1806500000000000   F   F   F
     0.0002100000000027    0.3314499999999967    0.0003799999999998   F   F   F
     0.3350999999999971    0.3316999999999979    0.0002899999999997   F   F   F
     0.0057832260041573    0.3330693793159339    0.3608777847661483   T   T   T
     0.0007700000000028    0.9995899999999978    0.1203599999999980   F   F   F
     0.1681400000000011    0.1663399999999982    0.1804800000000029   F   F   F
     0.3340499999999977    0.6659300000000030    0.1209500000000006   F   F   F
     0.5007799999999989    0.8324199999999990    0.1812100000000001   F   F   F
     0.9946248622563366    0.6655814076123311    0.3581909549202119   T   T   T
     0.9998199999999997    0.3335900000000009    0.2402999999999977   F   F   F
     0.0002500000000012    0.6656899999999979    0.1205100000000030   F   F   F
     0.1658100000000005    0.8321699999999979    0.1811399999999992   F   F   F
     0.6656600000000026    0.3312299999999979    0.1197000000000017   F   F   F
     0.8284323546940017    0.8330187443227166    0.3031726057205265   T   T   T
     0.1678251993673247    0.5000749634948173    0.3021654830924648   T   T   T
     0.1680626923622445    0.1662531638043738    0.3020622866060306   T   T   T
     0.0016099999999994    0.9989100000000022    0.0002399999999980   F   F   F
     0.0092972298843255    0.9993172389155469    0.3605874077083040   T   T   T
     0.1680700000000002    0.1653900000000021    0.0600400000000008   F   F   F
     0.5042734128999558    0.8313303280084765    0.3003814901002050   T   T   T
     0.8347600000000028    0.8330300000000008    0.1813199999999995   F   F   F
     0.6671499999999995    0.6655900000000017    0.0000000000000000   F   F   F
     0.6671899999999980    0.6664000000000030    0.1203199999999995   F   F   F
     0.8330199999999977    0.4993699999999990    0.1799499999999981   F   F   F
     0.1676900000000003    0.8338899999999967    0.0602900000000020   F   F   F
     0.4985705173455945    0.1650168412821931    0.3026091973666714   T   T   T
     0.3328899999999990    0.9982400000000027    0.2413000000000025   F   F   F
     0.6667899999999989    0.9991399999999970    0.2409699999999972   F   F   F
     0.3346599999999995    0.0002300000000020    0.1208200000000019   F   F   F
     0.6674599999999984    0.9981500000000025    0.0000100000000032   F   F   F
     0.8345736408015785    0.1664082579844439    0.3030670663876255   T   T   T
     0.8335799999999978    0.1645600000000016    0.0601300000000009   F   F   F
     0.6629637867870241    0.0017022218769792    0.3600226617544345   T   T   T
     0.8336400000000026    0.1659300000000030    0.1806199999999976   F   F   F
     0.6665300000000016    0.9997200000000035    0.1204400000000021   F   F   F
     0.3337138935918793    0.3334422191451006    0.3598992759880669   T   T   T
     0.3348700000000022    0.0016699999999972    0.0006600000000034   F   F   F
     0.3313984244118134    0.9888187948424947    0.3540798438604142   T   T   T
     0.0012200000000036    0.0021699999999996    0.2408000000000001   F   F   F
     0.1672200000000004    0.5017899999999997    0.0590299999999999   F   F   F
     0.5000000000000000    0.5034399999999977    0.0594899999999967   F   F   F
     0.4986099999999993    0.1611499999999992    0.0586800000000025   F   F   F
     0.4996799999999979    0.1644399999999990    0.1818200000000019   F   F   F
     0.8342699895256162    0.5079947872103386    0.2996118047525179   T   T   T
     0.9972199999999987    0.6613499999999988    0.2415099999999981   F   F   F
     0.3341899999999995    0.6657300000000035    0.2404000000000011   F   F   F
     0.3341399999999979    0.6585499999999982    0.0027800000000013   F   F   F
     0.3337595317818178    0.6753582173571459    0.3684980218010750   T   T   T
     0.6692299999999989    0.6633700000000005    0.2409699999999972   F   F   F
 
  0.00000000E+00  0.00000000E+00  0.00000000E+00
  0.00000000E+00  0.00000000E+00  0.00000000E+00
  0.00000000E+00  0.00000000E+00  0.00000000E+00
  0.00000000E+00  0.00000000E+00  0.00000000E+00
  0.00000000E+00  0.00000000E+00  0.00000000E+00
  0.00000000E+00  0.00000000E+00  0.00000000E+00
  0.00000000E+00  0.00000000E+00  0.00000000E+00
  0.00000000E+00  0.00000000E+00  0.00000000E+00
  0.00000000E+00  0.00000000E+00  0.00000000E+00
  0.00000000E+00  0.00000000E+00  0.00000000E+00
  0.00000000E+00  0.00000000E+00  0.00000000E+00
  0.00000000E+00  0.00000000E+00  0.00000000E+00
  0.00000000E+00  0.00000000E+00  0.00000000E+00
  0.00000000E+00  0.00000000E+00  0.00000000E+00
  0.00000000E+00  0.00000000E+00  0.00000000E+00
  0.00000000E+00  0.00000000E+00  0.00000000E+00
  0.00000000E+00  0.00000000E+00  0.00000000E+00
  0.00000000E+00  0.00000000E+00  0.00000000E+00
  0.00000000E+00  0.00000000E+00  0.00000000E+00
  0.00000000E+00  0.00000000E+00  0.00000000E+00
  0.00000000E+00  0.00000000E+00  0.00000000E+00
  0.00000000E+00  0.00000000E+00  0.00000000E+00
  0.00000000E+00  0.00000000E+00  0.00000000E+00
  0.00000000E+00  0.00000000E+00  0.00000000E+00
  0.00000000E+00  0.00000000E+00  0.00000000E+00
  0.00000000E+00  0.00000000E+00  0.00000000E+00
  0.00000000E+00  0.00000000E+00  0.00000000E+00
  0.00000000E+00  0.00000000E+00  0.00000000E+00
  0.00000000E+00  0.00000000E+00  0.00000000E+00
  0.00000000E+00  0.00000000E+00  0.00000000E+00
  0.00000000E+00  0.00000000E+00  0.00000000E+00
  0.00000000E+00  0.00000000E+00  0.00000000E+00
  0.00000000E+00  0.00000000E+00  0.00000000E+00
  0.00000000E+00  0.00000000E+00  0.00000000E+00
  0.00000000E+00  0.00000000E+00  0.00000000E+00
  0.00000000E+00  0.00000000E+00  0.00000000E+00
  0.00000000E+00  0.00000000E+00  0.00000000E+00
  0.00000000E+00  0.00000000E+00  0.00000000E+00
  0.00000000E+00  0.00000000E+00  0.00000000E+00
  0.00000000E+00  0.00000000E+00  0.00000000E+00
  0.00000000E+00  0.00000000E+00  0.00000000E+00
  0.00000000E+00  0.00000000E+00  0.00000000E+00
  0.00000000E+00  0.00000000E+00  0.00000000E+00
  0.00000000E+00  0.00000000E+00  0.00000000E+00
  0.00000000E+00  0.00000000E+00  0.00000000E+00
  0.00000000E+00  0.00000000E+00  0.00000000E+00
  0.00000000E+00  0.00000000E+00  0.00000000E+00
  0.00000000E+00  0.00000000E+00  0.00000000E+00
  0.00000000E+00  0.00000000E+00  0.00000000E+00
  0.00000000E+00  0.00000000E+00  0.00000000E+00
  0.00000000E+00  0.00000000E+00  0.00000000E+00
  0.00000000E+00  0.00000000E+00  0.00000000E+00
  0.00000000E+00  0.00000000E+00  0.00000000E+00
  0.00000000E+00  0.00000000E+00  0.00000000E+00
  0.00000000E+00  0.00000000E+00  0.00000000E+00
  0.00000000E+00  0.00000000E+00  0.00000000E+00
  0.00000000E+00  0.00000000E+00  0.00000000E+00
  0.00000000E+00  0.00000000E+00  0.00000000E+00
  0.00000000E+00  0.00000000E+00  0.00000000E+00
  0.00000000E+00  0.00000000E+00  0.00000000E+00
  0.00000000E+00  0.00000000E+00  0.00000000E+00
  0.00000000E+00  0.00000000E+00  0.00000000E+00
