 
:: initializing oneAPI environment ...
   slurm_script: BASH_VERSION = 4.4.20(1)-release
   args: Using "$@" for setvars.sh arguments: --force
:: advisor -- latest
:: ccl -- latest
:: compiler -- latest
:: dal -- latest
:: debugger -- latest
:: dev-utilities -- latest
:: dnnl -- latest
:: dpcpp-ct -- latest
:: dpl -- latest
:: ipp -- latest
:: ippcp -- latest
:: mkl -- latest
:: mpi -- latest
:: pti -- latest
:: tbb -- latest
:: umf -- latest
:: vtune -- latest
:: oneAPI environment initialized ::
 
 running   96 mpi-ranks, on    1 nodes
 distrk:  each k-point on   12 cores,    8 groups
 distr:  one band on    4 cores,    3 groups
 vasp.6.5.1 10Mar25 (build Oct 09 2025 23:55:08) complex                        
  
 POSCAR found type information on POSCAR FeCrPb
 POSCAR found :  3 types and      64 ions
 -----------------------------------------------------------------------------
|                                                                             |
|           W    W    AA    RRRRR   N    N  II  N    N   GGGG   !!!           |
|           W    W   A  A   R    R  NN   N  II  NN   N  G    G  !!!           |
|           W    W  A    A  R    R  N N  N  II  N N  N  G       !!!           |
|           W WW W  AAAAAA  RRRRR   N  N N  II  N  N N  G  GGG   !            |
|           WW  WW  A    A  R   R   N   NN  II  N   NN  G    G                |
|           W    W  A    A  R    R  N    N  II  N    N   GGGG   !!!           |
|                                                                             |
|     You requested a magnetic or noncollinear calculation, but did not       |
|     specify the initial magnetic moment with the MAGMOM tag. Note that      |
|     a default of 1 will be used for all atoms. This ferromagnetic setup     |
|     may break the symmetry of the crystal, in particular it may rule        |
|     out finding an antiferromagnetic solution. Thence, we recommend         |
|     setting the initial magnetic moment manually or verifying carefully     |
|     that this magnetic setup is desired.                                    |
|                                                                             |
 -----------------------------------------------------------------------------

 scaLAPACK will be used
 -----------------------------------------------------------------------------
|                                                                             |
|           W    W    AA    RRRRR   N    N  II  N    N   GGGG   !!!           |
|           W    W   A  A   R    R  NN   N  II  NN   N  G    G  !!!           |
|           W    W  A    A  R    R  N N  N  II  N N  N  G       !!!           |
|           W WW W  AAAAAA  RRRRR   N  N N  II  N  N N  G  GGG   !            |
|           WW  WW  A    A  R   R   N   NN  II  N   NN  G    G                |
|           W    W  A    A  R    R  N    N  II  N    N   GGGG   !!!           |
|                                                                             |
|     For optimal performance we recommend to set                             |
|       NCORE = 2 up to number-of-cores-per-socket                            |
|     NCORE specifies how many cores store one orbital (NPAR=cpu/NCORE).      |
|     This setting can greatly improve the performance of VASP for DFT.       |
|     The default, NCORE=1 might be grossly inefficient on modern             |
|     multi-core architectures or massively parallel machines. Do your        |
|     own testing! More info at https://www.vasp.at/wiki/index.php/NCORE      |
|     Unfortunately you need to use the default for GW and RPA                |
|     calculations (for HF NCORE is supported but not extensively tested      |
|     yet).                                                                   |
|                                                                             |
 -----------------------------------------------------------------------------

 LDA part: xc-table for (Slater+PW92), standard interpolation
 POSCAR, INCAR and KPOINTS ok, starting setup
 FFT: planning ... GRIDC
 FFT: planning ... GRID_SOFT
 FFT: planning ... GRID
 WAVECAR not read
 WARNING: chargedensity file is incomplete
 WARNING: random wavefunctions but no delay for mixing, default for NELMDL
 entering main loop
       N       E                     dE             d eps       ncg     rms          rms(c)
DAV:   1     0.561817057408E+04    0.56182E+04   -0.24114E+05 15828   0.144E+03
DAV:   2    -0.622621424380E+02   -0.56804E+04   -0.54818E+04 15000   0.421E+02
DAV:   3    -0.525599665629E+03   -0.46334E+03   -0.40939E+03 15405   0.163E+02
DAV:   4    -0.586233354513E+03   -0.60634E+02   -0.56533E+02 26499   0.454E+01
DAV:   5    -0.589694906307E+03   -0.34616E+01   -0.32813E+01 24627   0.108E+01    0.940E+01
DAV:   6    -0.666072738791E+03   -0.76378E+02   -0.22381E+02 27111   0.717E+01    0.143E+02
DAV:   7    -0.560127556673E+03    0.10595E+03   -0.13888E+02 27651   0.664E+01    0.876E+01
DAV:   8    -0.649112223236E+03   -0.88985E+02   -0.89405E+01 27408   0.698E+01    0.137E+02
DAV:   9    -0.541808582264E+03    0.10730E+03   -0.97406E+01 26967   0.616E+01    0.820E+01
DAV:  10    -0.509470911353E+03    0.32338E+02   -0.11463E+02 23745   0.372E+01    0.504E+01
DAV:  11    -0.500994264650E+03    0.84766E+01   -0.46537E+01 21027   0.260E+01    0.408E+01
DAV:  12    -0.500361477393E+03    0.63279E+00   -0.91471E+00 22098   0.135E+01    0.380E+01
DAV:  13    -0.500704382510E+03   -0.34291E+00   -0.15531E+00 23358   0.514E+00    0.376E+01
DAV:  14    -0.501699364073E+03   -0.99498E+00   -0.40443E-01 26040   0.282E+00    0.386E+01
DAV:  15    -0.503359169782E+03   -0.16598E+01   -0.21217E+00 26958   0.597E+00    0.359E+01
DAV:  16    -0.505838797814E+03   -0.24796E+01   -0.38889E+00 25167   0.697E+00    0.294E+01
DAV:  17    -0.508482865908E+03   -0.26441E+01   -0.44599E+00 25320   0.699E+00    0.250E+01
DAV:  18    -0.509587401922E+03   -0.11045E+01   -0.18989E+00 25077   0.519E+00    0.251E+01
DAV:  19    -0.509800925536E+03   -0.21352E+00   -0.10593E+00 25941   0.403E+00    0.212E+01
DAV:  20    -0.511328374986E+03   -0.15274E+01   -0.22139E+00 26175   0.649E+00    0.184E+01
DAV:  21    -0.511283593764E+03    0.44781E-01   -0.17852E+00 26364   0.500E+00    0.137E+01
DAV:  22    -0.511178755538E+03    0.10484E+00   -0.70845E-01 24798   0.384E+00    0.127E+01
DAV:  23    -0.511468026433E+03   -0.28927E+00   -0.58255E-01 25473   0.265E+00    0.121E+01
DAV:  24    -0.511771613097E+03   -0.30359E+00   -0.41921E-01 25401   0.210E+00    0.115E+01
DAV:  25    -0.511953136087E+03   -0.18152E+00   -0.28966E-01 26544   0.250E+00    0.104E+01
DAV:  26    -0.512119611768E+03   -0.16648E+00   -0.61948E-01 26049   0.315E+00    0.813E+00
DAV:  27    -0.512305813798E+03   -0.18620E+00   -0.34495E-01 25455   0.181E+00    0.767E+00
DAV:  28    -0.512385784906E+03   -0.79971E-01   -0.17480E-01 26292   0.149E+00    0.704E+00
DAV:  29    -0.512469627151E+03   -0.83842E-01   -0.75922E-02 23763   0.797E-01    0.697E+00
DAV:  30    -0.512576201233E+03   -0.10657E+00   -0.68083E-02 26535   0.581E-01    0.686E+00
DAV:  31    -0.512810131117E+03   -0.23393E+00   -0.26927E-01 26310   0.121E+00    0.640E+00
DAV:  32    -0.513149996548E+03   -0.33987E+00   -0.86279E-01 25527   0.195E+00    0.437E+00
DAV:  33    -0.513222699341E+03   -0.72703E-01   -0.48385E-01 25482   0.188E+00    0.316E+00
DAV:  34    -0.513218721385E+03    0.39780E-02   -0.66721E-02 21990   0.944E-01    0.293E+00
DAV:  35    -0.513230255487E+03   -0.11534E-01   -0.25001E-02 23817   0.701E-01    0.273E+00
DAV:  36    -0.513263898963E+03   -0.33643E-01   -0.95144E-02 25257   0.803E-01    0.219E+00
DAV:  37    -0.513277336486E+03   -0.13438E-01   -0.12682E-01 25446   0.822E-01    0.198E+00
DAV:  38    -0.513281105425E+03   -0.37689E-02   -0.54390E-02 25014   0.696E-01    0.154E+00
DAV:  39    -0.513281012984E+03    0.92441E-04   -0.35973E-02 25329   0.475E-01    0.144E+00
DAV:  40    -0.513293895954E+03   -0.12883E-01   -0.27950E-02 25329   0.432E-01    0.112E+00
DAV:  41    -0.513299246486E+03   -0.53505E-02   -0.20743E-02 25761   0.431E-01    0.872E-01
DAV:  42    -0.513300636855E+03   -0.13904E-02   -0.80210E-03 24690   0.275E-01    0.736E-01
DAV:  43    -0.513299940823E+03    0.69603E-03   -0.52026E-03 26391   0.289E-01    0.501E-01
DAV:  44    -0.513300437480E+03   -0.49666E-03   -0.19494E-03 23979   0.143E-01    0.393E-01
DAV:  45    -0.513300907971E+03   -0.47049E-03   -0.27943E-03 26562   0.210E-01    0.354E-01
DAV:  46    -0.513300922991E+03   -0.15020E-04   -0.15225E-03 25779   0.165E-01    0.223E-01
DAV:  47    -0.513301121082E+03   -0.19809E-03   -0.83383E-04 25257   0.929E-02    0.165E-01
DAV:  48    -0.513301151732E+03   -0.30650E-04   -0.27094E-04 24753   0.630E-02    0.132E-01
DAV:  49    -0.513301136057E+03    0.15675E-04   -0.21226E-04 24825   0.440E-02    0.110E-01
DAV:  50    -0.513301163568E+03   -0.27511E-04   -0.74712E-05 18678   0.329E-02    0.817E-02
DAV:  51    -0.513301173199E+03   -0.96305E-05   -0.69867E-05 16140   0.309E-02
   1 F= -.51330117E+03 E0= -.51330329E+03  d E =-.513301E+03  mag=   109.7161
 curvature:   0.00 expect dE= 0.000E+00 dE for cont linesearch  0.000E+00
 trial: gam= 0.00000 g(F)=  0.409E-01 g(S)=  0.000E+00 ort = 0.000E+00 (trialstep = 0.100E+01)
 search vector abs. value=  0.409E-01
 bond charge predicted
       N       E                     dE             d eps       ncg     rms          rms(c)
DAV:   1    -0.513200175222E+03    0.10099E+00   -0.12579E+01 16533   0.769E+00    0.173E+00
DAV:   2    -0.513322648212E+03   -0.12247E+00   -0.11193E+00 16101   0.212E+00    0.154E+00
DAV:   3    -0.513408314001E+03   -0.85666E-01   -0.38128E-01 25671   0.284E+00    0.389E+00
DAV:   4    -0.513323271171E+03    0.85043E-01   -0.22831E-01 27921   0.215E+00    0.957E-01
DAV:   5    -0.513331400577E+03   -0.81294E-02   -0.80576E-03 26679   0.446E-01    0.817E-01
DAV:   6    -0.513336772807E+03   -0.53722E-02   -0.11449E-02 25797   0.606E-01    0.688E-01
DAV:   7    -0.513335253549E+03    0.15193E-02   -0.63051E-03 24240   0.409E-01    0.218E-01
DAV:   8    -0.513335327470E+03   -0.73921E-04   -0.85320E-04 22584   0.965E-02    0.194E-01
DAV:   9    -0.513335301397E+03    0.26073E-04   -0.19657E-04 17877   0.630E-02    0.174E-01
DAV:  10    -0.513335193953E+03    0.10744E-03   -0.21851E-04 23547   0.557E-02    0.128E-01
DAV:  11    -0.513335151213E+03    0.42740E-04   -0.21109E-04 23322   0.487E-02    0.109E-01
DAV:  12    -0.513335128766E+03    0.22447E-04   -0.51248E-05 14664   0.347E-02    0.851E-02
DAV:  13    -0.513335125048E+03    0.37186E-05   -0.48681E-05 11820   0.292E-02
   2 F= -.51333513E+03 E0= -.51333744E+03  d E =-.339518E-01  mag=   109.7683
 trial-energy change:   -0.033952  1 .order   -0.034113   -0.040904   -0.027322
 step:   3.7443(harm=  3.0117)  dis= 0.09036  next Energy=  -513.369280 (dE=-0.681E-01)
 bond charge predicted
       N       E                     dE             d eps       ncg     rms          rms(c)
DAV:   1    -0.512392829172E+03    0.94230E+00   -0.96739E+01 16692   0.212E+01    0.507E+00
DAV:   2    -0.513251971137E+03   -0.85914E+00   -0.78023E+00 15723   0.582E+00    0.419E+00
DAV:   3    -0.514101093599E+03   -0.84912E+00   -0.30391E+00 27192   0.835E+00    0.119E+01
DAV:   4    -0.513270415136E+03    0.83068E+00   -0.22283E+00 28173   0.679E+00    0.279E+00
DAV:   5    -0.513316259062E+03   -0.45844E-01   -0.65146E-02 25995   0.120E+00    0.229E+00
DAV:   6    -0.513352428897E+03   -0.36170E-01   -0.83092E-02 25134   0.160E+00    0.194E+00
DAV:   7    -0.513358191534E+03   -0.57626E-02   -0.34528E-02 23700   0.935E-01    0.786E-01
DAV:   8    -0.513357386683E+03    0.80485E-03   -0.70142E-03 23925   0.332E-01    0.535E-01
DAV:   9    -0.513357304683E+03    0.82000E-04   -0.24378E-03 19083   0.194E-01    0.496E-01
DAV:  10    -0.513356950161E+03    0.35452E-03   -0.72688E-04 22746   0.105E-01    0.430E-01
DAV:  11    -0.513356423313E+03    0.52685E-03   -0.14037E-03 26184   0.172E-01    0.344E-01
DAV:  12    -0.513355928091E+03    0.49522E-03   -0.11268E-03 23898   0.122E-01    0.235E-01
DAV:  13    -0.513355858730E+03    0.69361E-04   -0.38296E-04 23547   0.684E-02    0.187E-01
DAV:  14    -0.513355913345E+03   -0.54615E-04   -0.17557E-04 22782   0.490E-02    0.121E-01
DAV:  15    -0.513355996867E+03   -0.83522E-04   -0.15126E-04 22368   0.442E-02    0.883E-02
DAV:  16    -0.513356002042E+03   -0.51753E-05   -0.20900E-05 11253   0.224E-02
   3 F= -.51335600E+03 E0= -.51335857E+03  d E =-.548288E-01  mag=   109.8244
 curvature:  -1.31 expect dE=-0.369E-01 dE for cont linesearch -0.452E-02
 ZBRENT: interpolating
 opt :   2.9115  next Energy=  -513.360958 (dE=-0.598E-01)
 bond charge predicted
       N       E                     dE             d eps       ncg     rms          rms(c)
DAV:   1    -0.513268277040E+03    0.87720E-01   -0.87458E+00 16395   0.639E+00    0.144E+00
DAV:   2    -0.513348722805E+03   -0.80446E-01   -0.76193E-01 15993   0.163E+00    0.975E-01
DAV:   3    -0.513361266690E+03   -0.12544E-01   -0.39422E-02 27978   0.786E-01    0.135E+00
DAV:   4    -0.513356978881E+03    0.42878E-02   -0.50615E-02 26787   0.993E-01    0.993E-01
DAV:   5    -0.513360109691E+03   -0.31308E-02   -0.11465E-02 25824   0.463E-01    0.464E-01
DAV:   6    -0.513361524429E+03   -0.14147E-02   -0.31959E-03 25707   0.330E-01    0.368E-01
DAV:   7    -0.513361027309E+03    0.49712E-03   -0.18556E-03 24411   0.259E-01    0.175E-01
DAV:   8    -0.513361015673E+03    0.11635E-04   -0.28392E-04 19659   0.617E-02    0.155E-01
DAV:   9    -0.513360973726E+03    0.41948E-04   -0.86213E-05 18552   0.332E-02    0.141E-01
DAV:  10    -0.513360842778E+03    0.13095E-03   -0.21111E-04 23592   0.525E-02    0.841E-02
DAV:  11    -0.513360816389E+03    0.26389E-04   -0.89381E-05 16212   0.350E-02    0.734E-02
DAV:  12    -0.513360810499E+03    0.58896E-05   -0.33276E-05 12900   0.202E-02
   4 F= -.51336081E+03 E0= -.51336333E+03  d E =-.596373E-01  mag=   109.8118
 curvature:  -1.43 expect dE=-0.228E-01 dE for cont linesearch -0.922E-05
 trial: gam= 0.40292 g(F)=  0.160E-01 g(S)=  0.000E+00 ort =-0.513E-03 (trialstep = 0.138E+01)
 search vector abs. value=  0.222E-01
 bond charge predicted
       N       E                     dE             d eps       ncg     rms          rms(c)
DAV:   1    -0.513307793793E+03    0.53023E-01   -0.11708E+01 15393   0.518E+00    0.141E+00
DAV:   2    -0.513369893519E+03   -0.62100E-01   -0.54446E-01 18045   0.163E+00    0.136E+00
DAV:   3    -0.513414132233E+03   -0.44239E-01   -0.20360E-01 25068   0.220E+00    0.288E+00
DAV:   4    -0.513370517897E+03    0.43614E-01   -0.14594E-01 26004   0.166E+00    0.847E-01
DAV:   5    -0.513376946134E+03   -0.64282E-02   -0.72591E-03 24600   0.420E-01    0.674E-01
DAV:   6    -0.513379991001E+03   -0.30449E-02   -0.73412E-03 24255   0.516E-01    0.560E-01
DAV:   7    -0.513378986544E+03    0.10045E-02   -0.35590E-03 24132   0.300E-01    0.220E-01
DAV:   8    -0.513378921280E+03    0.65264E-04   -0.67642E-04 24402   0.965E-02    0.170E-01
DAV:   9    -0.513378904655E+03    0.16625E-04   -0.24190E-04 17085   0.587E-02    0.156E-01
DAV:  10    -0.513378773838E+03    0.13082E-03   -0.26036E-04 22386   0.490E-02    0.943E-02
DAV:  11    -0.513378740639E+03    0.33200E-04   -0.91664E-05 19308   0.283E-02    0.764E-02
DAV:  12    -0.513378740836E+03   -0.19679E-06   -0.12797E-05  9309   0.183E-02
   5 F= -.51337874E+03 E0= -.51338118E+03  d E =-.179303E-01  mag=   109.7825
 trial-energy change:   -0.017930  1 .order   -0.018065   -0.021786   -0.014343
 step:   4.0461(harm=  4.0461)  dis= 0.07426  next Energy=  -513.392695 (dE=-0.319E-01)
 bond charge predicted
       N       E                     dE             d eps       ncg     rms          rms(c)
DAV:   1    -0.513115681435E+03    0.26306E+00   -0.43991E+01 15402   0.101E+01    0.273E+00
DAV:   2    -0.513346400716E+03   -0.23072E+00   -0.20350E+00 17535   0.307E+00    0.255E+00
DAV:   3    -0.513524080132E+03   -0.17768E+00   -0.77978E-01 24897   0.428E+00    0.554E+00
DAV:   4    -0.513360823475E+03    0.16326E+00   -0.56316E-01 25716   0.326E+00    0.162E+00
DAV:   5    -0.513383515644E+03   -0.22692E-01   -0.31985E-02 24915   0.828E-01    0.130E+00
DAV:   6    -0.513394200502E+03   -0.10685E-01   -0.22720E-02 24402   0.936E-01    0.115E+00
DAV:   7    -0.513390278783E+03    0.39217E-02   -0.14245E-02 24105   0.606E-01    0.441E-01
DAV:   8    -0.513390141031E+03    0.13775E-03   -0.27663E-03 24762   0.196E-01    0.342E-01
DAV:   9    -0.513390075182E+03    0.65848E-04   -0.94643E-04 17211   0.116E-01    0.312E-01
DAV:  10    -0.513389640644E+03    0.43454E-03   -0.72803E-04 22809   0.885E-02    0.209E-01
DAV:  11    -0.513389433074E+03    0.20757E-03   -0.44980E-04 22998   0.687E-02    0.155E-01
DAV:  12    -0.513389416444E+03    0.16630E-04   -0.99791E-05 19443   0.400E-02    0.136E-01
DAV:  13    -0.513389435746E+03   -0.19302E-04   -0.11017E-04 21027   0.338E-02    0.956E-02
DAV:  14    -0.513389474718E+03   -0.38973E-04   -0.68768E-05 17976   0.320E-02    0.461E-02
DAV:  15    -0.513389483973E+03   -0.92546E-05   -0.18908E-05  9705   0.164E-02
   6 F= -.51338948E+03 E0= -.51339170E+03  d E =-.286735E-01  mag=   109.7186
 curvature:  -2.85 expect dE=-0.269E-01 dE for cont linesearch -0.755E-03
 ZBRENT: interpolating
 opt :   3.5415  next Energy=  -513.390096 (dE=-0.293E-01)
 bond charge predicted
       N       E                     dE             d eps       ncg     rms          rms(c)
DAV:   1    -0.513381698948E+03    0.77758E-02   -0.15637E+00 15387   0.189E+00    0.516E-01
DAV:   2    -0.513389696655E+03   -0.79977E-02   -0.64884E-02 20109   0.672E-01    0.612E-01
DAV:   3    -0.513392932032E+03   -0.32354E-02   -0.29249E-02 25104   0.819E-01    0.917E-01
DAV:   4    -0.513388977745E+03    0.39543E-02   -0.11947E-02 25743   0.498E-01    0.309E-01
DAV:   5    -0.513389688424E+03   -0.71068E-03   -0.75178E-04 24258   0.154E-01    0.253E-01
DAV:   6    -0.513390135796E+03   -0.44737E-03   -0.10421E-03 24240   0.185E-01    0.170E-01
DAV:   7    -0.513390047619E+03    0.88177E-04   -0.34538E-04 23322   0.916E-02    0.763E-02
DAV:   8    -0.513390035829E+03    0.11790E-04   -0.61802E-05 14538   0.316E-02    0.634E-02
DAV:   9    -0.513390026854E+03    0.89747E-05   -0.40379E-05 13836   0.219E-02
   7 F= -.51339003E+03 E0= -.51339230E+03  d E =-.292164E-01  mag=   109.7320
 curvature:  -2.31 expect dE=-0.167E-01 dE for cont linesearch -0.644E-05
 trial: gam= 0.38015 g(F)=  0.724E-02 g(S)=  0.000E+00 ort =-0.249E-03 (trialstep = 0.181E+01)
 search vector abs. value=  0.103E-01
 bond charge predicted
       N       E                     dE             d eps       ncg     rms          rms(c)
DAV:   1    -0.513348713652E+03    0.41322E-01   -0.77856E+00 15060   0.473E+00    0.150E+00
DAV:   2    -0.513384509610E+03   -0.35796E-01   -0.28043E-01 16101   0.123E+00    0.116E+00
DAV:   3    -0.513425134733E+03   -0.40625E-01   -0.99084E-02 28308   0.140E+00    0.245E+00
DAV:   4    -0.513395099419E+03    0.30035E-01   -0.13248E-01 27975   0.156E+00    0.914E-01
DAV:   5    -0.513402552417E+03   -0.74530E-02   -0.17774E-02 27102   0.654E-01    0.595E-01
DAV:   6    -0.513401216137E+03    0.13363E-02   -0.48938E-03 24618   0.424E-01    0.257E-01
DAV:   7    -0.513401216859E+03   -0.72172E-06   -0.10695E-03 20127   0.136E-01    0.191E-01
DAV:   8    -0.513401203712E+03    0.13147E-04   -0.20922E-04 20370   0.474E-02    0.178E-01
DAV:   9    -0.513401097243E+03    0.10647E-03   -0.16040E-04 22602   0.525E-02    0.140E-01
DAV:  10    -0.513400994077E+03    0.10317E-03   -0.33370E-04 23484   0.645E-02    0.111E-01
DAV:  11    -0.513400955225E+03    0.38853E-04   -0.88572E-05 19875   0.384E-02    0.805E-02
DAV:  12    -0.513400949735E+03    0.54901E-05   -0.23047E-05 10101   0.216E-02
   8 F= -.51340095E+03 E0= -.51340302E+03  d E =-.109229E-01  mag=   109.7121
 trial-energy change:   -0.010923  1 .order   -0.011119   -0.012960   -0.009277
 step:   6.3839(harm=  6.3839)  dis= 0.05530  next Energy=  -513.412831 (dE=-0.228E-01)
 bond charge predicted
       N       E                     dE             d eps       ncg     rms          rms(c)
DAV:   1    -0.513055017890E+03    0.34594E+00   -0.49683E+01 15048   0.121E+01    0.385E+00
DAV:   2    -0.513304966536E+03   -0.24995E+00   -0.20094E+00 16107   0.327E+00    0.292E+00
DAV:   3    -0.513416601655E+03   -0.11164E+00   -0.23552E-01 27948   0.215E+00    0.379E+00
DAV:   4    -0.513431674349E+03   -0.15073E-01   -0.62298E-01 28029   0.364E+00    0.395E+00
DAV:   5    -0.513414137915E+03    0.17536E-01   -0.15419E-01 27228   0.172E+00    0.167E+00
DAV:   6    -0.513409325724E+03    0.48122E-02   -0.36393E-02 26472   0.115E+00    0.677E-01
DAV:   7    -0.513410358780E+03   -0.10331E-02   -0.93930E-03 19785   0.350E-01    0.531E-01
DAV:   8    -0.513410173272E+03    0.18551E-03   -0.14072E-03 22179   0.146E-01    0.478E-01
DAV:   9    -0.513409681632E+03    0.49164E-03   -0.72241E-04 24177   0.112E-01    0.410E-01
DAV:  10    -0.513409019318E+03    0.66231E-03   -0.18402E-03 23898   0.155E-01    0.349E-01
DAV:  11    -0.513408407749E+03    0.61157E-03   -0.13920E-03 22953   0.127E-01    0.241E-01
DAV:  12    -0.513408298416E+03    0.10933E-03   -0.32761E-04 23646   0.692E-02    0.172E-01
DAV:  13    -0.513408341074E+03   -0.42659E-04   -0.30204E-04 16446   0.764E-02    0.128E-01
DAV:  14    -0.513408424387E+03   -0.83313E-04   -0.27928E-04 21828   0.485E-02    0.959E-02
DAV:  15    -0.513408436241E+03   -0.11854E-04   -0.21760E-05 11181   0.261E-02    0.886E-02
DAV:  16    -0.513408413529E+03    0.22712E-04   -0.29423E-05  9669   0.296E-02    0.544E-02
DAV:  17    -0.513408420903E+03   -0.73735E-05   -0.89653E-05 14835   0.361E-02
   9 F= -.51340842E+03 E0= -.51340988E+03  d E =-.183940E-01  mag=   109.6420
 curvature:  -4.58 expect dE=-0.405E-01 dE for cont linesearch -0.160E-02
 ZBRENT: interpolating
 opt :   5.1496  next Energy=  -513.409589 (dE=-0.196E-01)
 bond charge predicted
       N       E                     dE             d eps       ncg     rms          rms(c)
DAV:   1    -0.513386525071E+03    0.21888E-01   -0.36118E+00 14979   0.322E+00    0.101E+00
DAV:   2    -0.513402023375E+03   -0.15498E-01   -0.12127E-01 15804   0.855E-01    0.781E-01
DAV:   3    -0.513406077013E+03   -0.40536E-02   -0.47434E-03 23763   0.247E-01    0.598E-01
DAV:   4    -0.513432874444E+03   -0.26797E-01   -0.76143E-02 28245   0.119E+00    0.204E+00
DAV:   5    -0.513408564392E+03    0.24310E-01   -0.70053E-02 27876   0.116E+00    0.265E-01
DAV:   6    -0.513409652681E+03   -0.10883E-02   -0.22036E-03 26022   0.206E-01    0.201E-01
DAV:   7    -0.513409544151E+03    0.10853E-03   -0.49926E-04 23565   0.125E-01    0.133E-01
DAV:   8    -0.513409514598E+03    0.29553E-04   -0.10894E-04 17652   0.430E-02    0.118E-01
DAV:   9    -0.513409439050E+03    0.75548E-04   -0.81748E-05 20856   0.281E-02    0.883E-02
DAV:  10    -0.513409370745E+03    0.68305E-04   -0.12934E-04 22026   0.325E-02    0.566E-02
DAV:  11    -0.513409361188E+03    0.95568E-05   -0.28208E-05 11811   0.231E-02
  10 F= -.51340936E+03 E0= -.51341099E+03  d E =-.193343E-01  mag=   109.6659
 curvature:  -3.34 expect dE=-0.177E-01 dE for cont linesearch -0.342E-05
 trial: gam= 0.73979 g(F)=  0.530E-02 g(S)=  0.000E+00 ort =-0.102E-03 (trialstep = 0.237E+01)
 search vector abs. value=  0.108E-01
 bond charge predicted
       N       E                     dE             d eps       ncg     rms          rms(c)
DAV:   1    -0.513280022000E+03    0.12935E+00   -0.15480E+01 15786   0.819E+00    0.190E+00
DAV:   2    -0.513396075818E+03   -0.11605E+00   -0.10740E+00 15774   0.231E+00    0.139E+00
DAV:   3    -0.513458809659E+03   -0.62734E-01   -0.20263E-01 26508   0.202E+00    0.316E+00
DAV:   4    -0.513405426953E+03    0.53383E-01   -0.19183E-01 26688   0.199E+00    0.120E+00
DAV:   5    -0.513416150650E+03   -0.10724E-01   -0.11001E-02 25437   0.486E-01    0.865E-01
DAV:   6    -0.513417750190E+03   -0.15995E-02   -0.99892E-03 25275   0.637E-01    0.464E-01
DAV:   7    -0.513417991734E+03   -0.24154E-03   -0.27968E-03 23358   0.265E-01    0.277E-01
DAV:   8    -0.513417891066E+03    0.10067E-03   -0.49690E-04 21864   0.954E-02    0.236E-01
DAV:   9    -0.513417806927E+03    0.84139E-04   -0.22922E-04 21144   0.550E-02    0.215E-01
DAV:  10    -0.513417599499E+03    0.20743E-03   -0.44276E-04 22692   0.705E-02    0.146E-01
DAV:  11    -0.513417527169E+03    0.72329E-04   -0.30680E-04 23907   0.684E-02    0.108E-01
DAV:  12    -0.513417531398E+03   -0.42287E-05   -0.53595E-05 16743   0.296E-02
  11 F= -.51341753E+03 E0= -.51341898E+03  d E =-.817021E-02  mag=   109.6664
 trial-energy change:   -0.008170  1 .order   -0.008438   -0.012353   -0.004524
 step:   4.6635(harm=  3.7318)  dis= 0.04697  next Energy=  -513.419484 (dE=-0.101E-01)
 bond charge predicted
       N       E                     dE             d eps       ncg     rms          rms(c)
DAV:   1    -0.513287499463E+03    0.13003E+00   -0.14423E+01 15798   0.790E+00    0.185E+00
DAV:   2    -0.512453034563E+03    0.83446E+00   -0.10038E+00 15783   0.226E+00    0.138E+00
DAV:   3    -0.512485854867E+03   -0.32820E-01   -0.15741E-01 25923   0.178E+00    0.276E+00
DAV:   4    -0.512448166664E+03    0.37688E-01   -0.16028E-01 25779   0.183E+00    0.124E+00
DAV:   5    -0.512455720964E+03   -0.75543E-02   -0.10812E-02 25104   0.500E-01    0.892E-01
DAV:   6    -0.512457952044E+03   -0.22311E-02   -0.85398E-03 25617   0.594E-01    0.520E-01
DAV:   7    -0.512458615089E+03   -0.66305E-03   -0.29745E-03 23700   0.271E-01    0.287E-01
DAV:   8    -0.512458517340E+03    0.97749E-04   -0.56626E-04 21468   0.948E-02    0.253E-01
DAV:   9    -0.512458379052E+03    0.13829E-03   -0.17942E-04 19686   0.610E-02    0.231E-01
DAV:  10    -0.512458033569E+03    0.34548E-03   -0.41022E-04 23745   0.747E-02    0.164E-01
DAV:  11    -0.512485947266E+03   -0.27914E-01   -0.47424E-04 22674   0.684E-02    0.131E-01
DAV:  12    -0.512499956744E+03   -0.14009E-01   -0.10846E-04 19200   0.524E-02    0.995E-02
DAV:  13    -0.512499941532E+03    0.15212E-04   -0.56128E-05 14817   0.304E-02    0.704E-02
DAV:  14    -0.512499951038E+03   -0.95067E-05   -0.97611E-05 20271   0.263E-02
slurmstepd: error: *** JOB 5316436 ON node1623 CANCELLED AT 2025-10-12T11:16:39 DUE TO TIME LIMIT ***
slurmstepd: error: *** STEP 5316436.0 ON node1623 CANCELLED AT 2025-10-12T11:16:39 DUE TO TIME LIMIT ***
