Generated by VASPKIT code               
   1.00000000000000     
     8.5097000000000005    0.0000000000000000    0.0000000000000000
    -0.0037259700000000    8.5392991899999995    0.0000000000000000
     0.0000000000000000    0.0000000000000000   23.5714000000000006
   Fe   Cr   Pb
    50    13     1
Selective dynamics
Direct
     0.8331000000000017    0.4987100000000027    0.0600099999999983   F   F   F
     0.8347199999999972    0.8319199999999967    0.0602700000000027   F   F   F
     0.6768660536613746    0.6448017813297254    0.3595242531198196   T   T   T
     0.0008100000000013    0.6642500000000027    0.0003400000000013   F   F   F
     0.1589596429826309    0.8312259971500188    0.2993149903464077   T   T   T
     0.6649201608553444    0.3330027628238197    0.3620418484698198   T   T   T
     0.6655900000000017    0.3313800000000029    0.0004399999999976   F   F   F
     0.4996799999999979    0.8332199999999972    0.0604599999999991   F   F   F
     0.6672099999999972    0.3332100000000011    0.2406700000000015   F   F   F
     0.5005799999999994    0.4994999999999976    0.1802399999999977   F   F   F
     0.3359499999999969    0.3319600000000023    0.1191200000000023   F   F   F
     0.3346200000000010    0.3337599999999981    0.2405899999999974   F   F   F
     0.5003380864638268    0.4990124584146982    0.3003588701345478   T   T   T
     0.0005499999999969    0.3318999999999974    0.1200600000000023   F   F   F
     0.1675200000000032    0.4994500000000031    0.1806500000000000   F   F   F
     0.0002100000000027    0.3314499999999967    0.0003799999999998   F   F   F
     0.3350999999999971    0.3316999999999979    0.0002899999999997   F   F   F
     0.0122553432530134    0.3389530763248220    0.3612244683581919   T   T   T
     0.0007700000000028    0.9995899999999978    0.1203599999999980   F   F   F
     0.1681400000000011    0.1663399999999982    0.1804800000000029   F   F   F
     0.3340499999999977    0.6659300000000030    0.1209500000000006   F   F   F
     0.5007799999999989    0.8324199999999990    0.1812100000000001   F   F   F
     0.9863820231311031    0.6660091668084469    0.3609336046434374   T   T   T
     0.9998199999999997    0.3335900000000009    0.2402999999999977   F   F   F
     0.0002500000000012    0.6656899999999979    0.1205100000000030   F   F   F
     0.1658100000000005    0.8321699999999979    0.1811399999999992   F   F   F
     0.6656600000000026    0.3312299999999979    0.1197000000000017   F   F   F
     0.8312356475812573    0.8354425837799742    0.3014608640086350   T   T   T
     0.1659588669342614    0.4987085731946771    0.3006330918853560   T   T   T
     0.1650533769843925    0.1678809645605358    0.3015273714388197   T   T   T
     0.0016099999999994    0.9989100000000022    0.0002399999999980   F   F   F
     0.9960634874868607    0.9968056052845894    0.3601297174082216   T   T   T
     0.1680700000000002    0.1653900000000021    0.0600400000000008   F   F   F
     0.5050423081208777    0.8313902419736241    0.3020862085283104   T   T   T
     0.8347600000000028    0.8330300000000008    0.1813199999999995   F   F   F
     0.6671499999999995    0.6655900000000017    0.0000000000000000   F   F   F
     0.6671899999999980    0.6664000000000030    0.1203199999999995   F   F   F
     0.8330199999999977    0.4993699999999990    0.1799499999999981   F   F   F
     0.1676900000000003    0.8338899999999967    0.0602900000000020   F   F   F
     0.5001562699985909    0.1671800823665219    0.3010716820889294   T   T   T
     0.3328899999999990    0.9982400000000027    0.2413000000000025   F   F   F
     0.6667899999999989    0.9991399999999970    0.2409699999999972   F   F   F
     0.3346599999999995    0.0002300000000020    0.1208200000000019   F   F   F
     0.6674599999999984    0.9981500000000025    0.0000100000000032   F   F   F
     0.8367016605773590    0.1715283303542099    0.3016597275690712   T   T   T
     0.8335799999999978    0.1645600000000016    0.0601300000000009   F   F   F
     0.6733031739256424    0.0156848088728298    0.3600069926853834   T   T   T
     0.8336400000000026    0.1659300000000030    0.1806199999999976   F   F   F
     0.6665300000000016    0.9997200000000035    0.1204400000000021   F   F   F
     0.3363915122193159    0.3331457658233248    0.3593382742379705   T   T   T
     0.3348700000000022    0.0016699999999972    0.0006600000000034   F   F   F
     0.3289553068395841    0.9974185771029908    0.3656711814268898   T   T   T
     0.0012200000000036    0.0021699999999996    0.2408000000000001   F   F   F
     0.1672200000000004    0.5017899999999997    0.0590299999999999   F   F   F
     0.5000000000000000    0.5034399999999977    0.0594899999999967   F   F   F
     0.4986099999999993    0.1611499999999992    0.0586800000000025   F   F   F
     0.4996799999999979    0.1644399999999990    0.1818200000000019   F   F   F
     0.8378695140608979    0.5012168593013984    0.2981878279339929   T   T   T
     0.9972199999999987    0.6613499999999988    0.2415099999999981   F   F   F
     0.3341899999999995    0.6657300000000035    0.2404000000000011   F   F   F
     0.3341399999999979    0.6585499999999982    0.0027800000000013   F   F   F
     0.3273108652999732    0.6657568105790732    0.3637239701391499   T   T   T
     0.6692299999999989    0.6633700000000005    0.2409699999999972   F   F   F
     0.5312159544369697    0.8264199548053701    0.4390226554683696   T   T   T
 
  0.00000000E+00  0.00000000E+00  0.00000000E+00
  0.00000000E+00  0.00000000E+00  0.00000000E+00
  0.00000000E+00  0.00000000E+00  0.00000000E+00
  0.00000000E+00  0.00000000E+00  0.00000000E+00
  0.00000000E+00  0.00000000E+00  0.00000000E+00
  0.00000000E+00  0.00000000E+00  0.00000000E+00
  0.00000000E+00  0.00000000E+00  0.00000000E+00
  0.00000000E+00  0.00000000E+00  0.00000000E+00
  0.00000000E+00  0.00000000E+00  0.00000000E+00
  0.00000000E+00  0.00000000E+00  0.00000000E+00
  0.00000000E+00  0.00000000E+00  0.00000000E+00
  0.00000000E+00  0.00000000E+00  0.00000000E+00
  0.00000000E+00  0.00000000E+00  0.00000000E+00
  0.00000000E+00  0.00000000E+00  0.00000000E+00
  0.00000000E+00  0.00000000E+00  0.00000000E+00
  0.00000000E+00  0.00000000E+00  0.00000000E+00
  0.00000000E+00  0.00000000E+00  0.00000000E+00
  0.00000000E+00  0.00000000E+00  0.00000000E+00
  0.00000000E+00  0.00000000E+00  0.00000000E+00
  0.00000000E+00  0.00000000E+00  0.00000000E+00
  0.00000000E+00  0.00000000E+00  0.00000000E+00
  0.00000000E+00  0.00000000E+00  0.00000000E+00
  0.00000000E+00  0.00000000E+00  0.00000000E+00
  0.00000000E+00  0.00000000E+00  0.00000000E+00
  0.00000000E+00  0.00000000E+00  0.00000000E+00
  0.00000000E+00  0.00000000E+00  0.00000000E+00
  0.00000000E+00  0.00000000E+00  0.00000000E+00
  0.00000000E+00  0.00000000E+00  0.00000000E+00
  0.00000000E+00  0.00000000E+00  0.00000000E+00
  0.00000000E+00  0.00000000E+00  0.00000000E+00
  0.00000000E+00  0.00000000E+00  0.00000000E+00
  0.00000000E+00  0.00000000E+00  0.00000000E+00
  0.00000000E+00  0.00000000E+00  0.00000000E+00
  0.00000000E+00  0.00000000E+00  0.00000000E+00
  0.00000000E+00  0.00000000E+00  0.00000000E+00
  0.00000000E+00  0.00000000E+00  0.00000000E+00
  0.00000000E+00  0.00000000E+00  0.00000000E+00
  0.00000000E+00  0.00000000E+00  0.00000000E+00
  0.00000000E+00  0.00000000E+00  0.00000000E+00
  0.00000000E+00  0.00000000E+00  0.00000000E+00
  0.00000000E+00  0.00000000E+00  0.00000000E+00
  0.00000000E+00  0.00000000E+00  0.00000000E+00
  0.00000000E+00  0.00000000E+00  0.00000000E+00
  0.00000000E+00  0.00000000E+00  0.00000000E+00
  0.00000000E+00  0.00000000E+00  0.00000000E+00
  0.00000000E+00  0.00000000E+00  0.00000000E+00
  0.00000000E+00  0.00000000E+00  0.00000000E+00
  0.00000000E+00  0.00000000E+00  0.00000000E+00
  0.00000000E+00  0.00000000E+00  0.00000000E+00
  0.00000000E+00  0.00000000E+00  0.00000000E+00
  0.00000000E+00  0.00000000E+00  0.00000000E+00
  0.00000000E+00  0.00000000E+00  0.00000000E+00
  0.00000000E+00  0.00000000E+00  0.00000000E+00
  0.00000000E+00  0.00000000E+00  0.00000000E+00
  0.00000000E+00  0.00000000E+00  0.00000000E+00
  0.00000000E+00  0.00000000E+00  0.00000000E+00
  0.00000000E+00  0.00000000E+00  0.00000000E+00
  0.00000000E+00  0.00000000E+00  0.00000000E+00
  0.00000000E+00  0.00000000E+00  0.00000000E+00
  0.00000000E+00  0.00000000E+00  0.00000000E+00
  0.00000000E+00  0.00000000E+00  0.00000000E+00
  0.00000000E+00  0.00000000E+00  0.00000000E+00
  0.00000000E+00  0.00000000E+00  0.00000000E+00
  0.00000000E+00  0.00000000E+00  0.00000000E+00
