  64  64   0   0
  0.2676344E+02  0.8509700E-09  0.8539300E-09  0.2357140E-08  0.5000000E-15
  1.000000000000000E-004
  CAR 
 INCAR-For-OPT                           
      5.46734126    -45.53837452  301      0.94210276      1.00000000
    -45.538  0.0000E+00  0.0000E+00  0.0000E+00  0.0000E+00
    -45.368  0.0000E+00  0.0000E+00  0.0000E+00  0.0000E+00
    -45.198  0.0000E+00  0.0000E+00  0.0000E+00  0.0000E+00
    -45.028  0.0000E+00  0.0000E+00  0.0000E+00  0.0000E+00
    -44.858  0.0000E+00  0.0000E+00  0.0000E+00  0.0000E+00
    -44.688  0.0000E+00  0.0000E+00  0.0000E+00  0.0000E+00
    -44.518  0.0000E+00 -0.1398E-33  0.0000E+00 -0.2377E-34
    -44.348 -0.7764E-37 -0.1125E-25 -0.1320E-37 -0.1913E-26
    -44.178 -0.1638E-28 -0.6828E-19 -0.2784E-29 -0.1161E-19
    -44.008 -0.2591E-21 -0.3021E-13 -0.4405E-22 -0.5137E-14
    -43.838 -0.2955E-15 -0.1036E-08 -0.5024E-16 -0.1761E-09
    -43.668 -0.2520E-10 -0.2732E-05 -0.4285E-11 -0.4646E-06
    -43.498 -0.1514E-06 -0.5635E-03 -0.2574E-07 -0.9626E-04
    -43.328 -0.5885E-04 -0.5793E-02 -0.1003E-04 -0.1081E-02
    -43.158 -0.1031E-02  0.8643E-01 -0.1853E-03  0.1361E-01
    -42.988  0.6993E-02  0.2302E+00  0.1004E-02  0.5275E-01
    -42.818  0.7218E-01  0.4661E-01  0.1328E-01  0.6068E-01
    -42.648  0.9561E-01  0.2966E-01  0.2953E-01  0.6572E-01
    -42.478  0.3307E-02  0.6522E-01  0.3009E-01  0.7681E-01
    -42.308  0.4732E-02  0.5842E-01  0.3090E-01  0.8674E-01
    -42.138  0.2963E-01  0.2678E-01  0.3594E-01  0.9130E-01
    -41.968  0.9563E-01  0.2987E-01  0.5220E-01  0.9637E-01
    -41.798  0.1423E+00  0.2262E-01  0.7639E-01  0.1002E+00
    -41.628  0.1845E+00 -0.1141E-02  0.1078E+00  0.1000E+00
    -41.458  0.7278E-01 -0.1577E-03  0.1201E+00  0.1000E+00
    -41.288  0.1764E-03 -0.5216E-06  0.1202E+00  0.1000E+00
    -41.118 -0.9323E-03 -0.2801E-08  0.1200E+00  0.1000E+00
    -40.948 -0.9037E-05 -0.4552E-05  0.1200E+00  0.1000E+00
    -40.778 -0.7840E-05 -0.4635E-03  0.1200E+00  0.9992E-01
    -40.608 -0.7182E-03  0.1561E-02  0.1199E+00  0.1002E+00
    -40.438  0.3070E-02  0.2921E-01  0.1204E+00  0.1052E+00
    -40.268  0.4304E-01  0.2731E-01  0.1277E+00  0.1098E+00
    -40.098  0.1496E-01  0.2776E-01  0.1303E+00  0.1145E+00
    -39.928 -0.1473E-02  0.4116E-01  0.1300E+00  0.1215E+00
    -39.758 -0.5562E-04  0.3106E-01  0.1300E+00  0.1268E+00
    -39.588 -0.1032E-06  0.1528E-01  0.1300E+00  0.1294E+00
    -39.418 -0.1341E-10  0.4109E-02  0.1300E+00  0.1301E+00
    -39.248 -0.1262E-15 -0.5189E-03  0.1300E+00  0.1300E+00
    -39.078  0.0000E+00 -0.1134E-04  0.1300E+00  0.1300E+00
    -38.908  0.0000E+00 -0.1189E-07  0.1300E+00  0.1300E+00
    -38.738  0.0000E+00 -0.8301E-12  0.1300E+00  0.1300E+00
    -38.568  0.0000E+00 -0.4353E-17  0.1300E+00  0.1300E+00
    -38.398  0.0000E+00  0.0000E+00  0.1300E+00  0.1300E+00
    -38.228  0.0000E+00  0.0000E+00  0.1300E+00  0.1300E+00
    -38.058  0.0000E+00  0.0000E+00  0.1300E+00  0.1300E+00
    -37.888  0.0000E+00  0.0000E+00  0.1300E+00  0.1300E+00
    -37.717  0.0000E+00  0.0000E+00  0.1300E+00  0.1300E+00
    -37.547  0.0000E+00  0.0000E+00  0.1300E+00  0.1300E+00
    -37.377  0.0000E+00  0.0000E+00  0.1300E+00  0.1300E+00
    -37.207  0.0000E+00  0.0000E+00  0.1300E+00  0.1300E+00
    -37.037  0.0000E+00  0.0000E+00  0.1300E+00  0.1300E+00
    -36.867  0.0000E+00  0.0000E+00  0.1300E+00  0.1300E+00
    -36.697  0.0000E+00  0.0000E+00  0.1300E+00  0.1300E+00
    -36.527  0.0000E+00  0.0000E+00  0.1300E+00  0.1300E+00
    -36.357  0.0000E+00  0.0000E+00  0.1300E+00  0.1300E+00
    -36.187  0.0000E+00  0.0000E+00  0.1300E+00  0.1300E+00
    -36.017  0.0000E+00  0.0000E+00  0.1300E+00  0.1300E+00
    -35.847  0.0000E+00  0.0000E+00  0.1300E+00  0.1300E+00
    -35.677  0.0000E+00  0.0000E+00  0.1300E+00  0.1300E+00
    -35.507  0.0000E+00  0.0000E+00  0.1300E+00  0.1300E+00
    -35.337  0.0000E+00  0.0000E+00  0.1300E+00  0.1300E+00
    -35.167  0.0000E+00  0.0000E+00  0.1300E+00  0.1300E+00
    -34.997  0.0000E+00  0.0000E+00  0.1300E+00  0.1300E+00
    -34.827  0.0000E+00  0.0000E+00  0.1300E+00  0.1300E+00
    -34.657  0.0000E+00  0.0000E+00  0.1300E+00  0.1300E+00
    -34.487  0.0000E+00  0.0000E+00  0.1300E+00  0.1300E+00
    -34.317  0.0000E+00  0.0000E+00  0.1300E+00  0.1300E+00
    -34.147  0.0000E+00  0.0000E+00  0.1300E+00  0.1300E+00
    -33.977  0.0000E+00  0.0000E+00  0.1300E+00  0.1300E+00
    -33.807  0.0000E+00  0.0000E+00  0.1300E+00  0.1300E+00
    -33.637  0.0000E+00  0.0000E+00  0.1300E+00  0.1300E+00
    -33.467  0.0000E+00  0.0000E+00  0.1300E+00  0.1300E+00
    -33.297  0.0000E+00  0.0000E+00  0.1300E+00  0.1300E+00
    -33.127  0.0000E+00  0.0000E+00  0.1300E+00  0.1300E+00
    -32.957  0.0000E+00  0.0000E+00  0.1300E+00  0.1300E+00
    -32.787  0.0000E+00  0.0000E+00  0.1300E+00  0.1300E+00
    -32.617  0.0000E+00  0.0000E+00  0.1300E+00  0.1300E+00
    -32.447  0.0000E+00  0.0000E+00  0.1300E+00  0.1300E+00
    -32.277  0.0000E+00  0.0000E+00  0.1300E+00  0.1300E+00
    -32.107  0.0000E+00  0.0000E+00  0.1300E+00  0.1300E+00
    -31.937  0.0000E+00  0.0000E+00  0.1300E+00  0.1300E+00
    -31.767  0.0000E+00  0.0000E+00  0.1300E+00  0.1300E+00
    -31.597  0.0000E+00  0.0000E+00  0.1300E+00  0.1300E+00
    -31.427  0.0000E+00  0.0000E+00  0.1300E+00  0.1300E+00
    -31.257  0.0000E+00  0.0000E+00  0.1300E+00  0.1300E+00
    -31.087  0.0000E+00  0.0000E+00  0.1300E+00  0.1300E+00
    -30.917  0.0000E+00  0.0000E+00  0.1300E+00  0.1300E+00
    -30.747  0.0000E+00  0.0000E+00  0.1300E+00  0.1300E+00
    -30.577  0.0000E+00  0.0000E+00  0.1300E+00  0.1300E+00
    -30.407  0.0000E+00  0.0000E+00  0.1300E+00  0.1300E+00
    -30.237  0.0000E+00  0.0000E+00  0.1300E+00  0.1300E+00
    -30.067  0.0000E+00  0.0000E+00  0.1300E+00  0.1300E+00
    -29.897  0.0000E+00  0.0000E+00  0.1300E+00  0.1300E+00
    -29.727  0.0000E+00  0.0000E+00  0.1300E+00  0.1300E+00
    -29.557  0.0000E+00  0.0000E+00  0.1300E+00  0.1300E+00
    -29.387  0.0000E+00  0.0000E+00  0.1300E+00  0.1300E+00
    -29.217  0.0000E+00  0.0000E+00  0.1300E+00  0.1300E+00
    -29.047  0.0000E+00  0.0000E+00  0.1300E+00  0.1300E+00
    -28.877  0.0000E+00  0.0000E+00  0.1300E+00  0.1300E+00
    -28.706  0.0000E+00  0.0000E+00  0.1300E+00  0.1300E+00
    -28.536  0.0000E+00  0.0000E+00  0.1300E+00  0.1300E+00
    -28.366  0.0000E+00  0.0000E+00  0.1300E+00  0.1300E+00
    -28.196  0.0000E+00  0.0000E+00  0.1300E+00  0.1300E+00
    -28.026  0.0000E+00  0.0000E+00  0.1300E+00  0.1300E+00
    -27.856  0.0000E+00  0.0000E+00  0.1300E+00  0.1300E+00
    -27.686  0.0000E+00  0.0000E+00  0.1300E+00  0.1300E+00
    -27.516  0.0000E+00  0.0000E+00  0.1300E+00  0.1300E+00
    -27.346  0.0000E+00  0.0000E+00  0.1300E+00  0.1300E+00
    -27.176  0.0000E+00  0.0000E+00  0.1300E+00  0.1300E+00
    -27.006  0.0000E+00  0.0000E+00  0.1300E+00  0.1300E+00
    -26.836  0.0000E+00  0.0000E+00  0.1300E+00  0.1300E+00
    -26.666  0.0000E+00  0.0000E+00  0.1300E+00  0.1300E+00
    -26.496  0.0000E+00  0.0000E+00  0.1300E+00  0.1300E+00
    -26.326  0.0000E+00  0.0000E+00  0.1300E+00  0.1300E+00
    -26.156  0.0000E+00  0.0000E+00  0.1300E+00  0.1300E+00
    -25.986  0.0000E+00  0.0000E+00  0.1300E+00  0.1300E+00
    -25.816  0.0000E+00  0.0000E+00  0.1300E+00  0.1300E+00
    -25.646  0.0000E+00  0.0000E+00  0.1300E+00  0.1300E+00
    -25.476  0.0000E+00  0.0000E+00  0.1300E+00  0.1300E+00
    -25.306  0.0000E+00  0.0000E+00  0.1300E+00  0.1300E+00
    -25.136  0.0000E+00  0.0000E+00  0.1300E+00  0.1300E+00
    -24.966  0.0000E+00  0.0000E+00  0.1300E+00  0.1300E+00
    -24.796  0.0000E+00  0.0000E+00  0.1300E+00  0.1300E+00
    -24.626  0.0000E+00  0.0000E+00  0.1300E+00  0.1300E+00
    -24.456  0.0000E+00  0.0000E+00  0.1300E+00  0.1300E+00
    -24.286  0.0000E+00  0.0000E+00  0.1300E+00  0.1300E+00
    -24.116  0.0000E+00  0.0000E+00  0.1300E+00  0.1300E+00
    -23.946  0.0000E+00  0.0000E+00  0.1300E+00  0.1300E+00
    -23.776  0.0000E+00  0.0000E+00  0.1300E+00  0.1300E+00
    -23.606  0.0000E+00  0.0000E+00  0.1300E+00  0.1300E+00
    -23.436  0.0000E+00  0.0000E+00  0.1300E+00  0.1300E+00
    -23.266  0.0000E+00  0.0000E+00  0.1300E+00  0.1300E+00
    -23.096  0.0000E+00  0.0000E+00  0.1300E+00  0.1300E+00
    -22.926  0.0000E+00  0.0000E+00  0.1300E+00  0.1300E+00
    -22.756  0.0000E+00  0.0000E+00  0.1300E+00  0.1300E+00
    -22.586  0.0000E+00  0.0000E+00  0.1300E+00  0.1300E+00
    -22.416  0.0000E+00  0.0000E+00  0.1300E+00  0.1300E+00
    -22.246  0.0000E+00  0.0000E+00  0.1300E+00  0.1300E+00
    -22.076  0.0000E+00  0.0000E+00  0.1300E+00  0.1300E+00
    -21.906  0.0000E+00  0.0000E+00  0.1300E+00  0.1300E+00
    -21.736  0.0000E+00  0.0000E+00  0.1300E+00  0.1300E+00
    -21.566  0.0000E+00  0.0000E+00  0.1300E+00  0.1300E+00
    -21.396  0.0000E+00  0.0000E+00  0.1300E+00  0.1300E+00
    -21.226  0.0000E+00  0.0000E+00  0.1300E+00  0.1300E+00
    -21.056  0.0000E+00  0.0000E+00  0.1300E+00  0.1300E+00
    -20.886  0.0000E+00  0.0000E+00  0.1300E+00  0.1300E+00
    -20.716  0.0000E+00  0.0000E+00  0.1300E+00  0.1300E+00
    -20.546  0.0000E+00  0.0000E+00  0.1300E+00  0.1300E+00
    -20.376  0.0000E+00  0.0000E+00  0.1300E+00  0.1300E+00
    -20.206  0.0000E+00  0.0000E+00  0.1300E+00  0.1300E+00
    -20.036  0.0000E+00  0.0000E+00  0.1300E+00  0.1300E+00
    -19.865  0.0000E+00  0.0000E+00  0.1300E+00  0.1300E+00
    -19.695  0.0000E+00  0.0000E+00  0.1300E+00  0.1300E+00
    -19.525  0.0000E+00  0.0000E+00  0.1300E+00  0.1300E+00
    -19.355  0.0000E+00  0.0000E+00  0.1300E+00  0.1300E+00
    -19.185  0.0000E+00  0.0000E+00  0.1300E+00  0.1300E+00
    -19.015  0.0000E+00  0.0000E+00  0.1300E+00  0.1300E+00
    -18.845  0.0000E+00  0.0000E+00  0.1300E+00  0.1300E+00
    -18.675  0.0000E+00  0.0000E+00  0.1300E+00  0.1300E+00
    -18.505  0.0000E+00  0.0000E+00  0.1300E+00  0.1300E+00
    -18.335  0.0000E+00  0.0000E+00  0.1300E+00  0.1300E+00
    -18.165  0.0000E+00  0.0000E+00  0.1300E+00  0.1300E+00
    -17.995  0.0000E+00  0.0000E+00  0.1300E+00  0.1300E+00
    -17.825  0.0000E+00  0.0000E+00  0.1300E+00  0.1300E+00
    -17.655  0.0000E+00  0.0000E+00  0.1300E+00  0.1300E+00
    -17.485  0.0000E+00  0.0000E+00  0.1300E+00  0.1300E+00
    -17.315  0.0000E+00  0.0000E+00  0.1300E+00  0.1300E+00
    -17.145  0.0000E+00  0.0000E+00  0.1300E+00  0.1300E+00
    -16.975  0.0000E+00  0.0000E+00  0.1300E+00  0.1300E+00
    -16.805  0.0000E+00 -0.5828E-37  0.1300E+00  0.1300E+00
    -16.635 -0.7266E-30 -0.1689E-28  0.1300E+00  0.1300E+00
    -16.465 -0.2008E-22 -0.2913E-21  0.1300E+00  0.1300E+00
    -16.295 -0.4070E-16 -0.3687E-15  0.1300E+00  0.1300E+00
    -16.125 -0.6244E-11 -0.3551E-10  0.1300E+00  0.1300E+00
    -15.955 -0.7039E-07 -0.2519E-06  0.1300E+00  0.1300E+00
    -15.785 -0.5530E-04 -0.1240E-03  0.1300E+00  0.1300E+00
    -15.615 -0.2250E-02 -0.2734E-02  0.1296E+00  0.1295E+00
    -15.445  0.1909E-01  0.3090E-01  0.1329E+00  0.1348E+00
    -15.275  0.7470E-01  0.6888E-01  0.1456E+00  0.1465E+00
    -15.105  0.8016E-02  0.2019E-02  0.1469E+00  0.1468E+00
    -14.935 -0.1453E-02 -0.9086E-03  0.1467E+00  0.1467E+00
    -14.765 -0.2019E-04 -0.7337E-05  0.1467E+00  0.1467E+00
    -14.595 -0.1709E-07 -0.3739E-08  0.1467E+00  0.1467E+00
    -14.425 -0.1060E-11 -0.1388E-12  0.1467E+00  0.1467E+00
    -14.255 -0.4353E-17  0.0000E+00  0.1467E+00  0.1467E+00
    -14.085  0.0000E+00  0.0000E+00  0.1467E+00  0.1467E+00
    -13.915  0.0000E+00  0.0000E+00  0.1467E+00  0.1467E+00
    -13.745  0.0000E+00  0.0000E+00  0.1467E+00  0.1467E+00
    -13.575  0.0000E+00  0.0000E+00  0.1467E+00  0.1467E+00
    -13.405  0.0000E+00  0.0000E+00  0.1467E+00  0.1467E+00
    -13.235  0.0000E+00  0.0000E+00  0.1467E+00  0.1467E+00
    -13.065  0.0000E+00  0.0000E+00  0.1467E+00  0.1467E+00
    -12.895  0.0000E+00  0.0000E+00  0.1467E+00  0.1467E+00
    -12.725  0.0000E+00  0.0000E+00  0.1467E+00  0.1467E+00
    -12.555  0.0000E+00  0.0000E+00  0.1467E+00  0.1467E+00
    -12.385  0.0000E+00  0.0000E+00  0.1467E+00  0.1467E+00
    -12.215  0.0000E+00  0.0000E+00  0.1467E+00  0.1467E+00
    -12.045  0.0000E+00  0.0000E+00  0.1467E+00  0.1467E+00
    -11.875  0.0000E+00  0.0000E+00  0.1467E+00  0.1467E+00
    -11.705  0.0000E+00  0.0000E+00  0.1467E+00  0.1467E+00
    -11.535  0.0000E+00  0.0000E+00  0.1467E+00  0.1467E+00
    -11.365  0.0000E+00  0.0000E+00  0.1467E+00  0.1467E+00
    -11.195  0.0000E+00  0.0000E+00  0.1467E+00  0.1467E+00
    -11.025  0.0000E+00  0.0000E+00  0.1467E+00  0.1467E+00
    -10.854  0.0000E+00  0.0000E+00  0.1467E+00  0.1467E+00
    -10.684  0.0000E+00  0.0000E+00  0.1467E+00  0.1467E+00
    -10.514  0.0000E+00  0.0000E+00  0.1467E+00  0.1467E+00
    -10.344  0.0000E+00  0.0000E+00  0.1467E+00  0.1467E+00
    -10.174  0.0000E+00  0.0000E+00  0.1467E+00  0.1467E+00
    -10.004  0.0000E+00  0.0000E+00  0.1467E+00  0.1467E+00
     -9.834  0.0000E+00  0.0000E+00  0.1467E+00  0.1467E+00
     -9.664  0.0000E+00  0.0000E+00  0.1467E+00  0.1467E+00
     -9.494  0.0000E+00  0.0000E+00  0.1467E+00  0.1467E+00
     -9.324  0.0000E+00  0.0000E+00  0.1467E+00  0.1467E+00
     -9.154  0.0000E+00  0.0000E+00  0.1467E+00  0.1467E+00
     -8.984  0.0000E+00  0.0000E+00  0.1467E+00  0.1467E+00
     -8.814 -0.7400E-35 -0.3265E-35  0.1467E+00  0.1467E+00
     -8.644 -0.6579E-27 -0.3736E-27  0.1467E+00  0.1467E+00
     -8.474 -0.4568E-20 -0.3321E-20  0.1467E+00  0.1467E+00
     -8.304 -0.2426E-14 -0.2207E-14  0.1467E+00  0.1467E+00
     -8.134 -0.1049E-09 -0.1137E-09  0.1467E+00  0.1467E+00
     -7.964 -0.3553E-06 -0.4260E-06  0.1467E+00  0.1467E+00
     -7.794 -0.8448E-04 -0.1019E-03  0.1467E+00  0.1466E+00
     -7.624 -0.4254E-03 -0.3538E-03  0.1466E+00  0.1466E+00
     -7.454  0.1128E-01  0.1241E-01  0.1485E+00  0.1487E+00
     -7.284  0.9360E-02  0.8273E-02  0.1501E+00  0.1501E+00
     -7.114  0.1043E-02 -0.4504E-03  0.1503E+00  0.1500E+00
     -6.944  0.6109E-02  0.3490E-02  0.1513E+00  0.1506E+00
     -6.774  0.3600E-02  0.5974E-02  0.1519E+00  0.1516E+00
     -6.604  0.5270E-02  0.2278E-02  0.1528E+00  0.1520E+00
     -6.434  0.8387E-02  0.7562E-02  0.1542E+00  0.1533E+00
     -6.264  0.1119E-02  0.6292E-02  0.1544E+00  0.1544E+00
     -6.094  0.7784E-02  0.7563E-03  0.1558E+00  0.1545E+00
     -5.924  0.1443E-01  0.9290E-02  0.1582E+00  0.1561E+00
     -5.754  0.1087E-01  0.1507E-01  0.1601E+00  0.1587E+00
     -5.584  0.1102E-01  0.8155E-02  0.1619E+00  0.1600E+00
     -5.414  0.9794E-02  0.1199E-01  0.1636E+00  0.1621E+00
     -5.244  0.7359E-02  0.9626E-02  0.1648E+00  0.1637E+00
     -5.074  0.2014E-01  0.4487E-02  0.1683E+00  0.1645E+00
     -4.904  0.1493E-01  0.1886E-01  0.1708E+00  0.1677E+00
     -4.734  0.1778E-01  0.1548E-01  0.1738E+00  0.1703E+00
     -4.564  0.1911E-01  0.1236E-01  0.1771E+00  0.1724E+00
     -4.394  0.2535E-01  0.1697E-01  0.1814E+00  0.1753E+00
     -4.224  0.2800E-01  0.1247E-01  0.1861E+00  0.1774E+00
     -4.054  0.4427E-01  0.2930E-01  0.1937E+00  0.1824E+00
     -3.884  0.6304E-01  0.2218E-01  0.2044E+00  0.1862E+00
     -3.714  0.9450E-01  0.2546E-01  0.2205E+00  0.1905E+00
     -3.544  0.1252E+00  0.1908E-01  0.2418E+00  0.1937E+00
     -3.374  0.1213E+00  0.2948E-01  0.2624E+00  0.1988E+00
     -3.204  0.1834E+00  0.3831E-01  0.2935E+00  0.2053E+00
     -3.034  0.1862E+00  0.5716E-01  0.3252E+00  0.2150E+00
     -2.864  0.1361E+00  0.6769E-01  0.3483E+00  0.2265E+00
     -2.694  0.1502E+00  0.7855E-01  0.3739E+00  0.2399E+00
     -2.524  0.2325E+00  0.6018E-01  0.4134E+00  0.2501E+00
     -2.354  0.2561E+00  0.8731E-01  0.4570E+00  0.2649E+00
     -2.184  0.2376E+00  0.1097E+00  0.4974E+00  0.2836E+00
     -2.013  0.2370E+00  0.1163E+00  0.5377E+00  0.3034E+00
     -1.843  0.2432E+00  0.1284E+00  0.5790E+00  0.3252E+00
     -1.673  0.2454E+00  0.1203E+00  0.6207E+00  0.3456E+00
     -1.503  0.2441E+00  0.1067E+00  0.6622E+00  0.3638E+00
     -1.333  0.2335E+00  0.1128E+00  0.7019E+00  0.3829E+00
     -1.163  0.1976E+00  0.1453E+00  0.7355E+00  0.4077E+00
     -0.993  0.1487E+00  0.1766E+00  0.7608E+00  0.4377E+00
     -0.823  0.1584E+00  0.1949E+00  0.7877E+00  0.4708E+00
     -0.653  0.2042E+00  0.2008E+00  0.8225E+00  0.5050E+00
     -0.483  0.2601E+00  0.2132E+00  0.8667E+00  0.5412E+00
     -0.313  0.3134E+00  0.2152E+00  0.9200E+00  0.5778E+00
     -0.143  0.3158E+00  0.2109E+00  0.9736E+00  0.6137E+00
      0.027  0.2401E+00  0.1874E+00  0.1014E+01  0.6455E+00
      0.197  0.1745E+00  0.1549E+00  0.1044E+01  0.6719E+00
      0.367  0.1507E+00  0.1223E+00  0.1070E+01  0.6927E+00
      0.537  0.1465E+00  0.1090E+00  0.1095E+01  0.7112E+00
      0.707  0.1244E+00  0.1110E+00  0.1116E+01  0.7301E+00
      0.877  0.1141E+00  0.1154E+00  0.1135E+01  0.7497E+00
      1.047  0.1071E+00  0.1281E+00  0.1153E+01  0.7715E+00
      1.217  0.1051E+00  0.1552E+00  0.1171E+01  0.7979E+00
      1.387  0.9307E-01  0.1735E+00  0.1187E+01  0.8274E+00
      1.557  0.9967E-01  0.1830E+00  0.1204E+01  0.8585E+00
      1.727  0.1071E+00  0.2054E+00  0.1222E+01  0.8934E+00
      1.897  0.1097E+00  0.2463E+00  0.1241E+01  0.9353E+00
      2.067  0.5453E-01  0.2840E+00  0.1250E+01  0.9835E+00
      2.237 -0.4475E-03  0.3051E+00  0.1250E+01  0.1035E+01
      2.407 -0.6199E-03  0.2978E+00  0.1250E+01  0.1086E+01
      2.577 -0.5526E-05  0.3348E+00  0.1250E+01  0.1143E+01
      2.747 -0.3522E-08  0.2918E+00  0.1250E+01  0.1193E+01
      2.917 -0.1749E-12  0.1995E+00  0.1250E+01  0.1227E+01
      3.087 -0.5442E-18  0.1224E+00  0.1250E+01  0.1247E+01
      3.257  0.0000E+00  0.1829E-01  0.1250E+01  0.1250E+01
      3.427  0.0000E+00 -0.2394E-02  0.1250E+01  0.1250E+01
      3.597  0.0000E+00 -0.1084E-03  0.1250E+01  0.1250E+01
      3.767  0.0000E+00 -0.3458E-06  0.1250E+01  0.1250E+01
      3.937  0.0000E+00 -0.9818E-10  0.1250E+01  0.1250E+01
      4.107  0.0000E+00 -0.2399E-14  0.1250E+01  0.1250E+01
      4.277  0.0000E+00  0.0000E+00  0.1250E+01  0.1250E+01
      4.447  0.0000E+00  0.0000E+00  0.1250E+01  0.1250E+01
      4.617  0.0000E+00  0.0000E+00  0.1250E+01  0.1250E+01
      4.787  0.0000E+00  0.0000E+00  0.1250E+01  0.1250E+01
      4.957  0.0000E+00  0.0000E+00  0.1250E+01  0.1250E+01
      5.127  0.0000E+00  0.0000E+00  0.1250E+01  0.1250E+01
      5.297  0.0000E+00  0.0000E+00  0.1250E+01  0.1250E+01
      5.467  0.0000E+00  0.0000E+00  0.1250E+01  0.1250E+01
