       N       E                     dE             d eps       ncg     rms          rms(c)
DAV:   1     0.561700038885E+04    0.56170E+04   -0.24108E+05 15846   0.144E+03
DAV:   2    -0.609526183500E+02   -0.56780E+04   -0.54790E+04 15000   0.421E+02
DAV:   3    -0.525328728858E+03   -0.46438E+03   -0.41033E+03 15372   0.163E+02
DAV:   4    -0.586373926422E+03   -0.61045E+02   -0.56964E+02 26472   0.455E+01
DAV:   5    -0.589885589829E+03   -0.35117E+01   -0.33203E+01 24627   0.109E+01    0.939E+01
DAV:   6    -0.666239775643E+03   -0.76354E+02   -0.22624E+02 27093   0.716E+01    0.143E+02
DAV:   7    -0.563109899257E+03    0.10313E+03   -0.14211E+02 27714   0.678E+01    0.905E+01
DAV:   8    -0.635371210571E+03   -0.72261E+02   -0.87312E+01 27372   0.677E+01    0.132E+02
DAV:   9    -0.537827298217E+03    0.97544E+02   -0.88341E+01 26625   0.573E+01    0.779E+01
DAV:  10    -0.509598291918E+03    0.28229E+02   -0.10566E+02 23214   0.359E+01    0.508E+01
DAV:  11    -0.501286601700E+03    0.83117E+01   -0.49344E+01 20928   0.267E+01    0.425E+01
DAV:  12    -0.500031855102E+03    0.12547E+01   -0.92338E+00 21990   0.137E+01    0.375E+01
DAV:  13    -0.500335257780E+03   -0.30340E+00   -0.15177E+00 22440   0.494E+00    0.372E+01
DAV:  14    -0.500752485244E+03   -0.41723E+00   -0.20070E-01 24609   0.161E+00    0.376E+01
DAV:  15    -0.502664800312E+03   -0.19123E+01   -0.11682E+00 27003   0.425E+00    0.364E+01
DAV:  16    -0.505287863480E+03   -0.26231E+01   -0.30793E+00 25392   0.625E+00    0.314E+01
DAV:  17    -0.507698465927E+03   -0.24106E+01   -0.43074E+00 25365   0.691E+00    0.257E+01
DAV:  18    -0.509531587537E+03   -0.18331E+01   -0.25937E+00 25473   0.527E+00    0.275E+01
DAV:  19    -0.509378277268E+03    0.15331E+00   -0.14541E+00 26193   0.454E+00    0.223E+01
DAV:  20    -0.511052144748E+03   -0.16739E+01   -0.21997E+00 26256   0.632E+00    0.198E+01
DAV:  21    -0.511346973007E+03   -0.29483E+00   -0.17404E+00 25761   0.531E+00    0.150E+01
DAV:  22    -0.511262621732E+03    0.84351E-01   -0.78837E-01 24861   0.352E+00    0.127E+01
DAV:  23    -0.511443680571E+03   -0.18106E+00   -0.62266E-01 25365   0.298E+00    0.116E+01
DAV:  24    -0.511775270181E+03   -0.33159E+00   -0.48885E-01 25176   0.242E+00    0.106E+01
DAV:  25    -0.512011384900E+03   -0.23611E+00   -0.40246E-01 26724   0.251E+00    0.102E+01
DAV:  26    -0.512032170786E+03   -0.20786E-01   -0.55625E-01 25905   0.337E+00    0.751E+00
DAV:  27    -0.512178681120E+03   -0.14651E+00   -0.54829E-01 25734   0.272E+00    0.612E+00
DAV:  28    -0.512229346382E+03   -0.50665E-01   -0.20317E-01 25401   0.158E+00    0.541E+00
DAV:  29    -0.512297828523E+03   -0.68482E-01   -0.13050E-01 25725   0.117E+00    0.516E+00
DAV:  30    -0.512379975693E+03   -0.82147E-01   -0.16963E-01 26706   0.151E+00    0.418E+00
DAV:  31    -0.512467884992E+03   -0.87909E-01   -0.24759E-01 25590   0.135E+00    0.371E+00
DAV:  32    -0.512506871612E+03   -0.38987E-01   -0.89346E-02 26094   0.891E-01    0.326E+00
DAV:  33    -0.512548324338E+03   -0.41453E-01   -0.69523E-02 25977   0.654E-01    0.299E+00
DAV:  34    -0.512576108506E+03   -0.27784E-01   -0.42054E-02 25437   0.517E-01    0.268E+00
DAV:  35    -0.512606151585E+03   -0.30043E-01   -0.78008E-02 26148   0.753E-01    0.228E+00
DAV:  36    -0.512616163611E+03   -0.10012E-01   -0.23616E-02 25077   0.553E-01    0.198E+00
DAV:  37    -0.512632523837E+03   -0.16360E-01   -0.41712E-02 25680   0.538E-01    0.163E+00
DAV:  38    -0.512642389146E+03   -0.98653E-02   -0.58583E-02 26220   0.683E-01    0.138E+00
DAV:  39    -0.512641862512E+03    0.52663E-03   -0.13937E-02 24294   0.493E-01    0.109E+00
DAV:  40    -0.512644955800E+03   -0.30933E-02   -0.20181E-02 25608   0.374E-01    0.844E-01
DAV:  41    -0.512646058102E+03   -0.11023E-02   -0.58449E-03 23817   0.276E-01    0.671E-01
DAV:  42    -0.512647165410E+03   -0.11073E-02   -0.75054E-03 25428   0.265E-01    0.589E-01
DAV:  43    -0.512647958837E+03   -0.79343E-03   -0.76604E-03 25338   0.235E-01    0.492E-01
DAV:  44    -0.512647948384E+03    0.10453E-04   -0.15359E-03 22989   0.141E-01    0.361E-01
DAV:  45    -0.512647847687E+03    0.10070E-03   -0.11217E-03 26004   0.113E-01    0.223E-01
DAV:  46    -0.512647950491E+03   -0.10280E-03   -0.70185E-04 25158   0.947E-02    0.179E-01
DAV:  47    -0.512647944312E+03    0.61786E-05   -0.24165E-04 24564   0.607E-02    0.152E-01
DAV:  48    -0.512648051433E+03   -0.10712E-03   -0.44129E-04 24906   0.712E-02    0.117E-01
DAV:  49    -0.512648072622E+03   -0.21189E-04   -0.10914E-04 21405   0.444E-02    0.828E-02
DAV:  50    -0.512648073526E+03   -0.90453E-06   -0.27337E-05 13476   0.286E-02
   1 F= -.51264807E+03 E0= -.51265007E+03  d E =-.512648E+03  mag=   115.4477
       N       E                     dE             d eps       ncg     rms          rms(c)
DAV:   1    -0.512504276020E+03    0.14380E+00   -0.14435E+01 16188   0.941E+00    0.224E+00
DAV:   2    -0.512669942688E+03   -0.16567E+00   -0.14951E+00 15834   0.261E+00    0.201E+00
DAV:   3    -0.512825103087E+03   -0.15516E+00   -0.61036E-01 25635   0.349E+00    0.555E+00
DAV:   4    -0.512673129903E+03    0.15197E+00   -0.50455E-01 27480   0.288E+00    0.138E+00
DAV:   5    -0.512686137305E+03   -0.13007E-01   -0.17560E-02 26859   0.622E-01    0.115E+00
DAV:   6    -0.512694585875E+03   -0.84486E-02   -0.16241E-02 25464   0.694E-01    0.903E-01
DAV:   7    -0.512694186897E+03    0.39898E-03   -0.12527E-02 24861   0.546E-01    0.332E-01
DAV:   8    -0.512694305672E+03   -0.11878E-03   -0.14961E-03 20073   0.135E-01    0.306E-01
DAV:   9    -0.512694222172E+03    0.83500E-04   -0.34764E-04 22467   0.742E-02    0.272E-01
DAV:  10    -0.512694027041E+03    0.19513E-03   -0.49892E-04 24654   0.713E-02    0.192E-01
DAV:  11    -0.512693920460E+03    0.10658E-03   -0.47732E-04 24411   0.713E-02    0.134E-01
DAV:  12    -0.512693910517E+03    0.99432E-05   -0.14717E-04 21549   0.449E-02    0.115E-01
DAV:  13    -0.512693913113E+03   -0.25967E-05   -0.42717E-05 15681   0.287E-02
   2 F= -.51269391E+03 E0= -.51269663E+03  d E =-.458396E-01  mag=   115.6042
       N       E                     dE             d eps       ncg     rms          rms(c)
DAV:   1    -0.511899130318E+03    0.79478E+00   -0.62697E+01 16119   0.195E+01    0.502E+00
DAV:   2    -0.512626157929E+03   -0.72703E+00   -0.65385E+00 15765   0.580E+00    0.432E+00
DAV:   3    -0.513481272884E+03   -0.85511E+00   -0.28118E+00 27255   0.794E+00    0.129E+01
DAV:   4    -0.512641854108E+03    0.83942E+00   -0.27350E+00 28146   0.672E+00    0.302E+00
DAV:   5    -0.512686999790E+03   -0.45146E-01   -0.73038E-02 26886   0.125E+00    0.248E+00
DAV:   6    -0.512714512535E+03   -0.27513E-01   -0.64282E-02 24861   0.140E+00    0.181E+00
DAV:   7    -0.512730575076E+03   -0.16063E-01   -0.35735E-02 24123   0.905E-01    0.797E-01
DAV:   8    -0.512730627369E+03   -0.52293E-04   -0.66565E-03 23538   0.326E-01    0.604E-01
DAV:   9    -0.512730401757E+03    0.22561E-03   -0.20652E-03 22692   0.177E-01    0.562E-01
DAV:  10    -0.512730113515E+03    0.28824E-03   -0.85493E-04 24690   0.100E-01    0.513E-01
DAV:  11    -0.512729261946E+03    0.85157E-03   -0.20038E-03 24681   0.170E-01    0.348E-01
DAV:  12    -0.512728881217E+03    0.38073E-03   -0.16899E-03 24744   0.142E-01    0.248E-01
DAV:  13    -0.512728868092E+03    0.13125E-04   -0.35368E-04 21900   0.684E-02    0.203E-01
DAV:  14    -0.512728911803E+03   -0.43711E-04   -0.24236E-04 23223   0.558E-02    0.120E-01
DAV:  15    -0.512728945732E+03   -0.33929E-04   -0.80579E-05 18543   0.372E-02    0.959E-02
DAV:  16    -0.512728956945E+03   -0.11213E-04   -0.35369E-05 10119   0.336E-02    0.912E-02
DAV:  17    -0.512728965640E+03   -0.86958E-05   -0.10993E-04 20982   0.389E-02    0.478E-02
DAV:  18    -0.512728972673E+03   -0.70329E-05   -0.48501E-05 13035   0.307E-02
   3 F= -.51272897E+03 E0= -.51273250E+03  d E =-.808991E-01  mag=   115.6924
       N       E                     dE             d eps       ncg     rms          rms(c)
DAV:   1    -0.512604822895E+03    0.12414E+00   -0.11095E+01 16203   0.812E+00    0.186E+00
DAV:   2    -0.512729208319E+03   -0.12439E+00   -0.11360E+00 15867   0.217E+00    0.161E+00
DAV:   3    -0.512836177762E+03   -0.10697E+00   -0.42458E-01 25086   0.298E+00    0.436E+00
DAV:   4    -0.512731663091E+03    0.10451E+00   -0.30597E-01 27948   0.240E+00    0.106E+00
DAV:   5    -0.512741153365E+03   -0.94903E-02   -0.13996E-02 26283   0.522E-01    0.945E-01
DAV:   6    -0.512747179030E+03   -0.60257E-02   -0.92595E-03 25248   0.567E-01    0.905E-01
DAV:   7    -0.512745843092E+03    0.13359E-02   -0.78773E-03 24213   0.445E-01    0.277E-01
DAV:   8    -0.512745876725E+03   -0.33633E-04   -0.14549E-03 24348   0.125E-01    0.224E-01
DAV:   9    -0.512745818433E+03    0.58292E-04   -0.44891E-04 18291   0.979E-02    0.182E-01
DAV:  10    -0.512745688693E+03    0.12974E-03   -0.33657E-04 24051   0.607E-02    0.142E-01
DAV:  11    -0.512745642497E+03    0.46195E-04   -0.19881E-04 23142   0.481E-02    0.138E-01
DAV:  12    -0.512745602337E+03    0.40160E-04   -0.78741E-05 18741   0.389E-02    0.104E-01
DAV:  13    -0.512745579817E+03    0.22520E-04   -0.75771E-05 10911   0.397E-02    0.624E-02
DAV:  14    -0.512745606117E+03   -0.26300E-04   -0.11719E-04 21441   0.236E-02    0.510E-02
DAV:  15    -0.512745609586E+03   -0.34691E-05   -0.10700E-05  9435   0.138E-02
   4 F= -.51274561E+03 E0= -.51274921E+03  d E =-.166369E-01  mag=   115.7108
       N       E                     dE             d eps       ncg     rms          rms(c)
DAV:   1    -0.512542677755E+03    0.20293E+00   -0.16811E+01 16146   0.996E+00    0.232E+00
DAV:   2    -0.512734378438E+03   -0.19170E+00   -0.17204E+00 15894   0.272E+00    0.220E+00
DAV:   3    -0.512877203386E+03   -0.14282E+00   -0.64247E-01 24339   0.378E+00    0.509E+00
DAV:   4    -0.512734944271E+03    0.14226E+00   -0.40488E-01 27660   0.283E+00    0.129E+00
DAV:   5    -0.512748870761E+03   -0.13926E-01   -0.21294E-02 25734   0.641E-01    0.117E+00
DAV:   6    -0.512758023722E+03   -0.91530E-02   -0.13368E-02 25095   0.693E-01    0.115E+00
DAV:   7    -0.512755630850E+03    0.23929E-02   -0.13543E-02 24465   0.594E-01    0.322E-01
DAV:   8    -0.512755809466E+03   -0.17862E-03   -0.21713E-03 23763   0.149E-01    0.281E-01
DAV:   9    -0.512755711240E+03    0.98226E-04   -0.60584E-04 18201   0.116E-01    0.228E-01
DAV:  10    -0.512755526061E+03    0.18518E-03   -0.39060E-04 24420   0.675E-02    0.177E-01
DAV:  11    -0.512755443611E+03    0.82450E-04   -0.34179E-04 23745   0.651E-02    0.168E-01
DAV:  12    -0.512755381169E+03    0.62442E-04   -0.15036E-04 21567   0.478E-02    0.130E-01
DAV:  13    -0.512755340115E+03    0.41054E-04   -0.11223E-04 12063   0.485E-02    0.797E-02
DAV:  14    -0.512755377643E+03   -0.37528E-04   -0.14421E-04 21999   0.281E-02    0.572E-02
DAV:  15    -0.512755386815E+03   -0.91714E-05   -0.16563E-05 10668   0.179E-02
   5 F= -.51275539E+03 E0= -.51275894E+03  d E =-.264141E-01  mag=   115.7176
       N       E                     dE             d eps       ncg     rms          rms(c)
DAV:   1    -0.512738665319E+03    0.16712E-01   -0.13708E+00 16158   0.284E+00    0.656E-01
DAV:   2    -0.512754200046E+03   -0.15535E-01   -0.13952E-01 15834   0.767E-01    0.622E-01
DAV:   3    -0.512765817475E+03   -0.11617E-01   -0.53679E-02 24276   0.108E+00    0.149E+00
DAV:   4    -0.512754104262E+03    0.11713E-01   -0.33991E-02 27363   0.803E-01    0.372E-01
DAV:   5    -0.512755257929E+03   -0.11537E-02   -0.14175E-03 25554   0.180E-01    0.324E-01
DAV:   6    -0.512756218446E+03   -0.96052E-03   -0.14741E-03 24942   0.210E-01    0.326E-01
DAV:   7    -0.512755933890E+03    0.28456E-03   -0.10250E-03 23745   0.158E-01    0.103E-01
DAV:   8    -0.512755936273E+03   -0.23824E-05   -0.17732E-04 22704   0.450E-02    0.778E-02
DAV:   9    -0.512755940662E+03   -0.43894E-05   -0.57455E-05 15645   0.352E-02
   6 F= -.51275594E+03 E0= -.51275954E+03  d E =-.269680E-01  mag=   115.7158
       N       E                     dE             d eps       ncg     rms          rms(c)
DAV:   1    -0.512709609243E+03    0.46327E-01   -0.59479E+00 15615   0.496E+00    0.129E+00
DAV:   2    -0.512755099202E+03   -0.45490E-01   -0.39037E-01 15924   0.144E+00    0.124E+00
DAV:   3    -0.512789784240E+03   -0.34685E-01   -0.16451E-01 24051   0.190E+00    0.258E+00
DAV:   4    -0.512756855034E+03    0.32929E-01   -0.10843E-01 27390   0.144E+00    0.778E-01
DAV:   5    -0.512762223338E+03   -0.53683E-02   -0.69559E-03 26733   0.400E-01    0.649E-01
DAV:   6    -0.512764262039E+03   -0.20387E-02   -0.52155E-03 25491   0.416E-01    0.480E-01
DAV:   7    -0.512763612403E+03    0.64964E-03   -0.37059E-03 23970   0.297E-01    0.187E-01
DAV:   8    -0.512763687896E+03   -0.75493E-04   -0.46828E-04 20928   0.664E-02    0.199E-01
DAV:   9    -0.512763582000E+03    0.10590E-03   -0.15310E-04 18939   0.597E-02    0.153E-01
DAV:  10    -0.512763458997E+03    0.12300E-03   -0.50457E-04 25176   0.799E-02    0.110E-01
DAV:  11    -0.512763437617E+03    0.21380E-04   -0.10852E-04 18561   0.329E-02    0.950E-02
DAV:  12    -0.512763422267E+03    0.15350E-04   -0.18272E-05  9039   0.225E-02    0.704E-02
DAV:  13    -0.512763430100E+03   -0.78331E-05   -0.79357E-05 15726   0.299E-02
   7 F= -.51276343E+03 E0= -.51276712E+03  d E =-.748944E-02  mag=   115.6445
       N       E                     dE             d eps       ncg     rms          rms(c)
DAV:   1    -0.512737832246E+03    0.25590E-01   -0.30103E+00 15615   0.352E+00    0.916E-01
DAV:   2    -0.512759068158E+03   -0.21236E-01   -0.19204E-01 15651   0.969E-01    0.663E-01
DAV:   3    -0.512761887379E+03   -0.28192E-02   -0.63333E-03 23529   0.282E-01    0.561E-01
DAV:   4    -0.512773883946E+03   -0.11997E-01   -0.35215E-02 27894   0.838E-01    0.144E+00
DAV:   5    -0.512764365354E+03    0.95186E-02   -0.40491E-02 27993   0.849E-01    0.526E-01
DAV:   6    -0.512764864085E+03   -0.49873E-03   -0.27283E-03 27129   0.252E-01    0.193E-01
DAV:   7    -0.512764910390E+03   -0.46305E-04   -0.67080E-04 22917   0.116E-01    0.137E-01
DAV:   8    -0.512764922101E+03   -0.11710E-04   -0.11503E-04 17598   0.405E-02    0.138E-01
DAV:   9    -0.512764895104E+03    0.26996E-04   -0.36573E-05 14169   0.270E-02    0.117E-01
DAV:  10    -0.512764838776E+03    0.56328E-04   -0.17491E-04 20514   0.525E-02    0.733E-02
DAV:  11    -0.512764838956E+03   -0.17937E-06   -0.77943E-05 17481   0.226E-02
   8 F= -.51276484E+03 E0= -.51276873E+03  d E =-.889829E-02  mag=   115.5988
       N       E                     dE             d eps       ncg     rms          rms(c)
DAV:   1    -0.512730523098E+03    0.34316E-01   -0.44081E+00 15822   0.421E+00    0.987E-01
DAV:   2    -0.512764272338E+03   -0.33749E-01   -0.29411E-01 15897   0.123E+00    0.101E+00
DAV:   3    -0.512782353135E+03   -0.18081E-01   -0.98814E-02 23646   0.150E+00    0.191E+00
DAV:   4    -0.512764544903E+03    0.17808E-01   -0.58294E-02 27228   0.107E+00    0.584E-01
DAV:   5    -0.512767827100E+03   -0.32822E-02   -0.45583E-03 25653   0.308E-01    0.477E-01
DAV:   6    -0.512769084329E+03   -0.12572E-02   -0.25615E-03 25401   0.302E-01    0.421E-01
DAV:   7    -0.512768408152E+03    0.67618E-03   -0.23967E-03 24276   0.253E-01    0.134E-01
DAV:   8    -0.512768459854E+03   -0.51702E-04   -0.31644E-04 22467   0.524E-02    0.139E-01
DAV:   9    -0.512768418438E+03    0.41416E-04   -0.10234E-04 17913   0.490E-02    0.105E-01
DAV:  10    -0.512768366729E+03    0.51708E-04   -0.25287E-04 23538   0.509E-02    0.687E-02
DAV:  11    -0.512768364345E+03    0.23838E-05   -0.45995E-05 15123   0.218E-02
   9 F= -.51276836E+03 E0= -.51277241E+03  d E =-.352539E-02  mag=   115.5382
       N       E                     dE             d eps       ncg     rms          rms(c)
DAV:   1    -0.512735538423E+03    0.32828E-01   -0.39388E+00 15795   0.398E+00    0.936E-01
DAV:   2    -0.512766045951E+03   -0.30508E-01   -0.26311E-01 16071   0.118E+00    0.101E+00
DAV:   3    -0.512779508181E+03   -0.13462E-01   -0.84670E-02 23151   0.141E+00    0.171E+00
DAV:   4    -0.512765910161E+03    0.13598E-01   -0.45459E-02 26715   0.953E-01    0.550E-01
DAV:   5    -0.512768839540E+03   -0.29294E-02   -0.41131E-03 25401   0.290E-01    0.449E-01
DAV:   6    -0.512769912101E+03   -0.10726E-02   -0.21624E-03 25320   0.280E-01    0.401E-01
DAV:   7    -0.512769284768E+03    0.62733E-03   -0.21050E-03 24465   0.239E-01    0.135E-01
DAV:   8    -0.512769333590E+03   -0.48822E-04   -0.28408E-04 22782   0.514E-02    0.141E-01
DAV:   9    -0.512769283674E+03    0.49917E-04   -0.13124E-04 18165   0.579E-02    0.998E-02
DAV:  10    -0.512769242508E+03    0.41166E-04   -0.25629E-04 23160   0.464E-02    0.646E-02
DAV:  11    -0.512769246807E+03   -0.42994E-05   -0.33471E-05 12900   0.205E-02
  10 F= -.51276925E+03 E0= -.51277344E+03  d E =-.440785E-02  mag=   115.4808
       N       E                     dE             d eps       ncg     rms          rms(c)
DAV:   1    -0.512734740493E+03    0.34502E-01   -0.38624E+00 15765   0.426E+00    0.104E+00
DAV:   2    -0.512764196698E+03   -0.29456E-01   -0.26298E-01 15621   0.117E+00    0.821E-01
DAV:   3    -0.512794341491E+03   -0.30145E-01   -0.94089E-02 26670   0.141E+00    0.226E+00
DAV:   4    -0.512766756381E+03    0.27585E-01   -0.84894E-02 28209   0.130E+00    0.645E-01
DAV:   5    -0.512770917530E+03   -0.41611E-02   -0.67492E-03 27075   0.414E-01    0.553E-01
DAV:   6    -0.512771272203E+03   -0.35467E-03   -0.28188E-03 25113   0.321E-01    0.293E-01
DAV:   7    -0.512771282857E+03   -0.10654E-04   -0.10316E-03 23556   0.146E-01    0.158E-01
DAV:   8    -0.512771309033E+03   -0.26176E-04   -0.28520E-04 22962   0.620E-02    0.163E-01
DAV:   9    -0.512771273106E+03    0.35926E-04   -0.12903E-04 17409   0.488E-02    0.130E-01
DAV:  10    -0.512771233841E+03    0.39266E-04   -0.37355E-04 24798   0.800E-02    0.108E-01
DAV:  11    -0.512771216669E+03    0.17172E-04   -0.90348E-05 19083   0.318E-02    0.840E-02
DAV:  12    -0.512771208793E+03    0.78758E-05   -0.16326E-05  9840   0.183E-02
  11 F= -.51277121E+03 E0= -.51277552E+03  d E =-.196199E-02  mag=   115.4370
       N       E                     dE             d eps       ncg     rms          rms(c)
DAV:   1    -0.512764495957E+03    0.67207E-02   -0.73377E-01 15675   0.186E+00    0.457E-01
DAV:   2    -0.512769851862E+03   -0.53559E-02   -0.48419E-02 15603   0.496E-01    0.332E-01
DAV:   3    -0.512770520924E+03   -0.66906E-03   -0.14846E-03 24843   0.124E-01    0.281E-01
DAV:   4    -0.512773781120E+03   -0.32602E-02   -0.92876E-03 27957   0.423E-01    0.750E-01
DAV:   5    -0.512771283438E+03    0.24977E-02   -0.11431E-02 27318   0.466E-01    0.258E-01
DAV:   6    -0.512771283688E+03   -0.24939E-06   -0.93757E-04 26040   0.161E-01    0.105E-01
DAV:   7    -0.512771290386E+03   -0.66979E-05   -0.16108E-04 22242   0.572E-02    0.703E-02
DAV:   8    -0.512771292410E+03   -0.20239E-05   -0.26892E-05 11118   0.233E-02
  12 F= -.51277129E+03 E0= -.51277551E+03  d E =-.204560E-02  mag=   115.4250
       N       E                     dE             d eps       ncg     rms          rms(c)
DAV:   1    -0.512752084140E+03    0.19206E-01   -0.17655E+00 15759   0.325E+00    0.755E-01
DAV:   2    -0.512769913565E+03   -0.17829E-01   -0.15211E-01 15852   0.953E-01    0.801E-01
DAV:   3    -0.512780267537E+03   -0.10354E-01   -0.56661E-02 24069   0.116E+00    0.150E+00
DAV:   4    -0.512769694019E+03    0.10574E-01   -0.36045E-02 26175   0.829E-01    0.492E-01
DAV:   5    -0.512770955238E+03   -0.12612E-02   -0.16232E-03 25248   0.212E-01    0.393E-01
DAV:   6    -0.512772357275E+03   -0.14020E-02   -0.30065E-03 25434   0.285E-01    0.326E-01
DAV:   7    -0.512772092281E+03    0.26499E-03   -0.10920E-03 23403   0.153E-01    0.153E-01
DAV:   8    -0.512772053229E+03    0.39052E-04   -0.25145E-04 22674   0.639E-02    0.110E-01
DAV:   9    -0.512772043971E+03    0.92587E-05   -0.97508E-05 16977   0.427E-02
  13 F= -.51277204E+03 E0= -.51277642E+03  d E =-.751561E-03  mag=   115.4137
       N       E                     dE             d eps       ncg     rms          rms(c)
DAV:   1    -0.512770018608E+03    0.20346E-02   -0.17363E-01 15615   0.103E+00    0.242E-01
DAV:   2    -0.512771824364E+03   -0.18058E-02   -0.15071E-02 16143   0.310E-01    0.288E-01
DAV:   3    -0.512772480876E+03   -0.65651E-03   -0.54285E-03 22503   0.367E-01    0.424E-01
DAV:   4    -0.512771710843E+03    0.77003E-03   -0.27408E-03 23745   0.239E-01    0.165E-01
DAV:   5    -0.512771812367E+03   -0.10152E-03   -0.14696E-04 20739   0.680E-02    0.131E-01
DAV:   6    -0.512771970865E+03   -0.15850E-03   -0.32494E-04 24222   0.907E-02    0.115E-01
DAV:   7    -0.512771936171E+03    0.34694E-04   -0.13252E-04 16779   0.559E-02    0.580E-02
DAV:   8    -0.512771938732E+03   -0.25605E-05   -0.26843E-05  9786   0.212E-02
  14 F= -.51277194E+03 E0= -.51277639E+03  d E =-.646322E-03  mag=   115.4119
       N       E                     dE             d eps       ncg     rms          rms(c)
DAV:   1    -0.512771571353E+03    0.36482E-03   -0.36220E-02 15549   0.465E-01    0.117E-01
DAV:   2    -0.512772079167E+03   -0.50781E-03   -0.35117E-03 21147   0.180E-01    0.193E-01
DAV:   3    -0.512772053404E+03    0.25762E-04   -0.15422E-03 24366   0.187E-01    0.169E-01
DAV:   4    -0.512771948436E+03    0.10497E-03   -0.45259E-04 15051   0.993E-02    0.750E-02
DAV:   5    -0.512771990980E+03   -0.42544E-04   -0.39990E-05 14178   0.370E-02    0.734E-02
DAV:   6    -0.512772002716E+03   -0.11736E-04   -0.58675E-05 14142   0.441E-02    0.250E-02
DAV:   7    -0.512772006562E+03   -0.38467E-05   -0.12523E-05  8292   0.130E-02
  15 F= -.51277201E+03 E0= -.51277641E+03  d E =-.714153E-03  mag=   115.4117
       N       E                     dE             d eps       ncg     rms          rms(c)
DAV:   1    -0.512771883189E+03    0.11953E-03   -0.12716E-02 15501   0.276E-01    0.669E-02
DAV:   2    -0.512772158493E+03   -0.27530E-03   -0.14735E-03 23808   0.130E-01    0.173E-01
DAV:   3    -0.512772011628E+03    0.14686E-03   -0.77597E-04 23394   0.133E-01    0.764E-02
DAV:   4    -0.512772012406E+03   -0.77792E-06   -0.58630E-05 12945   0.378E-02
  16 F= -.51277201E+03 E0= -.51277640E+03  d E =-.719996E-03  mag=   115.4116
       N       E                     dE             d eps       ncg     rms          rms(c)
DAV:   1    -0.512759829774E+03    0.12182E-01   -0.10099E+00 15849   0.244E+00    0.600E-01
DAV:   2    -0.512770195395E+03   -0.10366E-01   -0.93307E-02 15630   0.618E-01    0.456E-01
DAV:   3    -0.512781534869E+03   -0.11339E-01   -0.34155E-02 27021   0.851E-01    0.138E+00
DAV:   4    -0.512770834846E+03    0.10700E-01   -0.29616E-02 28155   0.768E-01    0.340E-01
DAV:   5    -0.512772442230E+03   -0.16074E-02   -0.16713E-03 24639   0.175E-01    0.226E-01
DAV:   6    -0.512772513740E+03   -0.71510E-04   -0.71411E-04 24555   0.154E-01    0.147E-01
DAV:   7    -0.512772469409E+03    0.44332E-04   -0.23836E-04 23925   0.875E-02    0.775E-02
DAV:   8    -0.512772480584E+03   -0.11175E-04   -0.51279E-05 13629   0.305E-02    0.833E-02
DAV:   9    -0.512772476400E+03    0.41835E-05   -0.25276E-05 11469   0.189E-02
  17 F= -.51277248E+03 E0= -.51277679E+03  d E =-.463995E-03  mag=   115.3923
       N       E                     dE             d eps       ncg     rms          rms(c)
DAV:   1    -0.512771351584E+03    0.11290E-02   -0.86555E-02 15672   0.724E-01    0.187E-01
DAV:   2    -0.512772885041E+03   -0.15335E-02   -0.95181E-03 21360   0.267E-01    0.373E-01
DAV:   3    -0.512772296075E+03    0.58897E-03   -0.34117E-03 20481   0.291E-01    0.183E-01
DAV:   4    -0.512772339942E+03   -0.43867E-04   -0.20973E-04 18435   0.637E-02    0.117E-01
DAV:   5    -0.512772469479E+03   -0.12954E-03   -0.20600E-04 10929   0.690E-02    0.107E-01
DAV:   6    -0.512772463362E+03    0.61167E-05   -0.11221E-04 21549   0.527E-02    0.739E-02
DAV:   7    -0.512772451265E+03    0.12097E-04   -0.41551E-05 10542   0.354E-02    0.459E-02
DAV:   8    -0.512772452327E+03   -0.10620E-05   -0.13075E-05  9255   0.974E-03
  18 F= -.51277245E+03 E0= -.51277685E+03  d E =-.439921E-03  mag=   115.3875
       N       E                     dE             d eps       ncg     rms          rms(c)
DAV:   1    -0.512765601714E+03    0.68496E-02   -0.67386E-01 15480   0.176E+00    0.515E-01
DAV:   2    -0.512770797916E+03   -0.51962E-02   -0.43494E-02 15567   0.445E-01    0.390E-01
DAV:   3    -0.512772568513E+03   -0.17706E-02   -0.33349E-03 27768   0.240E-01    0.477E-01
DAV:   4    -0.512772832573E+03   -0.26406E-03   -0.88146E-03 27525   0.419E-01    0.499E-01
DAV:   5    -0.512772823103E+03    0.94704E-05   -0.33934E-03 26895   0.271E-01    0.182E-01
DAV:   6    -0.512772789839E+03    0.33264E-04   -0.55054E-04 24816   0.133E-01    0.966E-02
DAV:   7    -0.512772782585E+03    0.72537E-05   -0.12022E-04 19605   0.499E-02    0.757E-02
DAV:   8    -0.512772780273E+03    0.23122E-05   -0.17120E-05 10173   0.182E-02
  19 F= -.51277278E+03 E0= -.51277720E+03  d E =-.327945E-03  mag=   115.3795
