Generated by VASPKIT code               
   1.00000000000000     
     8.5261999999999993    0.0000000000000000    0.0000000000000000
    -0.0017663600000000    8.5045998199999993    0.0000000000000000
     0.0000000000000000    0.0000000000000000   23.5558000000000014
   Fe   Cr   Pb
    49    14     1
Selective dynamics
Direct
     0.0024500000000032    0.9986499999999978    0.1211699999999993   F   F   F
     0.1698000000000022    0.1658699999999982    0.1809900000000013   F   F   F
     0.3362300000000005    0.9985199999999992    0.1210999999999984   F   F   F
     0.5016400000000019    0.1659399999999991    0.1813500000000019   F   F   F
     0.8361500000000035    0.1655900000000017    0.1809900000000013   F   F   F
     0.0026000000000010    0.3328399999999974    0.1210099999999983   F   F   F
     0.1699399999999969    0.4992500000000035    0.1810400000000030   F   F   F
     0.3365099999999970    0.3328699999999998    0.1208600000000004   F   F   F
     0.5018000000000029    0.4993699999999990    0.1812299999999993   F   F   F
     0.6696499999999972    0.3330399999999969    0.1210299999999975   F   F   F
     0.8362600000000029    0.4996300000000033    0.1811700000000016   F   F   F
     0.1689900000000009    0.8332899999999981    0.1817700000000002   F   F   F
     0.3358199999999982    0.6668900000000022    0.1209500000000006   F   F   F
     0.6691399999999987    0.6672200000000004    0.1211699999999993   F   F   F
     0.8367999999999967    0.8322000000000003    0.1811399999999992   F   F   F
     0.0017199999999988    0.9994399999999999    0.2415099999999981   F   F   F
     0.1677104990648753    0.1594033958394809    0.3019422173517206   T   T   T
     0.5024127699563044    0.1663597744186500    0.3021305688290538   T   T   T
     0.6698799999999991    0.9992400000000004    0.2414199999999980   F   F   F
     0.8339890195399255    0.1622528126007416    0.3022402652810875   T   T   T
     0.1655060767873925    0.5004611298128770    0.3023748426283754   T   T   T
     0.3352399999999989    0.3324599999999975    0.2418300000000002   F   F   F
     0.5040577293733315    0.5009286155118740    0.3028947284125172   T   T   T
     0.6690200000000033    0.3331700000000026    0.2412300000000016   F   F   F
     0.8353941010344892    0.4959631462338208    0.3019627132176260   T   T   T
     0.0031800000000004    0.6659799999999976    0.2417700000000025   F   F   F
     0.3360500000000002    0.6658800000000014    0.2414600000000036   F   F   F
     0.5034204417560660    0.8362004080109955    0.3013364402660701   T   T   T
     0.6691799999999972    0.6667399999999972    0.2413099999999986   F   F   F
     0.0027100000000004    0.9986900000000034    0.0003400000000013   F   F   F
     0.0087401111089171    0.9917451467374941    0.3590119876193542   T   T   T
     0.1692899999999966    0.1669399999999968    0.0607100000000003   F   F   F
     0.3365700000000018    0.0007499999999965    0.0006699999999995   F   F   F
     0.3389681965642948    0.0112749420413836    0.3622079732937576   T   T   T
     0.5034300000000016    0.1651999999999987    0.0610500000000016   F   F   F
     0.6694800000000001    0.9988299999999981    0.0005299999999977   F   F   F
     0.6566124708533478    0.0017318698380654    0.3618763318755472   T   T   T
     0.8357000000000028    0.1655599999999993    0.0609400000000022   F   F   F
     0.1706100000000035    0.4974599999999967    0.0603199999999973   F   F   F
     0.5021500000000003    0.4999200000000030    0.0608599999999981   F   F   F
     0.6692999999999998    0.3335799999999978    0.0005000000000024   F   F   F
     0.6689131158927861    0.3311746043549756    0.3595574350744176   T   T   T
     0.0023899999999983    0.6644099999999966    0.0005099999999985   F   F   F
     0.9996865888941920    0.6609542744483101    0.3600605509160726   T   T   T
     0.1689399999999992    0.8330399999999969    0.0606200000000001   F   F   F
     0.5022200000000012    0.8331799999999987    0.0607699999999980   F   F   F
     0.6688199999999966    0.6665500000000009    0.0006800000000027   F   F   F
     0.6739761107016480    0.6661231061724620    0.3596667157474387   T   T   T
     0.8361999999999981    0.8320599999999985    0.0608599999999981   F   F   F
     0.6687900000000013    0.9968900000000005    0.1222500000000011   F   F   F
     0.0012699999999981    0.6647600000000011    0.1204600000000013   F   F   F
     0.5027199999999965    0.8339100000000030    0.1809799999999981   F   F   F
     0.3366200000000035    0.9978399999999965    0.2417200000000008   F   F   F
     0.0024000000000015    0.3333200000000005    0.2407899999999970   F   F   F
     0.1744833000090021    0.8308564861755957    0.3024065088977727   T   T   T
     0.8342680793034291    0.8325528903371757    0.3021592485817374   T   T   T
     0.9996200000000002    0.3343100000000021    0.0019899999999993   F   F   F
     0.0026734147735342    0.3237015454459414    0.3693904132364924   T   T   T
     0.3392199999999974    0.3307199999999995    0.0000000000000000   F   F   F
     0.3315407991137664    0.3351827772375412    0.3622068945613148   T   T   T
     0.8377899999999983    0.4999899999999968    0.0613499999999974   F   F   F
     0.3352399999999989    0.6703699999999984    0.0002300000000020   F   F   F
     0.3356514481847272    0.6797672427301376    0.3679142800205369   T   T   T
     0.1527208719016915    0.5162435465791126    0.4475722035694986   T   T   T
 
  0.00000000E+00  0.00000000E+00  0.00000000E+00
  0.00000000E+00  0.00000000E+00  0.00000000E+00
  0.00000000E+00  0.00000000E+00  0.00000000E+00
  0.00000000E+00  0.00000000E+00  0.00000000E+00
  0.00000000E+00  0.00000000E+00  0.00000000E+00
  0.00000000E+00  0.00000000E+00  0.00000000E+00
  0.00000000E+00  0.00000000E+00  0.00000000E+00
  0.00000000E+00  0.00000000E+00  0.00000000E+00
  0.00000000E+00  0.00000000E+00  0.00000000E+00
  0.00000000E+00  0.00000000E+00  0.00000000E+00
  0.00000000E+00  0.00000000E+00  0.00000000E+00
  0.00000000E+00  0.00000000E+00  0.00000000E+00
  0.00000000E+00  0.00000000E+00  0.00000000E+00
  0.00000000E+00  0.00000000E+00  0.00000000E+00
  0.00000000E+00  0.00000000E+00  0.00000000E+00
  0.00000000E+00  0.00000000E+00  0.00000000E+00
  0.00000000E+00  0.00000000E+00  0.00000000E+00
  0.00000000E+00  0.00000000E+00  0.00000000E+00
  0.00000000E+00  0.00000000E+00  0.00000000E+00
  0.00000000E+00  0.00000000E+00  0.00000000E+00
  0.00000000E+00  0.00000000E+00  0.00000000E+00
  0.00000000E+00  0.00000000E+00  0.00000000E+00
  0.00000000E+00  0.00000000E+00  0.00000000E+00
  0.00000000E+00  0.00000000E+00  0.00000000E+00
  0.00000000E+00  0.00000000E+00  0.00000000E+00
  0.00000000E+00  0.00000000E+00  0.00000000E+00
  0.00000000E+00  0.00000000E+00  0.00000000E+00
  0.00000000E+00  0.00000000E+00  0.00000000E+00
  0.00000000E+00  0.00000000E+00  0.00000000E+00
  0.00000000E+00  0.00000000E+00  0.00000000E+00
  0.00000000E+00  0.00000000E+00  0.00000000E+00
  0.00000000E+00  0.00000000E+00  0.00000000E+00
  0.00000000E+00  0.00000000E+00  0.00000000E+00
  0.00000000E+00  0.00000000E+00  0.00000000E+00
  0.00000000E+00  0.00000000E+00  0.00000000E+00
  0.00000000E+00  0.00000000E+00  0.00000000E+00
  0.00000000E+00  0.00000000E+00  0.00000000E+00
  0.00000000E+00  0.00000000E+00  0.00000000E+00
  0.00000000E+00  0.00000000E+00  0.00000000E+00
  0.00000000E+00  0.00000000E+00  0.00000000E+00
  0.00000000E+00  0.00000000E+00  0.00000000E+00
  0.00000000E+00  0.00000000E+00  0.00000000E+00
  0.00000000E+00  0.00000000E+00  0.00000000E+00
  0.00000000E+00  0.00000000E+00  0.00000000E+00
  0.00000000E+00  0.00000000E+00  0.00000000E+00
  0.00000000E+00  0.00000000E+00  0.00000000E+00
  0.00000000E+00  0.00000000E+00  0.00000000E+00
  0.00000000E+00  0.00000000E+00  0.00000000E+00
  0.00000000E+00  0.00000000E+00  0.00000000E+00
  0.00000000E+00  0.00000000E+00  0.00000000E+00
  0.00000000E+00  0.00000000E+00  0.00000000E+00
  0.00000000E+00  0.00000000E+00  0.00000000E+00
  0.00000000E+00  0.00000000E+00  0.00000000E+00
  0.00000000E+00  0.00000000E+00  0.00000000E+00
  0.00000000E+00  0.00000000E+00  0.00000000E+00
  0.00000000E+00  0.00000000E+00  0.00000000E+00
  0.00000000E+00  0.00000000E+00  0.00000000E+00
  0.00000000E+00  0.00000000E+00  0.00000000E+00
  0.00000000E+00  0.00000000E+00  0.00000000E+00
  0.00000000E+00  0.00000000E+00  0.00000000E+00
  0.00000000E+00  0.00000000E+00  0.00000000E+00
  0.00000000E+00  0.00000000E+00  0.00000000E+00
  0.00000000E+00  0.00000000E+00  0.00000000E+00
  0.00000000E+00  0.00000000E+00  0.00000000E+00
