Generated by VASPKIT code               
   1.00000000000000     
     8.5261999999999993    0.0000000000000000    0.0000000000000000
    -0.0017663600000000    8.5045998199999993    0.0000000000000000
     0.0000000000000000    0.0000000000000000   23.5558000000000014
   Cr   Fe   Pb
    14    49     1
Selective dynamics
Direct
     0.6687900000000013    0.9968900000000005    0.1222500000000011   F   F   F
     0.0012699999999981    0.6647600000000011    0.1204600000000013   F   F   F
     0.5027199999999965    0.8339100000000030    0.1809799999999981   F   F   F
     0.3366200000000035    0.9978399999999965    0.2417200000000008   F   F   F
     0.0024000000000015    0.3333200000000005    0.2407899999999970   F   F   F
     0.1745142035788682    0.8292222112260864    0.3032724138462113   T   T   T
     0.8333426734875389    0.8333279799411564    0.3045895887546634   T   T   T
     0.9996200000000002    0.3343100000000021    0.0019899999999993   F   F   F
     0.0123653452933132    0.3296514859196251    0.3710858649072707   T   T   T
     0.3392199999999974    0.3307199999999995    0.0000000000000000   F   F   F
     0.3299985980936423    0.3361024091617043    0.3613549451659653   T   T   T
     0.8377899999999983    0.4999899999999968    0.0613499999999974   F   F   F
     0.3352399999999989    0.6703699999999984    0.0002300000000020   F   F   F
     0.3291189957852291    0.6712868543832718    0.3694845368190858   T   T   T
     0.0024500000000032    0.9986499999999978    0.1211699999999993   F   F   F
     0.1698000000000022    0.1658699999999982    0.1809900000000013   F   F   F
     0.3362300000000005    0.9985199999999992    0.1210999999999984   F   F   F
     0.5016400000000019    0.1659399999999991    0.1813500000000019   F   F   F
     0.8361500000000035    0.1655900000000017    0.1809900000000013   F   F   F
     0.0026000000000010    0.3328399999999974    0.1210099999999983   F   F   F
     0.1699399999999969    0.4992500000000035    0.1810400000000030   F   F   F
     0.3365099999999970    0.3328699999999998    0.1208600000000004   F   F   F
     0.5018000000000029    0.4993699999999990    0.1812299999999993   F   F   F
     0.6696499999999972    0.3330399999999969    0.1210299999999975   F   F   F
     0.8362600000000029    0.4996300000000033    0.1811700000000016   F   F   F
     0.1689900000000009    0.8332899999999981    0.1817700000000002   F   F   F
     0.3358199999999982    0.6668900000000022    0.1209500000000006   F   F   F
     0.6691399999999987    0.6672200000000004    0.1211699999999993   F   F   F
     0.8367999999999967    0.8322000000000003    0.1811399999999992   F   F   F
     0.0017199999999988    0.9994399999999999    0.2415099999999981   F   F   F
     0.1701874168317065    0.1621620337711329    0.3007707448732336   T   T   T
     0.5013607244888754    0.1681488740404556    0.3018775538063552   T   T   T
     0.6698799999999991    0.9992400000000004    0.2414199999999980   F   F   F
     0.8361685491914681    0.1650586618648358    0.3030517193764639   T   T   T
     0.1663245652950379    0.4984436653999968    0.3005671255057909   T   T   T
     0.3352399999999989    0.3324599999999975    0.2418300000000002   F   F   F
     0.5020079304830082    0.4991739596840641    0.3023911835878881   T   T   T
     0.6690200000000033    0.3331700000000026    0.2412300000000016   F   F   F
     0.8362261496769946    0.4965652140618597    0.3027053565767628   T   T   T
     0.0031800000000004    0.6659799999999976    0.2417700000000025   F   F   F
     0.3360500000000002    0.6658800000000014    0.2414600000000036   F   F   F
     0.5020812501393136    0.8358269380938932    0.3024515654770202   T   T   T
     0.6691799999999972    0.6667399999999972    0.2413099999999986   F   F   F
     0.0027100000000004    0.9986900000000034    0.0003400000000013   F   F   F
     0.0166225478581900    0.0002944998219564    0.3585536057588549   T   T   T
     0.1692899999999966    0.1669399999999968    0.0607100000000003   F   F   F
     0.3365700000000018    0.0007499999999965    0.0006699999999995   F   F   F
     0.3364032838449100    0.0119180309355374    0.3625945387857513   T   T   T
     0.5034300000000016    0.1651999999999987    0.0610500000000016   F   F   F
     0.6694800000000001    0.9988299999999981    0.0005299999999977   F   F   F
     0.6544326292903258    0.0101930211865838    0.3617058123445165   T   T   T
     0.8357000000000028    0.1655599999999993    0.0609400000000022   F   F   F
     0.1706100000000035    0.4974599999999967    0.0603199999999973   F   F   F
     0.5021500000000003    0.4999200000000030    0.0608599999999981   F   F   F
     0.6692999999999998    0.3335799999999978    0.0005000000000024   F   F   F
     0.6679902766361898    0.3319396817079121    0.3603451019082629   T   T   T
     0.0023899999999983    0.6644099999999966    0.0005099999999985   F   F   F
     0.0067924367070699    0.6577528058152156    0.3579742985089697   T   T   T
     0.1689399999999992    0.8330399999999969    0.0606200000000001   F   F   F
     0.5022200000000012    0.8331799999999987    0.0607699999999980   F   F   F
     0.6688199999999966    0.6665500000000009    0.0006800000000027   F   F   F
     0.6625046249321561    0.6588193788401733    0.3592567235251437   T   T   T
     0.8361999999999981    0.8320599999999985    0.0608599999999981   F   F   F
     0.8379167747174437    0.8352538829504836    0.4370961681382712   T   T   T
 
  0.00000000E+00  0.00000000E+00  0.00000000E+00
  0.00000000E+00  0.00000000E+00  0.00000000E+00
  0.00000000E+00  0.00000000E+00  0.00000000E+00
  0.00000000E+00  0.00000000E+00  0.00000000E+00
  0.00000000E+00  0.00000000E+00  0.00000000E+00
  0.00000000E+00  0.00000000E+00  0.00000000E+00
  0.00000000E+00  0.00000000E+00  0.00000000E+00
  0.00000000E+00  0.00000000E+00  0.00000000E+00
  0.00000000E+00  0.00000000E+00  0.00000000E+00
  0.00000000E+00  0.00000000E+00  0.00000000E+00
  0.00000000E+00  0.00000000E+00  0.00000000E+00
  0.00000000E+00  0.00000000E+00  0.00000000E+00
  0.00000000E+00  0.00000000E+00  0.00000000E+00
  0.00000000E+00  0.00000000E+00  0.00000000E+00
  0.00000000E+00  0.00000000E+00  0.00000000E+00
  0.00000000E+00  0.00000000E+00  0.00000000E+00
  0.00000000E+00  0.00000000E+00  0.00000000E+00
  0.00000000E+00  0.00000000E+00  0.00000000E+00
  0.00000000E+00  0.00000000E+00  0.00000000E+00
  0.00000000E+00  0.00000000E+00  0.00000000E+00
  0.00000000E+00  0.00000000E+00  0.00000000E+00
  0.00000000E+00  0.00000000E+00  0.00000000E+00
  0.00000000E+00  0.00000000E+00  0.00000000E+00
  0.00000000E+00  0.00000000E+00  0.00000000E+00
  0.00000000E+00  0.00000000E+00  0.00000000E+00
  0.00000000E+00  0.00000000E+00  0.00000000E+00
  0.00000000E+00  0.00000000E+00  0.00000000E+00
  0.00000000E+00  0.00000000E+00  0.00000000E+00
  0.00000000E+00  0.00000000E+00  0.00000000E+00
  0.00000000E+00  0.00000000E+00  0.00000000E+00
  0.00000000E+00  0.00000000E+00  0.00000000E+00
  0.00000000E+00  0.00000000E+00  0.00000000E+00
  0.00000000E+00  0.00000000E+00  0.00000000E+00
  0.00000000E+00  0.00000000E+00  0.00000000E+00
  0.00000000E+00  0.00000000E+00  0.00000000E+00
  0.00000000E+00  0.00000000E+00  0.00000000E+00
  0.00000000E+00  0.00000000E+00  0.00000000E+00
  0.00000000E+00  0.00000000E+00  0.00000000E+00
  0.00000000E+00  0.00000000E+00  0.00000000E+00
  0.00000000E+00  0.00000000E+00  0.00000000E+00
  0.00000000E+00  0.00000000E+00  0.00000000E+00
  0.00000000E+00  0.00000000E+00  0.00000000E+00
  0.00000000E+00  0.00000000E+00  0.00000000E+00
  0.00000000E+00  0.00000000E+00  0.00000000E+00
  0.00000000E+00  0.00000000E+00  0.00000000E+00
  0.00000000E+00  0.00000000E+00  0.00000000E+00
  0.00000000E+00  0.00000000E+00  0.00000000E+00
  0.00000000E+00  0.00000000E+00  0.00000000E+00
  0.00000000E+00  0.00000000E+00  0.00000000E+00
  0.00000000E+00  0.00000000E+00  0.00000000E+00
  0.00000000E+00  0.00000000E+00  0.00000000E+00
  0.00000000E+00  0.00000000E+00  0.00000000E+00
  0.00000000E+00  0.00000000E+00  0.00000000E+00
  0.00000000E+00  0.00000000E+00  0.00000000E+00
  0.00000000E+00  0.00000000E+00  0.00000000E+00
  0.00000000E+00  0.00000000E+00  0.00000000E+00
  0.00000000E+00  0.00000000E+00  0.00000000E+00
  0.00000000E+00  0.00000000E+00  0.00000000E+00
  0.00000000E+00  0.00000000E+00  0.00000000E+00
  0.00000000E+00  0.00000000E+00  0.00000000E+00
  0.00000000E+00  0.00000000E+00  0.00000000E+00
  0.00000000E+00  0.00000000E+00  0.00000000E+00
  0.00000000E+00  0.00000000E+00  0.00000000E+00
  0.00000000E+00  0.00000000E+00  0.00000000E+00
