  64  64   0   0
  0.2668869E+02  0.8526200E-09  0.8504600E-09  0.2355580E-08  0.5000000E-15
  1.000000000000000E-004
  CAR 
 INCAR-For-OPT                           
      5.61043240    -45.59801377  301      0.97634449      1.00000000
    -45.598  0.0000E+00  0.0000E+00  0.0000E+00  0.0000E+00
    -45.427  0.0000E+00  0.0000E+00  0.0000E+00  0.0000E+00
    -45.257  0.0000E+00  0.0000E+00  0.0000E+00  0.0000E+00
    -45.086  0.0000E+00  0.0000E+00  0.0000E+00  0.0000E+00
    -44.915  0.0000E+00  0.0000E+00  0.0000E+00  0.0000E+00
    -44.745  0.0000E+00  0.0000E+00  0.0000E+00  0.0000E+00
    -44.574  0.0000E+00 -0.7660E-34  0.0000E+00 -0.1308E-34
    -44.403  0.0000E+00 -0.7087E-26  0.0000E+00 -0.1210E-26
    -44.232  0.0000E+00 -0.4811E-19  0.0000E+00 -0.8212E-20
    -44.062 -0.2217E-31 -0.2298E-13 -0.3784E-32 -0.3922E-14
    -43.891 -0.1015E-23 -0.8078E-09 -0.1732E-24 -0.1379E-09
    -43.720 -0.3483E-17 -0.2036E-05 -0.5945E-18 -0.3476E-06
    -43.550 -0.8658E-12 -0.3775E-03 -0.1478E-12 -0.6478E-04
    -43.379 -0.1660E-07 -0.3365E-02 -0.2833E-08 -0.6392E-03
    -43.208 -0.2354E-04  0.5650E-01 -0.4022E-05  0.9004E-02
    -43.038 -0.2150E-02  0.1266E+00 -0.3711E-03  0.3061E-01
    -42.867  0.7569E-02  0.7565E-01  0.9210E-03  0.4352E-01
    -42.696  0.1437E+00  0.1168E+00  0.2546E-01  0.6346E-01
    -42.526  0.8748E-01  0.7620E-01  0.4039E-01  0.7647E-01
    -42.355 -0.3779E-02  0.3295E-01  0.3974E-01  0.8209E-01
    -42.184  0.1876E-01  0.3468E-01  0.4295E-01  0.8801E-01
    -42.013  0.9267E-01  0.4375E-01  0.5876E-01  0.9548E-01
    -41.843  0.1099E+00  0.1193E-01  0.7752E-01  0.9752E-01
    -41.672  0.1433E+00  0.1414E-01  0.1020E+00  0.9993E-01
    -41.501  0.1031E+00  0.6111E-03  0.1196E+00  0.1000E+00
    -41.331  0.3933E-02 -0.2141E-03  0.1202E+00  0.1000E+00
    -41.160 -0.1374E-02 -0.1510E-05  0.1200E+00  0.1000E+00
    -40.989 -0.2930E-04 -0.6016E-09  0.1200E+00  0.1000E+00
    -40.819 -0.1601E-06 -0.1716E-09  0.1200E+00  0.1000E+00
    -40.648 -0.8345E-04 -0.6294E-06  0.1200E+00  0.1000E+00
    -40.477 -0.2665E-02 -0.1429E-03  0.1195E+00  0.9998E-01
    -40.306  0.2536E-01 -0.7205E-03  0.1239E+00  0.9985E-01
    -40.136  0.8132E-01  0.1708E-01  0.1377E+00  0.1028E+00
    -39.965  0.1507E-01  0.3418E-01  0.1403E+00  0.1086E+00
    -39.794 -0.1770E-02  0.4667E-01  0.1400E+00  0.1166E+00
    -39.624 -0.6737E-04  0.7293E-01  0.1400E+00  0.1290E+00
    -39.453 -0.1358E-06  0.5827E-01  0.1400E+00  0.1390E+00
    -39.282 -0.1871E-10  0.7291E-02  0.1400E+00  0.1402E+00
    -39.112 -0.1821E-15 -0.1200E-02  0.1400E+00  0.1400E+00
    -38.941  0.0000E+00 -0.2540E-04  0.1400E+00  0.1400E+00
    -38.770  0.0000E+00 -0.2802E-07  0.1400E+00  0.1400E+00
    -38.600  0.0000E+00 -0.2075E-11  0.1400E+00  0.1400E+00
    -38.429  0.0000E+00 -0.8672E-17  0.1400E+00  0.1400E+00
    -38.258  0.0000E+00  0.0000E+00  0.1400E+00  0.1400E+00
    -38.087  0.0000E+00  0.0000E+00  0.1400E+00  0.1400E+00
    -37.917  0.0000E+00  0.0000E+00  0.1400E+00  0.1400E+00
    -37.746  0.0000E+00  0.0000E+00  0.1400E+00  0.1400E+00
    -37.575  0.0000E+00  0.0000E+00  0.1400E+00  0.1400E+00
    -37.405  0.0000E+00  0.0000E+00  0.1400E+00  0.1400E+00
    -37.234  0.0000E+00  0.0000E+00  0.1400E+00  0.1400E+00
    -37.063  0.0000E+00  0.0000E+00  0.1400E+00  0.1400E+00
    -36.893  0.0000E+00  0.0000E+00  0.1400E+00  0.1400E+00
    -36.722  0.0000E+00  0.0000E+00  0.1400E+00  0.1400E+00
    -36.551  0.0000E+00  0.0000E+00  0.1400E+00  0.1400E+00
    -36.380  0.0000E+00  0.0000E+00  0.1400E+00  0.1400E+00
    -36.210  0.0000E+00  0.0000E+00  0.1400E+00  0.1400E+00
    -36.039  0.0000E+00  0.0000E+00  0.1400E+00  0.1400E+00
    -35.868  0.0000E+00  0.0000E+00  0.1400E+00  0.1400E+00
    -35.698  0.0000E+00  0.0000E+00  0.1400E+00  0.1400E+00
    -35.527  0.0000E+00  0.0000E+00  0.1400E+00  0.1400E+00
    -35.356  0.0000E+00  0.0000E+00  0.1400E+00  0.1400E+00
    -35.186  0.0000E+00  0.0000E+00  0.1400E+00  0.1400E+00
    -35.015  0.0000E+00  0.0000E+00  0.1400E+00  0.1400E+00
    -34.844  0.0000E+00  0.0000E+00  0.1400E+00  0.1400E+00
    -34.674  0.0000E+00  0.0000E+00  0.1400E+00  0.1400E+00
    -34.503  0.0000E+00  0.0000E+00  0.1400E+00  0.1400E+00
    -34.332  0.0000E+00  0.0000E+00  0.1400E+00  0.1400E+00
    -34.161  0.0000E+00  0.0000E+00  0.1400E+00  0.1400E+00
    -33.991  0.0000E+00  0.0000E+00  0.1400E+00  0.1400E+00
    -33.820  0.0000E+00  0.0000E+00  0.1400E+00  0.1400E+00
    -33.649  0.0000E+00  0.0000E+00  0.1400E+00  0.1400E+00
    -33.479  0.0000E+00  0.0000E+00  0.1400E+00  0.1400E+00
    -33.308  0.0000E+00  0.0000E+00  0.1400E+00  0.1400E+00
    -33.137  0.0000E+00  0.0000E+00  0.1400E+00  0.1400E+00
    -32.967  0.0000E+00  0.0000E+00  0.1400E+00  0.1400E+00
    -32.796  0.0000E+00  0.0000E+00  0.1400E+00  0.1400E+00
    -32.625  0.0000E+00  0.0000E+00  0.1400E+00  0.1400E+00
    -32.455  0.0000E+00  0.0000E+00  0.1400E+00  0.1400E+00
    -32.284  0.0000E+00  0.0000E+00  0.1400E+00  0.1400E+00
    -32.113  0.0000E+00  0.0000E+00  0.1400E+00  0.1400E+00
    -31.942  0.0000E+00  0.0000E+00  0.1400E+00  0.1400E+00
    -31.772  0.0000E+00  0.0000E+00  0.1400E+00  0.1400E+00
    -31.601  0.0000E+00  0.0000E+00  0.1400E+00  0.1400E+00
    -31.430  0.0000E+00  0.0000E+00  0.1400E+00  0.1400E+00
    -31.260  0.0000E+00  0.0000E+00  0.1400E+00  0.1400E+00
    -31.089  0.0000E+00  0.0000E+00  0.1400E+00  0.1400E+00
    -30.918  0.0000E+00  0.0000E+00  0.1400E+00  0.1400E+00
    -30.748  0.0000E+00  0.0000E+00  0.1400E+00  0.1400E+00
    -30.577  0.0000E+00  0.0000E+00  0.1400E+00  0.1400E+00
    -30.406  0.0000E+00  0.0000E+00  0.1400E+00  0.1400E+00
    -30.235  0.0000E+00  0.0000E+00  0.1400E+00  0.1400E+00
    -30.065  0.0000E+00  0.0000E+00  0.1400E+00  0.1400E+00
    -29.894  0.0000E+00  0.0000E+00  0.1400E+00  0.1400E+00
    -29.723  0.0000E+00  0.0000E+00  0.1400E+00  0.1400E+00
    -29.553  0.0000E+00  0.0000E+00  0.1400E+00  0.1400E+00
    -29.382  0.0000E+00  0.0000E+00  0.1400E+00  0.1400E+00
    -29.211  0.0000E+00  0.0000E+00  0.1400E+00  0.1400E+00
    -29.041  0.0000E+00  0.0000E+00  0.1400E+00  0.1400E+00
    -28.870  0.0000E+00  0.0000E+00  0.1400E+00  0.1400E+00
    -28.699  0.0000E+00  0.0000E+00  0.1400E+00  0.1400E+00
    -28.529  0.0000E+00  0.0000E+00  0.1400E+00  0.1400E+00
    -28.358  0.0000E+00  0.0000E+00  0.1400E+00  0.1400E+00
    -28.187  0.0000E+00  0.0000E+00  0.1400E+00  0.1400E+00
    -28.016  0.0000E+00  0.0000E+00  0.1400E+00  0.1400E+00
    -27.846  0.0000E+00  0.0000E+00  0.1400E+00  0.1400E+00
    -27.675  0.0000E+00  0.0000E+00  0.1400E+00  0.1400E+00
    -27.504  0.0000E+00  0.0000E+00  0.1400E+00  0.1400E+00
    -27.334  0.0000E+00  0.0000E+00  0.1400E+00  0.1400E+00
    -27.163  0.0000E+00  0.0000E+00  0.1400E+00  0.1400E+00
    -26.992  0.0000E+00  0.0000E+00  0.1400E+00  0.1400E+00
    -26.822  0.0000E+00  0.0000E+00  0.1400E+00  0.1400E+00
    -26.651  0.0000E+00  0.0000E+00  0.1400E+00  0.1400E+00
    -26.480  0.0000E+00  0.0000E+00  0.1400E+00  0.1400E+00
    -26.309  0.0000E+00  0.0000E+00  0.1400E+00  0.1400E+00
    -26.139  0.0000E+00  0.0000E+00  0.1400E+00  0.1400E+00
    -25.968  0.0000E+00  0.0000E+00  0.1400E+00  0.1400E+00
    -25.797  0.0000E+00  0.0000E+00  0.1400E+00  0.1400E+00
    -25.627  0.0000E+00  0.0000E+00  0.1400E+00  0.1400E+00
    -25.456  0.0000E+00  0.0000E+00  0.1400E+00  0.1400E+00
    -25.285  0.0000E+00  0.0000E+00  0.1400E+00  0.1400E+00
    -25.115  0.0000E+00  0.0000E+00  0.1400E+00  0.1400E+00
    -24.944  0.0000E+00  0.0000E+00  0.1400E+00  0.1400E+00
    -24.773  0.0000E+00  0.0000E+00  0.1400E+00  0.1400E+00
    -24.603  0.0000E+00  0.0000E+00  0.1400E+00  0.1400E+00
    -24.432  0.0000E+00  0.0000E+00  0.1400E+00  0.1400E+00
    -24.261  0.0000E+00  0.0000E+00  0.1400E+00  0.1400E+00
    -24.090  0.0000E+00  0.0000E+00  0.1400E+00  0.1400E+00
    -23.920  0.0000E+00  0.0000E+00  0.1400E+00  0.1400E+00
    -23.749  0.0000E+00  0.0000E+00  0.1400E+00  0.1400E+00
    -23.578  0.0000E+00  0.0000E+00  0.1400E+00  0.1400E+00
    -23.408  0.0000E+00  0.0000E+00  0.1400E+00  0.1400E+00
    -23.237  0.0000E+00  0.0000E+00  0.1400E+00  0.1400E+00
    -23.066  0.0000E+00  0.0000E+00  0.1400E+00  0.1400E+00
    -22.896  0.0000E+00  0.0000E+00  0.1400E+00  0.1400E+00
    -22.725  0.0000E+00  0.0000E+00  0.1400E+00  0.1400E+00
    -22.554  0.0000E+00  0.0000E+00  0.1400E+00  0.1400E+00
    -22.384  0.0000E+00  0.0000E+00  0.1400E+00  0.1400E+00
    -22.213  0.0000E+00  0.0000E+00  0.1400E+00  0.1400E+00
    -22.042  0.0000E+00  0.0000E+00  0.1400E+00  0.1400E+00
    -21.871  0.0000E+00  0.0000E+00  0.1400E+00  0.1400E+00
    -21.701  0.0000E+00  0.0000E+00  0.1400E+00  0.1400E+00
    -21.530  0.0000E+00  0.0000E+00  0.1400E+00  0.1400E+00
    -21.359  0.0000E+00  0.0000E+00  0.1400E+00  0.1400E+00
    -21.189  0.0000E+00  0.0000E+00  0.1400E+00  0.1400E+00
    -21.018  0.0000E+00  0.0000E+00  0.1400E+00  0.1400E+00
    -20.847  0.0000E+00  0.0000E+00  0.1400E+00  0.1400E+00
    -20.677  0.0000E+00  0.0000E+00  0.1400E+00  0.1400E+00
    -20.506  0.0000E+00  0.0000E+00  0.1400E+00  0.1400E+00
    -20.335  0.0000E+00  0.0000E+00  0.1400E+00  0.1400E+00
    -20.164  0.0000E+00  0.0000E+00  0.1400E+00  0.1400E+00
    -19.994  0.0000E+00  0.0000E+00  0.1400E+00  0.1400E+00
    -19.823  0.0000E+00  0.0000E+00  0.1400E+00  0.1400E+00
    -19.652  0.0000E+00  0.0000E+00  0.1400E+00  0.1400E+00
    -19.482  0.0000E+00  0.0000E+00  0.1400E+00  0.1400E+00
    -19.311  0.0000E+00  0.0000E+00  0.1400E+00  0.1400E+00
    -19.140  0.0000E+00  0.0000E+00  0.1400E+00  0.1400E+00
    -18.970  0.0000E+00  0.0000E+00  0.1400E+00  0.1400E+00
    -18.799  0.0000E+00  0.0000E+00  0.1400E+00  0.1400E+00
    -18.628  0.0000E+00  0.0000E+00  0.1400E+00  0.1400E+00
    -18.458  0.0000E+00  0.0000E+00  0.1400E+00  0.1400E+00
    -18.287  0.0000E+00  0.0000E+00  0.1400E+00  0.1400E+00
    -18.116  0.0000E+00  0.0000E+00  0.1400E+00  0.1400E+00
    -17.945  0.0000E+00  0.0000E+00  0.1400E+00  0.1400E+00
    -17.775  0.0000E+00  0.0000E+00  0.1400E+00  0.1400E+00
    -17.604  0.0000E+00  0.0000E+00  0.1400E+00  0.1400E+00
    -17.433  0.0000E+00  0.0000E+00  0.1400E+00  0.1400E+00
    -17.263  0.0000E+00  0.0000E+00  0.1400E+00  0.1400E+00
    -17.092  0.0000E+00  0.0000E+00  0.1400E+00  0.1400E+00
    -16.921  0.0000E+00  0.0000E+00  0.1400E+00  0.1400E+00
    -16.751  0.0000E+00  0.0000E+00  0.1400E+00  0.1400E+00
    -16.580 -0.2247E-30 -0.2315E-29  0.1400E+00  0.1400E+00
    -16.409 -0.8088E-23 -0.5780E-22  0.1400E+00  0.1400E+00
    -16.239 -0.2147E-16 -0.1056E-15  0.1400E+00  0.1400E+00
    -16.068 -0.4004E-11 -0.1429E-10  0.1400E+00  0.1400E+00
    -15.897 -0.5482E-07 -0.1410E-06  0.1400E+00  0.1400E+00
    -15.726 -0.5058E-04 -0.9383E-04  0.1400E+00  0.1400E+00
    -15.556 -0.2323E-02 -0.2806E-02  0.1396E+00  0.1395E+00
    -15.385  0.1964E-01  0.2896E-01  0.1429E+00  0.1444E+00
    -15.214  0.7559E-01  0.7090E-01  0.1559E+00  0.1566E+00
    -15.044  0.6101E-02  0.1567E-02  0.1569E+00  0.1568E+00
    -14.873 -0.1305E-02 -0.8776E-03  0.1567E+00  0.1567E+00
    -14.702 -0.1362E-04 -0.6000E-05  0.1567E+00  0.1567E+00
    -14.532 -0.8378E-08 -0.2511E-08  0.1567E+00  0.1567E+00
    -14.361 -0.3642E-12 -0.7474E-13  0.1567E+00  0.1567E+00
    -14.190  0.0000E+00  0.0000E+00  0.1567E+00  0.1567E+00
    -14.019  0.0000E+00  0.0000E+00  0.1567E+00  0.1567E+00
    -13.849  0.0000E+00  0.0000E+00  0.1567E+00  0.1567E+00
    -13.678  0.0000E+00  0.0000E+00  0.1567E+00  0.1567E+00
    -13.507  0.0000E+00  0.0000E+00  0.1567E+00  0.1567E+00
    -13.337  0.0000E+00  0.0000E+00  0.1567E+00  0.1567E+00
    -13.166  0.0000E+00  0.0000E+00  0.1567E+00  0.1567E+00
    -12.995  0.0000E+00  0.0000E+00  0.1567E+00  0.1567E+00
    -12.825  0.0000E+00  0.0000E+00  0.1567E+00  0.1567E+00
    -12.654  0.0000E+00  0.0000E+00  0.1567E+00  0.1567E+00
    -12.483  0.0000E+00  0.0000E+00  0.1567E+00  0.1567E+00
    -12.313  0.0000E+00  0.0000E+00  0.1567E+00  0.1567E+00
    -12.142  0.0000E+00  0.0000E+00  0.1567E+00  0.1567E+00
    -11.971  0.0000E+00  0.0000E+00  0.1567E+00  0.1567E+00
    -11.800  0.0000E+00  0.0000E+00  0.1567E+00  0.1567E+00
    -11.630  0.0000E+00  0.0000E+00  0.1567E+00  0.1567E+00
    -11.459  0.0000E+00  0.0000E+00  0.1567E+00  0.1567E+00
    -11.288  0.0000E+00  0.0000E+00  0.1567E+00  0.1567E+00
    -11.118  0.0000E+00  0.0000E+00  0.1567E+00  0.1567E+00
    -10.947  0.0000E+00  0.0000E+00  0.1567E+00  0.1567E+00
    -10.776  0.0000E+00  0.0000E+00  0.1567E+00  0.1567E+00
    -10.606  0.0000E+00  0.0000E+00  0.1567E+00  0.1567E+00
    -10.435  0.0000E+00  0.0000E+00  0.1567E+00  0.1567E+00
    -10.264  0.0000E+00  0.0000E+00  0.1567E+00  0.1567E+00
    -10.093  0.0000E+00  0.0000E+00  0.1567E+00  0.1567E+00
     -9.923  0.0000E+00  0.0000E+00  0.1567E+00  0.1567E+00
     -9.752  0.0000E+00  0.0000E+00  0.1567E+00  0.1567E+00
     -9.581  0.0000E+00  0.0000E+00  0.1567E+00  0.1567E+00
     -9.411  0.0000E+00  0.0000E+00  0.1567E+00  0.1567E+00
     -9.240  0.0000E+00  0.0000E+00  0.1567E+00  0.1567E+00
     -9.069  0.0000E+00  0.0000E+00  0.1567E+00  0.1567E+00
     -8.899  0.0000E+00  0.0000E+00  0.1567E+00  0.1567E+00
     -8.728 -0.1440E-31 -0.7874E-31  0.1567E+00  0.1567E+00
     -8.557 -0.4931E-24 -0.2449E-23  0.1567E+00  0.1567E+00
     -8.387 -0.1298E-17 -0.5742E-17  0.1567E+00  0.1567E+00
     -8.216 -0.2556E-12 -0.1001E-11  0.1567E+00  0.1567E+00
     -8.045 -0.4026E-08 -0.1304E-07  0.1567E+00  0.1567E+00
     -7.874 -0.4759E-05 -0.1163E-04  0.1567E+00  0.1567E+00
     -7.704 -0.3343E-03 -0.5051E-03  0.1566E+00  0.1566E+00
     -7.533  0.2107E-02  0.4478E-02  0.1570E+00  0.1573E+00
     -7.362  0.1543E-01  0.1505E-01  0.1596E+00  0.1599E+00
     -7.192  0.2631E-02  0.6710E-03  0.1601E+00  0.1600E+00
     -7.021  0.2120E-02  0.1228E-03  0.1604E+00  0.1600E+00
     -6.850  0.6381E-02  0.4132E-02  0.1615E+00  0.1608E+00
     -6.680  0.2885E-02  0.5661E-02  0.1620E+00  0.1617E+00
     -6.509  0.6993E-02  0.2386E-02  0.1632E+00  0.1621E+00
     -6.338  0.6817E-02  0.8575E-02  0.1644E+00  0.1636E+00
     -6.168  0.1152E-02  0.4679E-02  0.1645E+00  0.1644E+00
     -5.997  0.1010E-01  0.1591E-02  0.1663E+00  0.1647E+00
     -5.826  0.1466E-01  0.1101E-01  0.1688E+00  0.1665E+00
     -5.655  0.9175E-02  0.1427E-01  0.1703E+00  0.1690E+00
     -5.485  0.1322E-01  0.7522E-02  0.1726E+00  0.1703E+00
     -5.314  0.7249E-02  0.1405E-01  0.1738E+00  0.1727E+00
     -5.143  0.1064E-01  0.6672E-02  0.1757E+00  0.1738E+00
     -4.973  0.2207E-01  0.6891E-02  0.1794E+00  0.1750E+00
     -4.802  0.1120E-01  0.2162E-01  0.1813E+00  0.1787E+00
     -4.631  0.1972E-01  0.1142E-01  0.1847E+00  0.1806E+00
     -4.461  0.1878E-01  0.1525E-01  0.1879E+00  0.1832E+00
     -4.290  0.2795E-01  0.1386E-01  0.1927E+00  0.1856E+00
     -4.119  0.3046E-01  0.1638E-01  0.1979E+00  0.1884E+00
     -3.948  0.4972E-01  0.3079E-01  0.2064E+00  0.1936E+00
     -3.778  0.6693E-01  0.2040E-01  0.2178E+00  0.1971E+00
     -3.607  0.1074E+00  0.2642E-01  0.2361E+00  0.2016E+00
     -3.436  0.1244E+00  0.1827E-01  0.2574E+00  0.2047E+00
     -3.266  0.1346E+00  0.3383E-01  0.2803E+00  0.2105E+00
     -3.095  0.1900E+00  0.3941E-01  0.3128E+00  0.2172E+00
     -2.924  0.1651E+00  0.6036E-01  0.3409E+00  0.2275E+00
     -2.754  0.1324E+00  0.6629E-01  0.3635E+00  0.2389E+00
     -2.583  0.1710E+00  0.7472E-01  0.3927E+00  0.2516E+00
     -2.412  0.2472E+00  0.6489E-01  0.4349E+00  0.2627E+00
     -2.242  0.2489E+00  0.9138E-01  0.4774E+00  0.2783E+00
     -2.071  0.2319E+00  0.1150E+00  0.5170E+00  0.2979E+00
     -1.900  0.2427E+00  0.1161E+00  0.5584E+00  0.3177E+00
     -1.729  0.2381E+00  0.1240E+00  0.5991E+00  0.3389E+00
     -1.559  0.2213E+00  0.1156E+00  0.6368E+00  0.3586E+00
     -1.388  0.2191E+00  0.1116E+00  0.6742E+00  0.3777E+00
     -1.217  0.2000E+00  0.1440E+00  0.7084E+00  0.4023E+00
     -1.047  0.1663E+00  0.1743E+00  0.7368E+00  0.4320E+00
     -0.876  0.1536E+00  0.1929E+00  0.7630E+00  0.4649E+00
     -0.705  0.1849E+00  0.1895E+00  0.7945E+00  0.4973E+00
     -0.535  0.2105E+00  0.1949E+00  0.8305E+00  0.5306E+00
     -0.364  0.2721E+00  0.2134E+00  0.8769E+00  0.5670E+00
     -0.193  0.3240E+00  0.2137E+00  0.9322E+00  0.6035E+00
     -0.022  0.2815E+00  0.2055E+00  0.9803E+00  0.6385E+00
      0.148  0.2113E+00  0.1756E+00  0.1016E+01  0.6685E+00
      0.319  0.1715E+00  0.1465E+00  0.1046E+01  0.6935E+00
      0.490  0.1741E+00  0.1185E+00  0.1075E+01  0.7138E+00
      0.660  0.1603E+00  0.1187E+00  0.1103E+01  0.7340E+00
      0.831  0.1445E+00  0.1195E+00  0.1127E+01  0.7544E+00
      1.002  0.1185E+00  0.9774E-01  0.1148E+01  0.7711E+00
      1.172  0.1060E+00  0.1351E+00  0.1166E+01  0.7942E+00
      1.343  0.9872E-01  0.1588E+00  0.1183E+01  0.8213E+00
      1.514  0.9253E-01  0.1629E+00  0.1198E+01  0.8491E+00
      1.684  0.9756E-01  0.1875E+00  0.1215E+01  0.8811E+00
      1.855  0.1041E+00  0.2236E+00  0.1233E+01  0.9192E+00
      2.026  0.1032E+00  0.2563E+00  0.1250E+01  0.9630E+00
      2.197  0.5631E-01  0.2837E+00  0.1260E+01  0.1011E+01
      2.367  0.8040E-03  0.2808E+00  0.1260E+01  0.1059E+01
      2.538 -0.7253E-03  0.3031E+00  0.1260E+01  0.1111E+01
      2.709 -0.7551E-05  0.3218E+00  0.1260E+01  0.1166E+01
      2.879 -0.5458E-08  0.2197E+00  0.1260E+01  0.1204E+01
      3.050 -0.3069E-12  0.1612E+00  0.1260E+01  0.1231E+01
      3.221 -0.1355E-17  0.1297E+00  0.1260E+01  0.1253E+01
      3.391  0.0000E+00  0.4329E-01  0.1260E+01  0.1261E+01
      3.562  0.0000E+00 -0.2936E-02  0.1260E+01  0.1260E+01
      3.733  0.0000E+00 -0.3043E-03  0.1260E+01  0.1260E+01
      3.903  0.0000E+00 -0.1277E-05  0.1260E+01  0.1260E+01
      4.074  0.0000E+00 -0.3860E-09  0.1260E+01  0.1260E+01
      4.245  0.0000E+00 -0.8762E-14  0.1260E+01  0.1260E+01
      4.416  0.0000E+00  0.0000E+00  0.1260E+01  0.1260E+01
      4.586  0.0000E+00  0.0000E+00  0.1260E+01  0.1260E+01
      4.757  0.0000E+00  0.0000E+00  0.1260E+01  0.1260E+01
      4.928  0.0000E+00  0.0000E+00  0.1260E+01  0.1260E+01
      5.098  0.0000E+00  0.0000E+00  0.1260E+01  0.1260E+01
      5.269  0.0000E+00  0.0000E+00  0.1260E+01  0.1260E+01
      5.440  0.0000E+00  0.0000E+00  0.1260E+01  0.1260E+01
      5.610  0.0000E+00  0.0000E+00  0.1260E+01  0.1260E+01
