Generated by VASPKIT code               
   1.00000000000000     
     8.5326995849999996    0.0000000000000000    0.0000000000000000
    -0.0005193328000000    8.4969997247000002    0.0000000000000000
     0.0000000000000000    0.0000000000000000   23.5949993133999989
   Fe   Cr
    48    14
Selective dynamics
Direct
  0.0008600000000030  0.9999299999999991  0.2427100000000024   F   F   F
  0.1653783791560380  0.1658574331337550  0.3024931874395736   T   T   T
  0.4996050667308738  0.1610441773648161  0.3005411708942692   T   T   T
  0.6682199999999980  0.0010699999999986  0.2427199999999985   F   F   F
  0.8359569622103578  0.1669095807519231  0.3019254406552118   T   T   T
  0.0004399999999976  0.3349699999999984  0.2424000000000035   F   F   F
  0.1699461599940389  0.5037779388506197  0.3038100548383043   T   T   T
  0.3346900000000019  0.3330500000000001  0.2426699999999968   F   F   F
  0.4984934007467651  0.5074312229663029  0.3024247933530769   T   T   T
  0.8332279903815555  0.4995446556749591  0.3017759369927892   T   T   T
  0.1696975279632262  0.8323627985341188  0.3042805743092584   T   T   T
  0.3334199999999967  0.6655500000000032  0.2426099999999991   F   F   F
  0.8361287583838916  0.8336716597331840  0.3019202294443490   T   T   T
  0.0006399999999971  0.0011900000000011  0.0019899999999993   F   F   F
  0.0023851116655044  0.0011238932721531  0.3603461257629994   T   T   T
  0.1684300000000007  0.1696200000000019  0.0626900000000035   F   F   F
  0.3346000000000018  0.0029699999999977  0.0025400000000033   F   F   F
  0.3333305689527444  0.0100539303987455  0.3621145064530246   T   T   T
  0.5046299999999988  0.1685000000000016  0.0611999999999995   F   F   F
  0.8327200000000019  0.1666999999999987  0.0619299999999967   F   F   F
  0.0000399999999985  0.3346700000000027  0.0021300000000011   F   F   F
  0.0029430264900545  0.3341172476975419  0.3593989273499630   T   T   T
  0.1675699999999978  0.4989500000000007  0.0626800000000003   F   F   F
  0.5009900000000016  0.4989599999999967  0.0620600000000024   F   F   F
  0.8339300000000023  0.5023399999999967  0.0623500000000021   F   F   F
  0.0012100000000004  0.6678500000000014  0.0018799999999999   F   F   F
 -0.0069912839004987  0.6642293626808385  0.3604900197833038   T   T   T
  0.1679200000000023  0.8346200000000010  0.0622800000000012   F   F   F
  0.3343699999999998  0.6666400000000010  0.0022499999999965   F   F   F
  0.5015199999999993  0.8356300000000019  0.0621700000000018   F   F   F
  0.6675299999999993  0.6670500000000033  0.0017500000000013   F   F   F
  0.6683424963249307  0.6659720001529573  0.3591677426248556   T   T   T
  0.8329299999999975  0.8358399999999975  0.0623500000000021   F   F   F
  0.0012100000000004  0.0009799999999984  0.1222500000000011   F   F   F
  0.1670000000000016  0.1681099999999986  0.1823899999999981   F   F   F
  0.3346999999999980  0.0022700000000029  0.1219200000000029   F   F   F
  0.5017399999999981  0.1671600000000026  0.1826300000000032   F   F   F
  0.8342099999999988  0.1663899999999998  0.1828300000000027   F   F   F
  0.1696400000000011  0.4986800000000002  0.1820900000000023   F   F   F
  0.5021899999999988  0.5008100000000013  0.1831699999999969   F   F   F
  0.6674099999999967  0.3339500000000015  0.1223299999999981   F   F   F
  0.8313399999999973  0.5025300000000001  0.1828300000000027   F   F   F
  0.0013199999999998  0.6679499999999976  0.1225299999999976   F   F   F
  0.1689799999999977  0.8350900000000010  0.1824299999999965   F   F   F
  0.3344600000000000  0.6670299999999969  0.1222300000000018   F   F   F
  0.4997100000000003  0.8353800000000007  0.1827800000000011   F   F   F
  0.6669800000000023  0.6683999999999983  0.1225900000000024   F   F   F
  0.8348799999999983  0.8340299999999985  0.1829400000000021   F   F   F
  0.3355800000000002  0.9986299999999986  0.2435299999999998   F   F   F
  0.6680100000000024  0.3326199999999986  0.2422899999999970   F   F   F
  0.0044800000000009  0.6673899999999975  0.2421700000000016   F   F   F
  0.4967904960628242  0.8350872004351249  0.3034067691159789   T   T   T
  0.6652100000000019  0.6735100000000003  0.2432700000000025   F   F   F
  0.6662000000000035  0.9968000000000004  0.0000000000000000   F   F   F
  0.6577061736270258  0.9970799220839073  0.3649002212938857   T   T   T
  0.3321299999999994  0.3338600000000014  0.0013500000000022   F   F   F
  0.3422597628098515  0.3279179018182198  0.3622040220174654   T   T   T
  0.6704000000000008  0.3367300000000029  0.0032100000000028   F   F   F
  0.6588156833214778  0.3304514672439696  0.3673406413669734   T   T   T
  0.6672799999999981  0.9999800000000008  0.1224599999999967   F   F   F
  0.9980600000000024  0.3349499999999992  0.1223499999999973   F   F   F
  0.3367500000000021  0.3323800000000006  0.1226100000000017   F   F   F
 
  0.00000000E+00  0.00000000E+00  0.00000000E+00
  0.00000000E+00  0.00000000E+00  0.00000000E+00
  0.00000000E+00  0.00000000E+00  0.00000000E+00
  0.00000000E+00  0.00000000E+00  0.00000000E+00
  0.00000000E+00  0.00000000E+00  0.00000000E+00
  0.00000000E+00  0.00000000E+00  0.00000000E+00
  0.00000000E+00  0.00000000E+00  0.00000000E+00
  0.00000000E+00  0.00000000E+00  0.00000000E+00
  0.00000000E+00  0.00000000E+00  0.00000000E+00
  0.00000000E+00  0.00000000E+00  0.00000000E+00
  0.00000000E+00  0.00000000E+00  0.00000000E+00
  0.00000000E+00  0.00000000E+00  0.00000000E+00
  0.00000000E+00  0.00000000E+00  0.00000000E+00
  0.00000000E+00  0.00000000E+00  0.00000000E+00
  0.00000000E+00  0.00000000E+00  0.00000000E+00
  0.00000000E+00  0.00000000E+00  0.00000000E+00
  0.00000000E+00  0.00000000E+00  0.00000000E+00
  0.00000000E+00  0.00000000E+00  0.00000000E+00
  0.00000000E+00  0.00000000E+00  0.00000000E+00
  0.00000000E+00  0.00000000E+00  0.00000000E+00
  0.00000000E+00  0.00000000E+00  0.00000000E+00
  0.00000000E+00  0.00000000E+00  0.00000000E+00
  0.00000000E+00  0.00000000E+00  0.00000000E+00
  0.00000000E+00  0.00000000E+00  0.00000000E+00
  0.00000000E+00  0.00000000E+00  0.00000000E+00
  0.00000000E+00  0.00000000E+00  0.00000000E+00
  0.00000000E+00  0.00000000E+00  0.00000000E+00
  0.00000000E+00  0.00000000E+00  0.00000000E+00
  0.00000000E+00  0.00000000E+00  0.00000000E+00
  0.00000000E+00  0.00000000E+00  0.00000000E+00
  0.00000000E+00  0.00000000E+00  0.00000000E+00
  0.00000000E+00  0.00000000E+00  0.00000000E+00
  0.00000000E+00  0.00000000E+00  0.00000000E+00
  0.00000000E+00  0.00000000E+00  0.00000000E+00
  0.00000000E+00  0.00000000E+00  0.00000000E+00
  0.00000000E+00  0.00000000E+00  0.00000000E+00
  0.00000000E+00  0.00000000E+00  0.00000000E+00
  0.00000000E+00  0.00000000E+00  0.00000000E+00
  0.00000000E+00  0.00000000E+00  0.00000000E+00
  0.00000000E+00  0.00000000E+00  0.00000000E+00
  0.00000000E+00  0.00000000E+00  0.00000000E+00
  0.00000000E+00  0.00000000E+00  0.00000000E+00
  0.00000000E+00  0.00000000E+00  0.00000000E+00
  0.00000000E+00  0.00000000E+00  0.00000000E+00
  0.00000000E+00  0.00000000E+00  0.00000000E+00
  0.00000000E+00  0.00000000E+00  0.00000000E+00
  0.00000000E+00  0.00000000E+00  0.00000000E+00
  0.00000000E+00  0.00000000E+00  0.00000000E+00
  0.00000000E+00  0.00000000E+00  0.00000000E+00
  0.00000000E+00  0.00000000E+00  0.00000000E+00
  0.00000000E+00  0.00000000E+00  0.00000000E+00
  0.00000000E+00  0.00000000E+00  0.00000000E+00
  0.00000000E+00  0.00000000E+00  0.00000000E+00
  0.00000000E+00  0.00000000E+00  0.00000000E+00
  0.00000000E+00  0.00000000E+00  0.00000000E+00
  0.00000000E+00  0.00000000E+00  0.00000000E+00
  0.00000000E+00  0.00000000E+00  0.00000000E+00
  0.00000000E+00  0.00000000E+00  0.00000000E+00
  0.00000000E+00  0.00000000E+00  0.00000000E+00
  0.00000000E+00  0.00000000E+00  0.00000000E+00
  0.00000000E+00  0.00000000E+00  0.00000000E+00
  0.00000000E+00  0.00000000E+00  0.00000000E+00
