Generated by VASPKIT code
 1.000000
    8.5097000000000005    0.0000000000000000    0.0000000000000000
   -0.0037259700000000    8.5392991899999995    0.0000000000000000
    0.0000000000000000    0.0000000000000000   23.5714000000000006
   Cr   Fe
    13    50
Selective Dynamics
Direct
    0.3348700000000000    0.0016700000000000    0.0006600000000000    F  F  F            Cr1
    0.3342600000000000    0.0032500000000000    0.3615100000000000    T  T  T            Cr2
    0.0012200000000000    0.0021700000000000    0.2408000000000000    F  F  F            Cr3
    0.1672200000000000    0.5017900000000000    0.0590300000000000    F  F  F            Cr4
    0.5000000000000000    0.5034400000000000    0.0594900000000000    F  F  F            Cr5
    0.4986100000000000    0.1611500000000000    0.0586800000000000    F  F  F            Cr6
    0.4996800000000000    0.1644400000000000    0.1818200000000000    F  F  F            Cr7
    0.8352100000000000    0.5053100000000000    0.2998300000000000    T  T  T            Cr8
    0.9972200000000000    0.6613500000000000    0.2415100000000000    F  F  F            Cr9
    0.3341900000000000    0.6657300000000000    0.2404000000000000    F  F  F           Cr10
    0.3341400000000000    0.6585500000000000    0.0027800000000000    F  F  F           Cr11
    0.3335300000000000    0.6601300000000000    0.3636400000000000    T  T  T           Cr12
    0.6692300000000000    0.6633700000000000    0.2409700000000000    F  F  F           Cr13
    0.8331000000000000    0.4987100000000000    0.0600100000000000    F  F  F            Fe1
    0.8347200000000000    0.8319200000000000    0.0602700000000000    F  F  F            Fe2
    0.6665400000000000    0.6671800000000000    0.3608600000000000    T  T  T            Fe3
    0.0008100000000000    0.6642500000000000    0.0003400000000000    F  F  F            Fe4
    0.1651400000000000    0.8298700000000000    0.3011000000000000    T  T  T            Fe5
    0.6649800000000000    0.3329600000000000    0.3613000000000000    T  T  T            Fe6
    0.6655900000000000    0.3313800000000000    0.0004400000000000    F  F  F            Fe7
    0.4996800000000000    0.8332200000000000    0.0604600000000000    F  F  F            Fe8
    0.6672100000000000    0.3332100000000000    0.2406700000000000    F  F  F            Fe9
    0.5005800000000000    0.4995000000000000    0.1802400000000000    F  F  F           Fe10
    0.3359500000000000    0.3319600000000000    0.1191200000000000    F  F  F           Fe11
    0.3346200000000000    0.3337600000000000    0.2405900000000000    F  F  F           Fe12
    0.5000700000000000    0.5011600000000000    0.3005800000000000    T  T  T           Fe13
    0.0005500000000000    0.3319000000000000    0.1200600000000000    F  F  F           Fe14
    0.1675200000000000    0.4994500000000000    0.1806500000000000    F  F  F           Fe15
    0.0002100000000000    0.3314500000000000    0.0003800000000000    F  F  F           Fe16
    0.3351000000000000    0.3317000000000000    0.0002900000000000    F  F  F           Fe17
    0.9996000000000000    0.3330300000000000    0.3612300000000000    T  T  T           Fe18
    0.0007700000000000    0.9995900000000000    0.1203600000000000    F  F  F           Fe19
    0.1681400000000000    0.1663400000000000    0.1804800000000000    F  F  F           Fe20
    0.3340500000000000    0.6659300000000000    0.1209500000000000    F  F  F           Fe21
    0.5007800000000000    0.8324200000000000    0.1812100000000000    F  F  F           Fe22
    0.0002000000000000    0.6658400000000000    0.3611900000000000    T  T  T           Fe23
    0.9998200000000000    0.3335900000000000    0.2403000000000000    F  F  F           Fe24
    0.0002500000000000    0.6656900000000000    0.1205100000000000    F  F  F           Fe25
    0.1658100000000000    0.8321700000000000    0.1811400000000000    F  F  F           Fe26
    0.6656600000000000    0.3312300000000000    0.1197000000000000    F  F  F           Fe27
    0.8350700000000000    0.8348700000000000    0.3011000000000000    T  T  T           Fe28
    0.1671600000000000    0.5001800000000000    0.3005100000000000    T  T  T           Fe29
    0.1671500000000000    0.1673300000000000    0.3008300000000000    T  T  T           Fe30
    0.0016100000000000    0.9989100000000000    0.0002400000000000    F  F  F           Fe31
    0.0010000000000000    0.0004900000000000    0.3611000000000000    T  T  T           Fe32
    0.1680700000000000    0.1653900000000000    0.0600400000000000    F  F  F           Fe33
    0.4988900000000000    0.8318200000000000    0.3011000000000000    T  T  T           Fe34
    0.8347599999999999    0.8330300000000000    0.1813200000000000    F  F  F           Fe35
    0.6671500000000000    0.6655900000000000    0.0000000000000000    F  F  F           Fe36
    0.6671899999999999    0.6664000000000000    0.1203200000000000    F  F  F           Fe37
    0.8330200000000000    0.4993700000000000    0.1799500000000000    F  F  F           Fe38
    0.1676900000000000    0.8338900000000000    0.0602900000000000    F  F  F           Fe39
    0.5001000000000000    0.1655300000000000    0.3007000000000000    T  T  T           Fe40
    0.3328900000000000    0.9982400000000000    0.2413000000000000    F  F  F           Fe41
    0.6667900000000000    0.9991400000000000    0.2409700000000000    F  F  F           Fe42
    0.3346600000000000    0.0002300000000000    0.1208200000000000    F  F  F           Fe43
    0.6674600000000001    0.9981500000000000    0.0000100000000000    F  F  F           Fe44
    0.8334800000000000    0.1670300000000000    0.3009200000000000    T  T  T           Fe45
    0.8335800000000000    0.1645600000000000    0.0601300000000000    F  F  F           Fe46
    0.6668400000000000    0.9997300000000000    0.3608600000000000    T  T  T           Fe47
    0.8336400000000000    0.1659300000000000    0.1806200000000000    F  F  F           Fe48
    0.6665300000000000    0.9997200000000001    0.1204400000000000    F  F  F           Fe49
    0.3344900000000000    0.3332900000000000    0.3611500000000000    T  T  T           Fe50
