  64  64   0   0
  0.2670890E+02  0.8539300E-09  0.8505900E-09  0.2353390E-08  0.5000000E-15
  1.000000000000000E-004
  CAR 
 ni3al                                   
      5.47505172    -45.46897044  301      0.99204281      1.00000000
    -45.469  0.0000E+00  0.0000E+00  0.0000E+00  0.0000E+00
    -45.299  0.0000E+00  0.0000E+00  0.0000E+00  0.0000E+00
    -45.129  0.0000E+00  0.0000E+00  0.0000E+00  0.0000E+00
    -44.960  0.0000E+00  0.0000E+00  0.0000E+00  0.0000E+00
    -44.790  0.0000E+00  0.0000E+00  0.0000E+00  0.0000E+00
    -44.620  0.0000E+00  0.0000E+00  0.0000E+00  0.0000E+00
    -44.450  0.0000E+00 -0.2429E-33  0.0000E+00 -0.4125E-34
    -44.280  0.0000E+00 -0.1936E-25  0.0000E+00 -0.3287E-26
    -44.110 -0.3968E-29 -0.1172E-18 -0.6738E-30 -0.1990E-19
    -43.941 -0.7561E-22 -0.5186E-13 -0.1284E-22 -0.8807E-14
    -43.771 -0.1048E-15 -0.1759E-08 -0.1780E-16 -0.2987E-09
    -43.601 -0.1094E-10 -0.4370E-05 -0.1857E-11 -0.7423E-06
    -43.431 -0.8169E-07 -0.7239E-03 -0.1387E-07 -0.1237E-03
    -43.261 -0.4124E-04 -0.1570E-02 -0.7016E-05 -0.3902E-03
    -43.092 -0.1163E-02  0.7537E-01 -0.2045E-03  0.1241E-01
    -42.922  0.6357E-02  0.9362E-01  0.8751E-03  0.2831E-01
    -42.752  0.7398E-01  0.8608E-01  0.1344E-01  0.4292E-01
    -42.582  0.8939E-01  0.1314E+00  0.2862E-01  0.6524E-01
    -42.412  0.1312E-01  0.3423E-01  0.3085E-01  0.7106E-01
    -42.243  0.5581E-01  0.1276E-01  0.4032E-01  0.7322E-01
    -42.073  0.9961E-01  0.2912E-01  0.5724E-01  0.7817E-01
    -41.903  0.9359E-01  0.4903E-01  0.7313E-01  0.8649E-01
    -41.733  0.1422E+00  0.5049E-01  0.9727E-01  0.9507E-01
    -41.563  0.1808E+00  0.3196E-01  0.1280E+00  0.1005E+00
    -41.393  0.5933E-01  0.3797E-01  0.1381E+00  0.1069E+00
    -41.224  0.1289E-01  0.1904E-01  0.1402E+00  0.1102E+00
    -41.054 -0.1339E-02 -0.8839E-03  0.1400E+00  0.1100E+00
    -40.884 -0.8717E-04 -0.1538E-03  0.1400E+00  0.1100E+00
    -40.714 -0.2568E-06 -0.6950E-06  0.1400E+00  0.1100E+00
    -40.544 -0.5113E-10 -0.1981E-05  0.1400E+00  0.1100E+00
    -40.375 -0.7279E-15 -0.2578E-03  0.1400E+00  0.1100E+00
    -40.205  0.0000E+00  0.4803E-04  0.1400E+00  0.1100E+00
    -40.035  0.0000E+00  0.1979E-01  0.1400E+00  0.1133E+00
    -39.865  0.0000E+00  0.4861E-01  0.1400E+00  0.1216E+00
    -39.695  0.0000E+00  0.3941E-01  0.1400E+00  0.1283E+00
    -39.526  0.0000E+00  0.3810E-01  0.1400E+00  0.1347E+00
    -39.356  0.0000E+00  0.1755E-01  0.1400E+00  0.1377E+00
    -39.186  0.0000E+00  0.1340E-01  0.1400E+00  0.1400E+00
    -39.016  0.0000E+00  0.2062E-03  0.1400E+00  0.1400E+00
    -38.846  0.0000E+00 -0.1793E-03  0.1400E+00  0.1400E+00
    -38.676  0.0000E+00 -0.1109E-05  0.1400E+00  0.1400E+00
    -38.507  0.0000E+00 -0.4063E-09  0.1400E+00  0.1400E+00
    -38.337  0.0000E+00 -0.1035E-13  0.1400E+00  0.1400E+00
    -38.167  0.0000E+00  0.0000E+00  0.1400E+00  0.1400E+00
    -37.997  0.0000E+00  0.0000E+00  0.1400E+00  0.1400E+00
    -37.827  0.0000E+00  0.0000E+00  0.1400E+00  0.1400E+00
    -37.658  0.0000E+00  0.0000E+00  0.1400E+00  0.1400E+00
    -37.488  0.0000E+00  0.0000E+00  0.1400E+00  0.1400E+00
    -37.318  0.0000E+00  0.0000E+00  0.1400E+00  0.1400E+00
    -37.148  0.0000E+00  0.0000E+00  0.1400E+00  0.1400E+00
    -36.978  0.0000E+00  0.0000E+00  0.1400E+00  0.1400E+00
    -36.808  0.0000E+00  0.0000E+00  0.1400E+00  0.1400E+00
    -36.639  0.0000E+00  0.0000E+00  0.1400E+00  0.1400E+00
    -36.469  0.0000E+00  0.0000E+00  0.1400E+00  0.1400E+00
    -36.299  0.0000E+00  0.0000E+00  0.1400E+00  0.1400E+00
    -36.129  0.0000E+00  0.0000E+00  0.1400E+00  0.1400E+00
    -35.959  0.0000E+00  0.0000E+00  0.1400E+00  0.1400E+00
    -35.790  0.0000E+00  0.0000E+00  0.1400E+00  0.1400E+00
    -35.620  0.0000E+00  0.0000E+00  0.1400E+00  0.1400E+00
    -35.450  0.0000E+00  0.0000E+00  0.1400E+00  0.1400E+00
    -35.280  0.0000E+00  0.0000E+00  0.1400E+00  0.1400E+00
    -35.110  0.0000E+00  0.0000E+00  0.1400E+00  0.1400E+00
    -34.941  0.0000E+00  0.0000E+00  0.1400E+00  0.1400E+00
    -34.771  0.0000E+00  0.0000E+00  0.1400E+00  0.1400E+00
    -34.601  0.0000E+00  0.0000E+00  0.1400E+00  0.1400E+00
    -34.431  0.0000E+00  0.0000E+00  0.1400E+00  0.1400E+00
    -34.261  0.0000E+00  0.0000E+00  0.1400E+00  0.1400E+00
    -34.091  0.0000E+00  0.0000E+00  0.1400E+00  0.1400E+00
    -33.922  0.0000E+00  0.0000E+00  0.1400E+00  0.1400E+00
    -33.752  0.0000E+00  0.0000E+00  0.1400E+00  0.1400E+00
    -33.582  0.0000E+00  0.0000E+00  0.1400E+00  0.1400E+00
    -33.412  0.0000E+00  0.0000E+00  0.1400E+00  0.1400E+00
    -33.242  0.0000E+00  0.0000E+00  0.1400E+00  0.1400E+00
    -33.073  0.0000E+00  0.0000E+00  0.1400E+00  0.1400E+00
    -32.903  0.0000E+00  0.0000E+00  0.1400E+00  0.1400E+00
    -32.733  0.0000E+00  0.0000E+00  0.1400E+00  0.1400E+00
    -32.563  0.0000E+00  0.0000E+00  0.1400E+00  0.1400E+00
    -32.393  0.0000E+00  0.0000E+00  0.1400E+00  0.1400E+00
    -32.224  0.0000E+00  0.0000E+00  0.1400E+00  0.1400E+00
    -32.054  0.0000E+00  0.0000E+00  0.1400E+00  0.1400E+00
    -31.884  0.0000E+00  0.0000E+00  0.1400E+00  0.1400E+00
    -31.714  0.0000E+00  0.0000E+00  0.1400E+00  0.1400E+00
    -31.544  0.0000E+00  0.0000E+00  0.1400E+00  0.1400E+00
    -31.374  0.0000E+00  0.0000E+00  0.1400E+00  0.1400E+00
    -31.205  0.0000E+00  0.0000E+00  0.1400E+00  0.1400E+00
    -31.035  0.0000E+00  0.0000E+00  0.1400E+00  0.1400E+00
    -30.865  0.0000E+00  0.0000E+00  0.1400E+00  0.1400E+00
    -30.695  0.0000E+00  0.0000E+00  0.1400E+00  0.1400E+00
    -30.525  0.0000E+00  0.0000E+00  0.1400E+00  0.1400E+00
    -30.356  0.0000E+00  0.0000E+00  0.1400E+00  0.1400E+00
    -30.186  0.0000E+00  0.0000E+00  0.1400E+00  0.1400E+00
    -30.016  0.0000E+00  0.0000E+00  0.1400E+00  0.1400E+00
    -29.846  0.0000E+00  0.0000E+00  0.1400E+00  0.1400E+00
    -29.676  0.0000E+00  0.0000E+00  0.1400E+00  0.1400E+00
    -29.507  0.0000E+00  0.0000E+00  0.1400E+00  0.1400E+00
    -29.337  0.0000E+00  0.0000E+00  0.1400E+00  0.1400E+00
    -29.167  0.0000E+00  0.0000E+00  0.1400E+00  0.1400E+00
    -28.997  0.0000E+00  0.0000E+00  0.1400E+00  0.1400E+00
    -28.827  0.0000E+00  0.0000E+00  0.1400E+00  0.1400E+00
    -28.657  0.0000E+00  0.0000E+00  0.1400E+00  0.1400E+00
    -28.488  0.0000E+00  0.0000E+00  0.1400E+00  0.1400E+00
    -28.318  0.0000E+00  0.0000E+00  0.1400E+00  0.1400E+00
    -28.148  0.0000E+00  0.0000E+00  0.1400E+00  0.1400E+00
    -27.978  0.0000E+00  0.0000E+00  0.1400E+00  0.1400E+00
    -27.808  0.0000E+00  0.0000E+00  0.1400E+00  0.1400E+00
    -27.639  0.0000E+00  0.0000E+00  0.1400E+00  0.1400E+00
    -27.469  0.0000E+00  0.0000E+00  0.1400E+00  0.1400E+00
    -27.299  0.0000E+00  0.0000E+00  0.1400E+00  0.1400E+00
    -27.129  0.0000E+00  0.0000E+00  0.1400E+00  0.1400E+00
    -26.959  0.0000E+00  0.0000E+00  0.1400E+00  0.1400E+00
    -26.789  0.0000E+00  0.0000E+00  0.1400E+00  0.1400E+00
    -26.620  0.0000E+00  0.0000E+00  0.1400E+00  0.1400E+00
    -26.450  0.0000E+00  0.0000E+00  0.1400E+00  0.1400E+00
    -26.280  0.0000E+00  0.0000E+00  0.1400E+00  0.1400E+00
    -26.110  0.0000E+00  0.0000E+00  0.1400E+00  0.1400E+00
    -25.940  0.0000E+00  0.0000E+00  0.1400E+00  0.1400E+00
    -25.771  0.0000E+00  0.0000E+00  0.1400E+00  0.1400E+00
    -25.601  0.0000E+00  0.0000E+00  0.1400E+00  0.1400E+00
    -25.431  0.0000E+00  0.0000E+00  0.1400E+00  0.1400E+00
    -25.261  0.0000E+00  0.0000E+00  0.1400E+00  0.1400E+00
    -25.091  0.0000E+00  0.0000E+00  0.1400E+00  0.1400E+00
    -24.922  0.0000E+00  0.0000E+00  0.1400E+00  0.1400E+00
    -24.752  0.0000E+00  0.0000E+00  0.1400E+00  0.1400E+00
    -24.582  0.0000E+00  0.0000E+00  0.1400E+00  0.1400E+00
    -24.412  0.0000E+00  0.0000E+00  0.1400E+00  0.1400E+00
    -24.242  0.0000E+00  0.0000E+00  0.1400E+00  0.1400E+00
    -24.072  0.0000E+00  0.0000E+00  0.1400E+00  0.1400E+00
    -23.903  0.0000E+00  0.0000E+00  0.1400E+00  0.1400E+00
    -23.733  0.0000E+00  0.0000E+00  0.1400E+00  0.1400E+00
    -23.563  0.0000E+00  0.0000E+00  0.1400E+00  0.1400E+00
    -23.393  0.0000E+00  0.0000E+00  0.1400E+00  0.1400E+00
    -23.223  0.0000E+00  0.0000E+00  0.1400E+00  0.1400E+00
    -23.054  0.0000E+00  0.0000E+00  0.1400E+00  0.1400E+00
    -22.884  0.0000E+00  0.0000E+00  0.1400E+00  0.1400E+00
    -22.714  0.0000E+00  0.0000E+00  0.1400E+00  0.1400E+00
    -22.544  0.0000E+00  0.0000E+00  0.1400E+00  0.1400E+00
    -22.374  0.0000E+00  0.0000E+00  0.1400E+00  0.1400E+00
    -22.205  0.0000E+00  0.0000E+00  0.1400E+00  0.1400E+00
    -22.035  0.0000E+00  0.0000E+00  0.1400E+00  0.1400E+00
    -21.865  0.0000E+00  0.0000E+00  0.1400E+00  0.1400E+00
    -21.695  0.0000E+00  0.0000E+00  0.1400E+00  0.1400E+00
    -21.525  0.0000E+00  0.0000E+00  0.1400E+00  0.1400E+00
    -21.355  0.0000E+00  0.0000E+00  0.1400E+00  0.1400E+00
    -21.186  0.0000E+00  0.0000E+00  0.1400E+00  0.1400E+00
    -21.016  0.0000E+00  0.0000E+00  0.1400E+00  0.1400E+00
    -20.846  0.0000E+00  0.0000E+00  0.1400E+00  0.1400E+00
    -20.676  0.0000E+00  0.0000E+00  0.1400E+00  0.1400E+00
    -20.506  0.0000E+00  0.0000E+00  0.1400E+00  0.1400E+00
    -20.337  0.0000E+00  0.0000E+00  0.1400E+00  0.1400E+00
    -20.167  0.0000E+00  0.0000E+00  0.1400E+00  0.1400E+00
    -19.997  0.0000E+00  0.0000E+00  0.1400E+00  0.1400E+00
    -19.827  0.0000E+00  0.0000E+00  0.1400E+00  0.1400E+00
    -19.657  0.0000E+00  0.0000E+00  0.1400E+00  0.1400E+00
    -19.488  0.0000E+00  0.0000E+00  0.1400E+00  0.1400E+00
    -19.318  0.0000E+00  0.0000E+00  0.1400E+00  0.1400E+00
    -19.148  0.0000E+00  0.0000E+00  0.1400E+00  0.1400E+00
    -18.978  0.0000E+00  0.0000E+00  0.1400E+00  0.1400E+00
    -18.808  0.0000E+00  0.0000E+00  0.1400E+00  0.1400E+00
    -18.638  0.0000E+00  0.0000E+00  0.1400E+00  0.1400E+00
    -18.469  0.0000E+00  0.0000E+00  0.1400E+00  0.1400E+00
    -18.299  0.0000E+00  0.0000E+00  0.1400E+00  0.1400E+00
    -18.129  0.0000E+00  0.0000E+00  0.1400E+00  0.1400E+00
    -17.959  0.0000E+00  0.0000E+00  0.1400E+00  0.1400E+00
    -17.789  0.0000E+00  0.0000E+00  0.1400E+00  0.1400E+00
    -17.620  0.0000E+00  0.0000E+00  0.1400E+00  0.1400E+00
    -17.450  0.0000E+00  0.0000E+00  0.1400E+00  0.1400E+00
    -17.280  0.0000E+00  0.0000E+00  0.1400E+00  0.1400E+00
    -17.110  0.0000E+00  0.0000E+00  0.1400E+00  0.1400E+00
    -16.940  0.0000E+00  0.0000E+00  0.1400E+00  0.1400E+00
    -16.771 -0.1109E-35 -0.1213E-33  0.1400E+00  0.1400E+00
    -16.601 -0.1861E-27 -0.1099E-25  0.1400E+00  0.1400E+00
    -16.431 -0.2362E-20 -0.7581E-19  0.1400E+00  0.1400E+00
    -16.261 -0.2197E-14 -0.3822E-13  0.1400E+00  0.1400E+00
    -16.091 -0.1551E-09 -0.1466E-08  0.1400E+00  0.1400E+00
    -15.921 -0.7934E-06 -0.4038E-05  0.1400E+00  0.1400E+00
    -15.752 -0.2684E-03 -0.6988E-03  0.1400E+00  0.1399E+00
    -15.582 -0.2820E-02 -0.1439E-03  0.1395E+00  0.1399E+00
    -15.412  0.4663E-01  0.6614E-01  0.1474E+00  0.1511E+00
    -15.242  0.5688E-01  0.3597E-01  0.1571E+00  0.1572E+00
    -15.072 -0.1813E-02 -0.2965E-02  0.1567E+00  0.1567E+00
    -14.903 -0.4582E-03 -0.1529E-03  0.1567E+00  0.1567E+00
    -14.733 -0.2111E-05 -0.3288E-06  0.1567E+00  0.1567E+00
    -14.563 -0.6572E-09 -0.4898E-10  0.1567E+00  0.1567E+00
    -14.393 -0.1521E-13 -0.5448E-15  0.1567E+00  0.1567E+00
    -14.223  0.0000E+00  0.0000E+00  0.1567E+00  0.1567E+00
    -14.053  0.0000E+00  0.0000E+00  0.1567E+00  0.1567E+00
    -13.884  0.0000E+00  0.0000E+00  0.1567E+00  0.1567E+00
    -13.714  0.0000E+00  0.0000E+00  0.1567E+00  0.1567E+00
    -13.544  0.0000E+00  0.0000E+00  0.1567E+00  0.1567E+00
    -13.374  0.0000E+00  0.0000E+00  0.1567E+00  0.1567E+00
    -13.204  0.0000E+00  0.0000E+00  0.1567E+00  0.1567E+00
    -13.035  0.0000E+00  0.0000E+00  0.1567E+00  0.1567E+00
    -12.865  0.0000E+00  0.0000E+00  0.1567E+00  0.1567E+00
    -12.695  0.0000E+00  0.0000E+00  0.1567E+00  0.1567E+00
    -12.525  0.0000E+00  0.0000E+00  0.1567E+00  0.1567E+00
    -12.355  0.0000E+00  0.0000E+00  0.1567E+00  0.1567E+00
    -12.186  0.0000E+00  0.0000E+00  0.1567E+00  0.1567E+00
    -12.016  0.0000E+00  0.0000E+00  0.1567E+00  0.1567E+00
    -11.846  0.0000E+00  0.0000E+00  0.1567E+00  0.1567E+00
    -11.676  0.0000E+00  0.0000E+00  0.1567E+00  0.1567E+00
    -11.506  0.0000E+00  0.0000E+00  0.1567E+00  0.1567E+00
    -11.336  0.0000E+00  0.0000E+00  0.1567E+00  0.1567E+00
    -11.167  0.0000E+00  0.0000E+00  0.1567E+00  0.1567E+00
    -10.997  0.0000E+00  0.0000E+00  0.1567E+00  0.1567E+00
    -10.827  0.0000E+00  0.0000E+00  0.1567E+00  0.1567E+00
    -10.657  0.0000E+00  0.0000E+00  0.1567E+00  0.1567E+00
    -10.487  0.0000E+00  0.0000E+00  0.1567E+00  0.1567E+00
    -10.318  0.0000E+00  0.0000E+00  0.1567E+00  0.1567E+00
    -10.148  0.0000E+00  0.0000E+00  0.1567E+00  0.1567E+00
     -9.978  0.0000E+00  0.0000E+00  0.1567E+00  0.1567E+00
     -9.808  0.0000E+00  0.0000E+00  0.1567E+00  0.1567E+00
     -9.638  0.0000E+00  0.0000E+00  0.1567E+00  0.1567E+00
     -9.469  0.0000E+00  0.0000E+00  0.1567E+00  0.1567E+00
     -9.299  0.0000E+00  0.0000E+00  0.1567E+00  0.1567E+00
     -9.129  0.0000E+00  0.0000E+00  0.1567E+00  0.1567E+00
     -8.959  0.0000E+00 -0.3512E-36  0.1567E+00  0.1567E+00
     -8.789 -0.5645E-32 -0.5619E-28  0.1567E+00  0.1567E+00
     -8.619 -0.2333E-24 -0.6889E-21  0.1567E+00  0.1567E+00
     -8.450 -0.7415E-18 -0.6234E-15  0.1567E+00  0.1567E+00
     -8.280 -0.1743E-12 -0.4308E-10  0.1567E+00  0.1567E+00
     -8.110 -0.3186E-08 -0.2145E-06  0.1567E+00  0.1567E+00
     -7.940 -0.4222E-05 -0.6884E-04  0.1567E+00  0.1567E+00
     -7.770 -0.3256E-03 -0.5596E-03  0.1566E+00  0.1566E+00
     -7.601  0.1893E-02  0.1087E-01  0.1569E+00  0.1584E+00
     -7.431  0.1556E-01  0.1006E-01  0.1596E+00  0.1601E+00
     -7.261  0.2802E-02 -0.6264E-03  0.1600E+00  0.1600E+00
     -7.091  0.4941E-03 -0.2070E-03  0.1601E+00  0.1600E+00
     -6.921  0.3706E-02  0.2507E-02  0.1608E+00  0.1604E+00
     -6.752  0.6565E-02  0.3346E-02  0.1619E+00  0.1610E+00
     -6.582  0.4784E-02  0.7563E-02  0.1627E+00  0.1623E+00
     -6.412  0.3339E-02  0.3379E-02  0.1633E+00  0.1628E+00
     -6.242  0.6060E-02  0.3245E-02  0.1643E+00  0.1634E+00
     -6.072  0.7812E-02  0.6962E-02  0.1656E+00  0.1646E+00
     -5.902  0.1102E-01  0.7908E-02  0.1675E+00  0.1659E+00
     -5.733  0.8149E-02  0.1048E-01  0.1689E+00  0.1677E+00
     -5.563  0.8863E-02  0.7319E-02  0.1704E+00  0.1689E+00
     -5.393  0.1673E-01  0.9013E-02  0.1732E+00  0.1705E+00
     -5.223  0.1555E-01  0.1526E-01  0.1759E+00  0.1730E+00
     -5.053  0.7070E-02  0.1529E-01  0.1771E+00  0.1756E+00
     -4.884  0.9229E-02  0.7870E-02  0.1786E+00  0.1770E+00
     -4.714  0.1913E-01  0.5810E-02  0.1819E+00  0.1780E+00
     -4.544  0.2716E-01  0.1276E-01  0.1865E+00  0.1801E+00
     -4.374  0.2133E-01  0.2207E-01  0.1901E+00  0.1839E+00
     -4.204  0.2422E-01  0.2506E-01  0.1942E+00  0.1881E+00
     -4.034  0.3406E-01  0.1261E-01  0.2000E+00  0.1903E+00
     -3.865  0.5602E-01  0.1988E-01  0.2095E+00  0.1936E+00
     -3.695  0.9107E-01  0.2547E-01  0.2250E+00  0.1980E+00
     -3.525  0.1085E+00  0.2354E-01  0.2434E+00  0.2020E+00
     -3.355  0.1227E+00  0.2831E-01  0.2643E+00  0.2068E+00
     -3.185  0.1556E+00  0.3163E-01  0.2907E+00  0.2122E+00
     -3.016  0.1811E+00  0.4492E-01  0.3214E+00  0.2198E+00
     -2.846  0.1574E+00  0.5732E-01  0.3482E+00  0.2295E+00
     -2.676  0.1346E+00  0.7592E-01  0.3710E+00  0.2424E+00
     -2.506  0.1921E+00  0.7403E-01  0.4036E+00  0.2550E+00
     -2.336  0.2665E+00  0.7955E-01  0.4489E+00  0.2685E+00
     -2.167  0.2431E+00  0.8923E-01  0.4902E+00  0.2836E+00
     -1.997  0.2351E+00  0.1076E+00  0.5301E+00  0.3019E+00
     -1.827  0.2422E+00  0.1254E+00  0.5712E+00  0.3232E+00
     -1.657  0.2302E+00  0.1249E+00  0.6103E+00  0.3444E+00
     -1.487  0.2299E+00  0.1126E+00  0.6494E+00  0.3635E+00
     -1.317  0.2286E+00  0.1116E+00  0.6882E+00  0.3825E+00
     -1.148  0.1953E+00  0.1263E+00  0.7213E+00  0.4039E+00
     -0.978  0.1591E+00  0.1772E+00  0.7484E+00  0.4340E+00
     -0.808  0.1585E+00  0.1825E+00  0.7753E+00  0.4650E+00
     -0.638  0.1810E+00  0.1974E+00  0.8060E+00  0.4986E+00
     -0.468  0.2348E+00  0.2110E+00  0.8459E+00  0.5344E+00
     -0.299  0.3022E+00  0.2232E+00  0.8972E+00  0.5723E+00
     -0.129  0.3196E+00  0.2147E+00  0.9515E+00  0.6087E+00
      0.041  0.2593E+00  0.2003E+00  0.9955E+00  0.6428E+00
      0.211  0.1962E+00  0.1780E+00  0.1029E+01  0.6730E+00
      0.381  0.1715E+00  0.1299E+00  0.1058E+01  0.6950E+00
      0.550  0.1642E+00  0.9903E-01  0.1086E+01  0.7119E+00
      0.720  0.1582E+00  0.1083E+00  0.1113E+01  0.7302E+00
      0.890  0.1452E+00  0.1207E+00  0.1137E+01  0.7507E+00
      1.060  0.1277E+00  0.1239E+00  0.1159E+01  0.7718E+00
      1.230  0.1162E+00  0.1540E+00  0.1179E+01  0.7979E+00
      1.400  0.1060E+00  0.1510E+00  0.1197E+01  0.8236E+00
      1.569  0.1070E+00  0.1570E+00  0.1215E+01  0.8502E+00
      1.739  0.1212E+00  0.2074E+00  0.1236E+01  0.8855E+00
      1.909  0.8978E-01  0.2455E+00  0.1251E+01  0.9271E+00
      2.079  0.1724E-01  0.2673E+00  0.1254E+01  0.9725E+00
      2.249 -0.1998E-02  0.2894E+00  0.1253E+01  0.1022E+01
      2.418 -0.9310E-04  0.2907E+00  0.1253E+01  0.1071E+01
      2.588 -0.2305E-06  0.3414E+00  0.1253E+01  0.1129E+01
      2.758 -0.4120E-10  0.3281E+00  0.1253E+01  0.1185E+01
      2.928 -0.5530E-15  0.2206E+00  0.1253E+01  0.1222E+01
      3.098  0.0000E+00  0.1477E+00  0.1253E+01  0.1247E+01
      3.267  0.0000E+00  0.3926E-01  0.1253E+01  0.1254E+01
      3.437  0.0000E+00 -0.3426E-02  0.1253E+01  0.1253E+01
      3.607  0.0000E+00 -0.2553E-03  0.1253E+01  0.1253E+01
      3.777  0.0000E+00 -0.9646E-06  0.1253E+01  0.1253E+01
      3.947  0.0000E+00 -0.2884E-09  0.1253E+01  0.1253E+01
      4.117  0.0000E+00 -0.7015E-14  0.1253E+01  0.1253E+01
      4.286  0.0000E+00  0.0000E+00  0.1253E+01  0.1253E+01
      4.456  0.0000E+00  0.0000E+00  0.1253E+01  0.1253E+01
      4.626  0.0000E+00  0.0000E+00  0.1253E+01  0.1253E+01
      4.796  0.0000E+00  0.0000E+00  0.1253E+01  0.1253E+01
      4.966  0.0000E+00  0.0000E+00  0.1253E+01  0.1253E+01
      5.135  0.0000E+00  0.0000E+00  0.1253E+01  0.1253E+01
      5.305  0.0000E+00  0.0000E+00  0.1253E+01  0.1253E+01
      5.475  0.0000E+00  0.0000E+00  0.1253E+01  0.1253E+01
