Generated by VASPKIT code               
   1.00000000000000     
     8.5097000000000005    0.0000000000000000    0.0000000000000000
    -0.0037262700000000    8.5392991899999995    0.0000000000000000
     0.0000000000000000    0.0000000000000000   23.5714000000000006
   Fe   Cr
    50    12
Selective dynamics
Direct
     0.8331000000000017    0.4987100000000027    0.0600099999999983   F   F   F
     0.8347199999999972    0.8319199999999967    0.0602700000000027   F   F   F
     0.6764009397735954    0.6647616877854131    0.3600810957334399   T   T   T
     0.0008100000000013    0.6642500000000027    0.0003400000000013   F   F   F
     0.1639945654011351    0.8268645767814811    0.3009194051954769   T   T   T
     0.6580682001770860    0.3361167147135093    0.3598396348443429   T   T   T
     0.6655900000000017    0.3313800000000029    0.0004399999999976   F   F   F
     0.4996799999999979    0.8332199999999972    0.0604599999999991   F   F   F
     0.6672099999999972    0.3332100000000011    0.2406700000000015   F   F   F
     0.5005799999999994    0.4994999999999976    0.1802399999999977   F   F   F
     0.3359499999999969    0.3319600000000023    0.1191200000000023   F   F   F
     0.3346200000000010    0.3337599999999981    0.2405899999999974   F   F   F
     0.4965104707379320    0.5029869374094685    0.3026121615202092   T   T   T
     0.0005499999999969    0.3318999999999974    0.1200600000000023   F   F   F
     0.1675200000000032    0.4994500000000031    0.1806500000000000   F   F   F
     0.0002100000000027    0.3314499999999967    0.0003799999999998   F   F   F
     0.3350999999999971    0.3316999999999979    0.0002899999999997   F   F   F
     0.0091431812975684    0.3381906162067443    0.3601003937186597   T   T   T
     0.0007700000000028    0.9995899999999978    0.1203599999999980   F   F   F
     0.1681400000000011    0.1663399999999982    0.1804800000000029   F   F   F
     0.3340499999999977    0.6659300000000030    0.1209500000000006   F   F   F
     0.5007799999999989    0.8324199999999990    0.1812100000000001   F   F   F
     0.9907460591711688    0.6634383571276214    0.3598893376028382   T   T   T
     0.9998199999999997    0.3335900000000009    0.2402999999999977   F   F   F
     0.0002500000000012    0.6656899999999979    0.1205100000000030   F   F   F
     0.1658100000000005    0.8321699999999979    0.1811399999999992   F   F   F
     0.6656600000000026    0.3312299999999979    0.1197000000000017   F   F   F
     0.8340970156138048    0.8362067705572227    0.3018128654753274   T   T   T
     0.1717990496912888    0.5023201463364232    0.3024018399053193   T   T   T
     0.1667019902597082    0.1664214176194413    0.3016263158892447   T   T   T
     0.0016099999999994    0.9989100000000022    0.0002399999999980   F   F   F
     0.0010322155393934    0.9990033654291018    0.3592811653009275   T   T   T
     0.1680700000000002    0.1653900000000021    0.0600400000000008   F   F   F
     0.5016424393529065    0.8260661239944747    0.3006861593014525   T   T   T
     0.8347600000000028    0.8330300000000008    0.1813199999999995   F   F   F
     0.6671499999999995    0.6655900000000017    0.0000000000000000   F   F   F
     0.6671899999999980    0.6664000000000030    0.1203199999999995   F   F   F
     0.8330199999999977    0.4993699999999990    0.1799499999999981   F   F   F
     0.1676900000000003    0.8338899999999967    0.0602900000000020   F   F   F
     0.5002191307296564    0.1658516664178148    0.3019099014271969   T   T   T
     0.3328899999999990    0.9982400000000027    0.2413000000000025   F   F   F
     0.6667899999999989    0.9991399999999970    0.2409699999999972   F   F   F
     0.3346599999999995    0.0002300000000020    0.1208200000000019   F   F   F
     0.6674599999999984    0.9981500000000025    0.0000100000000032   F   F   F
     0.8336630094440477    0.1696469988996492    0.3018646100344189   T   T   T
     0.8335799999999978    0.1645600000000016    0.0601300000000009   F   F   F
     0.6669085418016695    0.9987534114163528    0.3588919687164249   T   T   T
     0.8336400000000026    0.1659300000000030    0.1806199999999976   F   F   F
     0.6665300000000016    0.9997200000000035    0.1204400000000021   F   F   F
     0.3334038047718080    0.3264076957273414    0.3603173280696156   T   T   T
     0.3348700000000022    0.0016699999999972    0.0006600000000034   F   F   F
     0.3331255686503377    0.9947358934834145    0.3695930320972284   T   T   T
     0.0012200000000036    0.0021699999999996    0.2408000000000001   F   F   F
     0.1672200000000004    0.5017899999999997    0.0590299999999999   F   F   F
     0.5000000000000000    0.5034399999999977    0.0594899999999967   F   F   F
     0.4986099999999993    0.1611499999999992    0.0586800000000025   F   F   F
     0.4996799999999979    0.1644399999999990    0.1818200000000019   F   F   F
     0.8346568306256017    0.5049982222523477    0.2982546030197381   T   T   T
     0.9972199999999987    0.6613499999999988    0.2415099999999981   F   F   F
     0.3341899999999995    0.6657300000000035    0.2404000000000011   F   F   F
     0.3341399999999979    0.6585499999999982    0.0027800000000013   F   F   F
     0.6692299999999989    0.6633700000000005    0.2409699999999972   F   F   F
 
  0.00000000E+00  0.00000000E+00  0.00000000E+00
  0.00000000E+00  0.00000000E+00  0.00000000E+00
  0.00000000E+00  0.00000000E+00  0.00000000E+00
  0.00000000E+00  0.00000000E+00  0.00000000E+00
  0.00000000E+00  0.00000000E+00  0.00000000E+00
  0.00000000E+00  0.00000000E+00  0.00000000E+00
  0.00000000E+00  0.00000000E+00  0.00000000E+00
  0.00000000E+00  0.00000000E+00  0.00000000E+00
  0.00000000E+00  0.00000000E+00  0.00000000E+00
  0.00000000E+00  0.00000000E+00  0.00000000E+00
  0.00000000E+00  0.00000000E+00  0.00000000E+00
  0.00000000E+00  0.00000000E+00  0.00000000E+00
  0.00000000E+00  0.00000000E+00  0.00000000E+00
  0.00000000E+00  0.00000000E+00  0.00000000E+00
  0.00000000E+00  0.00000000E+00  0.00000000E+00
  0.00000000E+00  0.00000000E+00  0.00000000E+00
  0.00000000E+00  0.00000000E+00  0.00000000E+00
  0.00000000E+00  0.00000000E+00  0.00000000E+00
  0.00000000E+00  0.00000000E+00  0.00000000E+00
  0.00000000E+00  0.00000000E+00  0.00000000E+00
  0.00000000E+00  0.00000000E+00  0.00000000E+00
  0.00000000E+00  0.00000000E+00  0.00000000E+00
  0.00000000E+00  0.00000000E+00  0.00000000E+00
  0.00000000E+00  0.00000000E+00  0.00000000E+00
  0.00000000E+00  0.00000000E+00  0.00000000E+00
  0.00000000E+00  0.00000000E+00  0.00000000E+00
  0.00000000E+00  0.00000000E+00  0.00000000E+00
  0.00000000E+00  0.00000000E+00  0.00000000E+00
  0.00000000E+00  0.00000000E+00  0.00000000E+00
  0.00000000E+00  0.00000000E+00  0.00000000E+00
  0.00000000E+00  0.00000000E+00  0.00000000E+00
  0.00000000E+00  0.00000000E+00  0.00000000E+00
  0.00000000E+00  0.00000000E+00  0.00000000E+00
  0.00000000E+00  0.00000000E+00  0.00000000E+00
  0.00000000E+00  0.00000000E+00  0.00000000E+00
  0.00000000E+00  0.00000000E+00  0.00000000E+00
  0.00000000E+00  0.00000000E+00  0.00000000E+00
  0.00000000E+00  0.00000000E+00  0.00000000E+00
  0.00000000E+00  0.00000000E+00  0.00000000E+00
  0.00000000E+00  0.00000000E+00  0.00000000E+00
  0.00000000E+00  0.00000000E+00  0.00000000E+00
  0.00000000E+00  0.00000000E+00  0.00000000E+00
  0.00000000E+00  0.00000000E+00  0.00000000E+00
  0.00000000E+00  0.00000000E+00  0.00000000E+00
  0.00000000E+00  0.00000000E+00  0.00000000E+00
  0.00000000E+00  0.00000000E+00  0.00000000E+00
  0.00000000E+00  0.00000000E+00  0.00000000E+00
  0.00000000E+00  0.00000000E+00  0.00000000E+00
  0.00000000E+00  0.00000000E+00  0.00000000E+00
  0.00000000E+00  0.00000000E+00  0.00000000E+00
  0.00000000E+00  0.00000000E+00  0.00000000E+00
  0.00000000E+00  0.00000000E+00  0.00000000E+00
  0.00000000E+00  0.00000000E+00  0.00000000E+00
  0.00000000E+00  0.00000000E+00  0.00000000E+00
  0.00000000E+00  0.00000000E+00  0.00000000E+00
  0.00000000E+00  0.00000000E+00  0.00000000E+00
  0.00000000E+00  0.00000000E+00  0.00000000E+00
  0.00000000E+00  0.00000000E+00  0.00000000E+00
  0.00000000E+00  0.00000000E+00  0.00000000E+00
  0.00000000E+00  0.00000000E+00  0.00000000E+00
  0.00000000E+00  0.00000000E+00  0.00000000E+00
  0.00000000E+00  0.00000000E+00  0.00000000E+00
