  62  62   0   0
  0.2754962E+02  0.8526200E-09  0.8504600E-09  0.2355580E-08  0.5000000E-15
  1.000000000000000E-004
  CAR 
 ni3al                                   
      5.18229154    -45.91344220  301      0.78886547      1.00000000
    -45.913  0.0000E+00  0.0000E+00  0.0000E+00  0.0000E+00
    -45.743  0.0000E+00  0.0000E+00  0.0000E+00  0.0000E+00
    -45.573  0.0000E+00  0.0000E+00  0.0000E+00  0.0000E+00
    -45.402  0.0000E+00  0.0000E+00  0.0000E+00  0.0000E+00
    -45.232  0.0000E+00  0.0000E+00  0.0000E+00  0.0000E+00
    -45.062  0.0000E+00  0.0000E+00  0.0000E+00  0.0000E+00
    -44.892  0.0000E+00 -0.1098E-33  0.0000E+00 -0.1869E-34
    -44.721  0.0000E+00 -0.9540E-26  0.0000E+00 -0.1625E-26
    -44.551  0.0000E+00 -0.6237E-19  0.0000E+00 -0.1062E-19
    -44.381 -0.5045E-35 -0.2964E-13 -0.8592E-36 -0.5048E-14
    -44.210 -0.6896E-27 -0.1079E-08 -0.1175E-27 -0.1839E-09
    -44.040 -0.7044E-20 -0.2894E-05 -0.1200E-20 -0.4931E-06
    -43.870 -0.5200E-14 -0.5240E-03 -0.8857E-15 -0.8973E-04
    -43.699 -0.2893E-09 -0.2266E-02 -0.4928E-10 -0.4757E-03
    -43.529 -0.1165E-05  0.5590E-01 -0.1985E-06  0.9045E-02
    -43.359 -0.3209E-03  0.1635E+00 -0.5486E-04  0.3688E-01
    -43.188 -0.3396E-02  0.9547E-01 -0.6333E-03  0.5314E-01
    -43.018  0.5199E-01  0.5933E-01  0.8221E-02  0.6325E-01
    -42.848  0.1154E+00  0.9368E-01  0.2787E-01  0.7921E-01
    -42.677  0.1463E-01  0.4772E-01  0.3036E-01  0.8733E-01
    -42.507 -0.4607E-02  0.3460E-01  0.2958E-01  0.9323E-01
    -42.337  0.3507E-01  0.2642E-01  0.3555E-01  0.9773E-01
    -42.166  0.8905E-01  0.2511E-01  0.5072E-01  0.1020E+00
    -41.996  0.1034E+00  0.2451E-01  0.6834E-01  0.1062E+00
    -41.826  0.1420E+00  0.1599E-01  0.9253E-01  0.1089E+00
    -41.655  0.4999E-01  0.7142E-02  0.1010E+00  0.1101E+00
    -41.485  0.3002E-01 -0.6552E-03  0.1062E+00  0.1100E+00
    -41.315  0.2375E-01 -0.2911E-04  0.1102E+00  0.1100E+00
    -41.145 -0.9813E-03 -0.5070E-07  0.1100E+00  0.1100E+00
    -40.974 -0.1857E-03 -0.1336E-05  0.1100E+00  0.1100E+00
    -40.804 -0.2408E-03 -0.2410E-03  0.1100E+00  0.1100E+00
    -40.634 -0.2060E-02 -0.2563E-03  0.1096E+00  0.1099E+00
    -40.463  0.3250E-01  0.2456E-01  0.1151E+00  0.1141E+00
    -40.293  0.1006E+00  0.1426E-01  0.1323E+00  0.1165E+00
    -40.123  0.4795E-01  0.2384E-01  0.1404E+00  0.1206E+00
    -39.952 -0.2235E-02  0.5677E-01  0.1401E+00  0.1303E+00
    -39.782 -0.3771E-03  0.4015E-01  0.1400E+00  0.1371E+00
    -39.612 -0.1767E-05  0.1855E-01  0.1400E+00  0.1403E+00
    -39.441 -0.5508E-09 -0.1393E-02  0.1400E+00  0.1400E+00
    -39.271 -0.1232E-13 -0.1033E-03  0.1400E+00  0.1400E+00
    -39.101  0.0000E+00 -0.2574E-06  0.1400E+00  0.1400E+00
    -38.930  0.0000E+00 -0.4121E-10  0.1400E+00  0.1400E+00
    -38.760  0.0000E+00 -0.4612E-15  0.1400E+00  0.1400E+00
    -38.590  0.0000E+00  0.0000E+00  0.1400E+00  0.1400E+00
    -38.419  0.0000E+00  0.0000E+00  0.1400E+00  0.1400E+00
    -38.249  0.0000E+00  0.0000E+00  0.1400E+00  0.1400E+00
    -38.079  0.0000E+00  0.0000E+00  0.1400E+00  0.1400E+00
    -37.908  0.0000E+00  0.0000E+00  0.1400E+00  0.1400E+00
    -37.738  0.0000E+00  0.0000E+00  0.1400E+00  0.1400E+00
    -37.568  0.0000E+00  0.0000E+00  0.1400E+00  0.1400E+00
    -37.397  0.0000E+00  0.0000E+00  0.1400E+00  0.1400E+00
    -37.227  0.0000E+00  0.0000E+00  0.1400E+00  0.1400E+00
    -37.057  0.0000E+00  0.0000E+00  0.1400E+00  0.1400E+00
    -36.887  0.0000E+00  0.0000E+00  0.1400E+00  0.1400E+00
    -36.716  0.0000E+00  0.0000E+00  0.1400E+00  0.1400E+00
    -36.546  0.0000E+00  0.0000E+00  0.1400E+00  0.1400E+00
    -36.376  0.0000E+00  0.0000E+00  0.1400E+00  0.1400E+00
    -36.205  0.0000E+00  0.0000E+00  0.1400E+00  0.1400E+00
    -36.035  0.0000E+00  0.0000E+00  0.1400E+00  0.1400E+00
    -35.865  0.0000E+00  0.0000E+00  0.1400E+00  0.1400E+00
    -35.694  0.0000E+00  0.0000E+00  0.1400E+00  0.1400E+00
    -35.524  0.0000E+00  0.0000E+00  0.1400E+00  0.1400E+00
    -35.354  0.0000E+00  0.0000E+00  0.1400E+00  0.1400E+00
    -35.183  0.0000E+00  0.0000E+00  0.1400E+00  0.1400E+00
    -35.013  0.0000E+00  0.0000E+00  0.1400E+00  0.1400E+00
    -34.843  0.0000E+00  0.0000E+00  0.1400E+00  0.1400E+00
    -34.672  0.0000E+00  0.0000E+00  0.1400E+00  0.1400E+00
    -34.502  0.0000E+00  0.0000E+00  0.1400E+00  0.1400E+00
    -34.332  0.0000E+00  0.0000E+00  0.1400E+00  0.1400E+00
    -34.161  0.0000E+00  0.0000E+00  0.1400E+00  0.1400E+00
    -33.991  0.0000E+00  0.0000E+00  0.1400E+00  0.1400E+00
    -33.821  0.0000E+00  0.0000E+00  0.1400E+00  0.1400E+00
    -33.650  0.0000E+00  0.0000E+00  0.1400E+00  0.1400E+00
    -33.480  0.0000E+00  0.0000E+00  0.1400E+00  0.1400E+00
    -33.310  0.0000E+00  0.0000E+00  0.1400E+00  0.1400E+00
    -33.140  0.0000E+00  0.0000E+00  0.1400E+00  0.1400E+00
    -32.969  0.0000E+00  0.0000E+00  0.1400E+00  0.1400E+00
    -32.799  0.0000E+00  0.0000E+00  0.1400E+00  0.1400E+00
    -32.629  0.0000E+00  0.0000E+00  0.1400E+00  0.1400E+00
    -32.458  0.0000E+00  0.0000E+00  0.1400E+00  0.1400E+00
    -32.288  0.0000E+00  0.0000E+00  0.1400E+00  0.1400E+00
    -32.118  0.0000E+00  0.0000E+00  0.1400E+00  0.1400E+00
    -31.947  0.0000E+00  0.0000E+00  0.1400E+00  0.1400E+00
    -31.777  0.0000E+00  0.0000E+00  0.1400E+00  0.1400E+00
    -31.607  0.0000E+00  0.0000E+00  0.1400E+00  0.1400E+00
    -31.436  0.0000E+00  0.0000E+00  0.1400E+00  0.1400E+00
    -31.266  0.0000E+00  0.0000E+00  0.1400E+00  0.1400E+00
    -31.096  0.0000E+00  0.0000E+00  0.1400E+00  0.1400E+00
    -30.925  0.0000E+00  0.0000E+00  0.1400E+00  0.1400E+00
    -30.755  0.0000E+00  0.0000E+00  0.1400E+00  0.1400E+00
    -30.585  0.0000E+00  0.0000E+00  0.1400E+00  0.1400E+00
    -30.414  0.0000E+00  0.0000E+00  0.1400E+00  0.1400E+00
    -30.244  0.0000E+00  0.0000E+00  0.1400E+00  0.1400E+00
    -30.074  0.0000E+00  0.0000E+00  0.1400E+00  0.1400E+00
    -29.903  0.0000E+00  0.0000E+00  0.1400E+00  0.1400E+00
    -29.733  0.0000E+00  0.0000E+00  0.1400E+00  0.1400E+00
    -29.563  0.0000E+00  0.0000E+00  0.1400E+00  0.1400E+00
    -29.392  0.0000E+00  0.0000E+00  0.1400E+00  0.1400E+00
    -29.222  0.0000E+00  0.0000E+00  0.1400E+00  0.1400E+00
    -29.052  0.0000E+00  0.0000E+00  0.1400E+00  0.1400E+00
    -28.882  0.0000E+00  0.0000E+00  0.1400E+00  0.1400E+00
    -28.711  0.0000E+00  0.0000E+00  0.1400E+00  0.1400E+00
    -28.541  0.0000E+00  0.0000E+00  0.1400E+00  0.1400E+00
    -28.371  0.0000E+00  0.0000E+00  0.1400E+00  0.1400E+00
    -28.200  0.0000E+00  0.0000E+00  0.1400E+00  0.1400E+00
    -28.030  0.0000E+00  0.0000E+00  0.1400E+00  0.1400E+00
    -27.860  0.0000E+00  0.0000E+00  0.1400E+00  0.1400E+00
    -27.689  0.0000E+00  0.0000E+00  0.1400E+00  0.1400E+00
    -27.519  0.0000E+00  0.0000E+00  0.1400E+00  0.1400E+00
    -27.349  0.0000E+00  0.0000E+00  0.1400E+00  0.1400E+00
    -27.178  0.0000E+00  0.0000E+00  0.1400E+00  0.1400E+00
    -27.008  0.0000E+00  0.0000E+00  0.1400E+00  0.1400E+00
    -26.838  0.0000E+00  0.0000E+00  0.1400E+00  0.1400E+00
    -26.667  0.0000E+00  0.0000E+00  0.1400E+00  0.1400E+00
    -26.497  0.0000E+00  0.0000E+00  0.1400E+00  0.1400E+00
    -26.327  0.0000E+00  0.0000E+00  0.1400E+00  0.1400E+00
    -26.156  0.0000E+00  0.0000E+00  0.1400E+00  0.1400E+00
    -25.986  0.0000E+00  0.0000E+00  0.1400E+00  0.1400E+00
    -25.816  0.0000E+00  0.0000E+00  0.1400E+00  0.1400E+00
    -25.645  0.0000E+00  0.0000E+00  0.1400E+00  0.1400E+00
    -25.475  0.0000E+00  0.0000E+00  0.1400E+00  0.1400E+00
    -25.305  0.0000E+00  0.0000E+00  0.1400E+00  0.1400E+00
    -25.135  0.0000E+00  0.0000E+00  0.1400E+00  0.1400E+00
    -24.964  0.0000E+00  0.0000E+00  0.1400E+00  0.1400E+00
    -24.794  0.0000E+00  0.0000E+00  0.1400E+00  0.1400E+00
    -24.624  0.0000E+00  0.0000E+00  0.1400E+00  0.1400E+00
    -24.453  0.0000E+00  0.0000E+00  0.1400E+00  0.1400E+00
    -24.283  0.0000E+00  0.0000E+00  0.1400E+00  0.1400E+00
    -24.113  0.0000E+00  0.0000E+00  0.1400E+00  0.1400E+00
    -23.942  0.0000E+00  0.0000E+00  0.1400E+00  0.1400E+00
    -23.772  0.0000E+00  0.0000E+00  0.1400E+00  0.1400E+00
    -23.602  0.0000E+00  0.0000E+00  0.1400E+00  0.1400E+00
    -23.431  0.0000E+00  0.0000E+00  0.1400E+00  0.1400E+00
    -23.261  0.0000E+00  0.0000E+00  0.1400E+00  0.1400E+00
    -23.091  0.0000E+00  0.0000E+00  0.1400E+00  0.1400E+00
    -22.920  0.0000E+00  0.0000E+00  0.1400E+00  0.1400E+00
    -22.750  0.0000E+00  0.0000E+00  0.1400E+00  0.1400E+00
    -22.580  0.0000E+00  0.0000E+00  0.1400E+00  0.1400E+00
    -22.409  0.0000E+00  0.0000E+00  0.1400E+00  0.1400E+00
    -22.239  0.0000E+00  0.0000E+00  0.1400E+00  0.1400E+00
    -22.069  0.0000E+00  0.0000E+00  0.1400E+00  0.1400E+00
    -21.898  0.0000E+00  0.0000E+00  0.1400E+00  0.1400E+00
    -21.728  0.0000E+00  0.0000E+00  0.1400E+00  0.1400E+00
    -21.558  0.0000E+00  0.0000E+00  0.1400E+00  0.1400E+00
    -21.387  0.0000E+00  0.0000E+00  0.1400E+00  0.1400E+00
    -21.217  0.0000E+00  0.0000E+00  0.1400E+00  0.1400E+00
    -21.047  0.0000E+00  0.0000E+00  0.1400E+00  0.1400E+00
    -20.877  0.0000E+00  0.0000E+00  0.1400E+00  0.1400E+00
    -20.706  0.0000E+00  0.0000E+00  0.1400E+00  0.1400E+00
    -20.536  0.0000E+00  0.0000E+00  0.1400E+00  0.1400E+00
    -20.366  0.0000E+00  0.0000E+00  0.1400E+00  0.1400E+00
    -20.195  0.0000E+00  0.0000E+00  0.1400E+00  0.1400E+00
    -20.025  0.0000E+00  0.0000E+00  0.1400E+00  0.1400E+00
    -19.855  0.0000E+00  0.0000E+00  0.1400E+00  0.1400E+00
    -19.684  0.0000E+00  0.0000E+00  0.1400E+00  0.1400E+00
    -19.514  0.0000E+00  0.0000E+00  0.1400E+00  0.1400E+00
    -19.344  0.0000E+00  0.0000E+00  0.1400E+00  0.1400E+00
    -19.173  0.0000E+00  0.0000E+00  0.1400E+00  0.1400E+00
    -19.003  0.0000E+00  0.0000E+00  0.1400E+00  0.1400E+00
    -18.833  0.0000E+00  0.0000E+00  0.1400E+00  0.1400E+00
    -18.662  0.0000E+00  0.0000E+00  0.1400E+00  0.1400E+00
    -18.492  0.0000E+00  0.0000E+00  0.1400E+00  0.1400E+00
    -18.322  0.0000E+00  0.0000E+00  0.1400E+00  0.1400E+00
    -18.151  0.0000E+00  0.0000E+00  0.1400E+00  0.1400E+00
    -17.981  0.0000E+00  0.0000E+00  0.1400E+00  0.1400E+00
    -17.811  0.0000E+00  0.0000E+00  0.1400E+00  0.1400E+00
    -17.640  0.0000E+00  0.0000E+00  0.1400E+00  0.1400E+00
    -17.470  0.0000E+00  0.0000E+00  0.1400E+00  0.1400E+00
    -17.300  0.0000E+00  0.0000E+00  0.1400E+00  0.1400E+00
    -17.130  0.0000E+00  0.0000E+00  0.1400E+00  0.1400E+00
    -16.959  0.0000E+00  0.0000E+00  0.1400E+00  0.1400E+00
    -16.789  0.0000E+00  0.0000E+00  0.1400E+00  0.1400E+00
    -16.619  0.0000E+00  0.0000E+00  0.1400E+00  0.1400E+00
    -16.448  0.0000E+00  0.0000E+00  0.1400E+00  0.1400E+00
    -16.278  0.0000E+00  0.0000E+00  0.1400E+00  0.1400E+00
    -16.108  0.0000E+00  0.0000E+00  0.1400E+00  0.1400E+00
    -15.937  0.0000E+00  0.0000E+00  0.1400E+00  0.1400E+00
    -15.767  0.0000E+00  0.0000E+00  0.1400E+00  0.1400E+00
    -15.597  0.0000E+00  0.0000E+00  0.1400E+00  0.1400E+00
    -15.426  0.0000E+00  0.0000E+00  0.1400E+00  0.1400E+00
    -15.256  0.0000E+00  0.0000E+00  0.1400E+00  0.1400E+00
    -15.086  0.0000E+00  0.0000E+00  0.1400E+00  0.1400E+00
    -14.915  0.0000E+00  0.0000E+00  0.1400E+00  0.1400E+00
    -14.745  0.0000E+00  0.0000E+00  0.1400E+00  0.1400E+00
    -14.575  0.0000E+00  0.0000E+00  0.1400E+00  0.1400E+00
    -14.404  0.0000E+00  0.0000E+00  0.1400E+00  0.1400E+00
    -14.234  0.0000E+00  0.0000E+00  0.1400E+00  0.1400E+00
    -14.064  0.0000E+00  0.0000E+00  0.1400E+00  0.1400E+00
    -13.893  0.0000E+00  0.0000E+00  0.1400E+00  0.1400E+00
    -13.723  0.0000E+00  0.0000E+00  0.1400E+00  0.1400E+00
    -13.553  0.0000E+00  0.0000E+00  0.1400E+00  0.1400E+00
    -13.382  0.0000E+00  0.0000E+00  0.1400E+00  0.1400E+00
    -13.212  0.0000E+00  0.0000E+00  0.1400E+00  0.1400E+00
    -13.042  0.0000E+00  0.0000E+00  0.1400E+00  0.1400E+00
    -12.872  0.0000E+00  0.0000E+00  0.1400E+00  0.1400E+00
    -12.701  0.0000E+00  0.0000E+00  0.1400E+00  0.1400E+00
    -12.531  0.0000E+00  0.0000E+00  0.1400E+00  0.1400E+00
    -12.361  0.0000E+00  0.0000E+00  0.1400E+00  0.1400E+00
    -12.190  0.0000E+00  0.0000E+00  0.1400E+00  0.1400E+00
    -12.020  0.0000E+00  0.0000E+00  0.1400E+00  0.1400E+00
    -11.850  0.0000E+00  0.0000E+00  0.1400E+00  0.1400E+00
    -11.679  0.0000E+00  0.0000E+00  0.1400E+00  0.1400E+00
    -11.509  0.0000E+00  0.0000E+00  0.1400E+00  0.1400E+00
    -11.339  0.0000E+00  0.0000E+00  0.1400E+00  0.1400E+00
    -11.168  0.0000E+00  0.0000E+00  0.1400E+00  0.1400E+00
    -10.998  0.0000E+00  0.0000E+00  0.1400E+00  0.1400E+00
    -10.828  0.0000E+00  0.0000E+00  0.1400E+00  0.1400E+00
    -10.657  0.0000E+00  0.0000E+00  0.1400E+00  0.1400E+00
    -10.487  0.0000E+00  0.0000E+00  0.1400E+00  0.1400E+00
    -10.317  0.0000E+00  0.0000E+00  0.1400E+00  0.1400E+00
    -10.146  0.0000E+00  0.0000E+00  0.1400E+00  0.1400E+00
     -9.976  0.0000E+00  0.0000E+00  0.1400E+00  0.1400E+00
     -9.806  0.0000E+00  0.0000E+00  0.1400E+00  0.1400E+00
     -9.635  0.0000E+00  0.0000E+00  0.1400E+00  0.1400E+00
     -9.465  0.0000E+00  0.0000E+00  0.1400E+00  0.1400E+00
     -9.295  0.0000E+00  0.0000E+00  0.1400E+00  0.1400E+00
     -9.125  0.0000E+00  0.0000E+00  0.1400E+00  0.1400E+00
     -8.954  0.0000E+00  0.0000E+00  0.1400E+00  0.1400E+00
     -8.784  0.0000E+00  0.0000E+00  0.1400E+00  0.1400E+00
     -8.614 -0.7003E-35  0.0000E+00  0.1400E+00  0.1400E+00
     -8.443 -0.7126E-27 -0.4266E-32  0.1400E+00  0.1400E+00
     -8.273 -0.5380E-20 -0.1831E-24  0.1400E+00  0.1400E+00
     -8.103 -0.2884E-14 -0.5817E-18  0.1400E+00  0.1400E+00
     -7.932 -0.1136E-09 -0.1300E-12  0.1400E+00  0.1400E+00
     -7.762 -0.3057E-06 -0.2116E-08  0.1400E+00  0.1400E+00
     -7.592 -0.4763E-04 -0.2282E-05  0.1400E+00  0.1400E+00
     -7.421  0.9122E-04 -0.1201E-03  0.1400E+00  0.1400E+00
     -7.251  0.3448E-02  0.9529E-03  0.1406E+00  0.1401E+00
     -7.081  0.3478E-02  0.3546E-02  0.1412E+00  0.1407E+00
     -6.910  0.7332E-02  0.5190E-02  0.1424E+00  0.1416E+00
     -6.740  0.3066E-02  0.5579E-02  0.1430E+00  0.1426E+00
     -6.570  0.3267E-02  0.3243E-02  0.1435E+00  0.1431E+00
     -6.399  0.7956E-02  0.3915E-02  0.1449E+00  0.1438E+00
     -6.229  0.9752E-02  0.8175E-02  0.1465E+00  0.1452E+00
     -6.059  0.1040E-01  0.1054E-01  0.1483E+00  0.1470E+00
     -5.888  0.5974E-02  0.9549E-02  0.1493E+00  0.1486E+00
     -5.718  0.1254E-01  0.4669E-02  0.1515E+00  0.1494E+00
     -5.548  0.1600E-01  0.1384E-01  0.1542E+00  0.1518E+00
     -5.377  0.1223E-01  0.1496E-01  0.1563E+00  0.1543E+00
     -5.207  0.7069E-02  0.1195E-01  0.1575E+00  0.1563E+00
     -5.037  0.1301E-01  0.6197E-02  0.1597E+00  0.1574E+00
     -4.867  0.2138E-01  0.8247E-02  0.1633E+00  0.1588E+00
     -4.696  0.2753E-01  0.1843E-01  0.1680E+00  0.1619E+00
     -4.526  0.1870E-01  0.2493E-01  0.1712E+00  0.1662E+00
     -4.356  0.2544E-01  0.1974E-01  0.1755E+00  0.1696E+00
     -4.185  0.4124E-01  0.1174E-01  0.1826E+00  0.1716E+00
     -4.015  0.6528E-01  0.2535E-01  0.1937E+00  0.1759E+00
     -3.845  0.1022E+00  0.2127E-01  0.2111E+00  0.1795E+00
     -3.674  0.1078E+00  0.2944E-01  0.2294E+00  0.1845E+00
     -3.504  0.1392E+00  0.2554E-01  0.2532E+00  0.1889E+00
     -3.334  0.1496E+00  0.4615E-01  0.2786E+00  0.1967E+00
     -3.163  0.1697E+00  0.4926E-01  0.3075E+00  0.2051E+00
     -2.993  0.1476E+00  0.6524E-01  0.3327E+00  0.2162E+00
     -2.823  0.1428E+00  0.7671E-01  0.3570E+00  0.2293E+00
     -2.652  0.2225E+00  0.7147E-01  0.3949E+00  0.2415E+00
     -2.482  0.2653E+00  0.9329E-01  0.4401E+00  0.2573E+00
     -2.312  0.2221E+00  0.1100E+00  0.4779E+00  0.2761E+00
     -2.141  0.2365E+00  0.1147E+00  0.5182E+00  0.2956E+00
     -1.971  0.2383E+00  0.1068E+00  0.5588E+00  0.3138E+00
     -1.801  0.2201E+00  0.1164E+00  0.5963E+00  0.3336E+00
     -1.630  0.2161E+00  0.1345E+00  0.6331E+00  0.3566E+00
     -1.460  0.1999E+00  0.1356E+00  0.6671E+00  0.3797E+00
     -1.290  0.1658E+00  0.1611E+00  0.6954E+00  0.4071E+00
     -1.120  0.1544E+00  0.1895E+00  0.7217E+00  0.4394E+00
     -0.949  0.1720E+00  0.1847E+00  0.7510E+00  0.4708E+00
     -0.779  0.2071E+00  0.1928E+00  0.7862E+00  0.5037E+00
     -0.609  0.2633E+00  0.1980E+00  0.8311E+00  0.5374E+00
     -0.438  0.3173E+00  0.2020E+00  0.8851E+00  0.5718E+00
     -0.268  0.2858E+00  0.2038E+00  0.9338E+00  0.6065E+00
     -0.098  0.2092E+00  0.1840E+00  0.9694E+00  0.6379E+00
      0.073  0.1615E+00  0.1632E+00  0.9969E+00  0.6657E+00
      0.243  0.1531E+00  0.1347E+00  0.1023E+01  0.6886E+00
      0.413  0.1391E+00  0.1101E+00  0.1047E+01  0.7074E+00
      0.584  0.1331E+00  0.1033E+00  0.1069E+01  0.7249E+00
      0.754  0.1107E+00  0.1131E+00  0.1088E+01  0.7442E+00
      0.924  0.9658E-01  0.1169E+00  0.1105E+01  0.7641E+00
      1.095  0.9572E-01  0.1364E+00  0.1121E+01  0.7874E+00
      1.265  0.9702E-01  0.1640E+00  0.1138E+01  0.8153E+00
      1.435  0.9588E-01  0.1841E+00  0.1154E+01  0.8466E+00
      1.606  0.1035E+00  0.2149E+00  0.1171E+01  0.8832E+00
      1.776  0.1166E+00  0.2388E+00  0.1191E+01  0.9239E+00
      1.946  0.8271E-01  0.2780E+00  0.1205E+01  0.9713E+00
      2.117  0.8991E-02  0.2955E+00  0.1207E+01  0.1022E+01
      2.287 -0.1578E-02  0.3016E+00  0.1207E+01  0.1073E+01
      2.457 -0.3797E-04  0.3332E+00  0.1207E+01  0.1130E+01
      2.628 -0.5787E-07  0.2513E+00  0.1207E+01  0.1172E+01
      2.798 -0.6825E-11  0.1609E+00  0.1207E+01  0.1200E+01
      2.968 -0.6410E-16  0.4349E-01  0.1207E+01  0.1207E+01
      3.138  0.0000E+00 -0.3382E-02  0.1207E+01  0.1207E+01
      3.309  0.0000E+00 -0.3121E-03  0.1207E+01  0.1207E+01
      3.479  0.0000E+00 -0.1256E-05  0.1207E+01  0.1207E+01
      3.649  0.0000E+00 -0.3668E-09  0.1207E+01  0.1207E+01
      3.820  0.0000E+00 -0.8202E-14  0.1207E+01  0.1207E+01
      3.990  0.0000E+00  0.0000E+00  0.1207E+01  0.1207E+01
      4.160  0.0000E+00  0.0000E+00  0.1207E+01  0.1207E+01
      4.331  0.0000E+00  0.0000E+00  0.1207E+01  0.1207E+01
      4.501  0.0000E+00  0.0000E+00  0.1207E+01  0.1207E+01
      4.671  0.0000E+00  0.0000E+00  0.1207E+01  0.1207E+01
      4.842  0.0000E+00  0.0000E+00  0.1207E+01  0.1207E+01
      5.012  0.0000E+00  0.0000E+00  0.1207E+01  0.1207E+01
      5.182  0.0000E+00  0.0000E+00  0.1207E+01  0.1207E+01
