ni3al                                   
           1
     8.526200    0.000000    0.000000
    -0.001767    8.504599    0.000000
     0.000000    0.000000   23.555799
   Fe   Cr
    48    14
Direct configuration=     1
   0.00245000  0.99865000  0.12117000
   0.16980000  0.16587000  0.18099000
   0.33623000  0.99852000  0.12110000
   0.50164000  0.16594000  0.18135000
   0.83615000  0.16559000  0.18099000
   0.00260000  0.33284000  0.12101000
   0.16994000  0.49925000  0.18104000
   0.33651000  0.33287000  0.12086000
   0.50180000  0.49937000  0.18123000
   0.66965000  0.33304000  0.12103000
   0.83626000  0.49963000  0.18117000
   0.16899000  0.83329000  0.18177000
   0.33582000  0.66689000  0.12095000
   0.66914000  0.66722000  0.12117000
   0.83680000  0.83220000  0.18114000
   0.00172000  0.99944000  0.24151000
   0.16844072  0.16026033  0.30261565
   0.50373890  0.16433626  0.30215531
   0.66988000  0.99924000  0.24142000
   0.83477120  0.16505350  0.30251964
   0.16548220  0.49790591  0.30093225
   0.33524000  0.33246000  0.24183000
   0.50370692  0.50096917  0.30244037
   0.66902000  0.33317000  0.24123000
   0.83424753  0.49970741  0.30257224
   0.00318000  0.66598000  0.24177000
   0.33605000  0.66588000  0.24146000
   0.50256785  0.83434697  0.30168218
   0.66918000  0.66674000  0.24131000
   0.00271000  0.99869000  0.00034000
   0.99526190  0.99936501  0.35979361
   0.16929000  0.16694000  0.06071000
   0.33657000  0.00075000  0.00067000
   0.34421869  0.00362042  0.36051327
   0.50343000  0.16520000  0.06105000
   0.66948000  0.99883000  0.00053000
   0.67084913  0.99223680  0.36307984
   0.83570000  0.16556000  0.06094000
   0.17061000  0.49746000  0.06032000
   0.50215000  0.49992000  0.06086000
   0.66930000  0.33358000  0.00050000
   0.66758985  0.33264526  0.35904710
   0.00239000  0.66441000  0.00051000
   0.00255260  0.66064764  0.35897049
   0.16894000  0.83304000  0.06062000
   0.50222000  0.83318000  0.06077000
   0.66882000  0.66655000  0.00068000
   0.83620000  0.83206000  0.06086000
   0.66879000  0.99689000  0.12225000
   0.00127000  0.66476000  0.12046000
   0.50272000  0.83391000  0.18098000
   0.33662000  0.99784000  0.24172000
   0.00240000  0.33332000  0.24079000
   0.17187945  0.83062619  0.30393914
   0.83352987  0.83319123  0.30198063
   0.99962000  0.33431000  0.00199000
   0.00521225  0.33084210  0.36789751
   0.33922000  0.33072000  0.00000000
   0.33380428  0.33480304  0.36282657
   0.83779000  0.49999000  0.06135000
   0.33524000  0.67037000  0.00023000
   0.33078724  0.67150217  0.36706407
Direct configuration=     2
   0.00245000  0.99865000  0.12117000
   0.16980000  0.16587000  0.18099000
   0.33623000  0.99852000  0.12110000
   0.50164000  0.16594000  0.18135000
   0.83615000  0.16559000  0.18099000
   0.00260000  0.33284000  0.12101000
   0.16994000  0.49925000  0.18104000
   0.33651000  0.33287000  0.12086000
   0.50180000  0.49937000  0.18123000
   0.66965000  0.33304000  0.12103000
   0.83626000  0.49963000  0.18117000
   0.16899000  0.83329000  0.18177000
   0.33582000  0.66689000  0.12095000
   0.66914000  0.66722000  0.12117000
   0.83680000  0.83220000  0.18114000
   0.00172000  0.99944000  0.24151000
   0.16855437  0.16027382  0.30243696
   0.50411910  0.16397881  0.30227825
   0.66988000  0.99924000  0.24142000
   0.83434915  0.16476545  0.30256371
   0.16572568  0.49810861  0.30085641
   0.33524000  0.33246000  0.24183000
   0.50433527  0.50126627  0.30207905
   0.66902000  0.33317000  0.24123000
   0.83347986  0.50046223  0.30251273
   0.00318000  0.66598000  0.24177000
   0.33605000  0.66588000  0.24146000
   0.50360445  0.83448377  0.30164441
   0.66918000  0.66674000  0.24131000
   0.00271000  0.99869000  0.00034000
   0.99584356  0.99934149  0.35997394
   0.16929000  0.16694000  0.06071000
   0.33657000  0.00075000  0.00067000
   0.34384844  0.00291592  0.36051922
   0.50343000  0.16520000  0.06105000
   0.66948000  0.99883000  0.00053000
   0.67037731  0.99356235  0.36242660
   0.83570000  0.16556000  0.06094000
   0.17061000  0.49746000  0.06032000
   0.50215000  0.49992000  0.06086000
   0.66930000  0.33358000  0.00050000
   0.66755142  0.33265300  0.35922261
   0.00239000  0.66441000  0.00051000
   0.00266076  0.66133328  0.35890247
   0.16894000  0.83304000  0.06062000
   0.50222000  0.83318000  0.06077000
   0.66882000  0.66655000  0.00068000
   0.83620000  0.83206000  0.06086000
   0.66879000  0.99689000  0.12225000
   0.00127000  0.66476000  0.12046000
   0.50272000  0.83391000  0.18098000
   0.33662000  0.99784000  0.24172000
   0.00240000  0.33332000  0.24079000
   0.17185861  0.83044536  0.30401767
   0.83262397  0.83211844  0.30184949
   0.99962000  0.33431000  0.00199000
   0.00523210  0.33084212  0.36790387
   0.33922000  0.33072000  0.00000000
   0.33382391  0.33503729  0.36267203
   0.83779000  0.49999000  0.06135000
   0.33524000  0.67037000  0.00023000
   0.33110178  0.67161828  0.36692071
Direct configuration=     3
   0.00245000  0.99865000  0.12117000
   0.16980000  0.16587000  0.18099000
   0.33623000  0.99852000  0.12110000
   0.50164000  0.16594000  0.18135000
   0.83615000  0.16559000  0.18099000
   0.00260000  0.33284000  0.12101000
   0.16994000  0.49925000  0.18104000
   0.33651000  0.33287000  0.12086000
   0.50180000  0.49937000  0.18123000
   0.66965000  0.33304000  0.12103000
   0.83626000  0.49963000  0.18117000
   0.16899000  0.83329000  0.18177000
   0.33582000  0.66689000  0.12095000
   0.66914000  0.66722000  0.12117000
   0.83680000  0.83220000  0.18114000
   0.00172000  0.99944000  0.24151000
   0.16879472  0.16030236  0.30205909
   0.50492310  0.16322293  0.30253822
   0.66988000  0.99924000  0.24142000
   0.83345665  0.16415633  0.30265691
   0.16624058  0.49853725  0.30069604
   0.33524000  0.33246000  0.24183000
   0.50566403  0.50189453  0.30131497
   0.66902000  0.33317000  0.24123000
   0.83185649  0.50205842  0.30238688
   0.00318000  0.66598000  0.24177000
   0.33605000  0.66588000  0.24146000
   0.50579652  0.83477307  0.30156455
   0.66918000  0.66674000  0.24131000
   0.00271000  0.99869000  0.00034000
   0.99707359  0.99929176  0.36035527
   0.16929000  0.16694000  0.06071000
   0.33657000  0.00075000  0.00067000
   0.34306547  0.00142614  0.36053179
   0.50343000  0.16520000  0.06105000
   0.66948000  0.99883000  0.00053000
   0.66937959  0.99636545  0.36104521
   0.83570000  0.16556000  0.06094000
   0.17061000  0.49746000  0.06032000
   0.50215000  0.49992000  0.06086000
   0.66930000  0.33358000  0.00050000
   0.66747016  0.33266938  0.35959374
   0.00239000  0.66441000  0.00051000
   0.00288949  0.66278320  0.35875861
   0.16894000  0.83304000  0.06062000
   0.50222000  0.83318000  0.06077000
   0.66882000  0.66655000  0.00068000
   0.83620000  0.83206000  0.06086000
   0.66879000  0.99689000  0.12225000
   0.00127000  0.66476000  0.12046000
   0.50272000  0.83391000  0.18098000
   0.33662000  0.99784000  0.24172000
   0.00240000  0.33332000  0.24079000
   0.17181453  0.83006297  0.30418373
   0.83070830  0.82984983  0.30157215
   0.99962000  0.33431000  0.00199000
   0.00527407  0.33084216  0.36791731
   0.33922000  0.33072000  0.00000000
   0.33386541  0.33553264  0.36234525
   0.83779000  0.49999000  0.06135000
   0.33524000  0.67037000  0.00023000
   0.33176695  0.67186382  0.36661754
Direct configuration=     4
   0.00245000  0.99865000  0.12117000
   0.16980000  0.16587000  0.18099000
   0.33623000  0.99852000  0.12110000
   0.50164000  0.16594000  0.18135000
   0.83615000  0.16559000  0.18099000
   0.00260000  0.33284000  0.12101000
   0.16994000  0.49925000  0.18104000
   0.33651000  0.33287000  0.12086000
   0.50180000  0.49937000  0.18123000
   0.66965000  0.33304000  0.12103000
   0.83626000  0.49963000  0.18117000
   0.16899000  0.83329000  0.18177000
   0.33582000  0.66689000  0.12095000
   0.66914000  0.66722000  0.12117000
   0.83680000  0.83220000  0.18114000
   0.00172000  0.99944000  0.24151000
   0.16876662  0.16029903  0.30210326
   0.50482911  0.16331130  0.30250783
   0.66988000  0.99924000  0.24142000
   0.83356098  0.16422754  0.30264602
   0.16618039  0.49848714  0.30071479
   0.33524000  0.33246000  0.24183000
   0.50550870  0.50182108  0.30140429
   0.66902000  0.33317000  0.24123000
   0.83204627  0.50187182  0.30240160
   0.00318000  0.66598000  0.24177000
   0.33605000  0.66588000  0.24146000
   0.50554026  0.83473925  0.30157388
   0.66918000  0.66674000  0.24131000
   0.00271000  0.99869000  0.00034000
   0.99692980  0.99929757  0.36031069
   0.16929000  0.16694000  0.06071000
   0.33657000  0.00075000  0.00067000
   0.34315700  0.00160030  0.36053032
   0.50343000  0.16520000  0.06105000
   0.66948000  0.99883000  0.00053000
   0.66949623  0.99603776  0.36120670
   0.83570000  0.16556000  0.06094000
   0.17061000  0.49746000  0.06032000
   0.50215000  0.49992000  0.06086000
   0.66930000  0.33358000  0.00050000
   0.66747966  0.33266747  0.35955035
   0.00239000  0.66441000  0.00051000
   0.00286275  0.66261370  0.35877543
   0.16894000  0.83304000  0.06062000
   0.50222000  0.83318000  0.06077000
   0.66882000  0.66655000  0.00068000
   0.83620000  0.83206000  0.06086000
   0.66879000  0.99689000  0.12225000
   0.00127000  0.66476000  0.12046000
   0.50272000  0.83391000  0.18098000
   0.33662000  0.99784000  0.24172000
   0.00240000  0.33332000  0.24079000
   0.17181968  0.83010767  0.30416432
   0.83093225  0.83011504  0.30160457
   0.99962000  0.33431000  0.00199000
   0.00526916  0.33084216  0.36791574
   0.33922000  0.33072000  0.00000000
   0.33386056  0.33547473  0.36238345
   0.83779000  0.49999000  0.06135000
   0.33524000  0.67037000  0.00023000
   0.33168919  0.67183511  0.36665298
Direct configuration=     5
   0.00245000  0.99865000  0.12117000
   0.16980000  0.16587000  0.18099000
   0.33623000  0.99852000  0.12110000
   0.50164000  0.16594000  0.18135000
   0.83615000  0.16559000  0.18099000
   0.00260000  0.33284000  0.12101000
   0.16994000  0.49925000  0.18104000
   0.33651000  0.33287000  0.12086000
   0.50180000  0.49937000  0.18123000
   0.66965000  0.33304000  0.12103000
   0.83626000  0.49963000  0.18117000
   0.16899000  0.83329000  0.18177000
   0.33582000  0.66689000  0.12095000
   0.66914000  0.66722000  0.12117000
   0.83680000  0.83220000  0.18114000
   0.00172000  0.99944000  0.24151000
   0.16875632  0.16016388  0.30210865
   0.50416085  0.16383666  0.30241626
   0.66988000  0.99924000  0.24142000
   0.83416786  0.16435147  0.30259229
   0.16601700  0.49865027  0.30067236
   0.33524000  0.33246000  0.24183000
   0.50574572  0.50178965  0.30133740
   0.66902000  0.33317000  0.24123000
   0.83204205  0.50183688  0.30255884
   0.00318000  0.66598000  0.24177000
   0.33605000  0.66588000  0.24146000
   0.50509841  0.83428192  0.30142245
   0.66918000  0.66674000  0.24131000
   0.00271000  0.99869000  0.00034000
   0.99777624  0.99932575  0.36033764
   0.16929000  0.16694000  0.06071000
   0.33657000  0.00075000  0.00067000
   0.34239905  0.00095203  0.36040228
   0.50343000  0.16520000  0.06105000
   0.66948000  0.99883000  0.00053000
   0.66956081  0.99746902  0.36091700
   0.83570000  0.16556000  0.06094000
   0.17061000  0.49746000  0.06032000
   0.50215000  0.49992000  0.06086000
   0.66930000  0.33358000  0.00050000
   0.66733343  0.33295955  0.35961019
   0.00239000  0.66441000  0.00051000
   0.00273290  0.66322600  0.35864518
   0.16894000  0.83304000  0.06062000
   0.50222000  0.83318000  0.06077000
   0.66882000  0.66655000  0.00068000
   0.83620000  0.83206000  0.06086000
   0.66879000  0.99689000  0.12225000
   0.00127000  0.66476000  0.12046000
   0.50272000  0.83391000  0.18098000
   0.33662000  0.99784000  0.24172000
   0.00240000  0.33332000  0.24079000
   0.17191916  0.83018529  0.30414059
   0.83077800  0.82972239  0.30160792
   0.99962000  0.33431000  0.00199000
   0.00508763  0.33120179  0.36780851
   0.33922000  0.33072000  0.00000000
   0.33421869  0.33566395  0.36220047
   0.83779000  0.49999000  0.06135000
   0.33524000  0.67037000  0.00023000
   0.33244609  0.67169986  0.36641462
Direct configuration=     6
   0.00245000  0.99865000  0.12117000
   0.16980000  0.16587000  0.18099000
   0.33623000  0.99852000  0.12110000
   0.50164000  0.16594000  0.18135000
   0.83615000  0.16559000  0.18099000
   0.00260000  0.33284000  0.12101000
   0.16994000  0.49925000  0.18104000
   0.33651000  0.33287000  0.12086000
   0.50180000  0.49937000  0.18123000
   0.66965000  0.33304000  0.12103000
   0.83626000  0.49963000  0.18117000
   0.16899000  0.83329000  0.18177000
   0.33582000  0.66689000  0.12095000
   0.66914000  0.66722000  0.12117000
   0.83680000  0.83220000  0.18114000
   0.00172000  0.99944000  0.24151000
   0.16872959  0.15981302  0.30212264
   0.50242589  0.16520063  0.30217852
   0.66988000  0.99924000  0.24142000
   0.83574348  0.16467322  0.30245281
   0.16559280  0.49907380  0.30056220
   0.33524000  0.33246000  0.24183000
   0.50636108  0.50170807  0.30116372
   0.66902000  0.33317000  0.24123000
   0.83203109  0.50174616  0.30296708
   0.00318000  0.66598000  0.24177000
   0.33605000  0.66588000  0.24146000
   0.50395127  0.83309459  0.30102930
   0.66918000  0.66674000  0.24131000
   0.00271000  0.99869000  0.00034000
   0.99997382  0.99939892  0.36040761
   0.16929000  0.16694000  0.06071000
   0.33657000  0.00075000  0.00067000
   0.34043122 -0.00073103  0.36006987
   0.50343000  0.16520000  0.06105000
   0.66948000  0.99883000  0.00053000
   0.66972848  0.00118496  0.36016488
   0.83570000  0.16556000  0.06094000
   0.17061000  0.49746000  0.06032000
   0.50215000  0.49992000  0.06086000
   0.66930000  0.33358000  0.00050000
   0.66695378  0.33371786  0.35976554
   0.00239000  0.66441000  0.00051000
   0.00239576  0.66481570  0.35830700
   0.16894000  0.83304000  0.06062000
   0.50222000  0.83318000  0.06077000
   0.66882000  0.66655000  0.00068000
   0.83620000  0.83206000  0.06086000
   0.66879000  0.99689000  0.12225000
   0.00127000  0.66476000  0.12046000
   0.50272000  0.83391000  0.18098000
   0.33662000  0.99784000  0.24172000
   0.00240000  0.33332000  0.24079000
   0.17217741  0.83038681  0.30407897
   0.83037755  0.82870297  0.30161662
   0.99962000  0.33431000  0.00199000
   0.00461632  0.33213547  0.36753010
   0.33922000  0.33072000  0.00000000
   0.33514847  0.33615520  0.36172539
   0.83779000  0.49999000  0.06135000
   0.33524000  0.67037000  0.00023000
   0.33441121  0.67134871  0.36579576
Direct configuration=     7
   0.00245000  0.99865000  0.12117000
   0.16980000  0.16587000  0.18099000
   0.33623000  0.99852000  0.12110000
   0.50164000  0.16594000  0.18135000
   0.83615000  0.16559000  0.18099000
   0.00260000  0.33284000  0.12101000
   0.16994000  0.49925000  0.18104000
   0.33651000  0.33287000  0.12086000
   0.50180000  0.49937000  0.18123000
   0.66965000  0.33304000  0.12103000
   0.83626000  0.49963000  0.18117000
   0.16899000  0.83329000  0.18177000
   0.33582000  0.66689000  0.12095000
   0.66914000  0.66722000  0.12117000
   0.83680000  0.83220000  0.18114000
   0.00172000  0.99944000  0.24151000
   0.16873671  0.15990645  0.30211892
   0.50288791  0.16483741  0.30224183
   0.66988000  0.99924000  0.24142000
   0.83532390  0.16458754  0.30248995
   0.16570576  0.49896102  0.30059153
   0.33524000  0.33246000  0.24183000
   0.50619721  0.50172979  0.30120997
   0.66902000  0.33317000  0.24123000
   0.83203401  0.50177032  0.30285837
   0.00318000  0.66598000  0.24177000
   0.33605000  0.66588000  0.24146000
   0.50425675  0.83341077  0.30113399
   0.66918000  0.66674000  0.24131000
   0.00271000  0.99869000  0.00034000
   0.99938861  0.99937943  0.36038898
   0.16929000  0.16694000  0.06071000
   0.33657000  0.00075000  0.00067000
   0.34095525 -0.00028284  0.36015839
   0.50343000  0.16520000  0.06105000
   0.66948000  0.99883000  0.00053000
   0.66968383  0.00019542  0.36036517
   0.83570000  0.16556000  0.06094000
   0.17061000  0.49746000  0.06032000
   0.50215000  0.49992000  0.06086000
   0.66930000  0.33358000  0.00050000
   0.66705487  0.33351593  0.35972417
   0.00239000  0.66441000  0.00051000
   0.00248554  0.66439237  0.35839706
   0.16894000  0.83304000  0.06062000
   0.50222000  0.83318000  0.06077000
   0.66882000  0.66655000  0.00068000
   0.83620000  0.83206000  0.06086000
   0.66879000  0.99689000  0.12225000
   0.00127000  0.66476000  0.12046000
   0.50272000  0.83391000  0.18098000
   0.33662000  0.99784000  0.24172000
   0.00240000  0.33332000  0.24079000
   0.17210864  0.83033314  0.30409538
   0.83048419  0.82897443  0.30161430
   0.99962000  0.33431000  0.00199000
   0.00474183  0.33188684  0.36760424
   0.33922000  0.33072000  0.00000000
   0.33490088  0.33602438  0.36185190
   0.83779000  0.49999000  0.06135000
   0.33524000  0.67037000  0.00023000
   0.33388791  0.67144222  0.36596056
Direct configuration=     8
   0.00245000  0.99865000  0.12117000
   0.16980000  0.16587000  0.18099000
   0.33623000  0.99852000  0.12110000
   0.50164000  0.16594000  0.18135000
   0.83615000  0.16559000  0.18099000
   0.00260000  0.33284000  0.12101000
   0.16994000  0.49925000  0.18104000
   0.33651000  0.33287000  0.12086000
   0.50180000  0.49937000  0.18123000
   0.66965000  0.33304000  0.12103000
   0.83626000  0.49963000  0.18117000
   0.16899000  0.83329000  0.18177000
   0.33582000  0.66689000  0.12095000
   0.66914000  0.66722000  0.12117000
   0.83680000  0.83220000  0.18114000
   0.00172000  0.99944000  0.24151000
   0.16869173  0.16048044  0.30216503
   0.50309718  0.16454737  0.30209307
   0.66988000  0.99924000  0.24142000
   0.83530653  0.16487889  0.30235568
   0.16577404  0.49895028  0.30061778
   0.33524000  0.33246000  0.24183000
   0.50610520  0.50167906  0.30129074
   0.66902000  0.33317000  0.24123000
   0.83211159  0.50161664  0.30283201
   0.00318000  0.66598000  0.24177000
   0.33605000  0.66588000  0.24146000
   0.50405947  0.83407626  0.30099990
   0.66918000  0.66674000  0.24131000
   0.00271000  0.99869000  0.00034000
   0.00055373  0.99959615  0.36040475
   0.16929000  0.16694000  0.06071000
   0.33657000  0.00075000  0.00067000
   0.34013223 -0.00076777  0.35997789
   0.50343000  0.16520000  0.06105000
   0.66948000  0.99883000  0.00053000
   0.66973882  0.00187142  0.36014217
   0.83570000  0.16556000  0.06094000
   0.17061000  0.49746000  0.06032000
   0.50215000  0.49992000  0.06086000
   0.66930000  0.33358000  0.00050000
   0.66700685  0.33366197  0.35957709
   0.00239000  0.66441000  0.00051000
   0.00227699  0.66488570  0.35836937
   0.16894000  0.83304000  0.06062000
   0.50222000  0.83318000  0.06077000
   0.66882000  0.66655000  0.00068000
   0.83620000  0.83206000  0.06086000
   0.66879000  0.99689000  0.12225000
   0.00127000  0.66476000  0.12046000
   0.50272000  0.83391000  0.18098000
   0.33662000  0.99784000  0.24172000
   0.00240000  0.33332000  0.24079000
   0.17205337  0.83032457  0.30392744
   0.83045233  0.82941847  0.30171751
   0.99962000  0.33431000  0.00199000
   0.00504398  0.33233720  0.36755609
   0.33922000  0.33072000  0.00000000
   0.33464516  0.33648161  0.36174353
   0.83779000  0.49999000  0.06135000
   0.33524000  0.67037000  0.00023000
   0.33450896  0.67061285  0.36576104
Direct configuration=     9
   0.00245000  0.99865000  0.12117000
   0.16980000  0.16587000  0.18099000
   0.33623000  0.99852000  0.12110000
   0.50164000  0.16594000  0.18135000
   0.83615000  0.16559000  0.18099000
   0.00260000  0.33284000  0.12101000
   0.16994000  0.49925000  0.18104000
   0.33651000  0.33287000  0.12086000
   0.50180000  0.49937000  0.18123000
   0.66965000  0.33304000  0.12103000
   0.83626000  0.49963000  0.18117000
   0.16899000  0.83329000  0.18177000
   0.33582000  0.66689000  0.12095000
   0.66914000  0.66722000  0.12117000
   0.83680000  0.83220000  0.18114000
   0.00172000  0.99944000  0.24151000
   0.16861332  0.16148111  0.30224542
   0.50346203  0.16404172  0.30183373
   0.66988000  0.99924000  0.24142000
   0.83527624  0.16538682  0.30212158
   0.16589308  0.49893157  0.30066355
   0.33524000  0.33246000  0.24183000
   0.50594479  0.50159060  0.30143154
   0.66902000  0.33317000  0.24123000
   0.83224683  0.50134872  0.30278606
   0.00318000  0.66598000  0.24177000
   0.33605000  0.66588000  0.24146000
   0.50371554  0.83523647  0.30076612
   0.66918000  0.66674000  0.24131000
   0.00271000  0.99869000  0.00034000
   0.00258500  0.99997397  0.36043224
   0.16929000  0.16694000  0.06071000
   0.33657000  0.00075000  0.00067000
   0.33869741 -0.00161318  0.35966321
   0.50343000  0.16520000  0.06105000
   0.66948000  0.99883000  0.00053000
   0.66983470  0.00479333  0.35975340
   0.83570000  0.16556000  0.06094000
   0.17061000  0.49746000  0.06032000
   0.50215000  0.49992000  0.06086000
   0.66930000  0.33358000  0.00050000
   0.66692312  0.33391658  0.35932068
   0.00239000  0.66441000  0.00051000
   0.00191342  0.66574577  0.35832109
   0.16894000  0.83304000  0.06062000
   0.50222000  0.83318000  0.06077000
   0.66882000  0.66655000  0.00068000
   0.83620000  0.83206000  0.06086000
   0.66879000  0.99689000  0.12225000
   0.00127000  0.66476000  0.12046000
   0.50272000  0.83391000  0.18098000
   0.33662000  0.99784000  0.24172000
   0.00240000  0.33332000  0.24079000
   0.17195703  0.83030962  0.30363466
   0.83039677  0.83019259  0.30189743
   0.99962000  0.33431000  0.00199000
   0.00557075  0.33312236  0.36747214
   0.33922000  0.33072000  0.00000000
   0.33419935  0.33727873  0.36155459
   0.83779000  0.49999000  0.06135000
   0.33524000  0.67037000  0.00023000
   0.33559171  0.66916694  0.36541319
Direct configuration=    10
   0.00245000  0.99865000  0.12117000
   0.16980000  0.16587000  0.18099000
   0.33623000  0.99852000  0.12110000
   0.50164000  0.16594000  0.18135000
   0.83615000  0.16559000  0.18099000
   0.00260000  0.33284000  0.12101000
   0.16994000  0.49925000  0.18104000
   0.33651000  0.33287000  0.12086000
   0.50180000  0.49937000  0.18123000
   0.66965000  0.33304000  0.12103000
   0.83626000  0.49963000  0.18117000
   0.16899000  0.83329000  0.18177000
   0.33582000  0.66689000  0.12095000
   0.66914000  0.66722000  0.12117000
   0.83680000  0.83220000  0.18114000
   0.00172000  0.99944000  0.24151000
   0.16865390  0.16096324  0.30220381
   0.50327321  0.16430341  0.30196795
   0.66988000  0.99924000  0.24142000
   0.83529191  0.16512396  0.30224273
   0.16583147  0.49894125  0.30063986
   0.33524000  0.33246000  0.24183000
   0.50602780  0.50163638  0.30135867
   0.66902000  0.33317000  0.24123000
   0.83217684  0.50148737  0.30280984
   0.00318000  0.66598000  0.24177000
   0.33605000  0.66588000  0.24146000
   0.50389353  0.83463604  0.30088710
   0.66918000  0.66674000  0.24131000
   0.00271000  0.99869000  0.00034000
   0.00153378  0.99977844  0.36041801
   0.16929000  0.16694000  0.06071000
   0.33657000  0.00075000  0.00067000
   0.33943996 -0.00117566  0.35982606
   0.50343000  0.16520000  0.06105000
   0.66948000  0.99883000  0.00053000
   0.66978508  0.00328118  0.35995460
   0.83570000  0.16556000  0.06094000
   0.17061000  0.49746000  0.06032000
   0.50215000  0.49992000  0.06086000
   0.66930000  0.33358000  0.00050000
   0.66696645  0.33378482  0.35945338
   0.00239000  0.66441000  0.00051000
   0.00210158  0.66530067  0.35834608
   0.16894000  0.83304000  0.06062000
   0.50222000  0.83318000  0.06077000
   0.66882000  0.66655000  0.00068000
   0.83620000  0.83206000  0.06086000
   0.66879000  0.99689000  0.12225000
   0.00127000  0.66476000  0.12046000
   0.50272000  0.83391000  0.18098000
   0.33662000  0.99784000  0.24172000
   0.00240000  0.33332000  0.24079000
   0.17200689  0.83031736  0.30378618
   0.83042552  0.82979196  0.30180432
   0.99962000  0.33431000  0.00199000
   0.00529814  0.33271603  0.36751558
   0.33922000  0.33072000  0.00000000
   0.33443007  0.33686620  0.36165237
   0.83779000  0.49999000  0.06135000
   0.33524000  0.67037000  0.00023000
   0.33503137  0.66991523  0.36559321
Direct configuration=    11
   0.00245000  0.99865000  0.12117000
   0.16980000  0.16587000  0.18099000
   0.33623000  0.99852000  0.12110000
   0.50164000  0.16594000  0.18135000
   0.83615000  0.16559000  0.18099000
   0.00260000  0.33284000  0.12101000
   0.16994000  0.49925000  0.18104000
   0.33651000  0.33287000  0.12086000
   0.50180000  0.49937000  0.18123000
   0.66965000  0.33304000  0.12103000
   0.83626000  0.49963000  0.18117000
   0.16899000  0.83329000  0.18177000
   0.33582000  0.66689000  0.12095000
   0.66914000  0.66722000  0.12117000
   0.83680000  0.83220000  0.18114000
   0.00172000  0.99944000  0.24151000
   0.16870355  0.16143878  0.30204235
   0.50303594  0.16468469  0.30196599
   0.66988000  0.99924000  0.24142000
   0.83560259  0.16541770  0.30218793
   0.16577359  0.49908818  0.30058181
   0.33524000  0.33246000  0.24183000
   0.50602305  0.50146088  0.30121767
   0.66902000  0.33317000  0.24123000
   0.83229247  0.50184231  0.30265293
   0.00318000  0.66598000  0.24177000
   0.33605000  0.66588000  0.24146000
   0.50399185  0.83493711  0.30095911
   0.66918000  0.66674000  0.24131000
   0.00271000  0.99869000  0.00034000
   0.00268983  0.00017922  0.36042198
   0.16929000  0.16694000  0.06071000
   0.33657000  0.00075000  0.00067000
   0.33877236 -0.00120623  0.35979247
   0.50343000  0.16520000  0.06105000
   0.66948000  0.99883000  0.00053000
   0.66977367  0.00397014  0.36008505
   0.83570000  0.16556000  0.06094000
   0.17061000  0.49746000  0.06032000
   0.50215000  0.49992000  0.06086000
   0.66930000  0.33358000  0.00050000
   0.66706827  0.33379787  0.35932362
   0.00239000  0.66441000  0.00051000
   0.00198381  0.66537517  0.35836492
   0.16894000  0.83304000  0.06062000
   0.50222000  0.83318000  0.06077000
   0.66882000  0.66655000  0.00068000
   0.83620000  0.83206000  0.06086000
   0.66879000  0.99689000  0.12225000
   0.00127000  0.66476000  0.12046000
   0.50272000  0.83391000  0.18098000
   0.33662000  0.99784000  0.24172000
   0.00240000  0.33332000  0.24079000
   0.17199174  0.83027101  0.30362776
   0.83036883  0.83026791  0.30188769
   0.99962000  0.33431000  0.00199000
   0.00542936  0.33292677  0.36759027
   0.33922000  0.33072000  0.00000000
   0.33436491  0.33679724  0.36161960
   0.83779000  0.49999000  0.06135000
   0.33524000  0.67037000  0.00023000
   0.33507269  0.66957010  0.36560817
Direct configuration=    12
   0.00245000  0.99865000  0.12117000
   0.16980000  0.16587000  0.18099000
   0.33623000  0.99852000  0.12110000
   0.50164000  0.16594000  0.18135000
   0.83615000  0.16559000  0.18099000
   0.00260000  0.33284000  0.12101000
   0.16994000  0.49925000  0.18104000
   0.33651000  0.33287000  0.12086000
   0.50180000  0.49937000  0.18123000
   0.66965000  0.33304000  0.12103000
   0.83626000  0.49963000  0.18117000
   0.16899000  0.83329000  0.18177000
   0.33582000  0.66689000  0.12095000
   0.66914000  0.66722000  0.12117000
   0.83680000  0.83220000  0.18114000
   0.00172000  0.99944000  0.24151000
   0.16883472  0.16269512  0.30161577
   0.50240909  0.16569200  0.30196081
   0.66988000  0.99924000  0.24142000
   0.83642339  0.16619373  0.30204317
   0.16562068  0.49947636  0.30042843
   0.33524000  0.33246000  0.24183000
   0.50601049  0.50099722  0.30084516
   0.66902000  0.33317000  0.24123000
   0.83259795  0.50278001  0.30223840
   0.00318000  0.66598000  0.24177000
   0.33605000  0.66588000  0.24146000
   0.50425161  0.83573250  0.30114936
   0.66918000  0.66674000  0.24131000
   0.00271000  0.99869000  0.00034000
   0.00574400  0.00123804  0.36043247
   0.16929000  0.16694000  0.06071000
   0.33657000  0.00075000  0.00067000
   0.33700864 -0.00128700  0.35970371
   0.50343000  0.16520000  0.06105000
   0.66948000  0.99883000  0.00053000
   0.66974352  0.00579031  0.36042967
   0.83570000  0.16556000  0.06094000
   0.17061000  0.49746000  0.06032000
   0.50215000  0.49992000  0.06086000
   0.66930000  0.33358000  0.00050000
   0.66733726  0.33383236  0.35898081
   0.00239000  0.66441000  0.00051000
   0.00167267  0.66557200  0.35841471
   0.16894000  0.83304000  0.06062000
   0.50222000  0.83318000  0.06077000
   0.66882000  0.66655000  0.00068000
   0.83620000  0.83206000  0.06086000
   0.66879000  0.99689000  0.12225000
   0.00127000  0.66476000  0.12046000
   0.50272000  0.83391000  0.18098000
   0.33662000  0.99784000  0.24172000
   0.00240000  0.33332000  0.24079000
   0.17195171  0.83014855  0.30320924
   0.83021908  0.83152530  0.30210794
   0.99962000  0.33431000  0.00199000
   0.00577603  0.33348354  0.36778759
   0.33922000  0.33072000  0.00000000
   0.33419277  0.33661504  0.36153301
   0.83779000  0.49999000  0.06135000
   0.33524000  0.67037000  0.00023000
   0.33518187  0.66865830  0.36564769
Direct configuration=    13
   0.00245000  0.99865000  0.12117000
   0.16980000  0.16587000  0.18099000
   0.33623000  0.99852000  0.12110000
   0.50164000  0.16594000  0.18135000
   0.83615000  0.16559000  0.18099000
   0.00260000  0.33284000  0.12101000
   0.16994000  0.49925000  0.18104000
   0.33651000  0.33287000  0.12086000
   0.50180000  0.49937000  0.18123000
   0.66965000  0.33304000  0.12103000
   0.83626000  0.49963000  0.18117000
   0.16899000  0.83329000  0.18177000
   0.33582000  0.66689000  0.12095000
   0.66914000  0.66722000  0.12117000
   0.83680000  0.83220000  0.18114000
   0.00172000  0.99944000  0.24151000
   0.16876650  0.16204168  0.30183764
   0.50273512  0.16516808  0.30196350
   0.66988000  0.99924000  0.24142000
   0.83599648  0.16579010  0.30211846
   0.16570021  0.49927446  0.30050820
   0.33524000  0.33246000  0.24183000
   0.50601702  0.50123838  0.30103891
   0.66902000  0.33317000  0.24123000
   0.83243906  0.50229229  0.30245401
   0.00318000  0.66598000  0.24177000
   0.33605000  0.66588000  0.24146000
   0.50411650  0.83531880  0.30105041
   0.66918000  0.66674000  0.24131000
   0.00271000  0.99869000  0.00034000
   0.00415548  0.00068733  0.36042702
   0.16929000  0.16694000  0.06071000
   0.33657000  0.00075000  0.00067000
   0.33792598 -0.00124499  0.35974988
   0.50343000  0.16520000  0.06105000
   0.66948000  0.99883000  0.00053000
   0.66975920  0.00484362  0.36025043
   0.83570000  0.16556000  0.06094000
   0.17061000  0.49746000  0.06032000
   0.50215000  0.49992000  0.06086000
   0.66930000  0.33358000  0.00050000
   0.66719736  0.33381442  0.35915911
   0.00239000  0.66441000  0.00051000
   0.00183449  0.66546963  0.35838881
   0.16894000  0.83304000  0.06062000
   0.50222000  0.83318000  0.06077000
   0.66882000  0.66655000  0.00068000
   0.83620000  0.83206000  0.06086000
   0.66879000  0.99689000  0.12225000
   0.00127000  0.66476000  0.12046000
   0.50272000  0.83391000  0.18098000
   0.33662000  0.99784000  0.24172000
   0.00240000  0.33332000  0.24079000
   0.17197253  0.83021224  0.30342692
   0.83029697  0.83087131  0.30199338
   0.99962000  0.33431000  0.00199000
   0.00559572  0.33319396  0.36768496
   0.33922000  0.33072000  0.00000000
   0.33428230  0.33670980  0.36157804
   0.83779000  0.49999000  0.06135000
   0.33524000  0.67037000  0.00023000
   0.33512508  0.66913254  0.36562714
Direct configuration=    14
   0.00245000  0.99865000  0.12117000
   0.16980000  0.16587000  0.18099000
   0.33623000  0.99852000  0.12110000
   0.50164000  0.16594000  0.18135000
   0.83615000  0.16559000  0.18099000
   0.00260000  0.33284000  0.12101000
   0.16994000  0.49925000  0.18104000
   0.33651000  0.33287000  0.12086000
   0.50180000  0.49937000  0.18123000
   0.66965000  0.33304000  0.12103000
   0.83626000  0.49963000  0.18117000
   0.16899000  0.83329000  0.18177000
   0.33582000  0.66689000  0.12095000
   0.66914000  0.66722000  0.12117000
   0.83680000  0.83220000  0.18114000
   0.00172000  0.99944000  0.24151000
   0.16875454  0.16192719  0.30187651
   0.50279225  0.16507628  0.30196397
   0.66988000  0.99924000  0.24142000
   0.83592168  0.16571938  0.30213166
   0.16571415  0.49923909  0.30052218
   0.33524000  0.33246000  0.24183000
   0.50601817  0.50128063  0.30107286
   0.66902000  0.33317000  0.24123000
   0.83241122  0.50220684  0.30249178
   0.00318000  0.66598000  0.24177000
   0.33605000  0.66588000  0.24146000
   0.50409283  0.83524632  0.30103307
   0.66918000  0.66674000  0.24131000
   0.00271000  0.99869000  0.00034000
   0.00387715  0.00059084  0.36042606
   0.16929000  0.16694000  0.06071000
   0.33657000  0.00075000  0.00067000
   0.33808671 -0.00123763  0.35975796
   0.50343000  0.16520000  0.06105000
   0.66948000  0.99883000  0.00053000
   0.66976195  0.00467774  0.36021902
   0.83570000  0.16556000  0.06094000
   0.17061000  0.49746000  0.06032000
   0.50215000  0.49992000  0.06086000
   0.66930000  0.33358000  0.00050000
   0.66717284  0.33381128  0.35919035
   0.00239000  0.66441000  0.00051000
   0.00186285  0.66545169  0.35838428
   0.16894000  0.83304000  0.06062000
   0.50222000  0.83318000  0.06077000
   0.66882000  0.66655000  0.00068000
   0.83620000  0.83206000  0.06086000
   0.66879000  0.99689000  0.12225000
   0.00127000  0.66476000  0.12046000
   0.50272000  0.83391000  0.18098000
   0.33662000  0.99784000  0.24172000
   0.00240000  0.33332000  0.24079000
   0.17197618  0.83022340  0.30346506
   0.83031062  0.83075672  0.30197331
   0.99962000  0.33431000  0.00199000
   0.00556413  0.33314322  0.36766698
   0.33922000  0.33072000  0.00000000
   0.33429799  0.33672641  0.36158594
   0.83779000  0.49999000  0.06135000
   0.33524000  0.67037000  0.00023000
   0.33511513  0.66921563  0.36562353
Direct configuration=    15
   0.00245000  0.99865000  0.12117000
   0.16980000  0.16587000  0.18099000
   0.33623000  0.99852000  0.12110000
   0.50164000  0.16594000  0.18135000
   0.83615000  0.16559000  0.18099000
   0.00260000  0.33284000  0.12101000
   0.16994000  0.49925000  0.18104000
   0.33651000  0.33287000  0.12086000
   0.50180000  0.49937000  0.18123000
   0.66965000  0.33304000  0.12103000
   0.83626000  0.49963000  0.18117000
   0.16899000  0.83329000  0.18177000
   0.33582000  0.66689000  0.12095000
   0.66914000  0.66722000  0.12117000
   0.83680000  0.83220000  0.18114000
   0.00172000  0.99944000  0.24151000
   0.16873561  0.16206481  0.30177336
   0.50294723  0.16480352  0.30202999
   0.66988000  0.99924000  0.24142000
   0.83597326  0.16555779  0.30222855
   0.16568693  0.49919557  0.30055615
   0.33524000  0.33246000  0.24183000
   0.50595019  0.50134078  0.30104814
   0.66902000  0.33317000  0.24123000
   0.83256977  0.50238583  0.30255120
   0.00318000  0.66598000  0.24177000
   0.33605000  0.66588000  0.24146000
   0.50417647  0.83523933  0.30121767
   0.66918000  0.66674000  0.24131000
   0.00271000  0.99869000  0.00034000
   0.00545740  0.00118221  0.36042347
   0.16929000  0.16694000  0.06071000
   0.33657000  0.00075000  0.00067000
   0.33729357 -0.00107314  0.35976164
   0.50343000  0.16520000  0.06105000
   0.66948000  0.99883000  0.00053000
   0.66960649  0.00496561  0.36026987
   0.83570000  0.16556000  0.06094000
   0.17061000  0.49746000  0.06032000
   0.50215000  0.49992000  0.06086000
   0.66930000  0.33358000  0.00050000
   0.66739519  0.33398656  0.35909799
   0.00239000  0.66441000  0.00051000
   0.00171136  0.66551320  0.35835292
   0.16894000  0.83304000  0.06062000
   0.50222000  0.83318000  0.06077000
   0.66882000  0.66655000  0.00068000
   0.83620000  0.83206000  0.06086000
   0.66879000  0.99689000  0.12225000
   0.00127000  0.66476000  0.12046000
   0.50272000  0.83391000  0.18098000
   0.33662000  0.99784000  0.24172000
   0.00240000  0.33332000  0.24079000
   0.17200845  0.83032067  0.30345865
   0.83031124  0.83103077  0.30209866
   0.99962000  0.33431000  0.00199000
   0.00551795  0.33334943  0.36773250
   0.33922000  0.33072000  0.00000000
   0.33434263  0.33670380  0.36156484
   0.83779000  0.49999000  0.06135000
   0.33524000  0.67037000  0.00023000
   0.33489786  0.66928265  0.36569153
Direct configuration=    16
   0.00245000  0.99865000  0.12117000
   0.16980000  0.16587000  0.18099000
   0.33623000  0.99852000  0.12110000
   0.50164000  0.16594000  0.18135000
   0.83615000  0.16559000  0.18099000
   0.00260000  0.33284000  0.12101000
   0.16994000  0.49925000  0.18104000
   0.33651000  0.33287000  0.12086000
   0.50180000  0.49937000  0.18123000
   0.66965000  0.33304000  0.12103000
   0.83626000  0.49963000  0.18117000
   0.16899000  0.83329000  0.18177000
   0.33582000  0.66689000  0.12095000
   0.66914000  0.66722000  0.12117000
   0.83680000  0.83220000  0.18114000
   0.00172000  0.99944000  0.24151000
   0.16868449  0.16243648  0.30149479
   0.50336577  0.16406693  0.30220825
   0.66988000  0.99924000  0.24142000
   0.83611255  0.16512140  0.30249021
   0.16561343  0.49907804  0.30064790
   0.33524000  0.33246000  0.24183000
   0.50576659  0.50150323  0.30098140
   0.66902000  0.33317000  0.24123000
   0.83299794  0.50286919  0.30271164
   0.00318000  0.66598000  0.24177000
   0.33605000  0.66588000  0.24146000
   0.50440235  0.83522045  0.30171617
   0.66918000  0.66674000  0.24131000
   0.00271000  0.99869000  0.00034000
   0.00972497  0.00277925  0.36041649
   0.16929000  0.16694000  0.06071000
   0.33657000  0.00075000  0.00067000
   0.33515165 -0.00062894  0.35977155
   0.50343000  0.16520000  0.06105000
   0.66948000  0.99883000  0.00053000
   0.66918665  0.00574300  0.36040717
   0.83570000  0.16556000  0.06094000
   0.17061000  0.49746000  0.06032000
   0.50215000  0.49992000  0.06086000
   0.66930000  0.33358000  0.00050000
   0.66799564  0.33445990  0.35884858
   0.00239000  0.66441000  0.00051000
   0.00130227  0.66567929  0.35826824
   0.16894000  0.83304000  0.06062000
   0.50222000  0.83318000  0.06077000
   0.66882000  0.66655000  0.00068000
   0.83620000  0.83206000  0.06086000
   0.66879000  0.99689000  0.12225000
   0.00127000  0.66476000  0.12046000
   0.50272000  0.83391000  0.18098000
   0.33662000  0.99784000  0.24172000
   0.00240000  0.33332000  0.24079000
   0.17209559  0.83058336  0.30344135
   0.83031291  0.83177083  0.30243720
   0.99962000  0.33431000  0.00199000
   0.00539323  0.33390632  0.36790944
   0.33922000  0.33072000  0.00000000
   0.33446318  0.33664275  0.36150785
   0.83779000  0.49999000  0.06135000
   0.33524000  0.67037000  0.00023000
   0.33431111  0.66946363  0.36587515
Direct configuration=    17
   0.00245000  0.99865000  0.12117000
   0.16980000  0.16587000  0.18099000
   0.33623000  0.99852000  0.12110000
   0.50164000  0.16594000  0.18135000
   0.83615000  0.16559000  0.18099000
   0.00260000  0.33284000  0.12101000
   0.16994000  0.49925000  0.18104000
   0.33651000  0.33287000  0.12086000
   0.50180000  0.49937000  0.18123000
   0.66965000  0.33304000  0.12103000
   0.83626000  0.49963000  0.18117000
   0.16899000  0.83329000  0.18177000
   0.33582000  0.66689000  0.12095000
   0.66914000  0.66722000  0.12117000
   0.83680000  0.83220000  0.18114000
   0.00172000  0.99944000  0.24151000
   0.16871416  0.16222076  0.30165648
   0.50312284  0.16449446  0.30210478
   0.66988000  0.99924000  0.24142000
   0.83603170  0.16537469  0.30233834
   0.16565609  0.49914626  0.30059465
   0.33524000  0.33246000  0.24183000
   0.50587315  0.50140894  0.30102014
   0.66902000  0.33317000  0.24123000
   0.83274942  0.50258864  0.30261851
   0.00318000  0.66598000  0.24177000
   0.33605000  0.66588000  0.24146000
   0.50427124  0.83523141  0.30142683
   0.66918000  0.66674000  0.24131000
   0.00271000  0.99869000  0.00034000
   0.00724799  0.00185230  0.36042054
   0.16929000  0.16694000  0.06071000
   0.33657000  0.00075000  0.00067000
   0.33639487 -0.00088677  0.35976580
   0.50343000  0.16520000  0.06105000
   0.66948000  0.99883000  0.00053000
   0.66943033  0.00529179  0.36032748
   0.83570000  0.16556000  0.06094000
   0.17061000  0.49746000  0.06032000
   0.50215000  0.49992000  0.06086000
   0.66930000  0.33358000  0.00050000
   0.66764712  0.33418516  0.35899334
   0.00239000  0.66441000  0.00051000
   0.00153972  0.66558288  0.35831739
   0.16894000  0.83304000  0.06062000
   0.50222000  0.83318000  0.06077000
   0.66882000  0.66655000  0.00068000
   0.83620000  0.83206000  0.06086000
   0.66879000  0.99689000  0.12225000
   0.00127000  0.66476000  0.12046000
   0.50272000  0.83391000  0.18098000
   0.33662000  0.99784000  0.24172000
   0.00240000  0.33332000  0.24079000
   0.17204501  0.83043089  0.30345140
   0.83031194  0.83134128  0.30224071
   0.99962000  0.33431000  0.00199000
   0.00546562  0.33358309  0.36780674
   0.33922000  0.33072000  0.00000000
   0.33439321  0.33667819  0.36154093
   0.83779000  0.49999000  0.06135000
   0.33524000  0.67037000  0.00023000
   0.33465167  0.66935858  0.36576857
Direct configuration=    18
   0.00245000  0.99865000  0.12117000
   0.16980000  0.16587000  0.18099000
   0.33623000  0.99852000  0.12110000
   0.50164000  0.16594000  0.18135000
   0.83615000  0.16559000  0.18099000
   0.00260000  0.33284000  0.12101000
   0.16994000  0.49925000  0.18104000
   0.33651000  0.33287000  0.12086000
   0.50180000  0.49937000  0.18123000
   0.66965000  0.33304000  0.12103000
   0.83626000  0.49963000  0.18117000
   0.16899000  0.83329000  0.18177000
   0.33582000  0.66689000  0.12095000
   0.66914000  0.66722000  0.12117000
   0.83680000  0.83220000  0.18114000
   0.00172000  0.99944000  0.24151000
   0.16879070  0.16259198  0.30160606
   0.50314310  0.16448831  0.30208818
   0.66988000  0.99924000  0.24142000
   0.83607226  0.16532718  0.30235702
   0.16567334  0.49910793  0.30060976
   0.33524000  0.33246000  0.24183000
   0.50583777  0.50150339  0.30106584
   0.66902000  0.33317000  0.24123000
   0.83274680  0.50256584  0.30262589
   0.00318000  0.66598000  0.24177000
   0.33605000  0.66588000  0.24146000
   0.50427855  0.83518575  0.30146159
   0.66918000  0.66674000  0.24131000
   0.00271000  0.99869000  0.00034000
   0.00849078  0.00219743  0.36051368
   0.16929000  0.16694000  0.06071000
   0.33657000  0.00075000  0.00067000
   0.33581480 -0.00079604  0.35982034
   0.50343000  0.16520000  0.06105000
   0.66948000  0.99883000  0.00053000
   0.66931207  0.00511547  0.36038612
   0.83570000  0.16556000  0.06094000
   0.17061000  0.49746000  0.06032000
   0.50215000  0.49992000  0.06086000
   0.66930000  0.33358000  0.00050000
   0.66772217  0.33432111  0.35899203
   0.00239000  0.66441000  0.00051000
   0.00138129  0.66573270  0.35833382
   0.16894000  0.83304000  0.06062000
   0.50222000  0.83318000  0.06077000
   0.66882000  0.66655000  0.00068000
   0.83620000  0.83206000  0.06086000
   0.66879000  0.99689000  0.12225000
   0.00127000  0.66476000  0.12046000
   0.50272000  0.83391000  0.18098000
   0.33662000  0.99784000  0.24172000
   0.00240000  0.33332000  0.24079000
   0.17207420  0.83034805  0.30342530
   0.83033986  0.83138759  0.30233988
   0.99962000  0.33431000  0.00199000
   0.00546350  0.33362829  0.36782166
   0.33922000  0.33072000  0.00000000
   0.33448297  0.33668815  0.36153219
   0.83779000  0.49999000  0.06135000
   0.33524000  0.67037000  0.00023000
   0.33443813  0.66944997  0.36581794
Direct configuration=    19
   0.00245000  0.99865000  0.12117000
   0.16980000  0.16587000  0.18099000
   0.33623000  0.99852000  0.12110000
   0.50164000  0.16594000  0.18135000
   0.83615000  0.16559000  0.18099000
   0.00260000  0.33284000  0.12101000
   0.16994000  0.49925000  0.18104000
   0.33651000  0.33287000  0.12086000
   0.50180000  0.49937000  0.18123000
   0.66965000  0.33304000  0.12103000
   0.83626000  0.49963000  0.18117000
   0.16899000  0.83329000  0.18177000
   0.33582000  0.66689000  0.12095000
   0.66914000  0.66722000  0.12117000
   0.83680000  0.83220000  0.18114000
   0.00172000  0.99944000  0.24151000
   0.16902030  0.16370563  0.30145480
   0.50320387  0.16446984  0.30203839
   0.66988000  0.99924000  0.24142000
   0.83619392  0.16518465  0.30241307
   0.16572509  0.49899295  0.30065510
   0.33524000  0.33246000  0.24183000
   0.50573162  0.50178674  0.30120295
   0.66902000  0.33317000  0.24123000
   0.83273893  0.50249746  0.30264803
   0.00318000  0.66598000  0.24177000
   0.33605000  0.66588000  0.24146000
   0.50430046  0.83504879  0.30156587
   0.66918000  0.66674000  0.24131000
   0.00271000  0.99869000  0.00034000
   0.01221917  0.00323283  0.36079309
   0.16929000  0.16694000  0.06071000
   0.33657000  0.00075000  0.00067000
   0.33407461 -0.00052387  0.35998396
   0.50343000  0.16520000  0.06105000
   0.66948000  0.99883000  0.00053000
   0.66895729  0.00458651  0.36056204
   0.83570000  0.16556000  0.06094000
   0.17061000  0.49746000  0.06032000
   0.50215000  0.49992000  0.06086000
   0.66930000  0.33358000  0.00050000
   0.66794730  0.33472896  0.35898807
   0.00239000  0.66441000  0.00051000
   0.00090602  0.66618213  0.35838309
   0.16894000  0.83304000  0.06062000
   0.50222000  0.83318000  0.06077000
   0.66882000  0.66655000  0.00068000
   0.83620000  0.83206000  0.06086000
   0.66879000  0.99689000  0.12225000
   0.00127000  0.66476000  0.12046000
   0.50272000  0.83391000  0.18098000
   0.33662000  0.99784000  0.24172000
   0.00240000  0.33332000  0.24079000
   0.17216175  0.83009952  0.30334700
   0.83042364  0.83152652  0.30263739
   0.99962000  0.33431000  0.00199000
   0.00545716  0.33376387  0.36786642
   0.33922000  0.33072000  0.00000000
   0.33475225  0.33671804  0.36150600
   0.83779000  0.49999000  0.06135000
   0.33524000  0.67037000  0.00023000
   0.33379750  0.66972413  0.36596603
Direct configuration=    20
   0.00245000  0.99865000  0.12117000
   0.16980000  0.16587000  0.18099000
   0.33623000  0.99852000  0.12110000
   0.50164000  0.16594000  0.18135000
   0.83615000  0.16559000  0.18099000
   0.00260000  0.33284000  0.12101000
   0.16994000  0.49925000  0.18104000
   0.33651000  0.33287000  0.12086000
   0.50180000  0.49937000  0.18123000
   0.66965000  0.33304000  0.12103000
   0.83626000  0.49963000  0.18117000
   0.16899000  0.83329000  0.18177000
   0.33582000  0.66689000  0.12095000
   0.66914000  0.66722000  0.12117000
   0.83680000  0.83220000  0.18114000
   0.00172000  0.99944000  0.24151000
   0.16916449  0.16392435  0.30140966
   0.50322904  0.16468500  0.30205994
   0.66988000  0.99924000  0.24142000
   0.83611390  0.16511238  0.30242754
   0.16560744  0.49921152  0.30063879
   0.33524000  0.33246000  0.24183000
   0.50584068  0.50184434  0.30124608
   0.66902000  0.33317000  0.24123000
   0.83266695  0.50241406  0.30258963
   0.00318000  0.66598000  0.24177000
   0.33605000  0.66588000  0.24146000
   0.50414361  0.83526604  0.30145226
   0.66918000  0.66674000  0.24131000
   0.00271000  0.99869000  0.00034000
   0.01286112  0.00309327  0.36095096
   0.16929000  0.16694000  0.06071000
   0.33657000  0.00075000  0.00067000
   0.33378088 -0.00043014  0.36000909
   0.50343000  0.16520000  0.06105000
   0.66948000  0.99883000  0.00053000
   0.66887616  0.00394984  0.36046256
   0.83570000  0.16556000  0.06094000
   0.17061000  0.49746000  0.06032000
   0.50215000  0.49992000  0.06086000
   0.66930000  0.33358000  0.00050000
   0.66780546  0.33451082  0.35905795
   0.00239000  0.66441000  0.00051000
   0.00067690  0.66627933  0.35845481
   0.16894000  0.83304000  0.06062000
   0.50222000  0.83318000  0.06077000
   0.66882000  0.66655000  0.00068000
   0.83620000  0.83206000  0.06086000
   0.66879000  0.99689000  0.12225000
   0.00127000  0.66476000  0.12046000
   0.50272000  0.83391000  0.18098000
   0.33662000  0.99784000  0.24172000
   0.00240000  0.33332000  0.24079000
   0.17212809  0.83008612  0.30324928
   0.83043985  0.83145102  0.30266022
   0.99962000  0.33431000  0.00199000
   0.00555960  0.33365886  0.36780640
   0.33922000  0.33072000  0.00000000
   0.33479185  0.33684438  0.36151496
   0.83779000  0.49999000  0.06135000
   0.33524000  0.67037000  0.00023000
   0.33375179  0.66970749  0.36597489
Direct configuration=    21
   0.00245000  0.99865000  0.12117000
   0.16980000  0.16587000  0.18099000
   0.33623000  0.99852000  0.12110000
   0.50164000  0.16594000  0.18135000
   0.83615000  0.16559000  0.18099000
   0.00260000  0.33284000  0.12101000
   0.16994000  0.49925000  0.18104000
   0.33651000  0.33287000  0.12086000
   0.50180000  0.49937000  0.18123000
   0.66965000  0.33304000  0.12103000
   0.83626000  0.49963000  0.18117000
   0.16899000  0.83329000  0.18177000
   0.33582000  0.66689000  0.12095000
   0.66914000  0.66722000  0.12117000
   0.83680000  0.83220000  0.18114000
   0.00172000  0.99944000  0.24151000
   0.16951029  0.16444891  0.30130142
   0.50328942  0.16520103  0.30211164
   0.66988000  0.99924000  0.24142000
   0.83592197  0.16493903  0.30246225
   0.16532526  0.49973573  0.30059967
   0.33524000  0.33246000  0.24183000
   0.50610227  0.50198248  0.30134954
   0.66902000  0.33317000  0.24123000
   0.83249430  0.50221404  0.30244959
   0.00318000  0.66598000  0.24177000
   0.33605000  0.66588000  0.24146000
   0.50376742  0.83578706  0.30117978
   0.66918000  0.66674000  0.24131000
   0.00271000  0.99869000  0.00034000
   0.01440076  0.00275856  0.36132957
   0.16929000  0.16694000  0.06071000
   0.33657000  0.00075000  0.00067000
   0.33307641 -0.00020536  0.36006937
   0.50343000  0.16520000  0.06105000
   0.66948000  0.99883000  0.00053000
   0.66868160  0.00242288  0.36022397
   0.83570000  0.16556000  0.06094000
   0.17061000  0.49746000  0.06032000
   0.50215000  0.49992000  0.06086000
   0.66930000  0.33358000  0.00050000
   0.66746525  0.33398764  0.35922554
   0.00239000  0.66441000  0.00051000
   0.00012738  0.66651243  0.35862683
   0.16894000  0.83304000  0.06062000
   0.50222000  0.83318000  0.06077000
   0.66882000  0.66655000  0.00068000
   0.83620000  0.83206000  0.06086000
   0.66879000  0.99689000  0.12225000
   0.00127000  0.66476000  0.12046000
   0.50272000  0.83391000  0.18098000
   0.33662000  0.99784000  0.24172000
   0.00240000  0.33332000  0.24079000
   0.17204734  0.83005398  0.30301491
   0.83047872  0.83126995  0.30271498
   0.99962000  0.33431000  0.00199000
   0.00580531  0.33340701  0.36766244
   0.33922000  0.33072000  0.00000000
   0.33488684  0.33714739  0.36153646
   0.83779000  0.49999000  0.06135000
   0.33524000  0.67037000  0.00023000
   0.33364218  0.66966756  0.36599615
Direct configuration=    22
   0.00245000  0.99865000  0.12117000
   0.16980000  0.16587000  0.18099000
   0.33623000  0.99852000  0.12110000
   0.50164000  0.16594000  0.18135000
   0.83615000  0.16559000  0.18099000
   0.00260000  0.33284000  0.12101000
   0.16994000  0.49925000  0.18104000
   0.33651000  0.33287000  0.12086000
   0.50180000  0.49937000  0.18123000
   0.66965000  0.33304000  0.12103000
   0.83626000  0.49963000  0.18117000
   0.16899000  0.83329000  0.18177000
   0.33582000  0.66689000  0.12095000
   0.66914000  0.66722000  0.12117000
   0.83680000  0.83220000  0.18114000
   0.00172000  0.99944000  0.24151000
   0.16939501  0.16427403  0.30133751
   0.50326929  0.16502900  0.30209440
   0.66988000  0.99924000  0.24142000
   0.83598595  0.16499682  0.30245068
   0.16541933  0.49956097  0.30061271
   0.33524000  0.33246000  0.24183000
   0.50601506  0.50193642  0.30131505
   0.66902000  0.33317000  0.24123000
   0.83255186  0.50228072  0.30249628
   0.00318000  0.66598000  0.24177000
   0.33605000  0.66588000  0.24146000
   0.50389283  0.83561336  0.30127062
   0.66918000  0.66674000  0.24131000
   0.00271000  0.99869000  0.00034000
   0.01388747  0.00287015  0.36120335
   0.16929000  0.16694000  0.06071000
   0.33657000  0.00075000  0.00067000
   0.33331127 -0.00028030  0.36004927
   0.50343000  0.16520000  0.06105000
   0.66948000  0.99883000  0.00053000
   0.66874646  0.00293194  0.36030352
   0.83570000  0.16556000  0.06094000
   0.17061000  0.49746000  0.06032000
   0.50215000  0.49992000  0.06086000
   0.66930000  0.33358000  0.00050000
   0.66757867  0.33416206  0.35916967
   0.00239000  0.66441000  0.00051000
   0.00031058  0.66643472  0.35856948
   0.16894000  0.83304000  0.06062000
   0.50222000  0.83318000  0.06077000
   0.66882000  0.66655000  0.00068000
   0.83620000  0.83206000  0.06086000
   0.66879000  0.99689000  0.12225000
   0.00127000  0.66476000  0.12046000
   0.50272000  0.83391000  0.18098000
   0.33662000  0.99784000  0.24172000
   0.00240000  0.33332000  0.24079000
   0.17207426  0.83006469  0.30309305
   0.83046576  0.83133031  0.30269673
   0.99962000  0.33431000  0.00199000
   0.00572339  0.33349097  0.36771043
   0.33922000  0.33072000  0.00000000
   0.33485518  0.33704637  0.36152929
   0.83779000  0.49999000  0.06135000
   0.33524000  0.67037000  0.00023000
   0.33367872  0.66968087  0.36598906
Direct configuration=    23
   0.00245000  0.99865000  0.12117000
   0.16980000  0.16587000  0.18099000
   0.33623000  0.99852000  0.12110000
   0.50164000  0.16594000  0.18135000
   0.83615000  0.16559000  0.18099000
   0.00260000  0.33284000  0.12101000
   0.16994000  0.49925000  0.18104000
   0.33651000  0.33287000  0.12086000
   0.50180000  0.49937000  0.18123000
   0.66965000  0.33304000  0.12103000
   0.83626000  0.49963000  0.18117000
   0.16899000  0.83329000  0.18177000
   0.33582000  0.66689000  0.12095000
   0.66914000  0.66722000  0.12117000
   0.83680000  0.83220000  0.18114000
   0.00172000  0.99944000  0.24151000
   0.16927975  0.16409919  0.30137359
   0.50324917  0.16485700  0.30207717
   0.66988000  0.99924000  0.24142000
   0.83604993  0.16505460  0.30243911
   0.16551339  0.49938624  0.30062575
   0.33524000  0.33246000  0.24183000
   0.50592787  0.50189038  0.30128057
   0.66902000  0.33317000  0.24123000
   0.83260940  0.50234739  0.30254296
   0.00318000  0.66598000  0.24177000
   0.33605000  0.66588000  0.24146000
   0.50401822  0.83543970  0.30136144
   0.66918000  0.66674000  0.24131000
   0.00271000  0.99869000  0.00034000
   0.01337430  0.00298171  0.36107715
   0.16929000  0.16694000  0.06071000
   0.33657000  0.00075000  0.00067000
   0.33354607 -0.00035522  0.36002918
   0.50343000  0.16520000  0.06105000
   0.66948000  0.99883000  0.00053000
   0.66881131  0.00344089  0.36038304
   0.83570000  0.16556000  0.06094000
   0.17061000  0.49746000  0.06032000
   0.50215000  0.49992000  0.06086000
   0.66930000  0.33358000  0.00050000
   0.66769206  0.33433644  0.35911381
   0.00239000  0.66441000  0.00051000
   0.00049374  0.66635702  0.35851215
   0.16894000  0.83304000  0.06062000
   0.50222000  0.83318000  0.06077000
   0.66882000  0.66655000  0.00068000
   0.83620000  0.83206000  0.06086000
   0.66879000  0.99689000  0.12225000
   0.00127000  0.66476000  0.12046000
   0.50272000  0.83391000  0.18098000
   0.33662000  0.99784000  0.24172000
   0.00240000  0.33332000  0.24079000
   0.17210117  0.83007541  0.30317116
   0.83045281  0.83139067  0.30267847
   0.99962000  0.33431000  0.00199000
   0.00564150  0.33357491  0.36775842
   0.33922000  0.33072000  0.00000000
   0.33482352  0.33694538  0.36152213
   0.83779000  0.49999000  0.06135000
   0.33524000  0.67037000  0.00023000
   0.33371526  0.66969418  0.36598198
Direct configuration=    24
   0.00245000  0.99865000  0.12117000
   0.16980000  0.16587000  0.18099000
   0.33623000  0.99852000  0.12110000
   0.50164000  0.16594000  0.18135000
   0.83615000  0.16559000  0.18099000
   0.00260000  0.33284000  0.12101000
   0.16994000  0.49925000  0.18104000
   0.33651000  0.33287000  0.12086000
   0.50180000  0.49937000  0.18123000
   0.66965000  0.33304000  0.12103000
   0.83626000  0.49963000  0.18117000
   0.16899000  0.83329000  0.18177000
   0.33582000  0.66689000  0.12095000
   0.66914000  0.66722000  0.12117000
   0.83680000  0.83220000  0.18114000
   0.00172000  0.99944000  0.24151000
   0.16916777  0.16384356  0.30140094
   0.50326897  0.16475121  0.30209111
   0.66988000  0.99924000  0.24142000
   0.83607774  0.16489587  0.30247413
   0.16550349  0.49941618  0.30064530
   0.33524000  0.33246000  0.24183000
   0.50597569  0.50186770  0.30125202
   0.66902000  0.33317000  0.24123000
   0.83258288  0.50227750  0.30261618
   0.00318000  0.66598000  0.24177000
   0.33605000  0.66588000  0.24146000
   0.50380943  0.83544419  0.30132737
   0.66918000  0.66674000  0.24131000
   0.00271000  0.99869000  0.00034000
   0.01344114  0.00267270  0.36107103
   0.16929000  0.16694000  0.06071000
   0.33657000  0.00075000  0.00067000
   0.33342884 -0.00018397  0.36001152
   0.50343000  0.16520000  0.06105000
   0.66948000  0.99883000  0.00053000
   0.66878000  0.00294220  0.36025965
   0.83570000  0.16556000  0.06094000
   0.17061000  0.49746000  0.06032000
   0.50215000  0.49992000  0.06086000
   0.66930000  0.33358000  0.00050000
   0.66774394  0.33415456  0.35913428
   0.00239000  0.66441000  0.00051000
   0.00037921  0.66628843  0.35851025
   0.16894000  0.83304000  0.06062000
   0.50222000  0.83318000  0.06077000
   0.66882000  0.66655000  0.00068000
   0.83620000  0.83206000  0.06086000
   0.66879000  0.99689000  0.12225000
   0.00127000  0.66476000  0.12046000
   0.50272000  0.83391000  0.18098000
   0.33662000  0.99784000  0.24172000
   0.00240000  0.33332000  0.24079000
   0.17199850  0.83023304  0.30316571
   0.83047937  0.83133937  0.30263955
   0.99962000  0.33431000  0.00199000
   0.00566496  0.33351882  0.36769605
   0.33922000  0.33072000  0.00000000
   0.33470028  0.33709023  0.36151443
   0.83779000  0.49999000  0.06135000
   0.33524000  0.67037000  0.00023000
   0.33383486  0.66980677  0.36595476
Direct configuration=    25
   0.00245000  0.99865000  0.12117000
   0.16980000  0.16587000  0.18099000
   0.33623000  0.99852000  0.12110000
   0.50164000  0.16594000  0.18135000
   0.83615000  0.16559000  0.18099000
   0.00260000  0.33284000  0.12101000
   0.16994000  0.49925000  0.18104000
   0.33651000  0.33287000  0.12086000
   0.50180000  0.49937000  0.18123000
   0.66965000  0.33304000  0.12103000
   0.83626000  0.49963000  0.18117000
   0.16899000  0.83329000  0.18177000
   0.33582000  0.66689000  0.12095000
   0.66914000  0.66722000  0.12117000
   0.83680000  0.83220000  0.18114000
   0.00172000  0.99944000  0.24151000
   0.16891397  0.16326417  0.30146295
   0.50331384  0.16451145  0.30212271
   0.66988000  0.99924000  0.24142000
   0.83614079  0.16453611  0.30255349
   0.16548105  0.49948404  0.30068961
   0.33524000  0.33246000  0.24183000
   0.50608409  0.50181629  0.30118731
   0.66902000  0.33317000  0.24123000
   0.83252277  0.50211911  0.30278213
   0.00318000  0.66598000  0.24177000
   0.33605000  0.66588000  0.24146000
   0.50333623  0.83545437  0.30125014
   0.66918000  0.66674000  0.24131000
   0.00271000  0.99869000  0.00034000
   0.01359263  0.00197233  0.36105714
   0.16929000  0.16694000  0.06071000
   0.33657000  0.00075000  0.00067000
   0.33316315  0.00020416  0.35997148
   0.50343000  0.16520000  0.06105000
   0.66948000  0.99883000  0.00053000
   0.66870903  0.00181190  0.35998000
   0.83570000  0.16556000  0.06094000
   0.17061000  0.49746000  0.06032000
   0.50215000  0.49992000  0.06086000
   0.66930000  0.33358000  0.00050000
   0.66786152  0.33374233  0.35918068
   0.00239000  0.66441000  0.00051000
   0.00011963  0.66613296  0.35850594
   0.16894000  0.83304000  0.06062000
   0.50222000  0.83318000  0.06077000
   0.66882000  0.66655000  0.00068000
   0.83620000  0.83206000  0.06086000
   0.66879000  0.99689000  0.12225000
   0.00127000  0.66476000  0.12046000
   0.50272000  0.83391000  0.18098000
   0.33662000  0.99784000  0.24172000
   0.00240000  0.33332000  0.24079000
   0.17176579  0.83059033  0.30315334
   0.83053956  0.83122310  0.30255132
   0.99962000  0.33431000  0.00199000
   0.00571812  0.33339167  0.36755470
   0.33922000  0.33072000  0.00000000
   0.33442096  0.33741854  0.36149700
   0.83779000  0.49999000  0.06135000
   0.33524000  0.67037000  0.00023000
   0.33410593  0.67006196  0.36589306
Direct configuration=    26
   0.00245000  0.99865000  0.12117000
   0.16980000  0.16587000  0.18099000
   0.33623000  0.99852000  0.12110000
   0.50164000  0.16594000  0.18135000
   0.83615000  0.16559000  0.18099000
   0.00260000  0.33284000  0.12101000
   0.16994000  0.49925000  0.18104000
   0.33651000  0.33287000  0.12086000
   0.50180000  0.49937000  0.18123000
   0.66965000  0.33304000  0.12103000
   0.83626000  0.49963000  0.18117000
   0.16899000  0.83329000  0.18177000
   0.33582000  0.66689000  0.12095000
   0.66914000  0.66722000  0.12117000
   0.83680000  0.83220000  0.18114000
   0.00172000  0.99944000  0.24151000
   0.16901765  0.16350086  0.30143762
   0.50329551  0.16460940  0.30210980
   0.66988000  0.99924000  0.24142000
   0.83611503  0.16468308  0.30252107
   0.16549021  0.49945632  0.30067151
   0.33524000  0.33246000  0.24183000
   0.50603981  0.50183729  0.30121374
   0.66902000  0.33317000  0.24123000
   0.83254733  0.50218381  0.30271434
   0.00318000  0.66598000  0.24177000
   0.33605000  0.66588000  0.24146000
   0.50352954  0.83545021  0.30128169
   0.66918000  0.66674000  0.24131000
   0.00271000  0.99869000  0.00034000
   0.01353074  0.00225844  0.36106282
   0.16929000  0.16694000  0.06071000
   0.33657000  0.00075000  0.00067000
   0.33327169  0.00004560  0.35998784
   0.50343000  0.16520000  0.06105000
   0.66948000  0.99883000  0.00053000
   0.66873802  0.00227365  0.36009424
   0.83570000  0.16556000  0.06094000
   0.17061000  0.49746000  0.06032000
   0.50215000  0.49992000  0.06086000
   0.66930000  0.33358000  0.00050000
   0.66781349  0.33391073  0.35916173
   0.00239000  0.66441000  0.00051000
   0.00022567  0.66619647  0.35850770
   0.16894000  0.83304000  0.06062000
   0.50222000  0.83318000  0.06077000
   0.66882000  0.66655000  0.00068000
   0.83620000  0.83206000  0.06086000
   0.66879000  0.99689000  0.12225000
   0.00127000  0.66476000  0.12046000
   0.50272000  0.83391000  0.18098000
   0.33662000  0.99784000  0.24172000
   0.00240000  0.33332000  0.24079000
   0.17186085  0.83044437  0.30315839
   0.83051497  0.83127060  0.30258736
   0.99962000  0.33431000  0.00199000
   0.00569640  0.33344361  0.36761244
   0.33922000  0.33072000  0.00000000
   0.33453507  0.33728442  0.36150412
   0.83779000  0.49999000  0.06135000
   0.33524000  0.67037000  0.00023000
   0.33399519  0.66995771  0.36591826
Direct configuration=    27
   0.00245000  0.99865000  0.12117000
   0.16980000  0.16587000  0.18099000
   0.33623000  0.99852000  0.12110000
   0.50164000  0.16594000  0.18135000
   0.83615000  0.16559000  0.18099000
   0.00260000  0.33284000  0.12101000
   0.16994000  0.49925000  0.18104000
   0.33651000  0.33287000  0.12086000
   0.50180000  0.49937000  0.18123000
   0.66965000  0.33304000  0.12103000
   0.83626000  0.49963000  0.18117000
   0.16899000  0.83329000  0.18177000
   0.33582000  0.66689000  0.12095000
   0.66914000  0.66722000  0.12117000
   0.83680000  0.83220000  0.18114000
   0.00172000  0.99944000  0.24151000
   0.16909499  0.16367743  0.30141872
   0.50328183  0.16468246  0.30210017
   0.66988000  0.99924000  0.24142000
   0.83609582  0.16479271  0.30249688
   0.16549705  0.49943564  0.30065801
   0.33524000  0.33246000  0.24183000
   0.50600677  0.50185296  0.30123346
   0.66902000  0.33317000  0.24123000
   0.83256565  0.50223209  0.30266376
   0.00318000  0.66598000  0.24177000
   0.33605000  0.66588000  0.24146000
   0.50367375  0.83544711  0.30130522
   0.66918000  0.66674000  0.24131000
   0.00271000  0.99869000  0.00034000
   0.01348457  0.00247188  0.36106705
   0.16929000  0.16694000  0.06071000
   0.33657000  0.00075000  0.00067000
   0.33335266 -0.00007269  0.36000004
   0.50343000  0.16520000  0.06105000
   0.66948000  0.99883000  0.00053000
   0.66875965  0.00261811  0.36017947
   0.83570000  0.16556000  0.06094000
   0.17061000  0.49746000  0.06032000
   0.50215000  0.49992000  0.06086000
   0.66930000  0.33358000  0.00050000
   0.66777765  0.33403636  0.35914759
   0.00239000  0.66441000  0.00051000
   0.00030478  0.66624385  0.35850901
   0.16894000  0.83304000  0.06062000
   0.50222000  0.83318000  0.06077000
   0.66882000  0.66655000  0.00068000
   0.83620000  0.83206000  0.06086000
   0.66879000  0.99689000  0.12225000
   0.00127000  0.66476000  0.12046000
   0.50272000  0.83391000  0.18098000
   0.33662000  0.99784000  0.24172000
   0.00240000  0.33332000  0.24079000
   0.17193177  0.83033549  0.30316216
   0.83049663  0.83130603  0.30261425
   0.99962000  0.33431000  0.00199000
   0.00568020  0.33348236  0.36765552
   0.33922000  0.33072000  0.00000000
   0.33462019  0.33718437  0.36150943
   0.83779000  0.49999000  0.06135000
   0.33524000  0.67037000  0.00023000
   0.33391258  0.66987994  0.36593707
Direct configuration=    28
   0.00245000  0.99865000  0.12117000
   0.16980000  0.16587000  0.18099000
   0.33623000  0.99852000  0.12110000
   0.50164000  0.16594000  0.18135000
   0.83615000  0.16559000  0.18099000
   0.00260000  0.33284000  0.12101000
   0.16994000  0.49925000  0.18104000
   0.33651000  0.33287000  0.12086000
   0.50180000  0.49937000  0.18123000
   0.66965000  0.33304000  0.12103000
   0.83626000  0.49963000  0.18117000
   0.16899000  0.83329000  0.18177000
   0.33582000  0.66689000  0.12095000
   0.66914000  0.66722000  0.12117000
   0.83680000  0.83220000  0.18114000
   0.00172000  0.99944000  0.24151000
   0.16914019  0.16379995  0.30139587
   0.50321223  0.16472510  0.30210401
   0.66988000  0.99924000  0.24142000
   0.83606599  0.16469253  0.30249775
   0.16547255  0.49948350  0.30064825
   0.33524000  0.33246000  0.24183000
   0.50604935  0.50177340  0.30124618
   0.66902000  0.33317000  0.24123000
   0.83248135  0.50216792  0.30266309
   0.00318000  0.66598000  0.24177000
   0.33605000  0.66588000  0.24146000
   0.50353829  0.83540326  0.30121445
   0.66918000  0.66674000  0.24131000
   0.00271000  0.99869000  0.00034000
   0.01339697  0.00202535  0.36108992
   0.16929000  0.16694000  0.06071000
   0.33657000  0.00075000  0.00067000
   0.33328048  0.00015558  0.36003764
   0.50343000  0.16520000  0.06105000
   0.66948000  0.99883000  0.00053000
   0.66871371  0.00194311  0.36010734
   0.83570000  0.16556000  0.06094000
   0.17061000  0.49746000  0.06032000
   0.50215000  0.49992000  0.06086000
   0.66930000  0.33358000  0.00050000
   0.66778362  0.33380193  0.35914903
   0.00239000  0.66441000  0.00051000
   0.00024652  0.66619801  0.35851532
   0.16894000  0.83304000  0.06062000
   0.50222000  0.83318000  0.06077000
   0.66882000  0.66655000  0.00068000
   0.83620000  0.83206000  0.06086000
   0.66879000  0.99689000  0.12225000
   0.00127000  0.66476000  0.12046000
   0.50272000  0.83391000  0.18098000
   0.33662000  0.99784000  0.24172000
   0.00240000  0.33332000  0.24079000
   0.17190290  0.83018636  0.30311628
   0.83050470  0.83113497  0.30256614
   0.99962000  0.33431000  0.00199000
   0.00571447  0.33335656  0.36758660
   0.33922000  0.33072000  0.00000000
   0.33453062  0.33726694  0.36149231
   0.83779000  0.49999000  0.06135000
   0.33524000  0.67037000  0.00023000
   0.33399743  0.67004955  0.36589663
