Generated by VASPKIT code               
   1.00000000000000     
     8.5392999648999997    0.0000000000000000    0.0000000000000000
     0.0135247189000000    8.5058896306000005    0.0000000000000000
     0.0000000000000000    0.0000000000000000   23.5338993073000005
   Cr   Fe
    14    48
Selective dynamics
Direct
  0.0021800000000027  0.9986699999999971  0.2416600000000031   F   F   F
  0.0030199999999994  0.3336100000000002  0.0005700000000033   F   F   F
  0.9935654931527136  0.3290491687883222  0.3688183086129174   T   T   T
  0.1621700000000033  0.4943099999999987  0.0598099999999988   F   F   F
  0.1649200000000022  0.8355400000000017  0.0602700000000027   F   F   F
  0.4998339863306822  0.4974281784965134  0.3046426441256979   T   T   T
  0.5044699999999978  0.4965400000000031  0.0603199999999973   F   F   F
  0.5051399999999973  0.1623700000000028  0.1816699999999969   F   F   F
  0.6613600000000019  0.0006500000000003  0.2402200000000008   F   F   F
  0.6660299999999992  0.9979900000000015  0.0004700000000000   F   F   F
  0.6685200836342072  0.0016552683056477  0.3657910882538636   T   T   T
  0.6598899999999972  0.3395000000000010  0.0003099999999989   F   F   F
  0.6605751493525802  0.3347237405271390  0.3652723535863873   T   T   T
  0.6635199999999983  0.9993499999999997  0.1216200000000001   F   F   F
  0.1680228832300899  0.1647360822908824  0.3021745473286118   T   T   T
  0.9999699999999976  0.3320500000000024  0.2416600000000031   F   F   F
  0.1678892349308240  0.5007059492232817  0.3033223993555133   T   T   T
  0.0001299999999986  0.6649299999999982  0.2414300000000011   F   F   F
  0.1709264533930196  0.8272857180996821  0.3030828666919729   T   T   T
  0.9985399999999984  0.0004800000000031  0.0000000000000000   F   F   F
  0.9986292407833857  0.9985808420183390  0.3580723887437479   T   T   T
  0.1655000000000015  0.1649999999999991  0.0604999999999976   F   F   F
  0.0010600000000025  0.6666200000000018  0.0005700000000033   F   F   F
  0.9944316864145895  0.6651108988676609  0.3606299503633471   T   T   T
  0.9992999999999981  0.9993600000000029  0.1207399999999978   F   F   F
  0.1668499999999966  0.1653799999999990  0.1810499999999990   F   F   F
  0.9993600000000029  0.3316099999999977  0.1208299999999980   F   F   F
  0.1654399999999967  0.4981200000000001  0.1809299999999965   F   F   F
  0.0003999999999991  0.6653599999999997  0.1205700000000007   F   F   F
  0.1662699999999973  0.8320300000000032  0.1810299999999998   F   F   F
  0.3335999999999970  0.9973099999999988  0.2411600000000007   F   F   F
  0.4958595219993878  0.1642023533860138  0.3010512647309479   T   T   T
  0.3325099999999992  0.3324399999999983  0.2411499999999975   F   F   F
  0.3324300000000022  0.6641100000000009  0.2413499999999971   F   F   F
  0.4963710686574134  0.8298956332777629  0.3026122723446969   T   T   T
  0.3340600000000009  0.9984999999999999  0.0006199999999978   F   F   F
  0.3348476468899900  0.0023409634704631  0.3602938972866861   T   T   T
  0.5011200000000002  0.1646599999999978  0.0604900000000015   F   F   F
  0.3330600000000032  0.3325999999999993  0.0006500000000003   F   F   F
  0.3301079342499004  0.3296362902065404  0.3609909732532601   T   T   T
  0.3327900000000028  0.6619099999999989  0.0010300000000001   F   F   F
  0.5000000000000000  0.8311599999999970  0.0606000000000009   F   F   F
  0.3333599999999990  0.9985399999999984  0.1208900000000028   F   F   F
  0.3325900000000033  0.3328199999999981  0.1201500000000024   F   F   F
  0.4995800000000017  0.4977900000000020  0.1807599999999994   F   F   F
  0.3319199999999967  0.6632999999999996  0.1202499999999986   F   F   F
  0.4997200000000035  0.8301700000000025  0.1808100000000010   F   F   F
  0.8325868896672449  0.1627319213016087  0.2988717311265062   T   T   T
  0.6653200000000012  0.3323200000000028  0.2413700000000034   F   F   F
  0.8333512668562115  0.5009117930129068  0.3011732325583122   T   T   T
  0.6662299999999988  0.6653400000000005  0.2412399999999977   F   F   F
  0.8332726955585150  0.8308821980752458  0.3010848415998872   T   T   T
  0.8317800000000020  0.1660899999999970  0.0600600000000000   F   F   F
  0.8342400000000012  0.4992400000000004  0.0602000000000018   F   F   F
  0.6667500000000004  0.6669699999999992  0.0003400000000013   F   F   F
  0.6694395179323726  0.6673949088963212  0.3599447779322877   T   T   T
  0.8329099999999983  0.8338699999999974  0.0606700000000018   F   F   F
  0.8346900000000019  0.1658899999999974  0.1816200000000023   F   F   F
  0.6668099999999981  0.3315899999999985  0.1207199999999986   F   F   F
  0.8327900000000028  0.4985100000000031  0.1813500000000019   F   F   F
  0.6670900000000017  0.6650199999999984  0.1208099999999988   F   F   F
  0.8333700000000022  0.8339599999999976  0.1814299999999989   F   F   F
 
  0.00000000E+00  0.00000000E+00  0.00000000E+00
  0.00000000E+00  0.00000000E+00  0.00000000E+00
  0.00000000E+00  0.00000000E+00  0.00000000E+00
  0.00000000E+00  0.00000000E+00  0.00000000E+00
  0.00000000E+00  0.00000000E+00  0.00000000E+00
  0.00000000E+00  0.00000000E+00  0.00000000E+00
  0.00000000E+00  0.00000000E+00  0.00000000E+00
  0.00000000E+00  0.00000000E+00  0.00000000E+00
  0.00000000E+00  0.00000000E+00  0.00000000E+00
  0.00000000E+00  0.00000000E+00  0.00000000E+00
  0.00000000E+00  0.00000000E+00  0.00000000E+00
  0.00000000E+00  0.00000000E+00  0.00000000E+00
  0.00000000E+00  0.00000000E+00  0.00000000E+00
  0.00000000E+00  0.00000000E+00  0.00000000E+00
  0.00000000E+00  0.00000000E+00  0.00000000E+00
  0.00000000E+00  0.00000000E+00  0.00000000E+00
  0.00000000E+00  0.00000000E+00  0.00000000E+00
  0.00000000E+00  0.00000000E+00  0.00000000E+00
  0.00000000E+00  0.00000000E+00  0.00000000E+00
  0.00000000E+00  0.00000000E+00  0.00000000E+00
  0.00000000E+00  0.00000000E+00  0.00000000E+00
  0.00000000E+00  0.00000000E+00  0.00000000E+00
  0.00000000E+00  0.00000000E+00  0.00000000E+00
  0.00000000E+00  0.00000000E+00  0.00000000E+00
  0.00000000E+00  0.00000000E+00  0.00000000E+00
  0.00000000E+00  0.00000000E+00  0.00000000E+00
  0.00000000E+00  0.00000000E+00  0.00000000E+00
  0.00000000E+00  0.00000000E+00  0.00000000E+00
  0.00000000E+00  0.00000000E+00  0.00000000E+00
  0.00000000E+00  0.00000000E+00  0.00000000E+00
  0.00000000E+00  0.00000000E+00  0.00000000E+00
  0.00000000E+00  0.00000000E+00  0.00000000E+00
  0.00000000E+00  0.00000000E+00  0.00000000E+00
  0.00000000E+00  0.00000000E+00  0.00000000E+00
  0.00000000E+00  0.00000000E+00  0.00000000E+00
  0.00000000E+00  0.00000000E+00  0.00000000E+00
  0.00000000E+00  0.00000000E+00  0.00000000E+00
  0.00000000E+00  0.00000000E+00  0.00000000E+00
  0.00000000E+00  0.00000000E+00  0.00000000E+00
  0.00000000E+00  0.00000000E+00  0.00000000E+00
  0.00000000E+00  0.00000000E+00  0.00000000E+00
  0.00000000E+00  0.00000000E+00  0.00000000E+00
  0.00000000E+00  0.00000000E+00  0.00000000E+00
  0.00000000E+00  0.00000000E+00  0.00000000E+00
  0.00000000E+00  0.00000000E+00  0.00000000E+00
  0.00000000E+00  0.00000000E+00  0.00000000E+00
  0.00000000E+00  0.00000000E+00  0.00000000E+00
  0.00000000E+00  0.00000000E+00  0.00000000E+00
  0.00000000E+00  0.00000000E+00  0.00000000E+00
  0.00000000E+00  0.00000000E+00  0.00000000E+00
  0.00000000E+00  0.00000000E+00  0.00000000E+00
  0.00000000E+00  0.00000000E+00  0.00000000E+00
  0.00000000E+00  0.00000000E+00  0.00000000E+00
  0.00000000E+00  0.00000000E+00  0.00000000E+00
  0.00000000E+00  0.00000000E+00  0.00000000E+00
  0.00000000E+00  0.00000000E+00  0.00000000E+00
  0.00000000E+00  0.00000000E+00  0.00000000E+00
  0.00000000E+00  0.00000000E+00  0.00000000E+00
  0.00000000E+00  0.00000000E+00  0.00000000E+00
  0.00000000E+00  0.00000000E+00  0.00000000E+00
  0.00000000E+00  0.00000000E+00  0.00000000E+00
  0.00000000E+00  0.00000000E+00  0.00000000E+00
