ni3al                                   
           1
     8.539300    0.000000    0.000000
     0.013525    8.505890    0.000000
     0.000000    0.000000   23.533899
   Cr   Fe
    14    48
Direct configuration=     1
   0.00218000  0.99867000  0.24166000
   0.00302000  0.33361000  0.00057000
   0.99041684  0.32749302  0.36907149
   0.16217000  0.49431000  0.05981000
   0.16492000  0.83554000  0.06027000
   0.50239562  0.49718239  0.30426852
   0.50447000  0.49654000  0.06032000
   0.50514000  0.16237000  0.18167000
   0.66136000  0.00065000  0.24022000
   0.66603000  0.99799000  0.00047000
   0.66651714  0.00211023  0.36423895
   0.65989000  0.33950000  0.00031000
   0.65590023  0.33659988  0.36614298
   0.66352000  0.99935000  0.12162000
   0.16526541  0.16129278  0.30249948
   0.99997000  0.33205000  0.24166000
   0.16645926  0.49860558  0.30363943
   0.00013000  0.66493000  0.24143000
   0.16789835  0.83244821  0.30347311
   0.99854000  0.00048000  0.00000000
   0.99125371  0.99788441  0.36059854
   0.16550000  0.16500000  0.06050000
   0.00106000  0.66662000  0.00057000
   0.99189217  0.66539735  0.36027328
   0.99930000  0.99936000  0.12074000
   0.16685000  0.16538000  0.18105000
   0.99936000  0.33161000  0.12083000
   0.16544000  0.49812000  0.18093000
   0.00040000  0.66536000  0.12057000
   0.16627000  0.83203000  0.18103000
   0.33360000  0.99731000  0.24116000
   0.49548341  0.16288691  0.30151412
   0.33251000  0.33244000  0.24115000
   0.33243000  0.66411000  0.24135000
   0.49965071  0.83228163  0.30343182
   0.33406000  0.99850000  0.00062000
   0.34365292  0.00098190  0.36257891
   0.50112000  0.16466000  0.06049000
   0.33306000  0.33260000  0.00065000
   0.32539816  0.32266413  0.36016091
   0.33279000  0.66191000  0.00103000
   0.50000000  0.83116000  0.06060000
   0.33336000  0.99854000  0.12089000
   0.33259000  0.33282000  0.12015000
   0.49958000  0.49779000  0.18076000
   0.33192000  0.66330000  0.12025000
   0.49972000  0.83017000  0.18081000
   0.83131463  0.16219278  0.29975342
   0.66532000  0.33232000  0.24137000
   0.83169364  0.50113559  0.30136053
   0.66623000  0.66534000  0.24124000
   0.83261737  0.83261328  0.30147526
   0.83178000  0.16609000  0.06006000
   0.83424000  0.49924000  0.06020000
   0.66675000  0.66697000  0.00034000
   0.67257000  0.67691581  0.36234137
   0.83291000  0.83387000  0.06067000
   0.83469000  0.16589000  0.18162000
   0.66681000  0.33159000  0.12072000
   0.83279000  0.49851000  0.18135000
   0.66709000  0.66502000  0.12081000
   0.83337000  0.83396000  0.18143000
Direct configuration=     2
   0.00218000  0.99867000  0.24166000
   0.00302000  0.33361000  0.00057000
   0.99067736  0.32785845  0.36908077
   0.16217000  0.49431000  0.05981000
   0.16492000  0.83554000  0.06027000
   0.50149633  0.49772952  0.30451379
   0.50447000  0.49654000  0.06032000
   0.50514000  0.16237000  0.18167000
   0.66136000  0.00065000  0.24022000
   0.66603000  0.99799000  0.00047000
   0.66722541  0.00289940  0.36462680
   0.65989000  0.33950000  0.00031000
   0.65650549  0.33651966  0.36606874
   0.66352000  0.99935000  0.12162000
   0.16578091  0.16116989  0.30264782
   0.99997000  0.33205000  0.24166000
   0.16673605  0.49936481  0.30346342
   0.00013000  0.66493000  0.24143000
   0.16902460  0.83133204  0.30360269
   0.99854000  0.00048000  0.00000000
   0.99242488  0.99820493  0.36025999
   0.16550000  0.16500000  0.06050000
   0.00106000  0.66662000  0.00057000
   0.99237452  0.66522475  0.36037273
   0.99930000  0.99936000  0.12074000
   0.16685000  0.16538000  0.18105000
   0.99936000  0.33161000  0.12083000
   0.16544000  0.49812000  0.18093000
   0.00040000  0.66536000  0.12057000
   0.16627000  0.83203000  0.18103000
   0.33360000  0.99731000  0.24116000
   0.49558510  0.16348780  0.30120805
   0.33251000  0.33244000  0.24115000
   0.33243000  0.66411000  0.24135000
   0.49833415  0.83108045  0.30304780
   0.33406000  0.99850000  0.00062000
   0.34162315  0.00096725  0.36210445
   0.50112000  0.16466000  0.06049000
   0.33306000  0.33260000  0.00065000
   0.32586923  0.32348945  0.36038518
   0.33279000  0.66191000  0.00103000
   0.50000000  0.83116000  0.06060000
   0.33336000  0.99854000  0.12089000
   0.33259000  0.33282000  0.12015000
   0.49958000  0.49779000  0.18076000
   0.33192000  0.66330000  0.12025000
   0.49972000  0.83017000  0.18081000
   0.83131726  0.16242306  0.29939463
   0.66532000  0.33232000  0.24137000
   0.83185240  0.50148842  0.30140753
   0.66623000  0.66534000  0.24124000
   0.83292153  0.83237371  0.30125545
   0.83178000  0.16609000  0.06006000
   0.83424000  0.49924000  0.06020000
   0.66675000  0.66697000  0.00034000
   0.67225483  0.67489614  0.36195660
   0.83291000  0.83387000  0.06067000
   0.83469000  0.16589000  0.18162000
   0.66681000  0.33159000  0.12072000
   0.83279000  0.49851000  0.18135000
   0.66709000  0.66502000  0.12081000
   0.83337000  0.83396000  0.18143000
Direct configuration=     3
   0.00218000  0.99867000  0.24166000
   0.00302000  0.33361000  0.00057000
   0.99126623  0.32868443  0.36910174
   0.16217000  0.49431000  0.05981000
   0.16492000  0.83554000  0.06027000
   0.49946364  0.49896621  0.30506816
   0.50447000  0.49654000  0.06032000
   0.50514000  0.16237000  0.18167000
   0.66136000  0.00065000  0.24022000
   0.66603000  0.99799000  0.00047000
   0.66882634  0.00468316  0.36550347
   0.65989000  0.33950000  0.00031000
   0.65787356  0.33633833  0.36590093
   0.66352000  0.99935000  0.12162000
   0.16694609  0.16089212  0.30298311
   0.99997000  0.33205000  0.24166000
   0.16736169  0.50108088  0.30306558
   0.00013000  0.66493000  0.24143000
   0.17157027  0.82880912  0.30389559
   0.99854000  0.00048000  0.00000000
   0.99507207  0.99892942  0.35949476
   0.16550000  0.16500000  0.06050000
   0.00106000  0.66662000  0.00057000
   0.99346479  0.66483460  0.36059752
   0.99930000  0.99936000  0.12074000
   0.16685000  0.16538000  0.18105000
   0.99936000  0.33161000  0.12083000
   0.16544000  0.49812000  0.18093000
   0.00040000  0.66536000  0.12057000
   0.16627000  0.83203000  0.18103000
   0.33360000  0.99731000  0.24116000
   0.49581495  0.16484602  0.30051623
   0.33251000  0.33244000  0.24115000
   0.33243000  0.66411000  0.24135000
   0.49535829  0.82836541  0.30217977
   0.33406000  0.99850000  0.00062000
   0.33703523  0.00093415  0.36103204
   0.50112000  0.16466000  0.06049000
   0.33306000  0.33260000  0.00065000
   0.32693401  0.32535493  0.36089211
   0.33279000  0.66191000  0.00103000
   0.50000000  0.83116000  0.06060000
   0.33336000  0.99854000  0.12089000
   0.33259000  0.33282000  0.12015000
   0.49958000  0.49779000  0.18076000
   0.33192000  0.66330000  0.12025000
   0.49972000  0.83017000  0.18081000
   0.83132318  0.16294357  0.29858365
   0.66532000  0.33232000  0.24137000
   0.83221124  0.50228593  0.30151379
   0.66623000  0.66534000  0.24124000
   0.83360901  0.83183222  0.30075864
   0.83178000  0.16609000  0.06006000
   0.83424000  0.49924000  0.06020000
   0.66675000  0.66697000  0.00034000
   0.67154243  0.67033104  0.36108688
   0.83291000  0.83387000  0.06067000
   0.83469000  0.16589000  0.18162000
   0.66681000  0.33159000  0.12072000
   0.83279000  0.49851000  0.18135000
   0.66709000  0.66502000  0.12081000
   0.83337000  0.83396000  0.18143000
Direct configuration=     4
   0.00218000  0.99867000  0.24166000
   0.00302000  0.33361000  0.00057000
   0.99119138  0.32857944  0.36909907
   0.16217000  0.49431000  0.05981000
   0.16492000  0.83554000  0.06027000
   0.49972201  0.49880901  0.30499769
   0.50447000  0.49654000  0.06032000
   0.50514000  0.16237000  0.18167000
   0.66136000  0.00065000  0.24022000
   0.66603000  0.99799000  0.00047000
   0.66862284  0.00445643  0.36539203
   0.65989000  0.33950000  0.00031000
   0.65769966  0.33636138  0.36592226
   0.66352000  0.99935000  0.12162000
   0.16679799  0.16092743  0.30294049
   0.99997000  0.33205000  0.24166000
   0.16728216  0.50086275  0.30311615
   0.00013000  0.66493000  0.24143000
   0.17124670  0.82912981  0.30385836
   0.99854000  0.00048000  0.00000000
   0.99473559  0.99883733  0.35959203
   0.16550000  0.16500000  0.06050000
   0.00106000  0.66662000  0.00057000
   0.99332620  0.66488419  0.36056894
   0.99930000  0.99936000  0.12074000
   0.16685000  0.16538000  0.18105000
   0.99936000  0.33161000  0.12083000
   0.16544000  0.49812000  0.18093000
   0.00040000  0.66536000  0.12057000
   0.16627000  0.83203000  0.18103000
   0.33360000  0.99731000  0.24116000
   0.49578573  0.16467338  0.30060416
   0.33251000  0.33244000  0.24115000
   0.33243000  0.66411000  0.24135000
   0.49573655  0.82871051  0.30229010
   0.33406000  0.99850000  0.00062000
   0.33761839  0.00093836  0.36116835
   0.50112000  0.16466000  0.06049000
   0.33306000  0.33260000  0.00065000
   0.32679867  0.32511781  0.36082768
   0.33279000  0.66191000  0.00103000
   0.50000000  0.83116000  0.06060000
   0.33336000  0.99854000  0.12089000
   0.33259000  0.33282000  0.12015000
   0.49958000  0.49779000  0.18076000
   0.33192000  0.66330000  0.12025000
   0.49972000  0.83017000  0.18081000
   0.83132243  0.16287741  0.29868673
   0.66532000  0.33232000  0.24137000
   0.83216563  0.50218456  0.30150028
   0.66623000  0.66534000  0.24124000
   0.83352163  0.83190105  0.30082179
   0.83178000  0.16609000  0.06006000
   0.83424000  0.49924000  0.06020000
   0.66675000  0.66697000  0.00034000
   0.67163298  0.67091131  0.36119743
   0.83291000  0.83387000  0.06067000
   0.83469000  0.16589000  0.18162000
   0.66681000  0.33159000  0.12072000
   0.83279000  0.49851000  0.18135000
   0.66709000  0.66502000  0.12081000
   0.83337000  0.83396000  0.18143000
Direct configuration=     5
   0.00218000  0.99867000  0.24166000
   0.00302000  0.33361000  0.00057000
   0.99165470  0.32885676  0.36897413
   0.16217000  0.49431000  0.05981000
   0.16492000  0.83554000  0.06027000
   0.49933019  0.49858588  0.30508510
   0.50447000  0.49654000  0.06032000
   0.50514000  0.16237000  0.18167000
   0.66136000  0.00065000  0.24022000
   0.66603000  0.99799000  0.00047000
   0.66833580  0.00384034  0.36553886
   0.65989000  0.33950000  0.00031000
   0.65823405  0.33630100  0.36572286
   0.66352000  0.99935000  0.12162000
   0.16687054  0.16208914  0.30275737
   0.99997000  0.33205000  0.24166000
   0.16733135  0.50059207  0.30323057
   0.00013000  0.66493000  0.24143000
   0.17122824  0.82802936  0.30375001
   0.99854000  0.00048000  0.00000000
   0.99592977  0.99873555  0.35913218
   0.16550000  0.16500000  0.06050000
   0.00106000  0.66662000  0.00057000
   0.99383092  0.66508378  0.36065089
   0.99930000  0.99936000  0.12074000
   0.16685000  0.16538000  0.18105000
   0.99936000  0.33161000  0.12083000
   0.16544000  0.49812000  0.18093000
   0.00040000  0.66536000  0.12057000
   0.16627000  0.83203000  0.18103000
   0.33360000  0.99731000  0.24116000
   0.49557463  0.16449743  0.30076935
   0.33251000  0.33244000  0.24115000
   0.33243000  0.66411000  0.24135000
   0.49609946  0.82917570  0.30252942
   0.33406000  0.99850000  0.00062000
   0.33663884  0.00103695  0.36078725
   0.50112000  0.16466000  0.06049000
   0.33306000  0.33260000  0.00065000
   0.32757492  0.32627907  0.36089922
   0.33279000  0.66191000  0.00103000
   0.50000000  0.83116000  0.06060000
   0.33336000  0.99854000  0.12089000
   0.33259000  0.33282000  0.12015000
   0.49958000  0.49779000  0.18076000
   0.33192000  0.66330000  0.12025000
   0.49972000  0.83017000  0.18081000
   0.83188534  0.16321941  0.29868313
   0.66532000  0.33232000  0.24137000
   0.83244670  0.50179671  0.30141118
   0.66623000  0.66534000  0.24124000
   0.83346203  0.83167539  0.30095861
   0.83178000  0.16609000  0.06006000
   0.83424000  0.49924000  0.06020000
   0.66675000  0.66697000  0.00034000
   0.67103878  0.66974573  0.36070410
   0.83291000  0.83387000  0.06067000
   0.83469000  0.16589000  0.18162000
   0.66681000  0.33159000  0.12072000
   0.83279000  0.49851000  0.18135000
   0.66709000  0.66502000  0.12081000
   0.83337000  0.83396000  0.18143000
Direct configuration=     6
   0.00218000  0.99867000  0.24166000
   0.00302000  0.33361000  0.00057000
   0.99246229  0.32934014  0.36875636
   0.16217000  0.49431000  0.05981000
   0.16492000  0.83554000  0.06027000
   0.49864723  0.49819695  0.30523746
   0.50447000  0.49654000  0.06032000
   0.50514000  0.16237000  0.18167000
   0.66136000  0.00065000  0.24022000
   0.66603000  0.99799000  0.00047000
   0.66783547  0.00276647  0.36579480
   0.65989000  0.33950000  0.00031000
   0.65916552  0.33619576  0.36537529
   0.66352000  0.99935000  0.12162000
   0.16699699  0.16411406  0.30243819
   0.99997000  0.33205000  0.24166000
   0.16741710  0.50012024  0.30343002
   0.00013000  0.66493000  0.24143000
   0.17119608  0.82611122  0.30356116
   0.99854000  0.00048000  0.00000000
   0.99801130  0.99855814  0.35833066
   0.16550000  0.16500000  0.06050000
   0.00106000  0.66662000  0.00057000
   0.99471066  0.66543167  0.36079373
   0.99930000  0.99936000  0.12074000
   0.16685000  0.16538000  0.18105000
   0.99936000  0.33161000  0.12083000
   0.16544000  0.49812000  0.18093000
   0.00040000  0.66536000  0.12057000
   0.16627000  0.83203000  0.18103000
   0.33360000  0.99731000  0.24116000
   0.49520667  0.16419075  0.30105729
   0.33251000  0.33244000  0.24115000
   0.33243000  0.66411000  0.24135000
   0.49673203  0.82998655  0.30294656
   0.33406000  0.99850000  0.00062000
   0.33493141  0.00120879  0.36012298
   0.50112000  0.16466000  0.06049000
   0.33306000  0.33260000  0.00065000
   0.32892796  0.32830322  0.36102391
   0.33279000  0.66191000  0.00103000
   0.50000000  0.83116000  0.06060000
   0.33336000  0.99854000  0.12089000
   0.33259000  0.33282000  0.12015000
   0.49958000  0.49779000  0.18076000
   0.33192000  0.66330000  0.12025000
   0.49972000  0.83017000  0.18081000
   0.83286651  0.16381554  0.29867684
   0.66532000  0.33232000  0.24137000
   0.83293662  0.50112067  0.30125586
   0.66623000  0.66534000  0.24124000
   0.83335815  0.83128206  0.30119710
   0.83178000  0.16609000  0.06006000
   0.83424000  0.49924000  0.06020000
   0.66675000  0.66697000  0.00034000
   0.67000305  0.66771406  0.35984419
   0.83291000  0.83387000  0.06067000
   0.83469000  0.16589000  0.18162000
   0.66681000  0.33159000  0.12072000
   0.83279000  0.49851000  0.18135000
   0.66709000  0.66502000  0.12081000
   0.83337000  0.83396000  0.18143000
Direct configuration=     7
   0.00218000  0.99867000  0.24166000
   0.00302000  0.33361000  0.00057000
   0.99236536  0.32928212  0.36878250
   0.16217000  0.49431000  0.05981000
   0.16492000  0.83554000  0.06027000
   0.49872920  0.49824363  0.30521917
   0.50447000  0.49654000  0.06032000
   0.50514000  0.16237000  0.18167000
   0.66136000  0.00065000  0.24022000
   0.66603000  0.99799000  0.00047000
   0.66789552  0.00289536  0.36576408
   0.65989000  0.33950000  0.00031000
   0.65905372  0.33620839  0.36541701
   0.66352000  0.99935000  0.12162000
   0.16698181  0.16387102  0.30247650
   0.99997000  0.33205000  0.24166000
   0.16740681  0.50017687  0.30340608
   0.00013000  0.66493000  0.24143000
   0.17119994  0.82634144  0.30358383
   0.99854000  0.00048000  0.00000000
   0.99776147  0.99857943  0.35842686
   0.16550000  0.16500000  0.06050000
   0.00106000  0.66662000  0.00057000
   0.99460507  0.66538992  0.36077658
   0.99930000  0.99936000  0.12074000
   0.16685000  0.16538000  0.18105000
   0.99936000  0.33161000  0.12083000
   0.16544000  0.49812000  0.18093000
   0.00040000  0.66536000  0.12057000
   0.16627000  0.83203000  0.18103000
   0.33360000  0.99731000  0.24116000
   0.49525083  0.16422756  0.30102273
   0.33251000  0.33244000  0.24115000
   0.33243000  0.66411000  0.24135000
   0.49665610  0.82988923  0.30289649
   0.33406000  0.99850000  0.00062000
   0.33513634  0.00118816  0.36020271
   0.50112000  0.16466000  0.06049000
   0.33306000  0.33260000  0.00065000
   0.32876556  0.32806028  0.36100895
   0.33279000  0.66191000  0.00103000
   0.50000000  0.83116000  0.06060000
   0.33336000  0.99854000  0.12089000
   0.33259000  0.33282000  0.12015000
   0.49958000  0.49779000  0.18076000
   0.33192000  0.66330000  0.12025000
   0.49972000  0.83017000  0.18081000
   0.83274875  0.16374399  0.29867760
   0.66532000  0.33232000  0.24137000
   0.83287781  0.50120181  0.30127450
   0.66623000  0.66534000  0.24124000
   0.83337062  0.83132927  0.30116847
   0.83178000  0.16609000  0.06006000
   0.83424000  0.49924000  0.06020000
   0.66675000  0.66697000  0.00034000
   0.67012736  0.66795791  0.35994740
   0.83291000  0.83387000  0.06067000
   0.83469000  0.16589000  0.18162000
   0.66681000  0.33159000  0.12072000
   0.83279000  0.49851000  0.18135000
   0.66709000  0.66502000  0.12081000
   0.83337000  0.83396000  0.18143000
Direct configuration=     8
   0.00218000  0.99867000  0.24166000
   0.00302000  0.33361000  0.00057000
   0.99201003  0.32906944  0.36887831
   0.16217000  0.49431000  0.05981000
   0.16492000  0.83554000  0.06027000
   0.49902969  0.49841475  0.30515214
   0.50447000  0.49654000  0.06032000
   0.50514000  0.16237000  0.18167000
   0.66136000  0.00065000  0.24022000
   0.66603000  0.99799000  0.00047000
   0.66811566  0.00336785  0.36565147
   0.65989000  0.33950000  0.00031000
   0.65864389  0.33625469  0.36556993
   0.66352000  0.99935000  0.12162000
   0.16692617  0.16298008  0.30261694
   0.99997000  0.33205000  0.24166000
   0.16736908  0.50038447  0.30331833
   0.00013000  0.66493000  0.24143000
   0.17121409  0.82718540  0.30366692
   0.99854000  0.00048000  0.00000000
   0.99684562  0.99865749  0.35877952
   0.16550000  0.16500000  0.06050000
   0.00106000  0.66662000  0.00057000
   0.99421800  0.66523685  0.36071374
   0.99930000  0.99936000  0.12074000
   0.16685000  0.16538000  0.18105000
   0.99936000  0.33161000  0.12083000
   0.16544000  0.49812000  0.18093000
   0.00040000  0.66536000  0.12057000
   0.16627000  0.83203000  0.18103000
   0.33360000  0.99731000  0.24116000
   0.49541273  0.16436250  0.30089604
   0.33251000  0.33244000  0.24115000
   0.33243000  0.66411000  0.24135000
   0.49637778  0.82953246  0.30271296
   0.33406000  0.99850000  0.00062000
   0.33588759  0.00111256  0.36049498
   0.50112000  0.16466000  0.06049000
   0.33306000  0.33260000  0.00065000
   0.32817024  0.32716968  0.36095408
   0.33279000  0.66191000  0.00103000
   0.50000000  0.83116000  0.06060000
   0.33336000  0.99854000  0.12089000
   0.33259000  0.33282000  0.12015000
   0.49958000  0.49779000  0.18076000
   0.33192000  0.66330000  0.12025000
   0.49972000  0.83017000  0.18081000
   0.83231704  0.16348170  0.29868036
   0.66532000  0.33232000  0.24137000
   0.83266226  0.50149926  0.30134284
   0.66623000  0.66534000  0.24124000
   0.83341633  0.83150233  0.30106354
   0.83178000  0.16609000  0.06006000
   0.83424000  0.49924000  0.06020000
   0.66675000  0.66697000  0.00034000
   0.67058307  0.66885182  0.36032575
   0.83291000  0.83387000  0.06067000
   0.83469000  0.16589000  0.18162000
   0.66681000  0.33159000  0.12072000
   0.83279000  0.49851000  0.18135000
   0.66709000  0.66502000  0.12081000
   0.83337000  0.83396000  0.18143000
Direct configuration=     9
   0.00218000  0.99867000  0.24166000
   0.00302000  0.33361000  0.00057000
   0.99228176  0.32923208  0.36880504
   0.16217000  0.49431000  0.05981000
   0.16492000  0.83554000  0.06027000
   0.49879990  0.49828389  0.30520340
   0.50447000  0.49654000  0.06032000
   0.50514000  0.16237000  0.18167000
   0.66136000  0.00065000  0.24022000
   0.66603000  0.99799000  0.00047000
   0.66794731  0.00300653  0.36573758
   0.65989000  0.33950000  0.00031000
   0.65895730  0.33621928  0.36545299
   0.66352000  0.99935000  0.12162000
   0.16696872  0.16366140  0.30250954
   0.99997000  0.33205000  0.24166000
   0.16739793  0.50022572  0.30338544
   0.00013000  0.66493000  0.24143000
   0.17120327  0.82654001  0.30360338
   0.99854000  0.00048000  0.00000000
   0.99754599  0.99859780  0.35850983
   0.16550000  0.16500000  0.06050000
   0.00106000  0.66662000  0.00057000
   0.99451400  0.66535390  0.36076180
   0.99930000  0.99936000  0.12074000
   0.16685000  0.16538000  0.18105000
   0.99936000  0.33161000  0.12083000
   0.16544000  0.49812000  0.18093000
   0.00040000  0.66536000  0.12057000
   0.16627000  0.83203000  0.18103000
   0.33360000  0.99731000  0.24116000
   0.49528892  0.16425931  0.30099292
   0.33251000  0.33244000  0.24115000
   0.33243000  0.66411000  0.24135000
   0.49659062  0.82980529  0.30285331
   0.33406000  0.99850000  0.00062000
   0.33531310  0.00117038  0.36027147
   0.50112000  0.16466000  0.06049000
   0.33306000  0.33260000  0.00065000
   0.32862549  0.32785074  0.36099604
   0.33279000  0.66191000  0.00103000
   0.50000000  0.83116000  0.06060000
   0.33336000  0.99854000  0.12089000
   0.33259000  0.33282000  0.12015000
   0.49958000  0.49779000  0.18076000
   0.33192000  0.66330000  0.12025000
   0.49972000  0.83017000  0.18081000
   0.83264718  0.16368228  0.29867825
   0.66532000  0.33232000  0.24137000
   0.83282710  0.50127180  0.30129058
   0.66623000  0.66534000  0.24124000
   0.83338137  0.83136998  0.30114378
   0.83178000  0.16609000  0.06006000
   0.83424000  0.49924000  0.06020000
   0.66675000  0.66697000  0.00034000
   0.67023458  0.66816823  0.36003642
   0.83291000  0.83387000  0.06067000
   0.83469000  0.16589000  0.18162000
   0.66681000  0.33159000  0.12072000
   0.83279000  0.49851000  0.18135000
   0.66709000  0.66502000  0.12081000
   0.83337000  0.83396000  0.18143000
Direct configuration=    10
   0.00218000  0.99867000  0.24166000
   0.00302000  0.33361000  0.00057000
   0.99231507  0.32925202  0.36879606
   0.16217000  0.49431000  0.05981000
   0.16492000  0.83554000  0.06027000
   0.49877173  0.49826785  0.30520968
   0.50447000  0.49654000  0.06032000
   0.50514000  0.16237000  0.18167000
   0.66136000  0.00065000  0.24022000
   0.66603000  0.99799000  0.00047000
   0.66792667  0.00296223  0.36574814
   0.65989000  0.33950000  0.00031000
   0.65899572  0.33621494  0.36543865
   0.66352000  0.99935000  0.12162000
   0.16697394  0.16374493  0.30249638
   0.99997000  0.33205000  0.24166000
   0.16740147  0.50020625  0.30339366
   0.00013000  0.66493000  0.24143000
   0.17120194  0.82646089  0.30359559
   0.99854000  0.00048000  0.00000000
   0.99763185  0.99859048  0.35847677
   0.16550000  0.16500000  0.06050000
   0.00106000  0.66662000  0.00057000
   0.99455029  0.66536825  0.36076769
   0.99930000  0.99936000  0.12074000
   0.16685000  0.16538000  0.18105000
   0.99936000  0.33161000  0.12083000
   0.16544000  0.49812000  0.18093000
   0.00040000  0.66536000  0.12057000
   0.16627000  0.83203000  0.18103000
   0.33360000  0.99731000  0.24116000
   0.49527374  0.16424666  0.30100480
   0.33251000  0.33244000  0.24115000
   0.33243000  0.66411000  0.24135000
   0.49661671  0.82983873  0.30287052
   0.33406000  0.99850000  0.00062000
   0.33524267  0.00117746  0.36024407
   0.50112000  0.16466000  0.06049000
   0.33306000  0.33260000  0.00065000
   0.32868131  0.32793423  0.36100118
   0.33279000  0.66191000  0.00103000
   0.50000000  0.83116000  0.06060000
   0.33336000  0.99854000  0.12089000
   0.33259000  0.33282000  0.12015000
   0.49958000  0.49779000  0.18076000
   0.33192000  0.66330000  0.12025000
   0.49972000  0.83017000  0.18081000
   0.83268765  0.16370687  0.29867799
   0.66532000  0.33232000  0.24137000
   0.83284731  0.50124391  0.30128417
   0.66623000  0.66534000  0.24124000
   0.83337709  0.83135376  0.30115362
   0.83178000  0.16609000  0.06006000
   0.83424000  0.49924000  0.06020000
   0.66675000  0.66697000  0.00034000
   0.67019186  0.66808442  0.36000095
   0.83291000  0.83387000  0.06067000
   0.83469000  0.16589000  0.18162000
   0.66681000  0.33159000  0.12072000
   0.83279000  0.49851000  0.18135000
   0.66709000  0.66502000  0.12081000
   0.83337000  0.83396000  0.18143000
Direct configuration=    11
   0.00218000  0.99867000  0.24166000
   0.00302000  0.33361000  0.00057000
   0.99261137  0.32928128  0.36882128
   0.16217000  0.49431000  0.05981000
   0.16492000  0.83554000  0.06027000
   0.49897755  0.49790552  0.30501043
   0.50447000  0.49654000  0.06032000
   0.50514000  0.16237000  0.18167000
   0.66136000  0.00065000  0.24022000
   0.66603000  0.99799000  0.00047000
   0.66818946  0.00261706  0.36575690
   0.65989000  0.33950000  0.00031000
   0.65945389  0.33569275  0.36533159
   0.66352000  0.99935000  0.12162000
   0.16745061  0.16418122  0.30223946
   0.99997000  0.33205000  0.24166000
   0.16755407  0.50030985  0.30338764
   0.00013000  0.66493000  0.24143000
   0.17104033  0.82665462  0.30330748
   0.99854000  0.00048000  0.00000000
   0.99801927  0.99857858  0.35827704
   0.16550000  0.16500000  0.06050000
   0.00106000  0.66662000  0.00057000
   0.99452509  0.66517816  0.36079127
   0.99930000  0.99936000  0.12074000
   0.16685000  0.16538000  0.18105000
   0.99936000  0.33161000  0.12083000
   0.16544000  0.49812000  0.18093000
   0.00040000  0.66536000  0.12057000
   0.16627000  0.83203000  0.18103000
   0.33360000  0.99731000  0.24116000
   0.49552306  0.16430365  0.30104966
   0.33251000  0.33244000  0.24115000
   0.33243000  0.66411000  0.24135000
   0.49665845  0.82998364  0.30271885
   0.33406000  0.99850000  0.00062000
   0.33493460  0.00153157  0.36029935
   0.50112000  0.16466000  0.06049000
   0.33306000  0.33260000  0.00065000
   0.32907919  0.32859076  0.36105526
   0.33279000  0.66191000  0.00103000
   0.50000000  0.83116000  0.06060000
   0.33336000  0.99854000  0.12089000
   0.33259000  0.33282000  0.12015000
   0.49958000  0.49779000  0.18076000
   0.33192000  0.66330000  0.12025000
   0.49972000  0.83017000  0.18081000
   0.83241670  0.16322855  0.29888724
   0.66532000  0.33232000  0.24137000
   0.83315179  0.50113082  0.30116514
   0.66623000  0.66534000  0.24124000
   0.83334337  0.83128612  0.30113805
   0.83178000  0.16609000  0.06006000
   0.83424000  0.49924000  0.06020000
   0.66675000  0.66697000  0.00034000
   0.66988420  0.66782194  0.35998881
   0.83291000  0.83387000  0.06067000
   0.83469000  0.16589000  0.18162000
   0.66681000  0.33159000  0.12072000
   0.83279000  0.49851000  0.18135000
   0.66709000  0.66502000  0.12081000
   0.83337000  0.83396000  0.18143000
Direct configuration=    12
   0.00218000  0.99867000  0.24166000
   0.00302000  0.33361000  0.00057000
   0.99286435  0.32930626  0.36884282
   0.16217000  0.49431000  0.05981000
   0.16492000  0.83554000  0.06027000
   0.49915328  0.49759617  0.30484030
   0.50447000  0.49654000  0.06032000
   0.50514000  0.16237000  0.18167000
   0.66136000  0.00065000  0.24022000
   0.66603000  0.99799000  0.00047000
   0.66841383  0.00232235  0.36576437
   0.65989000  0.33950000  0.00031000
   0.65984509  0.33524691  0.36524017
   0.66352000  0.99935000  0.12162000
   0.16785759  0.16455373  0.30202010
   0.99997000  0.33205000  0.24166000
   0.16768436  0.50039830  0.30338250
   0.00013000  0.66493000  0.24143000
   0.17090235  0.82682004  0.30306149
   0.99854000  0.00048000  0.00000000
   0.99835005  0.99856841  0.35810651
   0.16550000  0.16500000  0.06050000
   0.00106000  0.66662000  0.00057000
   0.99450357  0.66501586  0.36081140
   0.99930000  0.99936000  0.12074000
   0.16685000  0.16538000  0.18105000
   0.99936000  0.33161000  0.12083000
   0.16544000  0.49812000  0.18093000
   0.00040000  0.66536000  0.12057000
   0.16627000  0.83203000  0.18103000
   0.33360000  0.99731000  0.24116000
   0.49573593  0.16435231  0.30108797
   0.33251000  0.33244000  0.24115000
   0.33243000  0.66411000  0.24135000
   0.49669409  0.83010737  0.30258935
   0.33406000  0.99850000  0.00062000
   0.33467157  0.00183391  0.36034655
   0.50112000  0.16466000  0.06049000
   0.33306000  0.33260000  0.00065000
   0.32941890  0.32915131  0.36110144
   0.33279000  0.66191000  0.00103000
   0.50000000  0.83116000  0.06060000
   0.33336000  0.99854000  0.12089000
   0.33259000  0.33282000  0.12015000
   0.49958000  0.49779000  0.18076000
   0.33192000  0.66330000  0.12025000
   0.49972000  0.83017000  0.18081000
   0.83218537  0.16282015  0.29906589
   0.66532000  0.33232000  0.24137000
   0.83341175  0.50103425  0.30106352
   0.66623000  0.66534000  0.24124000
   0.83331458  0.83122836  0.30112476
   0.83178000  0.16609000  0.06006000
   0.83424000  0.49924000  0.06020000
   0.66675000  0.66697000  0.00034000
   0.66962152  0.66759783  0.35997844
   0.83291000  0.83387000  0.06067000
   0.83469000  0.16589000  0.18162000
   0.66681000  0.33159000  0.12072000
   0.83279000  0.49851000  0.18135000
   0.66709000  0.66502000  0.12081000
   0.83337000  0.83396000  0.18143000
Direct configuration=    13
   0.00218000  0.99867000  0.24166000
   0.00302000  0.33361000  0.00057000
   0.99328373  0.32915739  0.36885346
   0.16217000  0.49431000  0.05981000
   0.16492000  0.83554000  0.06027000
   0.49961382  0.49745636  0.30467060
   0.50447000  0.49654000  0.06032000
   0.50514000  0.16237000  0.18167000
   0.66136000  0.00065000  0.24022000
   0.66603000  0.99799000  0.00047000
   0.66849176  0.00189333  0.36579579
   0.65989000  0.33950000  0.00031000
   0.66032271  0.33489558  0.36522409
   0.66352000  0.99935000  0.12162000
   0.16811209  0.16467266  0.30209141
   0.99997000  0.33205000  0.24166000
   0.16781450  0.50063070  0.30335089
   0.00013000  0.66493000  0.24143000
   0.17085568  0.82723686  0.30302193
   0.99854000  0.00048000  0.00000000
   0.99864211  0.99858510  0.35802367
   0.16550000  0.16500000  0.06050000
   0.00106000  0.66662000  0.00057000
   0.99441447  0.66499586  0.36069557
   0.99930000  0.99936000  0.12074000
   0.16685000  0.16538000  0.18105000
   0.99936000  0.33161000  0.12083000
   0.16544000  0.49812000  0.18093000
   0.00040000  0.66536000  0.12057000
   0.16627000  0.83203000  0.18103000
   0.33360000  0.99731000  0.24116000
   0.49577342  0.16423264  0.30109088
   0.33251000  0.33244000  0.24115000
   0.33243000  0.66411000  0.24135000
   0.49650704  0.83004505  0.30256195
   0.33406000  0.99850000  0.00062000
   0.33465273  0.00221287  0.36029782
   0.50112000  0.16466000  0.06049000
   0.33306000  0.33260000  0.00065000
   0.32977471  0.32950725  0.36106675
   0.33279000  0.66191000  0.00103000
   0.50000000  0.83116000  0.06060000
   0.33336000  0.99854000  0.12089000
   0.33259000  0.33282000  0.12015000
   0.49958000  0.49779000  0.18076000
   0.33192000  0.66330000  0.12025000
   0.49972000  0.83017000  0.18081000
   0.83231229  0.16268041  0.29898994
   0.66532000  0.33232000  0.24137000
   0.83333811  0.50105335  0.30113501
   0.66623000  0.66534000  0.24124000
   0.83330242  0.83086311  0.30111866
   0.83178000  0.16609000  0.06006000
   0.83424000  0.49924000  0.06020000
   0.66675000  0.66697000  0.00034000
   0.66949902  0.66750560  0.35994290
   0.83291000  0.83387000  0.06067000
   0.83469000  0.16589000  0.18162000
   0.66681000  0.33159000  0.12072000
   0.83279000  0.49851000  0.18135000
   0.66709000  0.66502000  0.12081000
   0.83337000  0.83396000  0.18143000
Direct configuration=    14
   0.00218000  0.99867000  0.24166000
   0.00302000  0.33361000  0.00057000
   0.99375464  0.32899023  0.36886542
   0.16217000  0.49431000  0.05981000
   0.16492000  0.83554000  0.06027000
   0.50013097  0.49729936  0.30448005
   0.50447000  0.49654000  0.06032000
   0.50514000  0.16237000  0.18167000
   0.66136000  0.00065000  0.24022000
   0.66603000  0.99799000  0.00047000
   0.66857927  0.00141158  0.36583107
   0.65989000  0.33950000  0.00031000
   0.66085904  0.33450107  0.36520603
   0.66352000  0.99935000  0.12162000
   0.16839787  0.16480620  0.30217148
   0.99997000  0.33205000  0.24166000
   0.16796064  0.50089166  0.30331540
   0.00013000  0.66493000  0.24143000
   0.17080326  0.82770490  0.30297751
   0.99854000  0.00048000  0.00000000
   0.99897005  0.99860383  0.35793064
   0.16550000  0.16500000  0.06050000
   0.00106000  0.66662000  0.00057000
   0.99431443  0.66497340  0.36056550
   0.99930000  0.99936000  0.12074000
   0.16685000  0.16538000  0.18105000
   0.99936000  0.33161000  0.12083000
   0.16544000  0.49812000  0.18093000
   0.00040000  0.66536000  0.12057000
   0.16627000  0.83203000  0.18103000
   0.33360000  0.99731000  0.24116000
   0.49581553  0.16409827  0.30109416
   0.33251000  0.33244000  0.24115000
   0.33243000  0.66411000  0.24135000
   0.49629701  0.82997508  0.30253118
   0.33406000  0.99850000  0.00062000
   0.33463156  0.00263840  0.36024311
   0.50112000  0.16466000  0.06049000
   0.33306000  0.33260000  0.00065000
   0.33017424  0.32990694  0.36102779
   0.33279000  0.66191000  0.00103000
   0.50000000  0.83116000  0.06060000
   0.33336000  0.99854000  0.12089000
   0.33259000  0.33282000  0.12015000
   0.49958000  0.49779000  0.18076000
   0.33192000  0.66330000  0.12025000
   0.49972000  0.83017000  0.18081000
   0.83245481  0.16252350  0.29890465
   0.66532000  0.33232000  0.24137000
   0.83325542  0.50107479  0.30121529
   0.66623000  0.66534000  0.24124000
   0.83328877  0.83045297  0.30111180
   0.83178000  0.16609000  0.06006000
   0.83424000  0.49924000  0.06020000
   0.66675000  0.66697000  0.00034000
   0.66936146  0.66740204  0.35990300
   0.83291000  0.83387000  0.06067000
   0.83469000  0.16589000  0.18162000
   0.66681000  0.33159000  0.12072000
   0.83279000  0.49851000  0.18135000
   0.66709000  0.66502000  0.12081000
   0.83337000  0.83396000  0.18143000
Direct configuration=    15
   0.00218000  0.99867000  0.24166000
   0.00302000  0.33361000  0.00057000
   0.99356715  0.32905678  0.36886066
   0.16217000  0.49431000  0.05981000
   0.16492000  0.83554000  0.06027000
   0.49992508  0.49736187  0.30455591
   0.50447000  0.49654000  0.06032000
   0.50514000  0.16237000  0.18167000
   0.66136000  0.00065000  0.24022000
   0.66603000  0.99799000  0.00047000
   0.66854443  0.00160338  0.36581702
   0.65989000  0.33950000  0.00031000
   0.66064551  0.33465813  0.36521322
   0.66352000  0.99935000  0.12162000
   0.16828410  0.16475303  0.30213961
   0.99997000  0.33205000  0.24166000
   0.16790246  0.50078776  0.30332953
   0.00013000  0.66493000  0.24143000
   0.17082413  0.82751856  0.30299519
   0.99854000  0.00048000  0.00000000
   0.99883949  0.99859637  0.35796768
   0.16550000  0.16500000  0.06050000
   0.00106000  0.66662000  0.00057000
   0.99435426  0.66498234  0.36061728
   0.99930000  0.99936000  0.12074000
   0.16685000  0.16538000  0.18105000
   0.99936000  0.33161000  0.12083000
   0.16544000  0.49812000  0.18093000
   0.00040000  0.66536000  0.12057000
   0.16627000  0.83203000  0.18103000
   0.33360000  0.99731000  0.24116000
   0.49579876  0.16415177  0.30109286
   0.33251000  0.33244000  0.24115000
   0.33243000  0.66411000  0.24135000
   0.49638063  0.83000294  0.30254343
   0.33406000  0.99850000  0.00062000
   0.33463999  0.00246899  0.36026489
   0.50112000  0.16466000  0.06049000
   0.33306000  0.33260000  0.00065000
   0.33001518  0.32974781  0.36104330
   0.33279000  0.66191000  0.00103000
   0.50000000  0.83116000  0.06060000
   0.33336000  0.99854000  0.12089000
   0.33259000  0.33282000  0.12015000
   0.49958000  0.49779000  0.18076000
   0.33192000  0.66330000  0.12025000
   0.49972000  0.83017000  0.18081000
   0.83239807  0.16258597  0.29893861
   0.66532000  0.33232000  0.24137000
   0.83328834  0.50106625  0.30118333
   0.66623000  0.66534000  0.24124000
   0.83329421  0.83061626  0.30111453
   0.83178000  0.16609000  0.06006000
   0.83424000  0.49924000  0.06020000
   0.66675000  0.66697000  0.00034000
   0.66941623  0.66744327  0.35991888
   0.83291000  0.83387000  0.06067000
   0.83469000  0.16589000  0.18162000
   0.66681000  0.33159000  0.12072000
   0.83279000  0.49851000  0.18135000
   0.66709000  0.66502000  0.12081000
   0.83337000  0.83396000  0.18143000
Direct configuration=    16
   0.00218000  0.99867000  0.24166000
   0.00302000  0.33361000  0.00057000
   0.99339214  0.32911891  0.36885622
   0.16217000  0.49431000  0.05981000
   0.16492000  0.83554000  0.06027000
   0.49973289  0.49742021  0.30462673
   0.50447000  0.49654000  0.06032000
   0.50514000  0.16237000  0.18167000
   0.66136000  0.00065000  0.24022000
   0.66603000  0.99799000  0.00047000
   0.66851191  0.00178242  0.36580391
   0.65989000  0.33950000  0.00031000
   0.66044619  0.33480475  0.36521993
   0.66352000  0.99935000  0.12162000
   0.16817789  0.16470340  0.30210985
   0.99997000  0.33205000  0.24166000
   0.16784815  0.50069078  0.30334272
   0.00013000  0.66493000  0.24143000
   0.17084361  0.82734461  0.30301170
   0.99854000  0.00048000  0.00000000
   0.99871761  0.99858941  0.35800225
   0.16550000  0.16500000  0.06050000
   0.00106000  0.66662000  0.00057000
   0.99439144  0.66499069  0.36066562
   0.99930000  0.99936000  0.12074000
   0.16685000  0.16538000  0.18105000
   0.99936000  0.33161000  0.12083000
   0.16544000  0.49812000  0.18093000
   0.00040000  0.66536000  0.12057000
   0.16627000  0.83203000  0.18103000
   0.33360000  0.99731000  0.24116000
   0.49578312  0.16420171  0.30109164
   0.33251000  0.33244000  0.24115000
   0.33243000  0.66411000  0.24135000
   0.49645869  0.83002894  0.30255487
   0.33406000  0.99850000  0.00062000
   0.33464785  0.00231084  0.36028523
   0.50112000  0.16466000  0.06049000
   0.33306000  0.33260000  0.00065000
   0.32986669  0.32959927  0.36105778
   0.33279000  0.66191000  0.00103000
   0.50000000  0.83116000  0.06060000
   0.33336000  0.99854000  0.12089000
   0.33259000  0.33282000  0.12015000
   0.49958000  0.49779000  0.18076000
   0.33192000  0.66330000  0.12025000
   0.49972000  0.83017000  0.18081000
   0.83234511  0.16264428  0.29897030
   0.66532000  0.33232000  0.24137000
   0.83331907  0.50105828  0.30115349
   0.66623000  0.66534000  0.24124000
   0.83329928  0.83076868  0.30111708
   0.83178000  0.16609000  0.06006000
   0.83424000  0.49924000  0.06020000
   0.66675000  0.66697000  0.00034000
   0.66946735  0.66748176  0.35993371
   0.83291000  0.83387000  0.06067000
   0.83469000  0.16589000  0.18162000
   0.66681000  0.33159000  0.12072000
   0.83279000  0.49851000  0.18135000
   0.66709000  0.66502000  0.12081000
   0.83337000  0.83396000  0.18143000
Direct configuration=    17
   0.00218000  0.99867000  0.24166000
   0.00302000  0.33361000  0.00057000
   0.99356549  0.32904917  0.36881831
   0.16217000  0.49431000  0.05981000
   0.16492000  0.83554000  0.06027000
   0.49983399  0.49742818  0.30464264
   0.50447000  0.49654000  0.06032000
   0.50514000  0.16237000  0.18167000
   0.66136000  0.00065000  0.24022000
   0.66603000  0.99799000  0.00047000
   0.66852008  0.00165527  0.36579109
   0.65989000  0.33950000  0.00031000
   0.66057515  0.33472374  0.36527235
   0.66352000  0.99935000  0.12162000
   0.16802288  0.16473608  0.30217455
   0.99997000  0.33205000  0.24166000
   0.16788923  0.50070595  0.30332240
   0.00013000  0.66493000  0.24143000
   0.17092645  0.82728572  0.30308287
   0.99854000  0.00048000  0.00000000
   0.99862924  0.99858084  0.35807239
   0.16550000  0.16500000  0.06050000
   0.00106000  0.66662000  0.00057000
   0.99443169  0.66511090  0.36062995
   0.99930000  0.99936000  0.12074000
   0.16685000  0.16538000  0.18105000
   0.99936000  0.33161000  0.12083000
   0.16544000  0.49812000  0.18093000
   0.00040000  0.66536000  0.12057000
   0.16627000  0.83203000  0.18103000
   0.33360000  0.99731000  0.24116000
   0.49585952  0.16420235  0.30105126
   0.33251000  0.33244000  0.24115000
   0.33243000  0.66411000  0.24135000
   0.49637107  0.82989563  0.30261227
   0.33406000  0.99850000  0.00062000
   0.33484765  0.00234096  0.36029390
   0.50112000  0.16466000  0.06049000
   0.33306000  0.33260000  0.00065000
   0.33010793  0.32963629  0.36099097
   0.33279000  0.66191000  0.00103000
   0.50000000  0.83116000  0.06060000
   0.33336000  0.99854000  0.12089000
   0.33259000  0.33282000  0.12015000
   0.49958000  0.49779000  0.18076000
   0.33192000  0.66330000  0.12025000
   0.49972000  0.83017000  0.18081000
   0.83258689  0.16273192  0.29887173
   0.66532000  0.33232000  0.24137000
   0.83335127  0.50091179  0.30117323
   0.66623000  0.66534000  0.24124000
   0.83327270  0.83088220  0.30108484
   0.83178000  0.16609000  0.06006000
   0.83424000  0.49924000  0.06020000
   0.66675000  0.66697000  0.00034000
   0.66943952  0.66739491  0.35994478
   0.83291000  0.83387000  0.06067000
   0.83469000  0.16589000  0.18162000
   0.66681000  0.33159000  0.12072000
   0.83279000  0.49851000  0.18135000
   0.66709000  0.66502000  0.12081000
   0.83337000  0.83396000  0.18143000
