  63  63   0   0
  0.2711232E+02  0.8526200E-09  0.8504600E-09  0.2355580E-08  0.5000000E-15
  1.000000000000000E-004
  CAR 
 ni3al                                   
      5.34058595    -45.71225790  301      0.89841120      1.00000000
    -45.712  0.0000E+00  0.0000E+00  0.0000E+00  0.0000E+00
    -45.542  0.0000E+00  0.0000E+00  0.0000E+00  0.0000E+00
    -45.372  0.0000E+00  0.0000E+00  0.0000E+00  0.0000E+00
    -45.202  0.0000E+00  0.0000E+00  0.0000E+00  0.0000E+00
    -45.032  0.0000E+00  0.0000E+00  0.0000E+00  0.0000E+00
    -44.861  0.0000E+00  0.0000E+00  0.0000E+00  0.0000E+00
    -44.691  0.0000E+00 -0.1218E-33  0.0000E+00 -0.2072E-34
    -44.521  0.0000E+00 -0.1013E-25  0.0000E+00 -0.1723E-26
    -44.351  0.0000E+00 -0.6317E-19  0.0000E+00 -0.1075E-19
    -44.181 -0.2296E-32 -0.2851E-13 -0.3907E-33 -0.4852E-14
    -44.010 -0.1283E-24 -0.9836E-09 -0.2184E-25 -0.1674E-09
    -43.840 -0.5365E-18 -0.2543E-05 -0.9129E-19 -0.4329E-06
    -43.670 -0.1611E-12 -0.4853E-03 -0.2742E-13 -0.8302E-04
    -43.500 -0.3680E-08 -0.3734E-02 -0.6264E-09 -0.7185E-03
    -43.330 -0.6253E-05  0.6476E-01 -0.1065E-05  0.1030E-01
    -43.160 -0.7601E-03  0.1770E+00 -0.1304E-03  0.4043E-01
    -42.989 -0.7286E-03  0.5805E-01 -0.2544E-03  0.5031E-01
    -42.819  0.7380E-01  0.6111E-01  0.1231E-01  0.6071E-01
    -42.649  0.9617E-01  0.1368E+00  0.2867E-01  0.8399E-01
    -42.479  0.8397E-02  0.4607E-01  0.3010E-01  0.9183E-01
    -42.309  0.2045E-02  0.2883E-01  0.3045E-01  0.9674E-01
    -42.139  0.7347E-01  0.4417E-01  0.4295E-01  0.1043E+00
    -41.968  0.1137E+00  0.1653E-01  0.6230E-01  0.1071E+00
    -41.798  0.1256E+00  0.1451E-01  0.8368E-01  0.1095E+00
    -41.628  0.9490E-01  0.3160E-02  0.9983E-01  0.1101E+00
    -41.458  0.2634E-01 -0.4355E-03  0.1043E+00  0.1100E+00
    -41.288  0.3178E-01 -0.7078E-05  0.1097E+00  0.1100E+00
    -41.118  0.2206E-02 -0.5830E-08  0.1101E+00  0.1100E+00
    -40.947 -0.5365E-03 -0.7001E-11  0.1100E+00  0.1100E+00
    -40.777 -0.4648E-03 -0.6847E-07  0.1099E+00  0.1100E+00
    -40.607 -0.1119E-02 -0.4678E-04  0.1097E+00  0.1100E+00
    -40.437  0.4567E-01 -0.1570E-02  0.1175E+00  0.1097E+00
    -40.267  0.1012E+00  0.1256E-01  0.1347E+00  0.1119E+00
    -40.096  0.3347E-01  0.6124E-01  0.1404E+00  0.1223E+00
    -39.926 -0.2248E-02  0.5872E-01  0.1400E+00  0.1323E+00
    -39.756 -0.2338E-03  0.3450E-01  0.1400E+00  0.1381E+00
    -39.586 -0.8880E-06  0.1151E-01  0.1400E+00  0.1401E+00
    -39.416 -0.2215E-09 -0.5152E-03  0.1400E+00  0.1400E+00
    -39.246 -0.3930E-14 -0.1111E-03  0.1400E+00  0.1400E+00
    -39.075  0.0000E+00 -0.4563E-06  0.1400E+00  0.1400E+00
    -38.905  0.0000E+00 -0.1146E-09  0.1400E+00  0.1400E+00
    -38.735  0.0000E+00 -0.1997E-14  0.1400E+00  0.1400E+00
    -38.565  0.0000E+00  0.0000E+00  0.1400E+00  0.1400E+00
    -38.395  0.0000E+00  0.0000E+00  0.1400E+00  0.1400E+00
    -38.225  0.0000E+00  0.0000E+00  0.1400E+00  0.1400E+00
    -38.054  0.0000E+00  0.0000E+00  0.1400E+00  0.1400E+00
    -37.884  0.0000E+00  0.0000E+00  0.1400E+00  0.1400E+00
    -37.714  0.0000E+00  0.0000E+00  0.1400E+00  0.1400E+00
    -37.544  0.0000E+00  0.0000E+00  0.1400E+00  0.1400E+00
    -37.374  0.0000E+00  0.0000E+00  0.1400E+00  0.1400E+00
    -37.203  0.0000E+00  0.0000E+00  0.1400E+00  0.1400E+00
    -37.033  0.0000E+00  0.0000E+00  0.1400E+00  0.1400E+00
    -36.863  0.0000E+00  0.0000E+00  0.1400E+00  0.1400E+00
    -36.693  0.0000E+00  0.0000E+00  0.1400E+00  0.1400E+00
    -36.523  0.0000E+00  0.0000E+00  0.1400E+00  0.1400E+00
    -36.353  0.0000E+00  0.0000E+00  0.1400E+00  0.1400E+00
    -36.182  0.0000E+00  0.0000E+00  0.1400E+00  0.1400E+00
    -36.012  0.0000E+00  0.0000E+00  0.1400E+00  0.1400E+00
    -35.842  0.0000E+00  0.0000E+00  0.1400E+00  0.1400E+00
    -35.672  0.0000E+00  0.0000E+00  0.1400E+00  0.1400E+00
    -35.502  0.0000E+00  0.0000E+00  0.1400E+00  0.1400E+00
    -35.332  0.0000E+00  0.0000E+00  0.1400E+00  0.1400E+00
    -35.161  0.0000E+00  0.0000E+00  0.1400E+00  0.1400E+00
    -34.991  0.0000E+00  0.0000E+00  0.1400E+00  0.1400E+00
    -34.821  0.0000E+00  0.0000E+00  0.1400E+00  0.1400E+00
    -34.651  0.0000E+00  0.0000E+00  0.1400E+00  0.1400E+00
    -34.481  0.0000E+00  0.0000E+00  0.1400E+00  0.1400E+00
    -34.310  0.0000E+00  0.0000E+00  0.1400E+00  0.1400E+00
    -34.140  0.0000E+00  0.0000E+00  0.1400E+00  0.1400E+00
    -33.970  0.0000E+00  0.0000E+00  0.1400E+00  0.1400E+00
    -33.800  0.0000E+00  0.0000E+00  0.1400E+00  0.1400E+00
    -33.630  0.0000E+00  0.0000E+00  0.1400E+00  0.1400E+00
    -33.460  0.0000E+00  0.0000E+00  0.1400E+00  0.1400E+00
    -33.289  0.0000E+00  0.0000E+00  0.1400E+00  0.1400E+00
    -33.119  0.0000E+00  0.0000E+00  0.1400E+00  0.1400E+00
    -32.949  0.0000E+00  0.0000E+00  0.1400E+00  0.1400E+00
    -32.779  0.0000E+00  0.0000E+00  0.1400E+00  0.1400E+00
    -32.609  0.0000E+00  0.0000E+00  0.1400E+00  0.1400E+00
    -32.439  0.0000E+00  0.0000E+00  0.1400E+00  0.1400E+00
    -32.268  0.0000E+00  0.0000E+00  0.1400E+00  0.1400E+00
    -32.098  0.0000E+00  0.0000E+00  0.1400E+00  0.1400E+00
    -31.928  0.0000E+00  0.0000E+00  0.1400E+00  0.1400E+00
    -31.758  0.0000E+00  0.0000E+00  0.1400E+00  0.1400E+00
    -31.588  0.0000E+00  0.0000E+00  0.1400E+00  0.1400E+00
    -31.417  0.0000E+00  0.0000E+00  0.1400E+00  0.1400E+00
    -31.247  0.0000E+00  0.0000E+00  0.1400E+00  0.1400E+00
    -31.077  0.0000E+00  0.0000E+00  0.1400E+00  0.1400E+00
    -30.907  0.0000E+00  0.0000E+00  0.1400E+00  0.1400E+00
    -30.737  0.0000E+00  0.0000E+00  0.1400E+00  0.1400E+00
    -30.567  0.0000E+00  0.0000E+00  0.1400E+00  0.1400E+00
    -30.396  0.0000E+00  0.0000E+00  0.1400E+00  0.1400E+00
    -30.226  0.0000E+00  0.0000E+00  0.1400E+00  0.1400E+00
    -30.056  0.0000E+00  0.0000E+00  0.1400E+00  0.1400E+00
    -29.886  0.0000E+00  0.0000E+00  0.1400E+00  0.1400E+00
    -29.716  0.0000E+00  0.0000E+00  0.1400E+00  0.1400E+00
    -29.546  0.0000E+00  0.0000E+00  0.1400E+00  0.1400E+00
    -29.375  0.0000E+00  0.0000E+00  0.1400E+00  0.1400E+00
    -29.205  0.0000E+00  0.0000E+00  0.1400E+00  0.1400E+00
    -29.035  0.0000E+00  0.0000E+00  0.1400E+00  0.1400E+00
    -28.865  0.0000E+00  0.0000E+00  0.1400E+00  0.1400E+00
    -28.695  0.0000E+00  0.0000E+00  0.1400E+00  0.1400E+00
    -28.524  0.0000E+00  0.0000E+00  0.1400E+00  0.1400E+00
    -28.354  0.0000E+00  0.0000E+00  0.1400E+00  0.1400E+00
    -28.184  0.0000E+00  0.0000E+00  0.1400E+00  0.1400E+00
    -28.014  0.0000E+00  0.0000E+00  0.1400E+00  0.1400E+00
    -27.844  0.0000E+00  0.0000E+00  0.1400E+00  0.1400E+00
    -27.674  0.0000E+00  0.0000E+00  0.1400E+00  0.1400E+00
    -27.503  0.0000E+00  0.0000E+00  0.1400E+00  0.1400E+00
    -27.333  0.0000E+00  0.0000E+00  0.1400E+00  0.1400E+00
    -27.163  0.0000E+00  0.0000E+00  0.1400E+00  0.1400E+00
    -26.993  0.0000E+00  0.0000E+00  0.1400E+00  0.1400E+00
    -26.823  0.0000E+00  0.0000E+00  0.1400E+00  0.1400E+00
    -26.653  0.0000E+00  0.0000E+00  0.1400E+00  0.1400E+00
    -26.482  0.0000E+00  0.0000E+00  0.1400E+00  0.1400E+00
    -26.312  0.0000E+00  0.0000E+00  0.1400E+00  0.1400E+00
    -26.142  0.0000E+00  0.0000E+00  0.1400E+00  0.1400E+00
    -25.972  0.0000E+00  0.0000E+00  0.1400E+00  0.1400E+00
    -25.802  0.0000E+00  0.0000E+00  0.1400E+00  0.1400E+00
    -25.631  0.0000E+00  0.0000E+00  0.1400E+00  0.1400E+00
    -25.461  0.0000E+00  0.0000E+00  0.1400E+00  0.1400E+00
    -25.291  0.0000E+00  0.0000E+00  0.1400E+00  0.1400E+00
    -25.121  0.0000E+00  0.0000E+00  0.1400E+00  0.1400E+00
    -24.951  0.0000E+00  0.0000E+00  0.1400E+00  0.1400E+00
    -24.781  0.0000E+00  0.0000E+00  0.1400E+00  0.1400E+00
    -24.610  0.0000E+00  0.0000E+00  0.1400E+00  0.1400E+00
    -24.440  0.0000E+00  0.0000E+00  0.1400E+00  0.1400E+00
    -24.270  0.0000E+00  0.0000E+00  0.1400E+00  0.1400E+00
    -24.100  0.0000E+00  0.0000E+00  0.1400E+00  0.1400E+00
    -23.930  0.0000E+00  0.0000E+00  0.1400E+00  0.1400E+00
    -23.760  0.0000E+00  0.0000E+00  0.1400E+00  0.1400E+00
    -23.589  0.0000E+00  0.0000E+00  0.1400E+00  0.1400E+00
    -23.419  0.0000E+00  0.0000E+00  0.1400E+00  0.1400E+00
    -23.249  0.0000E+00  0.0000E+00  0.1400E+00  0.1400E+00
    -23.079  0.0000E+00  0.0000E+00  0.1400E+00  0.1400E+00
    -22.909  0.0000E+00  0.0000E+00  0.1400E+00  0.1400E+00
    -22.738  0.0000E+00  0.0000E+00  0.1400E+00  0.1400E+00
    -22.568  0.0000E+00  0.0000E+00  0.1400E+00  0.1400E+00
    -22.398  0.0000E+00  0.0000E+00  0.1400E+00  0.1400E+00
    -22.228  0.0000E+00  0.0000E+00  0.1400E+00  0.1400E+00
    -22.058  0.0000E+00  0.0000E+00  0.1400E+00  0.1400E+00
    -21.888  0.0000E+00  0.0000E+00  0.1400E+00  0.1400E+00
    -21.717  0.0000E+00  0.0000E+00  0.1400E+00  0.1400E+00
    -21.547  0.0000E+00  0.0000E+00  0.1400E+00  0.1400E+00
    -21.377  0.0000E+00  0.0000E+00  0.1400E+00  0.1400E+00
    -21.207  0.0000E+00  0.0000E+00  0.1400E+00  0.1400E+00
    -21.037  0.0000E+00  0.0000E+00  0.1400E+00  0.1400E+00
    -20.867  0.0000E+00  0.0000E+00  0.1400E+00  0.1400E+00
    -20.696  0.0000E+00  0.0000E+00  0.1400E+00  0.1400E+00
    -20.526  0.0000E+00  0.0000E+00  0.1400E+00  0.1400E+00
    -20.356  0.0000E+00  0.0000E+00  0.1400E+00  0.1400E+00
    -20.186  0.0000E+00  0.0000E+00  0.1400E+00  0.1400E+00
    -20.016  0.0000E+00  0.0000E+00  0.1400E+00  0.1400E+00
    -19.845  0.0000E+00  0.0000E+00  0.1400E+00  0.1400E+00
    -19.675  0.0000E+00  0.0000E+00  0.1400E+00  0.1400E+00
    -19.505  0.0000E+00  0.0000E+00  0.1400E+00  0.1400E+00
    -19.335  0.0000E+00  0.0000E+00  0.1400E+00  0.1400E+00
    -19.165  0.0000E+00  0.0000E+00  0.1400E+00  0.1400E+00
    -18.995  0.0000E+00  0.0000E+00  0.1400E+00  0.1400E+00
    -18.824  0.0000E+00  0.0000E+00  0.1400E+00  0.1400E+00
    -18.654  0.0000E+00  0.0000E+00  0.1400E+00  0.1400E+00
    -18.484  0.0000E+00  0.0000E+00  0.1400E+00  0.1400E+00
    -18.314  0.0000E+00  0.0000E+00  0.1400E+00  0.1400E+00
    -18.144  0.0000E+00  0.0000E+00  0.1400E+00  0.1400E+00
    -17.974  0.0000E+00  0.0000E+00  0.1400E+00  0.1400E+00
    -17.803  0.0000E+00  0.0000E+00  0.1400E+00  0.1400E+00
    -17.633  0.0000E+00  0.0000E+00  0.1400E+00  0.1400E+00
    -17.463  0.0000E+00  0.0000E+00  0.1400E+00  0.1400E+00
    -17.293  0.0000E+00  0.0000E+00  0.1400E+00  0.1400E+00
    -17.123  0.0000E+00  0.0000E+00  0.1400E+00  0.1400E+00
    -16.952  0.0000E+00  0.0000E+00  0.1400E+00  0.1400E+00
    -16.782 -0.6226E-30 -0.8830E-29  0.1400E+00  0.1400E+00
    -16.612 -0.1782E-22 -0.1705E-21  0.1400E+00  0.1400E+00
    -16.442 -0.3731E-16 -0.2393E-15  0.1400E+00  0.1400E+00
    -16.272 -0.5942E-11 -0.2508E-10  0.1400E+00  0.1400E+00
    -16.102 -0.6930E-07 -0.1907E-06  0.1400E+00  0.1400E+00
    -15.931 -0.5612E-04 -0.9951E-04  0.1400E+00  0.1400E+00
    -15.761 -0.2323E-02 -0.2453E-02  0.1396E+00  0.1396E+00
    -15.591  0.1993E-01  0.2576E-01  0.1430E+00  0.1439E+00
    -15.421  0.7501E-01  0.7079E-01  0.1558E+00  0.1560E+00
    -15.251  0.6749E-02  0.5140E-02  0.1569E+00  0.1569E+00
    -15.081 -0.1359E-02 -0.1183E-02  0.1567E+00  0.1567E+00
    -14.910 -0.1616E-04 -0.1336E-04  0.1567E+00  0.1567E+00
    -14.740 -0.1167E-07 -0.9072E-08  0.1567E+00  0.1567E+00
    -14.570 -0.6138E-12 -0.4395E-12  0.1567E+00  0.1567E+00
    -14.400  0.0000E+00  0.0000E+00  0.1567E+00  0.1567E+00
    -14.230  0.0000E+00  0.0000E+00  0.1567E+00  0.1567E+00
    -14.059  0.0000E+00  0.0000E+00  0.1567E+00  0.1567E+00
    -13.889  0.0000E+00  0.0000E+00  0.1567E+00  0.1567E+00
    -13.719  0.0000E+00  0.0000E+00  0.1567E+00  0.1567E+00
    -13.549  0.0000E+00  0.0000E+00  0.1567E+00  0.1567E+00
    -13.379  0.0000E+00  0.0000E+00  0.1567E+00  0.1567E+00
    -13.209  0.0000E+00  0.0000E+00  0.1567E+00  0.1567E+00
    -13.038  0.0000E+00  0.0000E+00  0.1567E+00  0.1567E+00
    -12.868  0.0000E+00  0.0000E+00  0.1567E+00  0.1567E+00
    -12.698  0.0000E+00  0.0000E+00  0.1567E+00  0.1567E+00
    -12.528  0.0000E+00  0.0000E+00  0.1567E+00  0.1567E+00
    -12.358  0.0000E+00  0.0000E+00  0.1567E+00  0.1567E+00
    -12.188  0.0000E+00  0.0000E+00  0.1567E+00  0.1567E+00
    -12.017  0.0000E+00  0.0000E+00  0.1567E+00  0.1567E+00
    -11.847  0.0000E+00  0.0000E+00  0.1567E+00  0.1567E+00
    -11.677  0.0000E+00  0.0000E+00  0.1567E+00  0.1567E+00
    -11.507  0.0000E+00  0.0000E+00  0.1567E+00  0.1567E+00
    -11.337  0.0000E+00  0.0000E+00  0.1567E+00  0.1567E+00
    -11.167  0.0000E+00  0.0000E+00  0.1567E+00  0.1567E+00
    -10.996  0.0000E+00  0.0000E+00  0.1567E+00  0.1567E+00
    -10.826  0.0000E+00  0.0000E+00  0.1567E+00  0.1567E+00
    -10.656  0.0000E+00  0.0000E+00  0.1567E+00  0.1567E+00
    -10.486  0.0000E+00  0.0000E+00  0.1567E+00  0.1567E+00
    -10.316  0.0000E+00  0.0000E+00  0.1567E+00  0.1567E+00
    -10.145  0.0000E+00  0.0000E+00  0.1567E+00  0.1567E+00
     -9.975  0.0000E+00  0.0000E+00  0.1567E+00  0.1567E+00
     -9.805  0.0000E+00  0.0000E+00  0.1567E+00  0.1567E+00
     -9.635  0.0000E+00  0.0000E+00  0.1567E+00  0.1567E+00
     -9.465  0.0000E+00  0.0000E+00  0.1567E+00  0.1567E+00
     -9.295  0.0000E+00  0.0000E+00  0.1567E+00  0.1567E+00
     -9.124  0.0000E+00  0.0000E+00  0.1567E+00  0.1567E+00
     -8.954  0.0000E+00  0.0000E+00  0.1567E+00  0.1567E+00
     -8.784 -0.2397E-33 -0.1181E-30  0.1567E+00  0.1567E+00
     -8.614 -0.1606E-25 -0.3561E-23  0.1567E+00  0.1567E+00
     -8.444 -0.8195E-19 -0.7861E-17  0.1567E+00  0.1567E+00
     -8.274 -0.3066E-13 -0.1337E-11  0.1567E+00  0.1567E+00
     -8.103 -0.8788E-09 -0.1645E-07  0.1567E+00  0.1567E+00
     -7.933 -0.1803E-05 -0.1368E-04  0.1567E+00  0.1567E+00
     -7.763 -0.2217E-03 -0.5380E-03  0.1566E+00  0.1566E+00
     -7.593  0.7248E-03  0.4946E-02  0.1568E+00  0.1574E+00
     -7.423  0.1495E-01  0.1487E-01  0.1593E+00  0.1599E+00
     -7.252  0.4718E-02  0.3948E-03  0.1601E+00  0.1600E+00
     -7.082  0.2891E-02  0.8273E-03  0.1606E+00  0.1602E+00
     -6.912  0.4688E-02  0.3600E-02  0.1614E+00  0.1608E+00
     -6.742  0.6690E-02  0.6219E-02  0.1625E+00  0.1618E+00
     -6.572  0.3268E-02  0.4859E-02  0.1631E+00  0.1627E+00
     -6.402  0.3978E-02  0.3302E-02  0.1638E+00  0.1632E+00
     -6.231  0.7909E-02  0.4942E-02  0.1651E+00  0.1641E+00
     -6.061  0.1049E-01  0.7411E-02  0.1669E+00  0.1653E+00
     -5.891  0.9655E-02  0.1138E-01  0.1685E+00  0.1673E+00
     -5.721  0.6339E-02  0.8491E-02  0.1696E+00  0.1687E+00
     -5.551  0.1455E-01  0.5929E-02  0.1721E+00  0.1697E+00
     -5.381  0.1567E-01  0.1483E-01  0.1748E+00  0.1722E+00
     -5.210  0.1073E-01  0.1473E-01  0.1766E+00  0.1747E+00
     -5.040  0.7409E-02  0.1065E-01  0.1778E+00  0.1765E+00
     -4.870  0.1511E-01  0.5960E-02  0.1804E+00  0.1776E+00
     -4.700  0.2376E-01  0.1024E-01  0.1845E+00  0.1793E+00
     -4.530  0.2613E-01  0.1969E-01  0.1889E+00  0.1827E+00
     -4.359  0.1887E-01  0.2583E-01  0.1921E+00  0.1871E+00
     -4.189  0.2853E-01  0.1729E-01  0.1970E+00  0.1900E+00
     -4.019  0.4967E-01  0.1281E-01  0.2054E+00  0.1922E+00
     -3.849  0.7485E-01  0.2623E-01  0.2182E+00  0.1966E+00
     -3.679  0.1080E+00  0.2323E-01  0.2365E+00  0.2006E+00
     -3.509  0.1141E+00  0.2954E-01  0.2560E+00  0.2056E+00
     -3.338  0.1473E+00  0.2703E-01  0.2810E+00  0.2102E+00
     -3.168  0.1599E+00  0.4929E-01  0.3082E+00  0.2186E+00
     -2.998  0.1724E+00  0.5217E-01  0.3376E+00  0.2275E+00
     -2.828  0.1295E+00  0.6870E-01  0.3596E+00  0.2392E+00
     -2.658  0.1634E+00  0.7161E-01  0.3874E+00  0.2514E+00
     -2.488  0.2544E+00  0.7632E-01  0.4307E+00  0.2643E+00
     -2.317  0.2481E+00  0.9408E-01  0.4729E+00  0.2804E+00
     -2.147  0.2210E+00  0.1124E+00  0.5105E+00  0.2995E+00
     -1.977  0.2413E+00  0.1225E+00  0.5516E+00  0.3203E+00
     -1.807  0.2370E+00  0.1161E+00  0.5919E+00  0.3401E+00
     -1.637  0.2208E+00  0.1131E+00  0.6295E+00  0.3593E+00
     -1.466  0.2179E+00  0.1177E+00  0.6666E+00  0.3793E+00
     -1.296  0.1853E+00  0.1510E+00  0.6981E+00  0.4050E+00
     -1.126  0.1554E+00  0.1863E+00  0.7246E+00  0.4367E+00
     -0.956  0.1584E+00  0.1867E+00  0.7515E+00  0.4685E+00
     -0.786  0.1790E+00  0.1860E+00  0.7820E+00  0.5002E+00
     -0.616  0.2173E+00  0.1974E+00  0.8190E+00  0.5337E+00
     -0.445  0.2802E+00  0.2050E+00  0.8667E+00  0.5686E+00
     -0.275  0.3156E+00  0.2085E+00  0.9204E+00  0.6041E+00
     -0.105  0.2633E+00  0.2003E+00  0.9652E+00  0.6382E+00
      0.065  0.1923E+00  0.1834E+00  0.9979E+00  0.6694E+00
      0.235  0.1595E+00  0.1519E+00  0.1025E+01  0.6953E+00
      0.405  0.1491E+00  0.1207E+00  0.1050E+01  0.7158E+00
      0.576  0.1440E+00  0.1136E+00  0.1075E+01  0.7351E+00
      0.746  0.1370E+00  0.1151E+00  0.1098E+01  0.7547E+00
      0.916  0.1153E+00  0.1055E+00  0.1118E+01  0.7727E+00
      1.086  0.1050E+00  0.1269E+00  0.1136E+01  0.7943E+00
      1.256  0.9971E-01  0.1526E+00  0.1153E+01  0.8203E+00
      1.427  0.9321E-01  0.1642E+00  0.1169E+01  0.8482E+00
      1.597  0.9265E-01  0.1818E+00  0.1184E+01  0.8791E+00
      1.767  0.1024E+00  0.2220E+00  0.1202E+01  0.9169E+00
      1.937  0.1066E+00  0.2544E+00  0.1220E+01  0.9602E+00
      2.107  0.8221E-01  0.2886E+00  0.1234E+01  0.1009E+01
      2.277  0.1818E-01  0.2936E+00  0.1237E+01  0.1059E+01
      2.448 -0.1904E-02  0.3079E+00  0.1237E+01  0.1112E+01
      2.618 -0.9983E-04  0.3154E+00  0.1237E+01  0.1165E+01
      2.788 -0.2704E-06  0.2206E+00  0.1237E+01  0.1203E+01
      2.958 -0.5384E-10  0.1519E+00  0.1237E+01  0.1229E+01
      3.128 -0.8193E-15  0.5015E-01  0.1237E+01  0.1237E+01
      3.298  0.0000E+00 -0.3280E-02  0.1237E+01  0.1237E+01
      3.469  0.0000E+00 -0.3788E-03  0.1237E+01  0.1237E+01
      3.639  0.0000E+00 -0.1654E-05  0.1237E+01  0.1237E+01
      3.809  0.0000E+00 -0.5186E-09  0.1237E+01  0.1237E+01
      3.979  0.0000E+00 -0.1237E-13  0.1237E+01  0.1237E+01
      4.149  0.0000E+00  0.0000E+00  0.1237E+01  0.1237E+01
      4.320  0.0000E+00  0.0000E+00  0.1237E+01  0.1237E+01
      4.490  0.0000E+00  0.0000E+00  0.1237E+01  0.1237E+01
      4.660  0.0000E+00  0.0000E+00  0.1237E+01  0.1237E+01
      4.830  0.0000E+00  0.0000E+00  0.1237E+01  0.1237E+01
      5.000  0.0000E+00  0.0000E+00  0.1237E+01  0.1237E+01
      5.170  0.0000E+00  0.0000E+00  0.1237E+01  0.1237E+01
      5.341  0.0000E+00  0.0000E+00  0.1237E+01  0.1237E+01
