Generated by VASPKIT code               
   1.00000000000000     
     8.5261999999999993    0.0000000000000000    0.0000000000000000
    -0.0017663600000000    8.5045998199999993    0.0000000000000000
     0.0000000000000000    0.0000000000000000   23.5558000000000014
   Pb   Cr   Fe
     1    13    49
Selective dynamics
Direct
  0.2735032778640590  0.4176520749754248  0.4182353654141022   T   T   T
  0.9996200000000002  0.3343100000000021  0.0019899999999993   F   F   F
 -0.0096279563491531  0.3434769270063450  0.3712189005892702   T   T   T
  0.3559976104589146  0.6937654370818138  0.3588483053214078   T   T   T
  0.6687900000000013  0.9968900000000005  0.1222500000000011   F   F   F
  0.1634491180880230  0.8396602791760677  0.2985118224040260   T   T   T
  0.8302557588355368  0.8341790534519989  0.3023745003623710   T   T   T
  0.3366200000000035  0.9978399999999965  0.2417200000000008   F   F   F
  0.0024000000000015  0.3333200000000005  0.2407899999999970   F   F   F
  0.0012699999999981  0.6647600000000011  0.1204600000000013   F   F   F
  0.3392199999999974  0.3307199999999995  0.0000000000000000   F   F   F
  0.3352399999999989  0.6703699999999984  0.0002300000000020   F   F   F
  0.5027199999999965  0.8339100000000030  0.1809799999999981   F   F   F
  0.8377899999999983  0.4999899999999968  0.0613499999999974   F   F   F
  0.6688199999999966  0.6665500000000009  0.0006800000000027   F   F   F
  0.5022200000000012  0.8331799999999987  0.0607699999999980   F   F   F
  0.1689399999999992  0.8330399999999969  0.0606200000000001   F   F   F
  0.0100803413141616  0.6558730759025480  0.3606986489670823   T   T   T
  0.0023899999999983  0.6644099999999966  0.0005099999999985   F   F   F
  0.6752614869411356  0.3365479114553618  0.3606894746074701   T   T   T
  0.6692999999999998  0.3335799999999978  0.0005000000000024   F   F   F
  0.5021500000000003  0.4999200000000030  0.0608599999999981   F   F   F
  0.8361999999999981  0.8320599999999985  0.0608599999999981   F   F   F
  0.6588758634350876  0.6647410315524869  0.3641082859223053   T   T   T
  0.6694800000000001  0.9988299999999981  0.0005299999999977   F   F   F
  0.6669631564892098  0.0105859004877794  0.3605916028921246   T   T   T
  0.3298002338195945 -0.0147072037192308  0.3598561399634383   T   T   T
  0.5034300000000016  0.1651999999999987  0.0610500000000016   F   F   F
  0.1692899999999966  0.1669399999999968  0.0607100000000003   F   F   F
  0.3365700000000018  0.0007499999999965  0.0006699999999995   F   F   F
  0.0027100000000004  0.9986900000000034  0.0003400000000013   F   F   F
  0.0129116041134223  0.9983134845690211  0.3586674034613124   T   T   T
  0.8357000000000028  0.1655599999999993  0.0609400000000022   F   F   F
  0.1706100000000035  0.4974599999999967  0.0603199999999973   F   F   F
  0.4954846554184708  0.1739634340220478  0.3043106364600686   T   T   T
  0.6698799999999991  0.9992400000000004  0.2414199999999980   F   F   F
  0.6696499999999972  0.3330399999999969  0.1210299999999975   F   F   F
  0.8362600000000029  0.4996300000000033  0.1811700000000016   F   F   F
  0.1689900000000009  0.8332899999999981  0.1817700000000002   F   F   F
  0.3358199999999982  0.6668900000000022  0.1209500000000006   F   F   F
  0.6691399999999987  0.6672200000000004  0.1211699999999993   F   F   F
  0.8367999999999967  0.8322000000000003  0.1811399999999992   F   F   F
  0.0017199999999988  0.9994399999999999  0.2415099999999981   F   F   F
  0.1715654998311662  0.1787542976342910  0.3068375963304721   T   T   T
  0.0026000000000010  0.3328399999999974  0.1210099999999983   F   F   F
  0.1699399999999969  0.4992500000000035  0.1810400000000030   F   F   F
  0.5016400000000019  0.1659399999999991  0.1813500000000019   F   F   F
  0.8361500000000035  0.1655900000000017  0.1809900000000013   F   F   F
  0.1698000000000022  0.1658699999999982  0.1809900000000013   F   F   F
  0.3362300000000005  0.9985199999999992  0.1210999999999984   F   F   F
  0.0024500000000032  0.9986499999999978  0.1211699999999993   F   F   F
  0.3365099999999970  0.3328699999999998  0.1208600000000004   F   F   F
  0.5018000000000029  0.4993699999999990  0.1812299999999993   F   F   F
  0.1724481477914919  0.5035439388067803  0.3019345279256764   T   T   T
  0.8392653968009967  0.1720741358011996  0.3040412203074244   T   T   T
  0.5005518074282297  0.4933054302281670  0.3061540755942515   T   T   T
  0.3352399999999989  0.3324599999999975  0.2418300000000002   F   F   F
  0.8320902767299269  0.4993897336919386  0.3029651434583577   T   T   T
  0.6690200000000033  0.3331700000000026  0.2412300000000016   F   F   F
  0.3360500000000002  0.6658800000000014  0.2414600000000036   F   F   F
  0.0031800000000004  0.6659799999999976  0.2417700000000025   F   F   F
  0.6691799999999972  0.6667399999999972  0.2413099999999986   F   F   F
  0.5046657692750337  0.8392690226927744  0.3009627973418098   T   T   T
 
  0.00000000E+00  0.00000000E+00  0.00000000E+00
  0.00000000E+00  0.00000000E+00  0.00000000E+00
  0.00000000E+00  0.00000000E+00  0.00000000E+00
  0.00000000E+00  0.00000000E+00  0.00000000E+00
  0.00000000E+00  0.00000000E+00  0.00000000E+00
  0.00000000E+00  0.00000000E+00  0.00000000E+00
  0.00000000E+00  0.00000000E+00  0.00000000E+00
  0.00000000E+00  0.00000000E+00  0.00000000E+00
  0.00000000E+00  0.00000000E+00  0.00000000E+00
  0.00000000E+00  0.00000000E+00  0.00000000E+00
  0.00000000E+00  0.00000000E+00  0.00000000E+00
  0.00000000E+00  0.00000000E+00  0.00000000E+00
  0.00000000E+00  0.00000000E+00  0.00000000E+00
  0.00000000E+00  0.00000000E+00  0.00000000E+00
  0.00000000E+00  0.00000000E+00  0.00000000E+00
  0.00000000E+00  0.00000000E+00  0.00000000E+00
  0.00000000E+00  0.00000000E+00  0.00000000E+00
  0.00000000E+00  0.00000000E+00  0.00000000E+00
  0.00000000E+00  0.00000000E+00  0.00000000E+00
  0.00000000E+00  0.00000000E+00  0.00000000E+00
  0.00000000E+00  0.00000000E+00  0.00000000E+00
  0.00000000E+00  0.00000000E+00  0.00000000E+00
  0.00000000E+00  0.00000000E+00  0.00000000E+00
  0.00000000E+00  0.00000000E+00  0.00000000E+00
  0.00000000E+00  0.00000000E+00  0.00000000E+00
  0.00000000E+00  0.00000000E+00  0.00000000E+00
  0.00000000E+00  0.00000000E+00  0.00000000E+00
  0.00000000E+00  0.00000000E+00  0.00000000E+00
  0.00000000E+00  0.00000000E+00  0.00000000E+00
  0.00000000E+00  0.00000000E+00  0.00000000E+00
  0.00000000E+00  0.00000000E+00  0.00000000E+00
  0.00000000E+00  0.00000000E+00  0.00000000E+00
  0.00000000E+00  0.00000000E+00  0.00000000E+00
  0.00000000E+00  0.00000000E+00  0.00000000E+00
  0.00000000E+00  0.00000000E+00  0.00000000E+00
  0.00000000E+00  0.00000000E+00  0.00000000E+00
  0.00000000E+00  0.00000000E+00  0.00000000E+00
  0.00000000E+00  0.00000000E+00  0.00000000E+00
  0.00000000E+00  0.00000000E+00  0.00000000E+00
  0.00000000E+00  0.00000000E+00  0.00000000E+00
  0.00000000E+00  0.00000000E+00  0.00000000E+00
  0.00000000E+00  0.00000000E+00  0.00000000E+00
  0.00000000E+00  0.00000000E+00  0.00000000E+00
  0.00000000E+00  0.00000000E+00  0.00000000E+00
  0.00000000E+00  0.00000000E+00  0.00000000E+00
  0.00000000E+00  0.00000000E+00  0.00000000E+00
  0.00000000E+00  0.00000000E+00  0.00000000E+00
  0.00000000E+00  0.00000000E+00  0.00000000E+00
  0.00000000E+00  0.00000000E+00  0.00000000E+00
  0.00000000E+00  0.00000000E+00  0.00000000E+00
  0.00000000E+00  0.00000000E+00  0.00000000E+00
  0.00000000E+00  0.00000000E+00  0.00000000E+00
  0.00000000E+00  0.00000000E+00  0.00000000E+00
  0.00000000E+00  0.00000000E+00  0.00000000E+00
  0.00000000E+00  0.00000000E+00  0.00000000E+00
  0.00000000E+00  0.00000000E+00  0.00000000E+00
  0.00000000E+00  0.00000000E+00  0.00000000E+00
  0.00000000E+00  0.00000000E+00  0.00000000E+00
  0.00000000E+00  0.00000000E+00  0.00000000E+00
  0.00000000E+00  0.00000000E+00  0.00000000E+00
  0.00000000E+00  0.00000000E+00  0.00000000E+00
  0.00000000E+00  0.00000000E+00  0.00000000E+00
  0.00000000E+00  0.00000000E+00  0.00000000E+00
