Generated by VASPKIT code
 1.000000
    8.4969999999999999    0.0000000000000000    0.0000000000000000
   -0.0079994200000000    8.5191962399999994    0.0000000000000000
    0.0000000000000000    0.0000000000000000   23.5736999999999988
   Pb   Cr   Fe
     1    13    49
Selective Dynamics
Direct
    0.1709600000000000    0.5007500000000000    0.4469700000000000    T  T  T    Pb001
    0.9955900000000000    0.3282800000000000    0.1209200000000000    F  F  F    Cr001
    0.3323200000000000    0.3336800000000000    0.3724600000000000    T  T  T    Cr002
    0.3355400000000000    0.3371700000000000    0.1224400000000000    F  F  F    Cr003
    0.9980800000000000    0.0029400000000000    0.0013800000000000    F  F  F    Cr004
    0.0012300000000000    0.0020100000000000    0.3716900000000000    T  T  T    Cr005
    0.3320500000000000    0.9993400000000000    0.1217100000000000    F  F  F    Cr006
    0.6667999999999999    0.9988000000000000    0.2435000000000000    F  F  F    Cr007
    0.8345200000000000    0.1661300000000000    0.0612000000000000    F  F  F    Cr008
    0.6729400000000000    0.0020400000000000    0.1206900000000000    F  F  F    Cr009
    0.3340500000000000    0.6669500000000000    0.2411100000000000    F  F  F    Cr010
    0.9991000000000000    0.6674300000000000    0.1213800000000000    F  F  F    Cr011
    0.3315100000000000    0.6680400000000000    0.0017400000000000    F  F  F    Cr012
    0.3326800000000000    0.3322000000000000    0.0000000000000000    F  F  F    Cr013
    0.8346600000000000    0.8346000000000000    0.0607600000000000    F  F  F    Fe001
    0.6733600000000000    0.6669100000000000    0.3621100000000000    T  T  T    Fe002
    0.6661600000000000    0.6669900000000000    0.0009100000000000    F  F  F    Fe003
    0.8337500000000000    0.8322500000000000    0.3033200000000000    T  T  T    Fe004
    0.6670400000000000    0.6674600000000001    0.2422900000000000    F  F  F    Fe005
    0.5018000000000000    0.8345600000000000    0.1807900000000000    F  F  F    Fe006
    0.3330600000000000    0.6670900000000000    0.1214300000000000    F  F  F    Fe007
    0.5000900000000000    0.8356800000000000    0.0616500000000000    F  F  F    Fe008
    0.8333000000000000    0.8348600000000000    0.1820700000000000    F  F  F    Fe009
    0.6675100000000000    0.6677999999999999    0.1212700000000000    F  F  F    Fe010
    0.0005900000000000    0.6670800000000000    0.3611000000000000    T  T  T    Fe011
    0.1664400000000000    0.8342000000000001    0.0614900000000000    F  F  F    Fe012
    0.1709200000000000    0.8299299999999999    0.3025600000000000    T  T  T    Fe013
    0.0014000000000000    0.6661300000000000    0.0010000000000000    F  F  F    Fe014
    0.8347900000000000    0.5008899999999999    0.1813000000000000    F  F  F    Fe015
    0.0000700000000000    0.6666900000000000    0.2422500000000000    F  F  F    Fe016
    0.8346000000000000    0.5005700000000000    0.0613500000000000    F  F  F    Fe017
    0.6658500000000001    0.3331300000000000    0.1214000000000000    F  F  F    Fe018
    0.1656500000000000    0.8345600000000000    0.1818300000000000    F  F  F    Fe019
    0.4962000000000000    0.8276600000000000    0.3044000000000000    T  T  T    Fe020
    0.0017900000000000    0.3355000000000000    0.0009000000000000    F  F  F    Fe021
    0.0013700000000000    0.3349700000000000    0.3594900000000000    T  T  T    Fe022
    0.4979500000000000    0.1669000000000000    0.0615000000000000    F  F  F    Fe023
    0.5007400000000000    0.1649400000000000    0.1814400000000000    F  F  F    Fe024
    0.8323500000000000    0.1671200000000000    0.3025400000000000    T  T  T    Fe025
    0.6650000000000000    0.0004000000000000    0.0006000000000000    F  F  F    Fe026
    0.6597300000000000    0.9979500000000000    0.3610300000000000    T  T  T    Fe027
    0.8324500000000000    0.1654700000000000    0.1817100000000000    F  F  F    Fe028
    0.9999700000000000    0.3336100000000000    0.2419800000000000    F  F  F    Fe029
    0.1696200000000000    0.5054999999999999    0.3021400000000000    T  T  T    Fe030
    0.3343800000000000    0.9994499999999999    0.2420300000000000    F  F  F    Fe031
    0.4990200000000000    0.1663800000000000    0.3024200000000000    T  T  T    Fe032
    0.0005000000000000    0.0005300000000000    0.1217800000000000    F  F  F    Fe033
    0.1680900000000000    0.1673600000000000    0.1813800000000000    F  F  F    Fe034
    0.1683100000000000    0.1670100000000000    0.3017900000000000    T  T  T    Fe035
    0.1676400000000000    0.1683300000000000    0.0617900000000000    F  F  F    Fe036
    0.9993400000000000    0.0003000000000000    0.2421900000000000    F  F  F    Fe037
    0.3325000000000000    0.0005700000000000    0.0010600000000000    F  F  F    Fe038
    0.3321100000000000    0.0019100000000000    0.3602700000000000    T  T  T    Fe039
    0.1656400000000000    0.4997100000000000    0.1812300000000000    F  F  F    Fe040
    0.1674600000000000    0.4978700000000000    0.0624700000000000    F  F  F    Fe041
    0.4991900000000000    0.5047700000000001    0.3026500000000000    T  T  T    Fe042
    0.3334500000000000    0.3340000000000000    0.2417600000000000    F  F  F    Fe043
    0.5012799999999999    0.5008700000000000    0.1816700000000000    F  F  F    Fe044
    0.4979300000000000    0.5002500000000000    0.0611600000000000    F  F  F    Fe045
    0.8341200000000000    0.5010800000000000    0.3029100000000000    T  T  T    Fe046
    0.6666299999999999    0.3332900000000000    0.2421800000000000    F  F  F    Fe047
    0.6671500000000000    0.3343000000000000    0.3603700000000000    T  T  T    Fe048
    0.6654700000000000    0.3347000000000000    0.0008100000000000    F  F  F    Fe049
