  64  64   0   0
  0.2666318E+02  0.8497000E-09  0.8519200E-09  0.2357370E-08  0.5000000E-15
  1.000000000000000E-004
  CAR 
 INCAR-For-OPT                           
      5.48624863    -45.60806964  301      1.04466679      1.00000000
    -45.608  0.0000E+00  0.0000E+00  0.0000E+00  0.0000E+00
    -45.438  0.0000E+00  0.0000E+00  0.0000E+00  0.0000E+00
    -45.267  0.0000E+00  0.0000E+00  0.0000E+00  0.0000E+00
    -45.097  0.0000E+00  0.0000E+00  0.0000E+00  0.0000E+00
    -44.927  0.0000E+00  0.0000E+00  0.0000E+00  0.0000E+00
    -44.756  0.0000E+00  0.0000E+00  0.0000E+00  0.0000E+00
    -44.586  0.0000E+00 -0.1533E-33  0.0000E+00 -0.2612E-34
    -44.416  0.0000E+00 -0.1421E-25  0.0000E+00 -0.2420E-26
    -44.246  0.0000E+00 -0.9975E-19  0.0000E+00 -0.1699E-19
    -44.075 -0.7610E-34 -0.5117E-13 -0.1296E-34 -0.8715E-14
    -43.905 -0.6965E-26 -0.2007E-08 -0.1186E-26 -0.3419E-09
    -43.735 -0.4800E-19 -0.5744E-05 -0.8175E-20 -0.9786E-06
    -43.564 -0.2411E-13 -0.1094E-02 -0.4107E-14 -0.1872E-03
    -43.394 -0.9328E-09 -0.3904E-02 -0.1589E-09 -0.8521E-03
    -43.224 -0.2689E-05  0.1247E+00 -0.4582E-06  0.2039E-01
    -43.053 -0.5334E-03  0.1902E+00 -0.9130E-04  0.5278E-01
    -42.883 -0.1899E-02  0.1289E+00 -0.4147E-03  0.7474E-01
    -42.713  0.6490E-01  0.6315E-01  0.1064E-01  0.8549E-01
    -42.542  0.5741E-01  0.6917E-01  0.2042E-01  0.9727E-01
    -42.372 -0.1978E-02  0.1791E-01  0.2008E-01  0.1003E+00
    -42.202  0.5281E-01 -0.1828E-02  0.2907E-01  0.1000E+00
    -42.031  0.5758E-01 -0.1173E-02  0.3888E-01  0.9981E-01
    -41.861  0.9797E-01  0.1041E-01  0.5557E-01  0.1016E+00
    -41.691  0.2140E+00  0.2991E-01  0.9202E-01  0.1067E+00
    -41.521  0.9675E-01  0.1647E-01  0.1085E+00  0.1095E+00
    -41.350  0.1078E-01  0.2845E-01  0.1103E+00  0.1143E+00
    -41.180 -0.1921E-02  0.3142E-01  0.1100E+00  0.1197E+00
    -41.010 -0.4841E-04  0.2450E-02  0.1100E+00  0.1201E+00
    -40.839 -0.6414E-07 -0.5431E-03  0.1100E+00  0.1200E+00
    -40.669 -0.2136E-06 -0.7920E-05  0.1100E+00  0.1200E+00
    -40.499 -0.1214E-03 -0.1463E-06  0.1100E+00  0.1200E+00
    -40.328 -0.3263E-02 -0.5647E-04  0.1094E+00  0.1200E+00
    -40.158  0.3098E-01 -0.8514E-03  0.1147E+00  0.1198E+00
    -39.988  0.1135E+00  0.1039E-01  0.1340E+00  0.1216E+00
    -39.817  0.3683E-01  0.2774E-01  0.1403E+00  0.1263E+00
    -39.647 -0.1438E-02  0.3254E-01  0.1401E+00  0.1319E+00
    -39.477 -0.3457E-03  0.3321E-01  0.1400E+00  0.1375E+00
    -39.306 -0.2617E-05  0.1538E-01  0.1400E+00  0.1402E+00
    -39.136 -0.1287E-08 -0.8003E-03  0.1400E+00  0.1400E+00
    -38.966 -0.4394E-13 -0.1174E-03  0.1400E+00  0.1400E+00
    -38.795  0.0000E+00 -0.4562E-06  0.1400E+00  0.1400E+00
    -38.625  0.0000E+00 -0.1119E-09  0.1400E+00  0.1400E+00
    -38.455  0.0000E+00 -0.1912E-14  0.1400E+00  0.1400E+00
    -38.285  0.0000E+00  0.0000E+00  0.1400E+00  0.1400E+00
    -38.114  0.0000E+00  0.0000E+00  0.1400E+00  0.1400E+00
    -37.944  0.0000E+00  0.0000E+00  0.1400E+00  0.1400E+00
    -37.774  0.0000E+00  0.0000E+00  0.1400E+00  0.1400E+00
    -37.603  0.0000E+00  0.0000E+00  0.1400E+00  0.1400E+00
    -37.433  0.0000E+00  0.0000E+00  0.1400E+00  0.1400E+00
    -37.263  0.0000E+00  0.0000E+00  0.1400E+00  0.1400E+00
    -37.092  0.0000E+00  0.0000E+00  0.1400E+00  0.1400E+00
    -36.922  0.0000E+00  0.0000E+00  0.1400E+00  0.1400E+00
    -36.752  0.0000E+00  0.0000E+00  0.1400E+00  0.1400E+00
    -36.581  0.0000E+00  0.0000E+00  0.1400E+00  0.1400E+00
    -36.411  0.0000E+00  0.0000E+00  0.1400E+00  0.1400E+00
    -36.241  0.0000E+00  0.0000E+00  0.1400E+00  0.1400E+00
    -36.070  0.0000E+00  0.0000E+00  0.1400E+00  0.1400E+00
    -35.900  0.0000E+00  0.0000E+00  0.1400E+00  0.1400E+00
    -35.730  0.0000E+00  0.0000E+00  0.1400E+00  0.1400E+00
    -35.560  0.0000E+00  0.0000E+00  0.1400E+00  0.1400E+00
    -35.389  0.0000E+00  0.0000E+00  0.1400E+00  0.1400E+00
    -35.219  0.0000E+00  0.0000E+00  0.1400E+00  0.1400E+00
    -35.049  0.0000E+00  0.0000E+00  0.1400E+00  0.1400E+00
    -34.878  0.0000E+00  0.0000E+00  0.1400E+00  0.1400E+00
    -34.708  0.0000E+00  0.0000E+00  0.1400E+00  0.1400E+00
    -34.538  0.0000E+00  0.0000E+00  0.1400E+00  0.1400E+00
    -34.367  0.0000E+00  0.0000E+00  0.1400E+00  0.1400E+00
    -34.197  0.0000E+00  0.0000E+00  0.1400E+00  0.1400E+00
    -34.027  0.0000E+00  0.0000E+00  0.1400E+00  0.1400E+00
    -33.856  0.0000E+00  0.0000E+00  0.1400E+00  0.1400E+00
    -33.686  0.0000E+00  0.0000E+00  0.1400E+00  0.1400E+00
    -33.516  0.0000E+00  0.0000E+00  0.1400E+00  0.1400E+00
    -33.345  0.0000E+00  0.0000E+00  0.1400E+00  0.1400E+00
    -33.175  0.0000E+00  0.0000E+00  0.1400E+00  0.1400E+00
    -33.005  0.0000E+00  0.0000E+00  0.1400E+00  0.1400E+00
    -32.834  0.0000E+00  0.0000E+00  0.1400E+00  0.1400E+00
    -32.664  0.0000E+00  0.0000E+00  0.1400E+00  0.1400E+00
    -32.494  0.0000E+00  0.0000E+00  0.1400E+00  0.1400E+00
    -32.324  0.0000E+00  0.0000E+00  0.1400E+00  0.1400E+00
    -32.153  0.0000E+00  0.0000E+00  0.1400E+00  0.1400E+00
    -31.983  0.0000E+00  0.0000E+00  0.1400E+00  0.1400E+00
    -31.813  0.0000E+00  0.0000E+00  0.1400E+00  0.1400E+00
    -31.642  0.0000E+00  0.0000E+00  0.1400E+00  0.1400E+00
    -31.472  0.0000E+00  0.0000E+00  0.1400E+00  0.1400E+00
    -31.302  0.0000E+00  0.0000E+00  0.1400E+00  0.1400E+00
    -31.131  0.0000E+00  0.0000E+00  0.1400E+00  0.1400E+00
    -30.961  0.0000E+00  0.0000E+00  0.1400E+00  0.1400E+00
    -30.791  0.0000E+00  0.0000E+00  0.1400E+00  0.1400E+00
    -30.620  0.0000E+00  0.0000E+00  0.1400E+00  0.1400E+00
    -30.450  0.0000E+00  0.0000E+00  0.1400E+00  0.1400E+00
    -30.280  0.0000E+00  0.0000E+00  0.1400E+00  0.1400E+00
    -30.109  0.0000E+00  0.0000E+00  0.1400E+00  0.1400E+00
    -29.939  0.0000E+00  0.0000E+00  0.1400E+00  0.1400E+00
    -29.769  0.0000E+00  0.0000E+00  0.1400E+00  0.1400E+00
    -29.599  0.0000E+00  0.0000E+00  0.1400E+00  0.1400E+00
    -29.428  0.0000E+00  0.0000E+00  0.1400E+00  0.1400E+00
    -29.258  0.0000E+00  0.0000E+00  0.1400E+00  0.1400E+00
    -29.088  0.0000E+00  0.0000E+00  0.1400E+00  0.1400E+00
    -28.917  0.0000E+00  0.0000E+00  0.1400E+00  0.1400E+00
    -28.747  0.0000E+00  0.0000E+00  0.1400E+00  0.1400E+00
    -28.577  0.0000E+00  0.0000E+00  0.1400E+00  0.1400E+00
    -28.406  0.0000E+00  0.0000E+00  0.1400E+00  0.1400E+00
    -28.236  0.0000E+00  0.0000E+00  0.1400E+00  0.1400E+00
    -28.066  0.0000E+00  0.0000E+00  0.1400E+00  0.1400E+00
    -27.895  0.0000E+00  0.0000E+00  0.1400E+00  0.1400E+00
    -27.725  0.0000E+00  0.0000E+00  0.1400E+00  0.1400E+00
    -27.555  0.0000E+00  0.0000E+00  0.1400E+00  0.1400E+00
    -27.384  0.0000E+00  0.0000E+00  0.1400E+00  0.1400E+00
    -27.214  0.0000E+00  0.0000E+00  0.1400E+00  0.1400E+00
    -27.044  0.0000E+00  0.0000E+00  0.1400E+00  0.1400E+00
    -26.873  0.0000E+00  0.0000E+00  0.1400E+00  0.1400E+00
    -26.703  0.0000E+00  0.0000E+00  0.1400E+00  0.1400E+00
    -26.533  0.0000E+00  0.0000E+00  0.1400E+00  0.1400E+00
    -26.363  0.0000E+00  0.0000E+00  0.1400E+00  0.1400E+00
    -26.192  0.0000E+00  0.0000E+00  0.1400E+00  0.1400E+00
    -26.022  0.0000E+00  0.0000E+00  0.1400E+00  0.1400E+00
    -25.852  0.0000E+00  0.0000E+00  0.1400E+00  0.1400E+00
    -25.681  0.0000E+00  0.0000E+00  0.1400E+00  0.1400E+00
    -25.511  0.0000E+00  0.0000E+00  0.1400E+00  0.1400E+00
    -25.341  0.0000E+00  0.0000E+00  0.1400E+00  0.1400E+00
    -25.170  0.0000E+00  0.0000E+00  0.1400E+00  0.1400E+00
    -25.000  0.0000E+00  0.0000E+00  0.1400E+00  0.1400E+00
    -24.830  0.0000E+00  0.0000E+00  0.1400E+00  0.1400E+00
    -24.659  0.0000E+00  0.0000E+00  0.1400E+00  0.1400E+00
    -24.489  0.0000E+00  0.0000E+00  0.1400E+00  0.1400E+00
    -24.319  0.0000E+00  0.0000E+00  0.1400E+00  0.1400E+00
    -24.148  0.0000E+00  0.0000E+00  0.1400E+00  0.1400E+00
    -23.978  0.0000E+00  0.0000E+00  0.1400E+00  0.1400E+00
    -23.808  0.0000E+00  0.0000E+00  0.1400E+00  0.1400E+00
    -23.638  0.0000E+00  0.0000E+00  0.1400E+00  0.1400E+00
    -23.467  0.0000E+00  0.0000E+00  0.1400E+00  0.1400E+00
    -23.297  0.0000E+00  0.0000E+00  0.1400E+00  0.1400E+00
    -23.127  0.0000E+00  0.0000E+00  0.1400E+00  0.1400E+00
    -22.956  0.0000E+00  0.0000E+00  0.1400E+00  0.1400E+00
    -22.786  0.0000E+00  0.0000E+00  0.1400E+00  0.1400E+00
    -22.616  0.0000E+00  0.0000E+00  0.1400E+00  0.1400E+00
    -22.445  0.0000E+00  0.0000E+00  0.1400E+00  0.1400E+00
    -22.275  0.0000E+00  0.0000E+00  0.1400E+00  0.1400E+00
    -22.105  0.0000E+00  0.0000E+00  0.1400E+00  0.1400E+00
    -21.934  0.0000E+00  0.0000E+00  0.1400E+00  0.1400E+00
    -21.764  0.0000E+00  0.0000E+00  0.1400E+00  0.1400E+00
    -21.594  0.0000E+00  0.0000E+00  0.1400E+00  0.1400E+00
    -21.423  0.0000E+00  0.0000E+00  0.1400E+00  0.1400E+00
    -21.253  0.0000E+00  0.0000E+00  0.1400E+00  0.1400E+00
    -21.083  0.0000E+00  0.0000E+00  0.1400E+00  0.1400E+00
    -20.912  0.0000E+00  0.0000E+00  0.1400E+00  0.1400E+00
    -20.742  0.0000E+00  0.0000E+00  0.1400E+00  0.1400E+00
    -20.572  0.0000E+00  0.0000E+00  0.1400E+00  0.1400E+00
    -20.402  0.0000E+00  0.0000E+00  0.1400E+00  0.1400E+00
    -20.231  0.0000E+00  0.0000E+00  0.1400E+00  0.1400E+00
    -20.061  0.0000E+00  0.0000E+00  0.1400E+00  0.1400E+00
    -19.891  0.0000E+00  0.0000E+00  0.1400E+00  0.1400E+00
    -19.720  0.0000E+00  0.0000E+00  0.1400E+00  0.1400E+00
    -19.550  0.0000E+00  0.0000E+00  0.1400E+00  0.1400E+00
    -19.380  0.0000E+00  0.0000E+00  0.1400E+00  0.1400E+00
    -19.209  0.0000E+00  0.0000E+00  0.1400E+00  0.1400E+00
    -19.039  0.0000E+00  0.0000E+00  0.1400E+00  0.1400E+00
    -18.869  0.0000E+00  0.0000E+00  0.1400E+00  0.1400E+00
    -18.698  0.0000E+00  0.0000E+00  0.1400E+00  0.1400E+00
    -18.528  0.0000E+00  0.0000E+00  0.1400E+00  0.1400E+00
    -18.358  0.0000E+00  0.0000E+00  0.1400E+00  0.1400E+00
    -18.187  0.0000E+00  0.0000E+00  0.1400E+00  0.1400E+00
    -18.017  0.0000E+00  0.0000E+00  0.1400E+00  0.1400E+00
    -17.847  0.0000E+00  0.0000E+00  0.1400E+00  0.1400E+00
    -17.677  0.0000E+00  0.0000E+00  0.1400E+00  0.1400E+00
    -17.506  0.0000E+00  0.0000E+00  0.1400E+00  0.1400E+00
    -17.336  0.0000E+00  0.0000E+00  0.1400E+00  0.1400E+00
    -17.166  0.0000E+00  0.0000E+00  0.1400E+00  0.1400E+00
    -16.995  0.0000E+00  0.0000E+00  0.1400E+00  0.1400E+00
    -16.825  0.0000E+00 -0.3576E-36  0.1400E+00  0.1400E+00
    -16.655 -0.1831E-29 -0.6884E-28  0.1400E+00  0.1400E+00
    -16.484 -0.4610E-22 -0.9894E-21  0.1400E+00  0.1400E+00
    -16.314 -0.8447E-16 -0.1035E-14  0.1400E+00  0.1400E+00
    -16.144 -0.1157E-10 -0.8216E-10  0.1400E+00  0.1400E+00
    -15.973 -0.1152E-06 -0.4758E-06  0.1400E+00  0.1400E+00
    -15.803 -0.7827E-04 -0.1876E-03  0.1400E+00  0.1400E+00
    -15.633 -0.2547E-02 -0.2824E-02  0.1396E+00  0.1395E+00
    -15.462  0.2452E-01  0.3875E-01  0.1437E+00  0.1461E+00
    -15.292  0.7269E-01  0.6309E-01  0.1561E+00  0.1568E+00
    -15.122  0.4428E-02 -0.3243E-03  0.1569E+00  0.1568E+00
    -14.951 -0.1142E-02 -0.6431E-03  0.1567E+00  0.1567E+00
    -14.781 -0.1150E-04 -0.3788E-05  0.1567E+00  0.1567E+00
    -14.611 -0.7137E-08 -0.1427E-08  0.1567E+00  0.1567E+00
    -14.441 -0.3197E-12 -0.3874E-13  0.1567E+00  0.1567E+00
    -14.270  0.0000E+00  0.0000E+00  0.1567E+00  0.1567E+00
    -14.100  0.0000E+00  0.0000E+00  0.1567E+00  0.1567E+00
    -13.930  0.0000E+00  0.0000E+00  0.1567E+00  0.1567E+00
    -13.759  0.0000E+00  0.0000E+00  0.1567E+00  0.1567E+00
    -13.589  0.0000E+00  0.0000E+00  0.1567E+00  0.1567E+00
    -13.419  0.0000E+00  0.0000E+00  0.1567E+00  0.1567E+00
    -13.248  0.0000E+00  0.0000E+00  0.1567E+00  0.1567E+00
    -13.078  0.0000E+00  0.0000E+00  0.1567E+00  0.1567E+00
    -12.908  0.0000E+00  0.0000E+00  0.1567E+00  0.1567E+00
    -12.737  0.0000E+00  0.0000E+00  0.1567E+00  0.1567E+00
    -12.567  0.0000E+00  0.0000E+00  0.1567E+00  0.1567E+00
    -12.397  0.0000E+00  0.0000E+00  0.1567E+00  0.1567E+00
    -12.226  0.0000E+00  0.0000E+00  0.1567E+00  0.1567E+00
    -12.056  0.0000E+00  0.0000E+00  0.1567E+00  0.1567E+00
    -11.886  0.0000E+00  0.0000E+00  0.1567E+00  0.1567E+00
    -11.716  0.0000E+00  0.0000E+00  0.1567E+00  0.1567E+00
    -11.545  0.0000E+00  0.0000E+00  0.1567E+00  0.1567E+00
    -11.375  0.0000E+00  0.0000E+00  0.1567E+00  0.1567E+00
    -11.205  0.0000E+00  0.0000E+00  0.1567E+00  0.1567E+00
    -11.034  0.0000E+00  0.0000E+00  0.1567E+00  0.1567E+00
    -10.864  0.0000E+00  0.0000E+00  0.1567E+00  0.1567E+00
    -10.694  0.0000E+00  0.0000E+00  0.1567E+00  0.1567E+00
    -10.523  0.0000E+00  0.0000E+00  0.1567E+00  0.1567E+00
    -10.353  0.0000E+00  0.0000E+00  0.1567E+00  0.1567E+00
    -10.183  0.0000E+00  0.0000E+00  0.1567E+00  0.1567E+00
    -10.012  0.0000E+00  0.0000E+00  0.1567E+00  0.1567E+00
     -9.842  0.0000E+00  0.0000E+00  0.1567E+00  0.1567E+00
     -9.672  0.0000E+00  0.0000E+00  0.1567E+00  0.1567E+00
     -9.501  0.0000E+00  0.0000E+00  0.1567E+00  0.1567E+00
     -9.331  0.0000E+00  0.0000E+00  0.1567E+00  0.1567E+00
     -9.161  0.0000E+00  0.0000E+00  0.1567E+00  0.1567E+00
     -8.990  0.0000E+00  0.0000E+00  0.1567E+00  0.1567E+00
     -8.820  0.0000E+00 -0.1656E-35  0.1567E+00  0.1567E+00
     -8.650 -0.3194E-30 -0.2163E-27  0.1567E+00  0.1567E+00
     -8.480 -0.6980E-23 -0.2168E-20  0.1567E+00  0.1567E+00
     -8.309 -0.1172E-16 -0.1605E-14  0.1567E+00  0.1567E+00
     -8.139 -0.1542E-11 -0.9082E-10  0.1567E+00  0.1567E+00
     -7.969 -0.1605E-07 -0.3690E-06  0.1567E+00  0.1567E+00
     -7.798 -0.1229E-04 -0.9477E-04  0.1567E+00  0.1567E+00
     -7.628 -0.4920E-03 -0.3984E-03  0.1566E+00  0.1566E+00
     -7.458  0.4370E-02  0.1219E-01  0.1573E+00  0.1587E+00
     -7.287  0.1495E-01  0.8524E-02  0.1599E+00  0.1601E+00
     -7.117  0.1372E-02 -0.6455E-03  0.1601E+00  0.1600E+00
     -6.947  0.4545E-02  0.2341E-02  0.1609E+00  0.1604E+00
     -6.776  0.5303E-02  0.6117E-02  0.1618E+00  0.1614E+00
     -6.606  0.2954E-02  0.2841E-02  0.1623E+00  0.1619E+00
     -6.436  0.9276E-02  0.5610E-02  0.1639E+00  0.1629E+00
     -6.265  0.3066E-02  0.8292E-02  0.1644E+00  0.1643E+00
     -6.095  0.3792E-02  0.6620E-03  0.1650E+00  0.1644E+00
     -5.925  0.1363E-01  0.7179E-02  0.1674E+00  0.1656E+00
     -5.755  0.1215E-01  0.1431E-01  0.1694E+00  0.1681E+00
     -5.584  0.9627E-02  0.1010E-01  0.1711E+00  0.1698E+00
     -5.414  0.1318E-01  0.1007E-01  0.1733E+00  0.1715E+00
     -5.244  0.4763E-02  0.1238E-01  0.1741E+00  0.1736E+00
     -5.073  0.1608E-01  0.3017E-02  0.1769E+00  0.1741E+00
     -4.903  0.1898E-01  0.1628E-01  0.1801E+00  0.1769E+00
     -4.733  0.1365E-01  0.1824E-01  0.1824E+00  0.1800E+00
     -4.562  0.2001E-01  0.1032E-01  0.1858E+00  0.1818E+00
     -4.392  0.2171E-01  0.1912E-01  0.1895E+00  0.1850E+00
     -4.222  0.2737E-01  0.1070E-01  0.1942E+00  0.1868E+00
     -4.051  0.3615E-01  0.2758E-01  0.2003E+00  0.1915E+00
     -3.881  0.5477E-01  0.2438E-01  0.2097E+00  0.1957E+00
     -3.711  0.7493E-01  0.2514E-01  0.2224E+00  0.2000E+00
     -3.540  0.1136E+00  0.2047E-01  0.2418E+00  0.2035E+00
     -3.370  0.1176E+00  0.2878E-01  0.2618E+00  0.2084E+00
     -3.200  0.1414E+00  0.4129E-01  0.2859E+00  0.2154E+00
     -3.029  0.1878E+00  0.5788E-01  0.3179E+00  0.2252E+00
     -2.859  0.1581E+00  0.6465E-01  0.3448E+00  0.2363E+00
     -2.689  0.1453E+00  0.7908E-01  0.3695E+00  0.2497E+00
     -2.519  0.1874E+00  0.6231E-01  0.4015E+00  0.2603E+00
     -2.348  0.2602E+00  0.8484E-01  0.4458E+00  0.2748E+00
     -2.178  0.2358E+00  0.9892E-01  0.4859E+00  0.2916E+00
     -2.008  0.2237E+00  0.1144E+00  0.5240E+00  0.3111E+00
     -1.837  0.2331E+00  0.1206E+00  0.5637E+00  0.3317E+00
     -1.667  0.2267E+00  0.1204E+00  0.6023E+00  0.3522E+00
     -1.497  0.2239E+00  0.1158E+00  0.6405E+00  0.3719E+00
     -1.326  0.2241E+00  0.1561E+00  0.6787E+00  0.3985E+00
     -1.156  0.1851E+00  0.1717E+00  0.7102E+00  0.4277E+00
     -0.986  0.1600E+00  0.1752E+00  0.7374E+00  0.4576E+00
     -0.815  0.1705E+00  0.1834E+00  0.7665E+00  0.4888E+00
     -0.645  0.1961E+00  0.1934E+00  0.7999E+00  0.5217E+00
     -0.475  0.2396E+00  0.2065E+00  0.8407E+00  0.5569E+00
     -0.304  0.3010E+00  0.2028E+00  0.8919E+00  0.5914E+00
     -0.134  0.3084E+00  0.2107E+00  0.9444E+00  0.6273E+00
      0.036  0.2582E+00  0.1881E+00  0.9884E+00  0.6593E+00
      0.207  0.1889E+00  0.1475E+00  0.1021E+01  0.6845E+00
      0.377  0.1611E+00  0.1266E+00  0.1048E+01  0.7060E+00
      0.547  0.1448E+00  0.1321E+00  0.1073E+01  0.7285E+00
      0.717  0.1219E+00  0.1307E+00  0.1093E+01  0.7508E+00
      0.888  0.1058E+00  0.1082E+00  0.1111E+01  0.7692E+00
      1.058  0.8511E-01  0.1241E+00  0.1126E+01  0.7904E+00
      1.228  0.1011E+00  0.1536E+00  0.1143E+01  0.8165E+00
      1.399  0.1227E+00  0.1642E+00  0.1164E+01  0.8445E+00
      1.569  0.1261E+00  0.1867E+00  0.1186E+01  0.8763E+00
      1.739  0.1175E+00  0.2203E+00  0.1206E+01  0.9138E+00
      1.910  0.1157E+00  0.2259E+00  0.1225E+01  0.9523E+00
      2.080  0.1119E+00  0.2538E+00  0.1244E+01  0.9955E+00
      2.250  0.7944E-01  0.3046E+00  0.1258E+01  0.1047E+01
      2.421  0.1440E-01  0.3122E+00  0.1260E+01  0.1101E+01
      2.591 -0.1798E-02  0.3180E+00  0.1260E+01  0.1155E+01
      2.761 -0.6820E-04  0.2813E+00  0.1260E+01  0.1203E+01
      2.932 -0.1612E-06  0.1996E+00  0.1260E+01  0.1237E+01
      3.102 -0.3295E-10  0.1200E+00  0.1260E+01  0.1257E+01
      3.272 -0.5853E-15  0.1982E-01  0.1260E+01  0.1260E+01
      3.442  0.0000E+00 -0.2299E-02  0.1260E+01  0.1260E+01
      3.613  0.0000E+00 -0.1285E-03  0.1260E+01  0.1260E+01
      3.783  0.0000E+00 -0.4245E-06  0.1260E+01  0.1260E+01
      3.953  0.0000E+00 -0.1131E-09  0.1260E+01  0.1260E+01
      4.124  0.0000E+00 -0.2502E-14  0.1260E+01  0.1260E+01
      4.294  0.0000E+00  0.0000E+00  0.1260E+01  0.1260E+01
      4.464  0.0000E+00  0.0000E+00  0.1260E+01  0.1260E+01
      4.635  0.0000E+00  0.0000E+00  0.1260E+01  0.1260E+01
      4.805  0.0000E+00  0.0000E+00  0.1260E+01  0.1260E+01
      4.975  0.0000E+00  0.0000E+00  0.1260E+01  0.1260E+01
      5.146  0.0000E+00  0.0000E+00  0.1260E+01  0.1260E+01
      5.316  0.0000E+00  0.0000E+00  0.1260E+01  0.1260E+01
      5.486  0.0000E+00  0.0000E+00  0.1260E+01  0.1260E+01
