Generated by VASPKIT code
 1.000000
    8.4969997405999997    0.0000000000000000    0.0000000000000000
   -0.0079997886000000    8.5191965690000000    0.0000000000000000
    0.0000000000000000    0.0000000000000000   23.5736999511999983
   Cr   Fe   Pb
    14    49     1
Selective Dynamics
Direct
    0.9955900000000000    0.3282800000000000    0.1209200000000000    F  F  F            Cr1
    0.3322500000000000    0.3408200000000000    0.3635300000000000    T  T  T            Cr2
    0.3355400000000000    0.3371700000000000    0.1224400000000000    F  F  F            Cr3
    0.9980800000000000    0.0029400000000000    0.0013800000000000    F  F  F            Cr4
    0.0016200000000000    0.9999900000000000    0.3648600000000000    T  T  T            Cr5
    0.3320500000000000    0.9993400000000000    0.1217100000000000    F  F  F            Cr6
    0.6667999999999999    0.9988000000000000    0.2435000000000000    F  F  F            Cr7
    0.8345200000000000    0.1661300000000000    0.0612000000000000    F  F  F            Cr8
    0.6729400000000000    0.0020400000000000    0.1206900000000000    F  F  F            Cr9
    0.3340500000000000    0.6669500000000000    0.2411100000000000    F  F  F           Cr10
    0.9991000000000000    0.6674300000000000    0.1213800000000000    F  F  F           Cr11
    0.3321800000000000    0.6611300000000000    0.3733700000000000    T  T  T           Cr12
    0.3315100000000000    0.6680400000000000    0.0017400000000000    F  F  F           Cr13
    0.3326800000000000    0.3322000000000000    0.0000000000000000    F  F  F           Cr14
    0.8346600000000000    0.8346000000000000    0.0607600000000000    F  F  F            Fe1
    0.6672300000000000    0.6660000000000000    0.3604500000000000    T  T  T            Fe2
    0.6661600000000000    0.6669900000000000    0.0009100000000000    F  F  F            Fe3
    0.8330300000000000    0.8321300000000000    0.3040400000000000    T  T  T            Fe4
    0.6670400000000000    0.6674600000000001    0.2422900000000000    F  F  F            Fe5
    0.5018000000000000    0.8345600000000000    0.1807900000000000    F  F  F            Fe6
    0.3330600000000000    0.6670900000000000    0.1214300000000000    F  F  F            Fe7
    0.5000900000000000    0.8356800000000000    0.0616500000000000    F  F  F            Fe8
    0.8333000000000000    0.8348600000000000    0.1820700000000000    F  F  F            Fe9
    0.6675100000000000    0.6677999999999999    0.1212700000000000    F  F  F           Fe10
    0.0012900000000000    0.6663000000000000    0.3605400000000000    T  T  T           Fe11
    0.1664400000000000    0.8342000000000001    0.0614900000000000    F  F  F           Fe12
    0.1690600000000000    0.8321300000000000    0.3026600000000000    T  T  T           Fe13
    0.0014000000000000    0.6661300000000000    0.0010000000000000    F  F  F           Fe14
    0.8347900000000000    0.5008899999999999    0.1813000000000000    F  F  F           Fe15
    0.0000700000000000    0.6666900000000000    0.2422500000000000    F  F  F           Fe16
    0.8346000000000000    0.5005700000000000    0.0613500000000000    F  F  F           Fe17
    0.6658500000000001    0.3331300000000000    0.1214000000000000    F  F  F           Fe18
    0.1656500000000000    0.8345600000000000    0.1818300000000000    F  F  F           Fe19
    0.4991700000000000    0.8347400000000000    0.3033600000000000    T  T  T           Fe20
    0.0017900000000000    0.3355000000000000    0.0009000000000000    F  F  F           Fe21
    0.0058900000000000    0.3335900000000000    0.3609900000000000    T  T  T           Fe22
    0.4979500000000000    0.1669000000000000    0.0615000000000000    F  F  F           Fe23
    0.5007400000000000    0.1649400000000000    0.1814400000000000    F  F  F           Fe24
    0.8322100000000000    0.1690800000000000    0.3041300000000000    T  T  T           Fe25
    0.6650000000000000    0.0004000000000000    0.0006000000000000    F  F  F           Fe26
    0.6696900000000000    0.0016100000000000    0.3622400000000000    T  T  T           Fe27
    0.8324500000000000    0.1654700000000000    0.1817100000000000    F  F  F           Fe28
    0.9999700000000000    0.3336100000000000    0.2419800000000000    F  F  F           Fe29
    0.1634900000000000    0.5021600000000001    0.3019100000000000    T  T  T           Fe30
    0.3343800000000000    0.9994499999999999    0.2420300000000000    F  F  F           Fe31
    0.5001500000000000    0.1649700000000000    0.3035700000000000    T  T  T           Fe32
    0.0005000000000000    0.0005300000000000    0.1217800000000000    F  F  F           Fe33
    0.1680900000000000    0.1673600000000000    0.1813800000000000    F  F  F           Fe34
    0.1683800000000000    0.1674400000000000    0.3020400000000000    T  T  T           Fe35
    0.1676400000000000    0.1683300000000000    0.0617900000000000    F  F  F           Fe36
    0.9993400000000000    0.0003000000000000    0.2421900000000000    F  F  F           Fe37
    0.3325000000000000    0.0005700000000000    0.0010600000000000    F  F  F           Fe38
    0.3295100000000000    0.0005400000000000    0.3599600000000000    T  T  T           Fe39
    0.1656400000000000    0.4997100000000000    0.1812300000000000    F  F  F           Fe40
    0.1674600000000000    0.4978700000000000    0.0624700000000000    F  F  F           Fe41
    0.5031700000000000    0.5020200000000000    0.3021800000000000    T  T  T           Fe42
    0.3334500000000000    0.3340000000000000    0.2417600000000000    F  F  F           Fe43
    0.5012799999999999    0.5008700000000000    0.1816700000000000    F  F  F           Fe44
    0.4979300000000000    0.5002500000000000    0.0611600000000000    F  F  F           Fe45
    0.8338500000000000    0.4987400000000000    0.3036500000000000    T  T  T           Fe46
    0.6666299999999999    0.3332900000000000    0.2421800000000000    F  F  F           Fe47
    0.6595600000000000    0.3327600000000000    0.3617300000000000    T  T  T           Fe48
    0.6654700000000000    0.3347000000000000    0.0008100000000000    F  F  F           Fe49
    0.1620400000000000    0.5004400000000000    0.4491000000000000    T  T  T            Pb1
