  63  63   0   0
  0.2708641E+02  0.8497000E-09  0.8519200E-09  0.2357370E-08  0.5000000E-15
  1.000000000000000E-004
  CAR 
 INCAR-For-OPT                           
      5.50276411    -45.68998560  301      0.98982172      1.00000000
    -45.690  0.0000E+00  0.0000E+00  0.0000E+00  0.0000E+00
    -45.519  0.0000E+00  0.0000E+00  0.0000E+00  0.0000E+00
    -45.349  0.0000E+00  0.0000E+00  0.0000E+00  0.0000E+00
    -45.178  0.0000E+00  0.0000E+00  0.0000E+00  0.0000E+00
    -45.007  0.0000E+00  0.0000E+00  0.0000E+00  0.0000E+00
    -44.837  0.0000E+00  0.0000E+00  0.0000E+00  0.0000E+00
    -44.666  0.0000E+00 -0.8495E-34  0.0000E+00 -0.1450E-34
    -44.495  0.0000E+00 -0.7974E-26  0.0000E+00 -0.1361E-26
    -44.325  0.0000E+00 -0.5566E-19  0.0000E+00 -0.9498E-20
    -44.154  0.0000E+00 -0.2787E-13  0.0000E+00 -0.4755E-14
    -43.984 -0.4304E-35 -0.1054E-08 -0.7344E-36 -0.1798E-09
    -43.813 -0.5941E-27 -0.2932E-05 -0.1014E-27 -0.5005E-06
    -43.642 -0.6118E-20 -0.5944E-03 -0.1044E-20 -0.1019E-03
    -43.472 -0.4583E-14 -0.5392E-02 -0.7820E-15 -0.1022E-02
    -43.301 -0.2638E-09  0.8731E-01 -0.4502E-10  0.1388E-01
    -43.130 -0.1136E-05  0.2215E+00 -0.1938E-06  0.5167E-01
    -42.960 -0.3401E-03  0.1234E+00 -0.5823E-04  0.7272E-01
    -42.789 -0.3163E-02  0.1187E+00 -0.5980E-03  0.9298E-01
    -42.618  0.5680E-01  0.4183E-01  0.9095E-02  0.1001E+00
    -42.448  0.6552E-01 -0.1705E-03  0.2028E-01  0.1001E+00
    -42.277  0.2426E-01 -0.5276E-03  0.2441E-01  0.1000E+00
    -42.106  0.2788E-01 -0.4038E-05  0.2917E-01  0.1000E+00
    -41.936  0.5332E-01 -0.1382E-06  0.3827E-01  0.1000E+00
    -41.765  0.1967E+00 -0.5797E-04  0.7184E-01  0.9999E-01
    -41.595  0.1091E+00 -0.1042E-02  0.9046E-01  0.9981E-01
    -41.424  0.5583E-01  0.1161E-01  0.9999E-01  0.1018E+00
    -41.253  0.8160E-03  0.3889E-01  0.1001E+00  0.1084E+00
    -41.083 -0.7542E-03  0.1034E-01  0.1000E+00  0.1102E+00
    -40.912 -0.5839E-05 -0.1096E-02  0.1000E+00  0.1100E+00
    -40.741 -0.4946E-07 -0.3986E-04  0.1000E+00  0.1100E+00
    -40.571 -0.4478E-04 -0.6886E-07  0.9999E-01  0.1100E+00
    -40.400 -0.2383E-02 -0.7962E-11  0.9959E-01  0.1100E+00
    -40.229  0.1514E-01 -0.3051E-13  0.1022E+00  0.1100E+00
    -40.059  0.1147E+00 -0.9831E-09  0.1217E+00  0.1100E+00
    -39.888  0.5144E-01 -0.2157E-05  0.1305E+00  0.1100E+00
    -39.717 -0.2639E-02 -0.2794E-03  0.1301E+00  0.1100E+00
    -39.547 -0.3782E-03  0.1709E-03  0.1300E+00  0.1100E+00
    -39.376 -0.2032E-05  0.2132E-01  0.1300E+00  0.1136E+00
    -39.206 -0.7759E-09  0.5013E-01  0.1300E+00  0.1222E+00
    -39.035 -0.2142E-13  0.3987E-01  0.1300E+00  0.1290E+00
    -38.864  0.0000E+00  0.6853E-02  0.1300E+00  0.1301E+00
    -38.694  0.0000E+00 -0.8141E-03  0.1300E+00  0.1300E+00
    -38.523  0.0000E+00 -0.3779E-04  0.1300E+00  0.1300E+00
    -38.352  0.0000E+00 -0.7376E-07  0.1300E+00  0.1300E+00
    -38.182  0.0000E+00 -0.9173E-11  0.1300E+00  0.1300E+00
    -38.011  0.0000E+00 -0.7807E-16  0.1300E+00  0.1300E+00
    -37.840  0.0000E+00  0.0000E+00  0.1300E+00  0.1300E+00
    -37.670  0.0000E+00  0.0000E+00  0.1300E+00  0.1300E+00
    -37.499  0.0000E+00  0.0000E+00  0.1300E+00  0.1300E+00
    -37.329  0.0000E+00  0.0000E+00  0.1300E+00  0.1300E+00
    -37.158  0.0000E+00  0.0000E+00  0.1300E+00  0.1300E+00
    -36.987  0.0000E+00  0.0000E+00  0.1300E+00  0.1300E+00
    -36.817  0.0000E+00  0.0000E+00  0.1300E+00  0.1300E+00
    -36.646  0.0000E+00  0.0000E+00  0.1300E+00  0.1300E+00
    -36.475  0.0000E+00  0.0000E+00  0.1300E+00  0.1300E+00
    -36.305  0.0000E+00  0.0000E+00  0.1300E+00  0.1300E+00
    -36.134  0.0000E+00  0.0000E+00  0.1300E+00  0.1300E+00
    -35.963  0.0000E+00  0.0000E+00  0.1300E+00  0.1300E+00
    -35.793  0.0000E+00  0.0000E+00  0.1300E+00  0.1300E+00
    -35.622  0.0000E+00  0.0000E+00  0.1300E+00  0.1300E+00
    -35.451  0.0000E+00  0.0000E+00  0.1300E+00  0.1300E+00
    -35.281  0.0000E+00  0.0000E+00  0.1300E+00  0.1300E+00
    -35.110  0.0000E+00  0.0000E+00  0.1300E+00  0.1300E+00
    -34.940  0.0000E+00  0.0000E+00  0.1300E+00  0.1300E+00
    -34.769  0.0000E+00  0.0000E+00  0.1300E+00  0.1300E+00
    -34.598  0.0000E+00  0.0000E+00  0.1300E+00  0.1300E+00
    -34.428  0.0000E+00  0.0000E+00  0.1300E+00  0.1300E+00
    -34.257  0.0000E+00  0.0000E+00  0.1300E+00  0.1300E+00
    -34.086  0.0000E+00  0.0000E+00  0.1300E+00  0.1300E+00
    -33.916  0.0000E+00  0.0000E+00  0.1300E+00  0.1300E+00
    -33.745  0.0000E+00  0.0000E+00  0.1300E+00  0.1300E+00
    -33.574  0.0000E+00  0.0000E+00  0.1300E+00  0.1300E+00
    -33.404  0.0000E+00  0.0000E+00  0.1300E+00  0.1300E+00
    -33.233  0.0000E+00  0.0000E+00  0.1300E+00  0.1300E+00
    -33.062  0.0000E+00  0.0000E+00  0.1300E+00  0.1300E+00
    -32.892  0.0000E+00  0.0000E+00  0.1300E+00  0.1300E+00
    -32.721  0.0000E+00  0.0000E+00  0.1300E+00  0.1300E+00
    -32.551  0.0000E+00  0.0000E+00  0.1300E+00  0.1300E+00
    -32.380  0.0000E+00  0.0000E+00  0.1300E+00  0.1300E+00
    -32.209  0.0000E+00  0.0000E+00  0.1300E+00  0.1300E+00
    -32.039  0.0000E+00  0.0000E+00  0.1300E+00  0.1300E+00
    -31.868  0.0000E+00  0.0000E+00  0.1300E+00  0.1300E+00
    -31.697  0.0000E+00  0.0000E+00  0.1300E+00  0.1300E+00
    -31.527  0.0000E+00  0.0000E+00  0.1300E+00  0.1300E+00
    -31.356  0.0000E+00  0.0000E+00  0.1300E+00  0.1300E+00
    -31.185  0.0000E+00  0.0000E+00  0.1300E+00  0.1300E+00
    -31.015  0.0000E+00  0.0000E+00  0.1300E+00  0.1300E+00
    -30.844  0.0000E+00  0.0000E+00  0.1300E+00  0.1300E+00
    -30.673  0.0000E+00  0.0000E+00  0.1300E+00  0.1300E+00
    -30.503  0.0000E+00  0.0000E+00  0.1300E+00  0.1300E+00
    -30.332  0.0000E+00  0.0000E+00  0.1300E+00  0.1300E+00
    -30.162  0.0000E+00  0.0000E+00  0.1300E+00  0.1300E+00
    -29.991  0.0000E+00  0.0000E+00  0.1300E+00  0.1300E+00
    -29.820  0.0000E+00  0.0000E+00  0.1300E+00  0.1300E+00
    -29.650  0.0000E+00  0.0000E+00  0.1300E+00  0.1300E+00
    -29.479  0.0000E+00  0.0000E+00  0.1300E+00  0.1300E+00
    -29.308  0.0000E+00  0.0000E+00  0.1300E+00  0.1300E+00
    -29.138  0.0000E+00  0.0000E+00  0.1300E+00  0.1300E+00
    -28.967  0.0000E+00  0.0000E+00  0.1300E+00  0.1300E+00
    -28.796  0.0000E+00  0.0000E+00  0.1300E+00  0.1300E+00
    -28.626  0.0000E+00  0.0000E+00  0.1300E+00  0.1300E+00
    -28.455  0.0000E+00  0.0000E+00  0.1300E+00  0.1300E+00
    -28.284  0.0000E+00  0.0000E+00  0.1300E+00  0.1300E+00
    -28.114  0.0000E+00  0.0000E+00  0.1300E+00  0.1300E+00
    -27.943  0.0000E+00  0.0000E+00  0.1300E+00  0.1300E+00
    -27.773  0.0000E+00  0.0000E+00  0.1300E+00  0.1300E+00
    -27.602  0.0000E+00  0.0000E+00  0.1300E+00  0.1300E+00
    -27.431  0.0000E+00  0.0000E+00  0.1300E+00  0.1300E+00
    -27.261  0.0000E+00  0.0000E+00  0.1300E+00  0.1300E+00
    -27.090  0.0000E+00  0.0000E+00  0.1300E+00  0.1300E+00
    -26.919  0.0000E+00  0.0000E+00  0.1300E+00  0.1300E+00
    -26.749  0.0000E+00  0.0000E+00  0.1300E+00  0.1300E+00
    -26.578  0.0000E+00  0.0000E+00  0.1300E+00  0.1300E+00
    -26.407  0.0000E+00  0.0000E+00  0.1300E+00  0.1300E+00
    -26.237  0.0000E+00  0.0000E+00  0.1300E+00  0.1300E+00
    -26.066  0.0000E+00  0.0000E+00  0.1300E+00  0.1300E+00
    -25.895  0.0000E+00  0.0000E+00  0.1300E+00  0.1300E+00
    -25.725  0.0000E+00  0.0000E+00  0.1300E+00  0.1300E+00
    -25.554  0.0000E+00  0.0000E+00  0.1300E+00  0.1300E+00
    -25.384  0.0000E+00  0.0000E+00  0.1300E+00  0.1300E+00
    -25.213  0.0000E+00  0.0000E+00  0.1300E+00  0.1300E+00
    -25.042  0.0000E+00  0.0000E+00  0.1300E+00  0.1300E+00
    -24.872  0.0000E+00  0.0000E+00  0.1300E+00  0.1300E+00
    -24.701  0.0000E+00  0.0000E+00  0.1300E+00  0.1300E+00
    -24.530  0.0000E+00  0.0000E+00  0.1300E+00  0.1300E+00
    -24.360  0.0000E+00  0.0000E+00  0.1300E+00  0.1300E+00
    -24.189  0.0000E+00  0.0000E+00  0.1300E+00  0.1300E+00
    -24.018  0.0000E+00  0.0000E+00  0.1300E+00  0.1300E+00
    -23.848  0.0000E+00  0.0000E+00  0.1300E+00  0.1300E+00
    -23.677  0.0000E+00  0.0000E+00  0.1300E+00  0.1300E+00
    -23.506  0.0000E+00  0.0000E+00  0.1300E+00  0.1300E+00
    -23.336  0.0000E+00  0.0000E+00  0.1300E+00  0.1300E+00
    -23.165  0.0000E+00  0.0000E+00  0.1300E+00  0.1300E+00
    -22.995  0.0000E+00  0.0000E+00  0.1300E+00  0.1300E+00
    -22.824  0.0000E+00  0.0000E+00  0.1300E+00  0.1300E+00
    -22.653  0.0000E+00  0.0000E+00  0.1300E+00  0.1300E+00
    -22.483  0.0000E+00  0.0000E+00  0.1300E+00  0.1300E+00
    -22.312  0.0000E+00  0.0000E+00  0.1300E+00  0.1300E+00
    -22.141  0.0000E+00  0.0000E+00  0.1300E+00  0.1300E+00
    -21.971  0.0000E+00  0.0000E+00  0.1300E+00  0.1300E+00
    -21.800  0.0000E+00  0.0000E+00  0.1300E+00  0.1300E+00
    -21.629  0.0000E+00  0.0000E+00  0.1300E+00  0.1300E+00
    -21.459  0.0000E+00  0.0000E+00  0.1300E+00  0.1300E+00
    -21.288  0.0000E+00  0.0000E+00  0.1300E+00  0.1300E+00
    -21.117  0.0000E+00  0.0000E+00  0.1300E+00  0.1300E+00
    -20.947  0.0000E+00  0.0000E+00  0.1300E+00  0.1300E+00
    -20.776  0.0000E+00  0.0000E+00  0.1300E+00  0.1300E+00
    -20.606  0.0000E+00  0.0000E+00  0.1300E+00  0.1300E+00
    -20.435  0.0000E+00  0.0000E+00  0.1300E+00  0.1300E+00
    -20.264  0.0000E+00  0.0000E+00  0.1300E+00  0.1300E+00
    -20.094  0.0000E+00  0.0000E+00  0.1300E+00  0.1300E+00
    -19.923  0.0000E+00  0.0000E+00  0.1300E+00  0.1300E+00
    -19.752  0.0000E+00  0.0000E+00  0.1300E+00  0.1300E+00
    -19.582  0.0000E+00  0.0000E+00  0.1300E+00  0.1300E+00
    -19.411  0.0000E+00  0.0000E+00  0.1300E+00  0.1300E+00
    -19.240  0.0000E+00  0.0000E+00  0.1300E+00  0.1300E+00
    -19.070  0.0000E+00  0.0000E+00  0.1300E+00  0.1300E+00
    -18.899  0.0000E+00  0.0000E+00  0.1300E+00  0.1300E+00
    -18.728  0.0000E+00  0.0000E+00  0.1300E+00  0.1300E+00
    -18.558  0.0000E+00  0.0000E+00  0.1300E+00  0.1300E+00
    -18.387  0.0000E+00  0.0000E+00  0.1300E+00  0.1300E+00
    -18.217  0.0000E+00  0.0000E+00  0.1300E+00  0.1300E+00
    -18.046  0.0000E+00  0.0000E+00  0.1300E+00  0.1300E+00
    -17.875  0.0000E+00  0.0000E+00  0.1300E+00  0.1300E+00
    -17.705  0.0000E+00  0.0000E+00  0.1300E+00  0.1300E+00
    -17.534  0.0000E+00  0.0000E+00  0.1300E+00  0.1300E+00
    -17.363  0.0000E+00  0.0000E+00  0.1300E+00  0.1300E+00
    -17.193  0.0000E+00  0.0000E+00  0.1300E+00  0.1300E+00
    -17.022  0.0000E+00  0.0000E+00  0.1300E+00  0.1300E+00
    -16.851 -0.6662E-37 -0.6271E-36  0.1300E+00  0.1300E+00
    -16.681 -0.2219E-28 -0.1238E-27  0.1300E+00  0.1300E+00
    -16.510 -0.4101E-21 -0.1816E-20  0.1300E+00  0.1300E+00
    -16.339 -0.5481E-15 -0.1909E-14  0.1300E+00  0.1300E+00
    -16.169 -0.5469E-10 -0.1493E-09  0.1300E+00  0.1300E+00
    -15.998 -0.3887E-06 -0.8226E-06  0.1300E+00  0.1300E+00
    -15.828 -0.1802E-03 -0.2892E-03  0.1300E+00  0.1300E+00
    -15.657 -0.3028E-02 -0.2846E-02  0.1295E+00  0.1295E+00
    -15.486  0.4030E-01  0.5014E-01  0.1363E+00  0.1380E+00
    -15.316  0.6214E-01  0.5354E-01  0.1469E+00  0.1472E+00
    -15.145 -0.9989E-03 -0.2517E-02  0.1468E+00  0.1467E+00
    -14.974 -0.5675E-03 -0.3509E-03  0.1467E+00  0.1467E+00
    -14.804 -0.3038E-05 -0.1225E-05  0.1467E+00  0.1467E+00
    -14.633 -0.1097E-08 -0.2870E-09  0.1467E+00  0.1467E+00
    -14.462 -0.2946E-13 -0.4961E-14  0.1467E+00  0.1467E+00
    -14.292  0.0000E+00  0.0000E+00  0.1467E+00  0.1467E+00
    -14.121  0.0000E+00  0.0000E+00  0.1467E+00  0.1467E+00
    -13.950  0.0000E+00  0.0000E+00  0.1467E+00  0.1467E+00
    -13.780  0.0000E+00  0.0000E+00  0.1467E+00  0.1467E+00
    -13.609  0.0000E+00  0.0000E+00  0.1467E+00  0.1467E+00
    -13.439  0.0000E+00  0.0000E+00  0.1467E+00  0.1467E+00
    -13.268  0.0000E+00  0.0000E+00  0.1467E+00  0.1467E+00
    -13.097  0.0000E+00  0.0000E+00  0.1467E+00  0.1467E+00
    -12.927  0.0000E+00  0.0000E+00  0.1467E+00  0.1467E+00
    -12.756  0.0000E+00  0.0000E+00  0.1467E+00  0.1467E+00
    -12.585  0.0000E+00  0.0000E+00  0.1467E+00  0.1467E+00
    -12.415  0.0000E+00  0.0000E+00  0.1467E+00  0.1467E+00
    -12.244  0.0000E+00  0.0000E+00  0.1467E+00  0.1467E+00
    -12.073  0.0000E+00  0.0000E+00  0.1467E+00  0.1467E+00
    -11.903  0.0000E+00  0.0000E+00  0.1467E+00  0.1467E+00
    -11.732  0.0000E+00  0.0000E+00  0.1467E+00  0.1467E+00
    -11.561  0.0000E+00  0.0000E+00  0.1467E+00  0.1467E+00
    -11.391  0.0000E+00  0.0000E+00  0.1467E+00  0.1467E+00
    -11.220  0.0000E+00  0.0000E+00  0.1467E+00  0.1467E+00
    -11.050  0.0000E+00  0.0000E+00  0.1467E+00  0.1467E+00
    -10.879  0.0000E+00  0.0000E+00  0.1467E+00  0.1467E+00
    -10.708  0.0000E+00  0.0000E+00  0.1467E+00  0.1467E+00
    -10.538  0.0000E+00  0.0000E+00  0.1467E+00  0.1467E+00
    -10.367  0.0000E+00  0.0000E+00  0.1467E+00  0.1467E+00
    -10.196  0.0000E+00  0.0000E+00  0.1467E+00  0.1467E+00
    -10.026  0.0000E+00  0.0000E+00  0.1467E+00  0.1467E+00
     -9.855  0.0000E+00  0.0000E+00  0.1467E+00  0.1467E+00
     -9.684  0.0000E+00  0.0000E+00  0.1467E+00  0.1467E+00
     -9.514  0.0000E+00  0.0000E+00  0.1467E+00  0.1467E+00
     -9.343  0.0000E+00  0.0000E+00  0.1467E+00  0.1467E+00
     -9.172 -0.1878E-35 -0.3203E-36  0.1467E+00  0.1467E+00
     -9.002 -0.2129E-27 -0.4968E-28  0.1467E+00  0.1467E+00
     -8.831 -0.1840E-20 -0.5832E-21  0.1467E+00  0.1467E+00
     -8.661 -0.1185E-14 -0.5086E-15  0.1467E+00  0.1467E+00
     -8.490 -0.6049E-10 -0.3449E-10  0.1467E+00  0.1467E+00
     -8.319 -0.2364E-06 -0.1729E-06  0.1467E+00  0.1467E+00
     -8.149 -0.6480E-04 -0.5793E-04  0.1467E+00  0.1467E+00
     -7.978 -0.4935E-03 -0.5640E-03  0.1466E+00  0.1466E+00
     -7.807  0.1004E-01  0.9990E-02  0.1483E+00  0.1483E+00
     -7.637  0.1059E-01  0.1075E-01  0.1501E+00  0.1501E+00
     -7.466 -0.4665E-03 -0.5177E-03  0.1500E+00  0.1500E+00
     -7.295 -0.1490E-03 -0.9890E-04  0.1500E+00  0.1500E+00
     -7.125  0.4429E-03 -0.6407E-05  0.1501E+00  0.1500E+00
     -6.954  0.4688E-02  0.2491E-02  0.1509E+00  0.1504E+00
     -6.783  0.5431E-02  0.6207E-02  0.1518E+00  0.1515E+00
     -6.613  0.3532E-02  0.2799E-02  0.1524E+00  0.1520E+00
     -6.442  0.9138E-02  0.6615E-02  0.1540E+00  0.1531E+00
     -6.272  0.2565E-02  0.7497E-02  0.1544E+00  0.1544E+00
     -6.101  0.4282E-02  0.3583E-03  0.1551E+00  0.1544E+00
     -5.930  0.1311E-01  0.7837E-02  0.1574E+00  0.1558E+00
     -5.760  0.1149E-01  0.1362E-01  0.1593E+00  0.1581E+00
     -5.589  0.1147E-01  0.9274E-02  0.1613E+00  0.1597E+00
     -5.418  0.1075E-01  0.1195E-01  0.1631E+00  0.1617E+00
     -5.248  0.7285E-02  0.1045E-01  0.1644E+00  0.1635E+00
     -5.077  0.1801E-01  0.5189E-02  0.1674E+00  0.1644E+00
     -4.906  0.1637E-01  0.1891E-01  0.1702E+00  0.1676E+00
     -4.736  0.1430E-01  0.1520E-01  0.1727E+00  0.1702E+00
     -4.565  0.2068E-01  0.1156E-01  0.1762E+00  0.1722E+00
     -4.395  0.2276E-01  0.1591E-01  0.1801E+00  0.1749E+00
     -4.224  0.2911E-01  0.1433E-01  0.1850E+00  0.1773E+00
     -4.053  0.3939E-01  0.2701E-01  0.1918E+00  0.1819E+00
     -3.883  0.5720E-01  0.2580E-01  0.2015E+00  0.1863E+00
     -3.712  0.8586E-01  0.2443E-01  0.2162E+00  0.1905E+00
     -3.541  0.1224E+00  0.2200E-01  0.2371E+00  0.1943E+00
     -3.371  0.1211E+00  0.3483E-01  0.2577E+00  0.2002E+00
     -3.200  0.1585E+00  0.4318E-01  0.2848E+00  0.2076E+00
     -3.029  0.1732E+00  0.6024E-01  0.3143E+00  0.2179E+00
     -2.859  0.1465E+00  0.6469E-01  0.3393E+00  0.2289E+00
     -2.688  0.1492E+00  0.7851E-01  0.3648E+00  0.2423E+00
     -2.517  0.2156E+00  0.7349E-01  0.4016E+00  0.2548E+00
     -2.347  0.2584E+00  0.9197E-01  0.4457E+00  0.2705E+00
     -2.176  0.2304E+00  0.1002E+00  0.4850E+00  0.2876E+00
     -2.006  0.2303E+00  0.1088E+00  0.5243E+00  0.3062E+00
     -1.835  0.2361E+00  0.1065E+00  0.5646E+00  0.3244E+00
     -1.664  0.2269E+00  0.1096E+00  0.6033E+00  0.3431E+00
     -1.494  0.2282E+00  0.1332E+00  0.6422E+00  0.3658E+00
     -1.323  0.2134E+00  0.1594E+00  0.6787E+00  0.3930E+00
     -1.152  0.1638E+00  0.1746E+00  0.7066E+00  0.4228E+00
     -0.982  0.1582E+00  0.1664E+00  0.7336E+00  0.4512E+00
     -0.811  0.1813E+00  0.1685E+00  0.7645E+00  0.4799E+00
     -0.640  0.2115E+00  0.1837E+00  0.8006E+00  0.5113E+00
     -0.470  0.2579E+00  0.2008E+00  0.8446E+00  0.5455E+00
     -0.299  0.3065E+00  0.2036E+00  0.8969E+00  0.5803E+00
     -0.128  0.2975E+00  0.2031E+00  0.9477E+00  0.6149E+00
      0.042  0.2248E+00  0.1780E+00  0.9861E+00  0.6453E+00
      0.213  0.1626E+00  0.1623E+00  0.1014E+01  0.6730E+00
      0.383  0.1396E+00  0.1389E+00  0.1038E+01  0.6967E+00
      0.554  0.1374E+00  0.1255E+00  0.1061E+01  0.7181E+00
      0.725  0.1240E+00  0.1082E+00  0.1082E+01  0.7366E+00
      0.895  0.1009E+00  0.1070E+00  0.1099E+01  0.7548E+00
      1.066  0.8598E-01  0.1191E+00  0.1114E+01  0.7752E+00
      1.237  0.1004E+00  0.1466E+00  0.1131E+01  0.8002E+00
      1.407  0.1094E+00  0.1781E+00  0.1150E+01  0.8306E+00
      1.578  0.1095E+00  0.2061E+00  0.1169E+01  0.8658E+00
      1.749  0.1105E+00  0.2210E+00  0.1187E+01  0.9035E+00
      1.919  0.1045E+00  0.2294E+00  0.1205E+01  0.9426E+00
      2.090  0.9250E-01  0.2585E+00  0.1221E+01  0.9867E+00
      2.261  0.5148E-01  0.3053E+00  0.1230E+01  0.1039E+01
      2.431  0.1372E-02  0.3170E+00  0.1230E+01  0.1093E+01
      2.602 -0.7154E-03  0.2825E+00  0.1230E+01  0.1141E+01
      2.772 -0.8312E-05  0.2513E+00  0.1230E+01  0.1184E+01
      2.943 -0.6281E-08  0.1747E+00  0.1230E+01  0.1214E+01
      3.114 -0.3453E-12  0.8633E-01  0.1230E+01  0.1229E+01
      3.284 -0.8133E-18  0.1019E-01  0.1230E+01  0.1230E+01
      3.455  0.0000E+00 -0.1530E-02  0.1230E+01  0.1230E+01
      3.626  0.0000E+00 -0.6480E-04  0.1230E+01  0.1230E+01
      3.796  0.0000E+00 -0.2226E-06  0.1230E+01  0.1230E+01
      3.967  0.0000E+00 -0.6868E-10  0.1230E+01  0.1230E+01
      4.138  0.0000E+00 -0.1722E-14  0.1230E+01  0.1230E+01
      4.308  0.0000E+00  0.0000E+00  0.1230E+01  0.1230E+01
      4.479  0.0000E+00  0.0000E+00  0.1230E+01  0.1230E+01
      4.650  0.0000E+00  0.0000E+00  0.1230E+01  0.1230E+01
      4.820  0.0000E+00  0.0000E+00  0.1230E+01  0.1230E+01
      4.991  0.0000E+00  0.0000E+00  0.1230E+01  0.1230E+01
      5.161  0.0000E+00  0.0000E+00  0.1230E+01  0.1230E+01
      5.332  0.0000E+00  0.0000E+00  0.1230E+01  0.1230E+01
      5.503  0.0000E+00  0.0000E+00  0.1230E+01  0.1230E+01
