INCAR-For-OPT                           
           1
     8.497000    0.000000    0.000000
    -0.007999    8.519196    0.000000
     0.000000    0.000000   23.573700
   Pb   Cr   Fe
     1    13    49
Direct configuration=     1
   0.17096000  0.50075000  0.44697000
   0.99559000  0.32828000  0.12092000
   0.33232000  0.33368000  0.37246000
   0.33554000  0.33717000  0.12244000
   0.99808000  0.00294000  0.00138000
   0.00123000  0.00201000  0.37169000
   0.33205000  0.99934000  0.12171000
   0.66680000  0.99880000  0.24350000
   0.83452000  0.16613000  0.06120000
   0.67294000  0.00204000  0.12069000
   0.33405000  0.66695000  0.24111000
   0.99910000  0.66743000  0.12138000
   0.33151000  0.66804000  0.00174000
   0.33268000  0.33220000  0.00000000
   0.83466000  0.83460000  0.06076000
   0.67336000  0.66691000  0.36211000
   0.66616000  0.66699000  0.00091000
   0.83375000  0.83225000  0.30332000
   0.66704000  0.66746000  0.24229000
   0.50180000  0.83456000  0.18079000
   0.33306000  0.66709000  0.12143000
   0.50009000  0.83568000  0.06165000
   0.83330000  0.83486000  0.18207000
   0.66751000  0.66780000  0.12127000
   0.00059000  0.66708000  0.36110000
   0.16644000  0.83420000  0.06149000
   0.17092000  0.82993000  0.30256000
   0.00140000  0.66613000  0.00100000
   0.83479000  0.50089000  0.18130000
   0.00007000  0.66669000  0.24225000
   0.83460000  0.50057000  0.06135000
   0.66585000  0.33313000  0.12140000
   0.16565000  0.83456000  0.18183000
   0.49620000  0.82766000  0.30440000
   0.00179000  0.33550000  0.00090000
   0.00137000  0.33497000  0.35949000
   0.49795000  0.16690000  0.06150000
   0.50074000  0.16494000  0.18144000
   0.83235000  0.16712000  0.30254000
   0.66500000  0.00040000  0.00060000
   0.65973000  0.99795000  0.36103000
   0.83245000  0.16547000  0.18171000
   0.99997000  0.33361000  0.24198000
   0.16962000  0.50550000  0.30214000
   0.33438000  0.99945000  0.24203000
   0.49902000  0.16638000  0.30242000
   0.00050000  0.00053000  0.12178000
   0.16809000  0.16736000  0.18138000
   0.16831000  0.16701000  0.30179000
   0.16764000  0.16833000  0.06179000
   0.99934000  0.00030000  0.24219000
   0.33250000  0.00057000  0.00106000
   0.33211000  0.00191000  0.36027000
   0.16564000  0.49971000  0.18123000
   0.16746000  0.49787000  0.06247000
   0.49919000  0.50477000  0.30265000
   0.33345000  0.33400000  0.24176000
   0.50128000  0.50087000  0.18167000
   0.49793000  0.50025000  0.06116000
   0.83412000  0.50108000  0.30291000
   0.66663000  0.33329000  0.24218000
   0.66715000  0.33430000  0.36037000
   0.66547000  0.33470000  0.00081000
Direct configuration=     2
   0.16816195  0.50356226  0.44637042
   0.99559000  0.32828000  0.12092000
   0.33450536  0.33040250  0.37151513
   0.33554000  0.33717000  0.12244000
   0.99808000  0.00294000  0.00138000
   0.00123988  0.00190100  0.37171674
   0.33205000  0.99934000  0.12171000
   0.66680000  0.99880000  0.24350000
   0.83452000  0.16613000  0.06120000
   0.67294000  0.00204000  0.12069000
   0.33405000  0.66695000  0.24111000
   0.99910000  0.66743000  0.12138000
   0.33151000  0.66804000  0.00174000
   0.33268000  0.33220000  0.00000000
   0.83466000  0.83460000  0.06076000
   0.67361345  0.66669280  0.36224021
   0.66616000  0.66699000  0.00091000
   0.83372576  0.83246016  0.30330689
   0.66704000  0.66746000  0.24229000
   0.50180000  0.83456000  0.18079000
   0.33306000  0.66709000  0.12143000
   0.50009000  0.83568000  0.06165000
   0.83330000  0.83486000  0.18207000
   0.66751000  0.66780000  0.12127000
   0.99993806  0.66766687  0.36152476
   0.16644000  0.83420000  0.06149000
   0.17099908  0.82996312  0.30261051
   0.00140000  0.66613000  0.00100000
   0.83479000  0.50089000  0.18130000
   0.00007000  0.66669000  0.24225000
   0.83460000  0.50057000  0.06135000
   0.66585000  0.33313000  0.12140000
   0.16565000  0.83456000  0.18183000
   0.49633226  0.82777425  0.30429506
   0.00179000  0.33550000  0.00090000
   0.00235133  0.33493464  0.36013563
   0.49795000  0.16690000  0.06150000
   0.50074000  0.16494000  0.18144000
   0.83196511  0.16674404  0.30248155
   0.66500000  0.00040000  0.00060000
   0.65990334  0.99800864  0.36092387
   0.83245000  0.16547000  0.18171000
   0.99997000  0.33361000  0.24198000
   0.17019816  0.50559553  0.30261869
   0.33438000  0.99945000  0.24203000
   0.49925453  0.16636427  0.30242720
   0.00050000  0.00053000  0.12178000
   0.16809000  0.16736000  0.18138000
   0.16836115  0.16669172  0.30165432
   0.16764000  0.16833000  0.06179000
   0.99934000  0.00030000  0.24219000
   0.33250000  0.00057000  0.00106000
   0.33182692  0.00218497  0.36036370
   0.16564000  0.49971000  0.18123000
   0.16746000  0.49787000  0.06247000
   0.49881146  0.50464168  0.30275668
   0.33345000  0.33400000  0.24176000
   0.50128000  0.50087000  0.18167000
   0.49793000  0.50025000  0.06116000
   0.83348443  0.50127022  0.30261421
   0.66663000  0.33329000  0.24218000
   0.66738569  0.33440639  0.36049335
   0.66547000  0.33470000  0.00081000
Direct configuration=     3
   0.16360002  0.50814735  0.44539287
   0.99559000  0.32828000  0.12092000
   0.33806836  0.32505887  0.36997461
   0.33554000  0.33717000  0.12244000
   0.99808000  0.00294000  0.00138000
   0.00125599  0.00172330  0.37176033
   0.33205000  0.99934000  0.12171000
   0.66680000  0.99880000  0.24350000
   0.83452000  0.16613000  0.06120000
   0.67294000  0.00204000  0.12069000
   0.33405000  0.66695000  0.24111000
   0.99910000  0.66743000  0.12138000
   0.33151000  0.66804000  0.00174000
   0.33268000  0.33220000  0.00000000
   0.83466000  0.83460000  0.06076000
   0.67402668  0.66633868  0.36245249
   0.66616000  0.66699000  0.00091000
   0.83368623  0.83280280  0.30328553
   0.66704000  0.66746000  0.24229000
   0.50180000  0.83456000  0.18079000
   0.33306000  0.66709000  0.12143000
   0.50009000  0.83568000  0.06165000
   0.83330000  0.83486000  0.18207000
   0.66751000  0.66780000  0.12127000
   0.99887513  0.66862371  0.36221727
   0.16644000  0.83420000  0.06149000
   0.17112801  0.83001711  0.30269285
   0.00140000  0.66613000  0.00100000
   0.83479000  0.50089000  0.18130000
   0.00007000  0.66669000  0.24225000
   0.83460000  0.50057000  0.06135000
   0.66585000  0.33313000  0.12140000
   0.16565000  0.83456000  0.18183000
   0.49654791  0.82796051  0.30412398
   0.00179000  0.33550000  0.00090000
   0.00395129  0.33487698  0.36118826
   0.49795000  0.16690000  0.06150000
   0.50074000  0.16494000  0.18144000
   0.83133759  0.16613107  0.30238625
   0.66500000  0.00040000  0.00060000
   0.66018595  0.99810426  0.36075083
   0.83245000  0.16547000  0.18171000
   0.99997000  0.33361000  0.24198000
   0.17114080  0.50575129  0.30339915
   0.33438000  0.99945000  0.24203000
   0.49963689  0.16633863  0.30243893
   0.00050000  0.00053000  0.12178000
   0.16809000  0.16736000  0.18138000
   0.16844455  0.16617279  0.30143311
   0.16764000  0.16833000  0.06179000
   0.99934000  0.00030000  0.24219000
   0.33250000  0.00057000  0.00106000
   0.33136539  0.00263327  0.36051648
   0.16564000  0.49971000  0.18123000
   0.16746000  0.49787000  0.06247000
   0.49819428  0.50443248  0.30293061
   0.33345000  0.33400000  0.24176000
   0.50128000  0.50087000  0.18167000
   0.49793000  0.50025000  0.06116000
   0.83244821  0.50158035  0.30213195
   0.66663000  0.33329000  0.24218000
   0.66776996  0.33457985  0.36069446
   0.66547000  0.33470000  0.00081000
Direct configuration=     4
   0.16202092  0.51050856  0.44376894
   0.99559000  0.32828000  0.12092000
   0.33786337  0.32388409  0.37007486
   0.33554000  0.33717000  0.12244000
   0.99808000  0.00294000  0.00138000
   0.00120990  0.00164915  0.37178810
   0.33205000  0.99934000  0.12171000
   0.66680000  0.99880000  0.24350000
   0.83452000  0.16613000  0.06120000
   0.67294000  0.00204000  0.12069000
   0.33405000  0.66695000  0.24111000
   0.99910000  0.66743000  0.12138000
   0.33151000  0.66804000  0.00174000
   0.33268000  0.33220000  0.00000000
   0.83466000  0.83460000  0.06076000
   0.67447897  0.66618212  0.36252770
   0.66616000  0.66699000  0.00091000
   0.83367818  0.83269798  0.30328853
   0.66704000  0.66746000  0.24229000
   0.50180000  0.83456000  0.18079000
   0.33306000  0.66709000  0.12143000
   0.50009000  0.83568000  0.06165000
   0.83330000  0.83486000  0.18207000
   0.66751000  0.66780000  0.12127000
   0.99698892  0.66971585  0.36221584
   0.16644000  0.83420000  0.06149000
   0.17090940  0.82977410  0.30288919
   0.00140000  0.66613000  0.00100000
   0.83479000  0.50089000  0.18130000
   0.00007000  0.66669000  0.24225000
   0.83460000  0.50057000  0.06135000
   0.66585000  0.33313000  0.12140000
   0.16565000  0.83456000  0.18183000
   0.49659516  0.82802137  0.30415740
   0.00179000  0.33550000  0.00090000
   0.00433115  0.33480013  0.36126817
   0.49795000  0.16690000  0.06150000
   0.50074000  0.16494000  0.18144000
   0.83176595  0.16659862  0.30251887
   0.66500000  0.00040000  0.00060000
   0.66037279  0.99810401  0.36072947
   0.83245000  0.16547000  0.18171000
   0.99997000  0.33361000  0.24198000
   0.17122199  0.50578632  0.30414947
   0.33438000  0.99945000  0.24203000
   0.50080134  0.16529031  0.30196816
   0.00050000  0.00053000  0.12178000
   0.16809000  0.16736000  0.18138000
   0.16782968  0.16577862  0.30134876
   0.16764000  0.16833000  0.06179000
   0.99934000  0.00030000  0.24219000
   0.33250000  0.00057000  0.00106000
   0.33130593  0.00209193  0.36049141
   0.16564000  0.49971000  0.18123000
   0.16746000  0.49787000  0.06247000
   0.49814952  0.50449487  0.30296026
   0.33345000  0.33400000  0.24176000
   0.50128000  0.50087000  0.18167000
   0.49793000  0.50025000  0.06116000
   0.83322719  0.50122998  0.30235893
   0.66663000  0.33329000  0.24218000
   0.66878815  0.33482060  0.36073650
   0.66547000  0.33470000  0.00081000
Direct configuration=     5
   0.15824508  0.51615453  0.43988588
   0.99559000  0.32828000  0.12092000
   0.33737322  0.32107502  0.37031458
   0.33554000  0.33717000  0.12244000
   0.99808000  0.00294000  0.00138000
   0.00109969  0.00147185  0.37185452
   0.33205000  0.99934000  0.12171000
   0.66680000  0.99880000  0.24350000
   0.83452000  0.16613000  0.06120000
   0.67294000  0.00204000  0.12069000
   0.33405000  0.66695000  0.24111000
   0.99910000  0.66743000  0.12138000
   0.33151000  0.66804000  0.00174000
   0.33268000  0.33220000  0.00000000
   0.83466000  0.83460000  0.06076000
   0.67556046  0.66580776  0.36270755
   0.66616000  0.66699000  0.00091000
   0.83365895  0.83244735  0.30329572
   0.66704000  0.66746000  0.24229000
   0.50180000  0.83456000  0.18079000
   0.33306000  0.66709000  0.12143000
   0.50009000  0.83568000  0.06165000
   0.83330000  0.83486000  0.18207000
   0.66751000  0.66780000  0.12127000
   0.99247874  0.67232731  0.36221241
   0.16644000  0.83420000  0.06149000
   0.17038668  0.82919304  0.30335866
   0.00140000  0.66613000  0.00100000
   0.83479000  0.50089000  0.18130000
   0.00007000  0.66669000  0.24225000
   0.83460000  0.50057000  0.06135000
   0.66585000  0.33313000  0.12140000
   0.16565000  0.83456000  0.18183000
   0.49670814  0.82816688  0.30423733
   0.00179000  0.33550000  0.00090000
   0.00523943  0.33461636  0.36145924
   0.49795000  0.16690000  0.06150000
   0.50074000  0.16494000  0.18144000
   0.83279020  0.16771657  0.30283600
   0.66500000  0.00040000  0.00060000
   0.66081955  0.99810342  0.36067838
   0.83245000  0.16547000  0.18171000
   0.99997000  0.33361000  0.24198000
   0.17141612  0.50587007  0.30594360
   0.33438000  0.99945000  0.24203000
   0.50358570  0.16278362  0.30084247
   0.00050000  0.00053000  0.12178000
   0.16809000  0.16736000  0.18138000
   0.16635945  0.16483610  0.30114707
   0.16764000  0.16833000  0.06179000
   0.99934000  0.00030000  0.24219000
   0.33250000  0.00057000  0.00106000
   0.33116374  0.00079753  0.36043146
   0.16564000  0.49971000  0.18123000
   0.16746000  0.49787000  0.06247000
   0.49804248  0.50464407  0.30303115
   0.33345000  0.33400000  0.24176000
   0.50128000  0.50087000  0.18167000
   0.49793000  0.50025000  0.06116000
   0.83508986  0.50039219  0.30290169
   0.66663000  0.33329000  0.24218000
   0.67122278  0.33539628  0.36083700
   0.66547000  0.33470000  0.00081000
Direct configuration=     6
   0.15861283  0.52025975  0.43797179
   0.99559000  0.32828000  0.12092000
   0.33779928  0.31939011  0.37075566
   0.33554000  0.33717000  0.12244000
   0.99808000  0.00294000  0.00138000
   0.00082553  0.00155343  0.37199395
   0.33205000  0.99934000  0.12171000
   0.66680000  0.99880000  0.24350000
   0.83452000  0.16613000  0.06120000
   0.67294000  0.00204000  0.12069000
   0.33405000  0.66695000  0.24111000
   0.99910000  0.66743000  0.12138000
   0.33151000  0.66804000  0.00174000
   0.33268000  0.33220000  0.00000000
   0.83466000  0.83460000  0.06076000
   0.67575605  0.66561766  0.36273712
   0.66616000  0.66699000  0.00091000
   0.83278026  0.83345213  0.30288837
   0.66704000  0.66746000  0.24229000
   0.50180000  0.83456000  0.18079000
   0.33306000  0.66709000  0.12143000
   0.50009000  0.83568000  0.06165000
   0.83330000  0.83486000  0.18207000
   0.66751000  0.66780000  0.12127000
   0.98910171  0.67507028  0.36180341
   0.16644000  0.83420000  0.06149000
   0.16998381  0.82872774  0.30344887
   0.00140000  0.66613000  0.00100000
   0.83479000  0.50089000  0.18130000
   0.00007000  0.66669000  0.24225000
   0.83460000  0.50057000  0.06135000
   0.66585000  0.33313000  0.12140000
   0.16565000  0.83456000  0.18183000
   0.49677843  0.82774596  0.30435890
   0.00179000  0.33550000  0.00090000
   0.00405219  0.33270101  0.36102707
   0.49795000  0.16690000  0.06150000
   0.50074000  0.16494000  0.18144000
   0.83358621  0.16776785  0.30281764
   0.66500000  0.00040000  0.00060000
   0.66100633  0.99813153  0.36084984
   0.83245000  0.16547000  0.18171000
   0.99997000  0.33361000  0.24198000
   0.17138076  0.50642986  0.30613121
   0.33438000  0.99945000  0.24203000
   0.50301306  0.16300882  0.30099548
   0.00050000  0.00053000  0.12178000
   0.16809000  0.16736000  0.18138000
   0.16697535  0.16456420  0.30119183
   0.16764000  0.16833000  0.06179000
   0.99934000  0.00030000  0.24219000
   0.33250000  0.00057000  0.00106000
   0.33169501  0.99969895  0.36015734
   0.16564000  0.49971000  0.18123000
   0.16746000  0.49787000  0.06247000
   0.49828835  0.50405733  0.30316035
   0.33345000  0.33400000  0.24176000
   0.50128000  0.50087000  0.18167000
   0.49793000  0.50025000  0.06116000
   0.83534306  0.50039453  0.30289333
   0.66663000  0.33329000  0.24218000
   0.67248005  0.33530863  0.36084090
   0.66547000  0.33470000  0.00081000
Direct configuration=     7
   0.15925651  0.52744513  0.43462153
   0.99559000  0.32828000  0.12092000
   0.33854502  0.31644099  0.37152768
   0.33554000  0.33717000  0.12244000
   0.99808000  0.00294000  0.00138000
   0.00034568  0.00169622  0.37223799
   0.33205000  0.99934000  0.12171000
   0.66680000  0.99880000  0.24350000
   0.83452000  0.16613000  0.06120000
   0.67294000  0.00204000  0.12069000
   0.33405000  0.66695000  0.24111000
   0.99910000  0.66743000  0.12138000
   0.33151000  0.66804000  0.00174000
   0.33268000  0.33220000  0.00000000
   0.83466000  0.83460000  0.06076000
   0.67609839  0.66528493  0.36278887
   0.66616000  0.66699000  0.00091000
   0.83124230  0.83521080  0.30217540
   0.66704000  0.66746000  0.24229000
   0.50180000  0.83456000  0.18079000
   0.33306000  0.66709000  0.12143000
   0.50009000  0.83568000  0.06165000
   0.83330000  0.83486000  0.18207000
   0.66751000  0.66780000  0.12127000
   0.98319088  0.67987132  0.36108754
   0.16644000  0.83420000  0.06149000
   0.16927865  0.82791332  0.30360676
   0.00140000  0.66613000  0.00100000
   0.83479000  0.50089000  0.18130000
   0.00007000  0.66669000  0.24225000
   0.83460000  0.50057000  0.06135000
   0.66585000  0.33313000  0.12140000
   0.16565000  0.83456000  0.18183000
   0.49690146  0.82700923  0.30457167
   0.00179000  0.33550000  0.00090000
   0.00197416  0.32934857  0.36027063
   0.49795000  0.16690000  0.06150000
   0.50074000  0.16494000  0.18144000
   0.83497946  0.16785760  0.30278551
   0.66500000  0.00040000  0.00060000
   0.66133325  0.99818074  0.36114996
   0.83245000  0.16547000  0.18171000
   0.99997000  0.33361000  0.24198000
   0.17131887  0.50740967  0.30645958
   0.33438000  0.99945000  0.24203000
   0.50201075  0.16340298  0.30126329
   0.00050000  0.00053000  0.12178000
   0.16809000  0.16736000  0.18138000
   0.16805338  0.16408831  0.30127018
   0.16764000  0.16833000  0.06179000
   0.99934000  0.00030000  0.24219000
   0.33250000  0.00057000  0.00106000
   0.33262491  0.99777609  0.35967755
   0.16564000  0.49971000  0.18123000
   0.16746000  0.49787000  0.06247000
   0.49871870  0.50303036  0.30338648
   0.33345000  0.33400000  0.24176000
   0.50128000  0.50087000  0.18167000
   0.49793000  0.50025000  0.06116000
   0.83578622  0.50039863  0.30287870
   0.66663000  0.33329000  0.24218000
   0.67468067  0.33515522  0.36084772
   0.66547000  0.33470000  0.00081000
Direct configuration=     8
   0.16307801  0.53206242  0.43350589
   0.99559000  0.32828000  0.12092000
   0.33903025  0.31640160  0.37225686
   0.33554000  0.33717000  0.12244000
   0.99808000  0.00294000  0.00138000
   0.00034355  0.00158444  0.37228368
   0.33205000  0.99934000  0.12171000
   0.66680000  0.99880000  0.24350000
   0.83452000  0.16613000  0.06120000
   0.67294000  0.00204000  0.12069000
   0.33405000  0.66695000  0.24111000
   0.99910000  0.66743000  0.12138000
   0.33151000  0.66804000  0.00174000
   0.33268000  0.33220000  0.00000000
   0.83466000  0.83460000  0.06076000
   0.67478407  0.66518584  0.36269163
   0.66616000  0.66699000  0.00091000
   0.82916304  0.83783990  0.30157247
   0.66704000  0.66746000  0.24229000
   0.50180000  0.83456000  0.18079000
   0.33306000  0.66709000  0.12143000
   0.50009000  0.83568000  0.06165000
   0.83330000  0.83486000  0.18207000
   0.66751000  0.66780000  0.12127000
   0.98222308  0.68089073  0.36086382
   0.16644000  0.83420000  0.06149000
   0.16870555  0.82841154  0.30321246
   0.00140000  0.66613000  0.00100000
   0.83479000  0.50089000  0.18130000
   0.00007000  0.66669000  0.24225000
   0.83460000  0.50057000  0.06135000
   0.66585000  0.33313000  0.12140000
   0.16565000  0.83456000  0.18183000
   0.49734567  0.82632839  0.30439395
   0.00179000  0.33550000  0.00090000
   0.00134070  0.32880057  0.36011602
   0.49795000  0.16690000  0.06150000
   0.50074000  0.16494000  0.18144000
   0.83331683  0.16592493  0.30213748
   0.66500000  0.00040000  0.00060000
   0.66077470  0.99857398  0.36126715
   0.83245000  0.16547000  0.18171000
   0.99997000  0.33361000  0.24198000
   0.17102250  0.50689881  0.30563993
   0.33438000  0.99945000  0.24203000
   0.50226533  0.16413434  0.30165575
   0.00050000  0.00053000  0.12178000
   0.16809000  0.16736000  0.18138000
   0.16861768  0.16370252  0.30125549
   0.16764000  0.16833000  0.06179000
   0.99934000  0.00030000  0.24219000
   0.33250000  0.00057000  0.00106000
   0.33298345  0.99684505  0.35987696
   0.16564000  0.49971000  0.18123000
   0.16746000  0.49787000  0.06247000
   0.49873636  0.50240039  0.30365122
   0.33345000  0.33400000  0.24176000
   0.50128000  0.50087000  0.18167000
   0.49793000  0.50025000  0.06116000
   0.83441599  0.50118642  0.30218924
   0.66663000  0.33329000  0.24218000
   0.67448621  0.33440924  0.36097812
   0.66547000  0.33470000  0.00081000
Direct configuration=     9
   0.16452096  0.53380586  0.43308464
   0.99559000  0.32828000  0.12092000
   0.33921347  0.31638673  0.37253219
   0.33554000  0.33717000  0.12244000
   0.99808000  0.00294000  0.00138000
   0.00034275  0.00154224  0.37230093
   0.33205000  0.99934000  0.12171000
   0.66680000  0.99880000  0.24350000
   0.83452000  0.16613000  0.06120000
   0.67294000  0.00204000  0.12069000
   0.33405000  0.66695000  0.24111000
   0.99910000  0.66743000  0.12138000
   0.33151000  0.66804000  0.00174000
   0.33268000  0.33220000  0.00000000
   0.83466000  0.83460000  0.06076000
   0.67428780  0.66514842  0.36265492
   0.66616000  0.66699000  0.00091000
   0.82837794  0.83883261  0.30134481
   0.66704000  0.66746000  0.24229000
   0.50180000  0.83456000  0.18079000
   0.33306000  0.66709000  0.12143000
   0.50009000  0.83568000  0.06165000
   0.83330000  0.83486000  0.18207000
   0.66751000  0.66780000  0.12127000
   0.98185765  0.68127565  0.36077935
   0.16644000  0.83420000  0.06149000
   0.16848916  0.82859966  0.30306358
   0.00140000  0.66613000  0.00100000
   0.83479000  0.50089000  0.18130000
   0.00007000  0.66669000  0.24225000
   0.83460000  0.50057000  0.06135000
   0.66585000  0.33313000  0.12140000
   0.16565000  0.83456000  0.18183000
   0.49751340  0.82607131  0.30432684
   0.00179000  0.33550000  0.00090000
   0.00110151  0.32859365  0.36005764
   0.49795000  0.16690000  0.06150000
   0.50074000  0.16494000  0.18144000
   0.83268904  0.16519518  0.30189279
   0.66500000  0.00040000  0.00060000
   0.66056379  0.99872246  0.36131140
   0.83245000  0.16547000  0.18171000
   0.99997000  0.33361000  0.24198000
   0.17091059  0.50670592  0.30533044
   0.33438000  0.99945000  0.24203000
   0.50236146  0.16441050  0.30180394
   0.00050000  0.00053000  0.12178000
   0.16809000  0.16736000  0.18138000
   0.16883075  0.16355685  0.30124995
   0.16764000  0.16833000  0.06179000
   0.99934000  0.00030000  0.24219000
   0.33250000  0.00057000  0.00106000
   0.33311884  0.99649351  0.35995226
   0.16564000  0.49971000  0.18123000
   0.16746000  0.49787000  0.06247000
   0.49874303  0.50216252  0.30375118
   0.33345000  0.33400000  0.24176000
   0.50128000  0.50087000  0.18167000
   0.49793000  0.50025000  0.06116000
   0.83389861  0.50148388  0.30192891
   0.66663000  0.33329000  0.24218000
   0.67441279  0.33412757  0.36102736
   0.66547000  0.33470000  0.00081000
Direct configuration=    10
   0.17018926  0.53825827  0.43254038
   0.99559000  0.32828000  0.12092000
   0.33898737  0.31692322  0.37303670
   0.33554000  0.33717000  0.12244000
   0.99808000  0.00294000  0.00138000
   0.00026364  0.00149950  0.37208654
   0.33205000  0.99934000  0.12171000
   0.66680000  0.99880000  0.24350000
   0.83452000  0.16613000  0.06120000
   0.67294000  0.00204000  0.12069000
   0.33405000  0.66695000  0.24111000
   0.99910000  0.66743000  0.12138000
   0.33151000  0.66804000  0.00174000
   0.33268000  0.33220000  0.00000000
   0.83466000  0.83460000  0.06076000
   0.67280303  0.66526254  0.36240443
   0.66616000  0.66699000  0.00091000
   0.82826336  0.83811288  0.30172256
   0.66704000  0.66746000  0.24229000
   0.50180000  0.83456000  0.18079000
   0.33306000  0.66709000  0.12143000
   0.50009000  0.83568000  0.06165000
   0.83330000  0.83486000  0.18207000
   0.66751000  0.66780000  0.12127000
   0.98133308  0.68093269  0.35991481
   0.16644000  0.83420000  0.06149000
   0.16828043  0.82908846  0.30285277
   0.00140000  0.66613000  0.00100000
   0.83479000  0.50089000  0.18130000
   0.00007000  0.66669000  0.24225000
   0.83460000  0.50057000  0.06135000
   0.66585000  0.33313000  0.12140000
   0.16565000  0.83456000  0.18183000
   0.49699163  0.82626373  0.30409711
   0.00179000  0.33550000  0.00090000
   0.00065438  0.33004497  0.35975210
   0.49795000  0.16690000  0.06150000
   0.50074000  0.16494000  0.18144000
   0.83206760  0.16560671  0.30180517
   0.66500000  0.00040000  0.00060000
   0.65948766  0.99921961  0.36158257
   0.83245000  0.16547000  0.18171000
   0.99997000  0.33361000  0.24198000
   0.17026470  0.50539134  0.30474848
   0.33438000  0.99945000  0.24203000
   0.50210329  0.16418970  0.30185950
   0.00050000  0.00053000  0.12178000
   0.16809000  0.16736000  0.18138000
   0.16877360  0.16373619  0.30151062
   0.16764000  0.16833000  0.06179000
   0.99934000  0.00030000  0.24219000
   0.33250000  0.00057000  0.00106000
   0.33305786  0.99587234  0.36018215
   0.16564000  0.49971000  0.18123000
   0.16746000  0.49787000  0.06247000
   0.49824057  0.50211173  0.30391630
   0.33345000  0.33400000  0.24176000
   0.50128000  0.50087000  0.18167000
   0.49793000  0.50025000  0.06116000
   0.83320397  0.50152380  0.30200527
   0.66663000  0.33329000  0.24218000
   0.67412390  0.33351422  0.36102866
   0.66547000  0.33470000  0.00081000
Direct configuration=    11
   0.17759130  0.54407252  0.43182964
   0.99559000  0.32828000  0.12092000
   0.33869210  0.31762381  0.37369553
   0.33554000  0.33717000  0.12244000
   0.99808000  0.00294000  0.00138000
   0.00016033  0.00144370  0.37180658
   0.33205000  0.99934000  0.12171000
   0.66680000  0.99880000  0.24350000
   0.83452000  0.16613000  0.06120000
   0.67294000  0.00204000  0.12069000
   0.33405000  0.66695000  0.24111000
   0.99910000  0.66743000  0.12138000
   0.33151000  0.66804000  0.00174000
   0.33268000  0.33220000  0.00000000
   0.83466000  0.83460000  0.06076000
   0.67086412  0.66541157  0.36207732
   0.66616000  0.66699000  0.00091000
   0.82811372  0.83717301  0.30221585
   0.66704000  0.66746000  0.24229000
   0.50180000  0.83456000  0.18079000
   0.33306000  0.66709000  0.12143000
   0.50009000  0.83568000  0.06165000
   0.83330000  0.83486000  0.18207000
   0.66751000  0.66780000  0.12127000
   0.98064805  0.68048484  0.35878585
   0.16644000  0.83420000  0.06149000
   0.16800785  0.82972677  0.30257748
   0.00140000  0.66613000  0.00100000
   0.83479000  0.50089000  0.18130000
   0.00007000  0.66669000  0.24225000
   0.83460000  0.50057000  0.06135000
   0.66585000  0.33313000  0.12140000
   0.16565000  0.83456000  0.18183000
   0.49631025  0.82651501  0.30379711
   0.00179000  0.33550000  0.00090000
   0.00007049  0.33194019  0.35935311
   0.49795000  0.16690000  0.06150000
   0.50074000  0.16494000  0.18144000
   0.83125607  0.16614411  0.30169074
   0.66500000  0.00040000  0.00060000
   0.65808238  0.99986883  0.36193667
   0.83245000  0.16547000  0.18171000
   0.99997000  0.33361000  0.24198000
   0.16942124  0.50367467  0.30398852
   0.33438000  0.99945000  0.24203000
   0.50176615  0.16390138  0.30193204
   0.00050000  0.00053000  0.12178000
   0.16809000  0.16736000  0.18138000
   0.16869896  0.16397038  0.30185102
   0.16764000  0.16833000  0.06179000
   0.99934000  0.00030000  0.24219000
   0.33250000  0.00057000  0.00106000
   0.33297822  0.99506118  0.36048235
   0.16564000  0.49971000  0.18123000
   0.16746000  0.49787000  0.06247000
   0.49758443  0.50204539  0.30413193
   0.33345000  0.33400000  0.24176000
   0.50128000  0.50087000  0.18167000
   0.49793000  0.50025000  0.06116000
   0.83229686  0.50157593  0.30210498
   0.66663000  0.33329000  0.24218000
   0.67374664  0.33271327  0.36103036
   0.66547000  0.33470000  0.00081000
Direct configuration=    12
   0.18067200  0.54719699  0.43135744
   0.99559000  0.32828000  0.12092000
   0.33864439  0.31742997  0.37378090
   0.33554000  0.33717000  0.12244000
   0.99808000  0.00294000  0.00138000
   0.99994674  0.00150844  0.37170163
   0.33205000  0.99934000  0.12171000
   0.66680000  0.99880000  0.24350000
   0.83452000  0.16613000  0.06120000
   0.67294000  0.00204000  0.12069000
   0.33405000  0.66695000  0.24111000
   0.99910000  0.66743000  0.12138000
   0.33151000  0.66804000  0.00174000
   0.33268000  0.33220000  0.00000000
   0.83466000  0.83460000  0.06076000
   0.67000212  0.66549539  0.36202203
   0.66616000  0.66699000  0.00091000
   0.82780056  0.83720338  0.30224790
   0.66704000  0.66746000  0.24229000
   0.50180000  0.83456000  0.18079000
   0.33306000  0.66709000  0.12143000
   0.50009000  0.83568000  0.06165000
   0.83330000  0.83486000  0.18207000
   0.66751000  0.66780000  0.12127000
   0.98119126  0.67959301  0.35867652
   0.16644000  0.83420000  0.06149000
   0.16816679  0.82967984  0.30254340
   0.00140000  0.66613000  0.00100000
   0.83479000  0.50089000  0.18130000
   0.00007000  0.66669000  0.24225000
   0.83460000  0.50057000  0.06135000
   0.66585000  0.33313000  0.12140000
   0.16565000  0.83456000  0.18183000
   0.49605667  0.82676487  0.30373862
   0.00179000  0.33550000  0.00090000
   0.00015163  0.33284879  0.35936988
   0.49795000  0.16690000  0.06150000
   0.50074000  0.16494000  0.18144000
   0.83136834  0.16638062  0.30178205
   0.66500000  0.00040000  0.00060000
   0.65756249  0.00011407  0.36202941
   0.83245000  0.16547000  0.18171000
   0.99997000  0.33361000  0.24198000
   0.16932829  0.50327355  0.30384004
   0.33438000  0.99945000  0.24203000
   0.50139975  0.16381976  0.30195426
   0.00050000  0.00053000  0.12178000
   0.16809000  0.16736000  0.18138000
   0.16869358  0.16412252  0.30193131
   0.16764000  0.16833000  0.06179000
   0.99934000  0.00030000  0.24219000
   0.33250000  0.00057000  0.00106000
   0.33278855  0.99484873  0.36057198
   0.16564000  0.49971000  0.18123000
   0.16746000  0.49787000  0.06247000
   0.49721058  0.50212214  0.30414146
   0.33345000  0.33400000  0.24176000
   0.50128000  0.50087000  0.18167000
   0.49793000  0.50025000  0.06116000
   0.83182272  0.50134187  0.30210465
   0.66663000  0.33329000  0.24218000
   0.67343482  0.33245332  0.36104743
   0.66547000  0.33470000  0.00081000
Direct configuration=    13
   0.18991409  0.55657040  0.42994084
   0.99559000  0.32828000  0.12092000
   0.33850125  0.31684844  0.37403700
   0.33554000  0.33717000  0.12244000
   0.99808000  0.00294000  0.00138000
   0.99930596  0.00170267  0.37138679
   0.33205000  0.99934000  0.12171000
   0.66680000  0.99880000  0.24350000
   0.83452000  0.16613000  0.06120000
   0.67294000  0.00204000  0.12069000
   0.33405000  0.66695000  0.24111000
   0.99910000  0.66743000  0.12138000
   0.33151000  0.66804000  0.00174000
   0.33268000  0.33220000  0.00000000
   0.83466000  0.83460000  0.06076000
   0.66741613  0.66574686  0.36185617
   0.66616000  0.66699000  0.00091000
   0.82686109  0.83729449  0.30234408
   0.66704000  0.66746000  0.24229000
   0.50180000  0.83456000  0.18079000
   0.33306000  0.66709000  0.12143000
   0.50009000  0.83568000  0.06165000
   0.83330000  0.83486000  0.18207000
   0.66751000  0.66780000  0.12127000
   0.98282088  0.67691750  0.35834853
   0.16644000  0.83420000  0.06149000
   0.16864360  0.82953906  0.30244118
   0.00140000  0.66613000  0.00100000
   0.83479000  0.50089000  0.18130000
   0.00007000  0.66669000  0.24225000
   0.83460000  0.50057000  0.06135000
   0.66585000  0.33313000  0.12140000
   0.16565000  0.83456000  0.18183000
   0.49529591  0.82751446  0.30356315
   0.00179000  0.33550000  0.00090000
   0.00039506  0.33557459  0.35942019
   0.49795000  0.16690000  0.06150000
   0.50074000  0.16494000  0.18144000
   0.83170514  0.16709015  0.30205597
   0.66500000  0.00040000  0.00060000
   0.65600283  0.00084979  0.36230762
   0.83245000  0.16547000  0.18171000
   0.99997000  0.33361000  0.24198000
   0.16904943  0.50207019  0.30339458
   0.33438000  0.99945000  0.24203000
   0.50030053  0.16357489  0.30202090
   0.00050000  0.00053000  0.12178000
   0.16809000  0.16736000  0.18138000
   0.16867742  0.16457895  0.30217220
   0.16764000  0.16833000  0.06179000
   0.99934000  0.00030000  0.24219000
   0.33250000  0.00057000  0.00106000
   0.33221952  0.99421137  0.36084088
   0.16564000  0.49971000  0.18123000
   0.16746000  0.49787000  0.06247000
   0.49608902  0.50235239  0.30417004
   0.33345000  0.33400000  0.24176000
   0.50128000  0.50087000  0.18167000
   0.49793000  0.50025000  0.06116000
   0.83040027  0.50063972  0.30210364
   0.66663000  0.33329000  0.24218000
   0.67249936  0.33167350  0.36109863
   0.66547000  0.33470000  0.00081000
Direct configuration=    14
   0.20839828  0.57531723  0.42710765
   0.99559000  0.32828000  0.12092000
   0.33821498  0.31568538  0.37454921
   0.33554000  0.33717000  0.12244000
   0.99808000  0.00294000  0.00138000
   0.99802440  0.00209112  0.37075711
   0.33205000  0.99934000  0.12171000
   0.66680000  0.99880000  0.24350000
   0.83452000  0.16613000  0.06120000
   0.67294000  0.00204000  0.12069000
   0.33405000  0.66695000  0.24111000
   0.99910000  0.66743000  0.12138000
   0.33151000  0.66804000  0.00174000
   0.33268000  0.33220000  0.00000000
   0.83466000  0.83460000  0.06076000
   0.66224415  0.66624979  0.36152445
   0.66616000  0.66699000  0.00091000
   0.82498214  0.83747671  0.30253643
   0.66704000  0.66746000  0.24229000
   0.50180000  0.83456000  0.18079000
   0.33306000  0.66709000  0.12143000
   0.50009000  0.83568000  0.06165000
   0.83330000  0.83486000  0.18207000
   0.66751000  0.66780000  0.12127000
   0.98608012  0.67156648  0.35769255
   0.16644000  0.83420000  0.06149000
   0.16959723  0.82925749  0.30223672
   0.00140000  0.66613000  0.00100000
   0.83479000  0.50089000  0.18130000
   0.00007000  0.66669000  0.24225000
   0.83460000  0.50057000  0.06135000
   0.66585000  0.33313000  0.12140000
   0.16565000  0.83456000  0.18183000
   0.49377440  0.82901364  0.30321220
   0.00179000  0.33550000  0.00090000
   0.00088191  0.34102618  0.35952081
   0.49795000  0.16690000  0.06150000
   0.50074000  0.16494000  0.18144000
   0.83237873  0.16850921  0.30260382
   0.66500000  0.00040000  0.00060000
   0.65288350  0.00232123  0.36286404
   0.83245000  0.16547000  0.18171000
   0.99997000  0.33361000  0.24198000
   0.16849171  0.49966348  0.30250368
   0.33438000  0.99945000  0.24203000
   0.49810209  0.16308517  0.30215419
   0.00050000  0.00053000  0.12178000
   0.16809000  0.16736000  0.18138000
   0.16864511  0.16549181  0.30265397
   0.16764000  0.16833000  0.06179000
   0.99934000  0.00030000  0.24219000
   0.33250000  0.00057000  0.00106000
   0.33108147  0.99293667  0.36137867
   0.16564000  0.49971000  0.18123000
   0.16746000  0.49787000  0.06247000
   0.49384591  0.50281290  0.30422721
   0.33345000  0.33400000  0.24176000
   0.50128000  0.50087000  0.18167000
   0.49793000  0.50025000  0.06116000
   0.82755539  0.49923541  0.30210163
   0.66663000  0.33329000  0.24218000
   0.67062843  0.33011386  0.36120105
   0.66547000  0.33470000  0.00081000
Direct configuration=    15
   0.24536665  0.61281089  0.42144126
   0.99559000  0.32828000  0.12092000
   0.33764243  0.31335927  0.37557363
   0.33554000  0.33717000  0.12244000
   0.99808000  0.00294000  0.00138000
   0.99546130  0.00286802  0.36949774
   0.33205000  0.99934000  0.12171000
   0.66680000  0.99880000  0.24350000
   0.83452000  0.16613000  0.06120000
   0.67294000  0.00204000  0.12069000
   0.33405000  0.66695000  0.24111000
   0.99910000  0.66743000  0.12138000
   0.33151000  0.66804000  0.00174000
   0.33268000  0.33220000  0.00000000
   0.83466000  0.83460000  0.06076000
   0.65190018  0.66725566  0.36086101
   0.66616000  0.66699000  0.00091000
   0.82122424  0.83784115  0.30292114
   0.66704000  0.66746000  0.24229000
   0.50180000  0.83456000  0.18079000
   0.33306000  0.66709000  0.12143000
   0.50009000  0.83568000  0.06165000
   0.83330000  0.83486000  0.18207000
   0.66751000  0.66780000  0.12127000
   0.99259860  0.66086444  0.35638060
   0.16644000  0.83420000  0.06149000
   0.17150448  0.82869437  0.30182780
   0.00140000  0.66613000  0.00100000
   0.83479000  0.50089000  0.18130000
   0.00007000  0.66669000  0.24225000
   0.83460000  0.50057000  0.06135000
   0.66585000  0.33313000  0.12140000
   0.16565000  0.83456000  0.18183000
   0.49073137  0.83201199  0.30251031
   0.00179000  0.33550000  0.00090000
   0.00185561  0.35192935  0.35972205
   0.49795000  0.16690000  0.06150000
   0.50074000  0.16494000  0.18144000
   0.83372593  0.17134734  0.30369952
   0.66500000  0.00040000  0.00060000
   0.64664486  0.00526410  0.36397688
   0.83245000  0.16547000  0.18171000
   0.99997000  0.33361000  0.24198000
   0.16737627  0.49485004  0.30072186
   0.33438000  0.99945000  0.24203000
   0.49370521  0.16210573  0.30242076
   0.00050000  0.00053000  0.12178000
   0.16809000  0.16736000  0.18138000
   0.16858049  0.16731752  0.30361751
   0.16764000  0.16833000  0.06179000
   0.99934000  0.00030000  0.24219000
   0.33250000  0.00057000  0.00106000
   0.32880536  0.99038725  0.36245425
   0.16564000  0.49971000  0.18123000
   0.16746000  0.49787000  0.06247000
   0.48935970  0.50373390  0.30434153
   0.33345000  0.33400000  0.24176000
   0.50128000  0.50087000  0.18167000
   0.49793000  0.50025000  0.06116000
   0.82186563  0.49642678  0.30209761
   0.66663000  0.33329000  0.24218000
   0.66688658  0.32699457  0.36140588
   0.66547000  0.33470000  0.00081000
Direct configuration=    16
   0.24711698  0.61451230  0.42114643
   0.99559000  0.32828000  0.12092000
   0.33757922  0.31330661  0.37562219
   0.33554000  0.33717000  0.12244000
   0.99808000  0.00294000  0.00138000
   0.99536396  0.00286680  0.36946195
   0.33205000  0.99934000  0.12171000
   0.66680000  0.99880000  0.24350000
   0.83452000  0.16613000  0.06120000
   0.67294000  0.00204000  0.12069000
   0.33405000  0.66695000  0.24111000
   0.99910000  0.66743000  0.12138000
   0.33151000  0.66804000  0.00174000
   0.33268000  0.33220000  0.00000000
   0.83466000  0.83460000  0.06076000
   0.65149028  0.66730934  0.36084273
   0.66616000  0.66699000  0.00091000
   0.82112249  0.83780961  0.30294736
   0.66704000  0.66746000  0.24229000
   0.50180000  0.83456000  0.18079000
   0.33306000  0.66709000  0.12143000
   0.50009000  0.83568000  0.06165000
   0.83330000  0.83486000  0.18207000
   0.66751000  0.66780000  0.12127000
   0.99276957  0.66047615  0.35632204
   0.16644000  0.83420000  0.06149000
   0.17155285  0.82862903  0.30182984
   0.00140000  0.66613000  0.00100000
   0.83479000  0.50089000  0.18130000
   0.00007000  0.66669000  0.24225000
   0.83460000  0.50057000  0.06135000
   0.66585000  0.33313000  0.12140000
   0.16565000  0.83456000  0.18183000
   0.49064021  0.83209361  0.30249788
   0.00179000  0.33550000  0.00090000
   0.00188800  0.35228627  0.35975150
   0.49795000  0.16690000  0.06150000
   0.50074000  0.16494000  0.18144000
   0.83373557  0.17144130  0.30373256
   0.66500000  0.00040000  0.00060000
   0.64640843  0.00538457  0.36401176
   0.83245000  0.16547000  0.18171000
   0.99997000  0.33361000  0.24198000
   0.16739794  0.49475667  0.30066463
   0.33438000  0.99945000  0.24203000
   0.49358887  0.16210520  0.30242333
   0.00050000  0.00053000  0.12178000
   0.16809000  0.16736000  0.18138000
   0.16856201  0.16736488  0.30363910
   0.16764000  0.16833000  0.06179000
   0.99934000  0.00030000  0.24219000
   0.33250000  0.00057000  0.00106000
   0.32868757  0.99027302  0.36250001
   0.16564000  0.49971000  0.18123000
   0.16746000  0.49787000  0.06247000
   0.48918621  0.50376404  0.30434268
   0.33345000  0.33400000  0.24176000
   0.50128000  0.50087000  0.18167000
   0.49793000  0.50025000  0.06116000
   0.82167385  0.49638963  0.30210220
   0.66663000  0.33329000  0.24218000
   0.66672256  0.32686295  0.36141620
   0.66547000  0.33470000  0.00081000
Direct configuration=    17
   0.25236796  0.61961652  0.42026194
   0.99559000  0.32828000  0.12092000
   0.33738960  0.31314863  0.37576785
   0.33554000  0.33717000  0.12244000
   0.99808000  0.00294000  0.00138000
   0.99507195  0.00286313  0.36935456
   0.33205000  0.99934000  0.12171000
   0.66680000  0.99880000  0.24350000
   0.83452000  0.16613000  0.06120000
   0.67294000  0.00204000  0.12069000
   0.33405000  0.66695000  0.24111000
   0.99910000  0.66743000  0.12138000
   0.33151000  0.66804000  0.00174000
   0.33268000  0.33220000  0.00000000
   0.83466000  0.83460000  0.06076000
   0.65026057  0.66747040  0.36078790
   0.66616000  0.66699000  0.00091000
   0.82081725  0.83771499  0.30302601
   0.66704000  0.66746000  0.24229000
   0.50180000  0.83456000  0.18079000
   0.33306000  0.66709000  0.12143000
   0.50009000  0.83568000  0.06165000
   0.83330000  0.83486000  0.18207000
   0.66751000  0.66780000  0.12127000
   0.99328248  0.65931127  0.35614636
   0.16644000  0.83420000  0.06149000
   0.17169799  0.82843302  0.30183595
   0.00140000  0.66613000  0.00100000
   0.83479000  0.50089000  0.18130000
   0.00007000  0.66669000  0.24225000
   0.83460000  0.50057000  0.06135000
   0.66585000  0.33313000  0.12140000
   0.16565000  0.83456000  0.18183000
   0.49036672  0.83233848  0.30246057
   0.00179000  0.33550000  0.00090000
   0.00198518  0.35335700  0.35983984
   0.49795000  0.16690000  0.06150000
   0.50074000  0.16494000  0.18144000
   0.83376450  0.17172317  0.30383168
   0.66500000  0.00040000  0.00060000
   0.64569916  0.00574600  0.36411638
   0.83245000  0.16547000  0.18171000
   0.99997000  0.33361000  0.24198000
   0.16746292  0.49447655  0.30049294
   0.33438000  0.99945000  0.24203000
   0.49323986  0.16210363  0.30243106
   0.00050000  0.00053000  0.12178000
   0.16809000  0.16736000  0.18138000
   0.16850659  0.16750694  0.30370385
   0.16764000  0.16833000  0.06179000
   0.99934000  0.00030000  0.24219000
   0.33250000  0.00057000  0.00106000
   0.32833421  0.98993034  0.36263726
   0.16564000  0.49971000  0.18123000
   0.16746000  0.49787000  0.06247000
   0.48866576  0.50385448  0.30434612
   0.33345000  0.33400000  0.24176000
   0.50128000  0.50087000  0.18167000
   0.49793000  0.50025000  0.06116000
   0.82109851  0.49627819  0.30211597
   0.66663000  0.33329000  0.24218000
   0.66623050  0.32646811  0.36144715
   0.66547000  0.33470000  0.00081000
Direct configuration=    18
   0.26286992  0.62982498  0.41849295
   0.99559000  0.32828000  0.12092000
   0.33701036  0.31283268  0.37605919
   0.33554000  0.33717000  0.12244000
   0.99808000  0.00294000  0.00138000
   0.99448792  0.00285580  0.36913978
   0.33205000  0.99934000  0.12171000
   0.66680000  0.99880000  0.24350000
   0.83452000  0.16613000  0.06120000
   0.67294000  0.00204000  0.12069000
   0.33405000  0.66695000  0.24111000
   0.99910000  0.66743000  0.12138000
   0.33151000  0.66804000  0.00174000
   0.33268000  0.33220000  0.00000000
   0.83466000  0.83460000  0.06076000
   0.64780116  0.66779251  0.36067825
   0.66616000  0.66699000  0.00091000
   0.82020676  0.83752576  0.30318331
   0.66704000  0.66746000  0.24229000
   0.50180000  0.83456000  0.18079000
   0.33306000  0.66709000  0.12143000
   0.50009000  0.83568000  0.06165000
   0.83330000  0.83486000  0.18207000
   0.66751000  0.66780000  0.12127000
   0.99430831  0.65698150  0.35579499
   0.16644000  0.83420000  0.06149000
   0.17198825  0.82804100  0.30184816
   0.00140000  0.66613000  0.00100000
   0.83479000  0.50089000  0.18130000
   0.00007000  0.66669000  0.24225000
   0.83460000  0.50057000  0.06135000
   0.66585000  0.33313000  0.12140000
   0.16565000  0.83456000  0.18183000
   0.48981975  0.83282821  0.30238596
   0.00179000  0.33550000  0.00090000
   0.00217953  0.35549847  0.36001652
   0.49795000  0.16690000  0.06150000
   0.50074000  0.16494000  0.18144000
   0.83382237  0.17228691  0.30402993
   0.66500000  0.00040000  0.00060000
   0.64428060  0.00646884  0.36432562
   0.83245000  0.16547000  0.18171000
   0.99997000  0.33361000  0.24198000
   0.16759290  0.49391630  0.30014955
   0.33438000  0.99945000  0.24203000
   0.49254184  0.16210047  0.30244650
   0.00050000  0.00053000  0.12178000
   0.16809000  0.16736000  0.18138000
   0.16839575  0.16779107  0.30383335
   0.16764000  0.16833000  0.06179000
   0.99934000  0.00030000  0.24219000
   0.33250000  0.00057000  0.00106000
   0.32762747  0.98924497  0.36291178
   0.16564000  0.49971000  0.18123000
   0.16746000  0.49787000  0.06247000
   0.48762487  0.50403535  0.30435301
   0.33345000  0.33400000  0.24176000
   0.50128000  0.50087000  0.18167000
   0.49793000  0.50025000  0.06116000
   0.81994784  0.49605530  0.30214351
   0.66663000  0.33329000  0.24218000
   0.66524638  0.32567843  0.36150906
   0.66547000  0.33470000  0.00081000
Direct configuration=    19
   0.28387385  0.65024189  0.41495498
   0.99559000  0.32828000  0.12092000
   0.33625187  0.31220078  0.37664186
   0.33554000  0.33717000  0.12244000
   0.99808000  0.00294000  0.00138000
   0.99331987  0.00284113  0.36871023
   0.33205000  0.99934000  0.12171000
   0.66680000  0.99880000  0.24350000
   0.83452000  0.16613000  0.06120000
   0.67294000  0.00204000  0.12069000
   0.33405000  0.66695000  0.24111000
   0.99910000  0.66743000  0.12138000
   0.33151000  0.66804000  0.00174000
   0.33268000  0.33220000  0.00000000
   0.83466000  0.83460000  0.06076000
   0.64288234  0.66843673  0.36045894
   0.66616000  0.66699000  0.00091000
   0.81898577  0.83714728  0.30349792
   0.66704000  0.66746000  0.24229000
   0.50180000  0.83456000  0.18079000
   0.33306000  0.66709000  0.12143000
   0.50009000  0.83568000  0.06165000
   0.83330000  0.83486000  0.18207000
   0.66751000  0.66780000  0.12127000
   0.99635998  0.65232198  0.35509225
   0.16644000  0.83420000  0.06149000
   0.17256877  0.82725696  0.30187259
   0.00140000  0.66613000  0.00100000
   0.83479000  0.50089000  0.18130000
   0.00007000  0.66669000  0.24225000
   0.83460000  0.50057000  0.06135000
   0.66585000  0.33313000  0.12140000
   0.16565000  0.83456000  0.18183000
   0.48872582  0.83380767  0.30223673
   0.00179000  0.33550000  0.00090000
   0.00256823  0.35978140  0.36036989
   0.49795000  0.16690000  0.06150000
   0.50074000  0.16494000  0.18144000
   0.83393810  0.17341440  0.30442642
   0.66500000  0.00040000  0.00060000
   0.64144349  0.00791453  0.36474411
   0.83245000  0.16547000  0.18171000
   0.99997000  0.33361000  0.24198000
   0.16785286  0.49279582  0.29946277
   0.33438000  0.99945000  0.24203000
   0.49114580  0.16209417  0.30247740
   0.00050000  0.00053000  0.12178000
   0.16809000  0.16736000  0.18138000
   0.16817407  0.16835933  0.30409236
   0.16764000  0.16833000  0.06179000
   0.99934000  0.00030000  0.24219000
   0.33250000  0.00057000  0.00106000
   0.32621400  0.98787423  0.36346081
   0.16564000  0.49971000  0.18123000
   0.16746000  0.49787000  0.06247000
   0.48554308  0.50439709  0.30436678
   0.33345000  0.33400000  0.24176000
   0.50128000  0.50087000  0.18167000
   0.49793000  0.50025000  0.06116000
   0.81764651  0.49560952  0.30219859
   0.66663000  0.33329000  0.24218000
   0.66327815  0.32409906  0.36163288
   0.66547000  0.33470000  0.00081000
Direct configuration=    20
   0.28810719  0.65405887  0.41395872
   0.99559000  0.32828000  0.12092000
   0.33589083  0.31257255  0.37676636
   0.33554000  0.33717000  0.12244000
   0.99808000  0.00294000  0.00138000
   0.99326072  0.00262843  0.36875709
   0.33205000  0.99934000  0.12171000
   0.66680000  0.99880000  0.24350000
   0.83452000  0.16613000  0.06120000
   0.67294000  0.00204000  0.12069000
   0.33405000  0.66695000  0.24111000
   0.99910000  0.66743000  0.12138000
   0.33151000  0.66804000  0.00174000
   0.33268000  0.33220000  0.00000000
   0.83466000  0.83460000  0.06076000
   0.64237406  0.66860790  0.36051607
   0.66616000  0.66699000  0.00091000
   0.81912429  0.83679457  0.30357458
   0.66704000  0.66746000  0.24229000
   0.50180000  0.83456000  0.18079000
   0.33306000  0.66709000  0.12143000
   0.50009000  0.83568000  0.06165000
   0.83330000  0.83486000  0.18207000
   0.66751000  0.66780000  0.12127000
   0.99629275  0.65224271  0.35510065
   0.16644000  0.83420000  0.06149000
   0.17240031  0.82702819  0.30196192
   0.00140000  0.66613000  0.00100000
   0.83479000  0.50089000  0.18130000
   0.00007000  0.66669000  0.24225000
   0.83460000  0.50057000  0.06135000
   0.66585000  0.33313000  0.12140000
   0.16565000  0.83456000  0.18183000
   0.48875478  0.83363921  0.30232809
   0.00179000  0.33550000  0.00090000
   0.00245489  0.35948623  0.36053437
   0.49795000  0.16690000  0.06150000
   0.50074000  0.16494000  0.18144000
   0.83360651  0.17339855  0.30437833
   0.66500000  0.00040000  0.00060000
   0.64122813  0.00808934  0.36474337
   0.83245000  0.16547000  0.18171000
   0.99997000  0.33361000  0.24198000
   0.16837539  0.49330771  0.29946457
   0.33438000  0.99945000  0.24203000
   0.49133488  0.16235064  0.30242927
   0.00050000  0.00053000  0.12178000
   0.16809000  0.16736000  0.18138000
   0.16806897  0.16821918  0.30401855
   0.16764000  0.16833000  0.06179000
   0.99934000  0.00030000  0.24219000
   0.33250000  0.00057000  0.00106000
   0.32588666  0.98769827  0.36353540
   0.16564000  0.49971000  0.18123000
   0.16746000  0.49787000  0.06247000
   0.48543393  0.50432892  0.30433330
   0.33345000  0.33400000  0.24176000
   0.50128000  0.50087000  0.18167000
   0.49793000  0.50025000  0.06116000
   0.81763997  0.49607359  0.30224188
   0.66663000  0.33329000  0.24218000
   0.66299362  0.32390752  0.36166293
   0.66547000  0.33470000  0.00081000
Direct configuration=    21
   0.30080721  0.66550982  0.41096995
   0.99559000  0.32828000  0.12092000
   0.33480772  0.31368788  0.37713987
   0.33554000  0.33717000  0.12244000
   0.99808000  0.00294000  0.00138000
   0.99308325  0.00199034  0.36889768
   0.33205000  0.99934000  0.12171000
   0.66680000  0.99880000  0.24350000
   0.83452000  0.16613000  0.06120000
   0.67294000  0.00204000  0.12069000
   0.33405000  0.66695000  0.24111000
   0.99910000  0.66743000  0.12138000
   0.33151000  0.66804000  0.00174000
   0.33268000  0.33220000  0.00000000
   0.83466000  0.83460000  0.06076000
   0.64084921  0.66912138  0.36068748
   0.66616000  0.66699000  0.00091000
   0.81953985  0.83573646  0.30380457
   0.66704000  0.66746000  0.24229000
   0.50180000  0.83456000  0.18079000
   0.33306000  0.66709000  0.12143000
   0.50009000  0.83568000  0.06165000
   0.83330000  0.83486000  0.18207000
   0.66751000  0.66780000  0.12127000
   0.99609108  0.65200489  0.35512586
   0.16644000  0.83420000  0.06149000
   0.17189492  0.82634186  0.30222994
   0.00140000  0.66613000  0.00100000
   0.83479000  0.50089000  0.18130000
   0.00007000  0.66669000  0.24225000
   0.83460000  0.50057000  0.06135000
   0.66585000  0.33313000  0.12140000
   0.16565000  0.83456000  0.18183000
   0.48884166  0.83313382  0.30260215
   0.00179000  0.33550000  0.00090000
   0.00211488  0.35860072  0.36102780
   0.49795000  0.16690000  0.06150000
   0.50074000  0.16494000  0.18144000
   0.83261176  0.17335102  0.30423406
   0.66500000  0.00040000  0.00060000
   0.64058206  0.00861380  0.36474116
   0.83245000  0.16547000  0.18171000
   0.99997000  0.33361000  0.24198000
   0.16994299  0.49484340  0.29946999
   0.33438000  0.99945000  0.24203000
   0.49190211  0.16312007  0.30228490
   0.00050000  0.00053000  0.12178000
   0.16809000  0.16736000  0.18138000
   0.16775367  0.16779872  0.30379712
   0.16764000  0.16833000  0.06179000
   0.99934000  0.00030000  0.24219000
   0.33250000  0.00057000  0.00106000
   0.32490465  0.98717039  0.36375916
   0.16564000  0.49971000  0.18123000
   0.16746000  0.49787000  0.06247000
   0.48510649  0.50412440  0.30423287
   0.33345000  0.33400000  0.24176000
   0.50128000  0.50087000  0.18167000
   0.49793000  0.50025000  0.06116000
   0.81762035  0.49746578  0.30237176
   0.66663000  0.33329000  0.24218000
   0.66214004  0.32333291  0.36175309
   0.66547000  0.33470000  0.00081000
Direct configuration=    22
   0.32620726  0.68841172  0.40499241
   0.99559000  0.32828000  0.12092000
   0.33264149  0.31591853  0.37788688
   0.33554000  0.33717000  0.12244000
   0.99808000  0.00294000  0.00138000
   0.99272831  0.00071416  0.36917885
   0.33205000  0.99934000  0.12171000
   0.66680000  0.99880000  0.24350000
   0.83452000  0.16613000  0.06120000
   0.67294000  0.00204000  0.12069000
   0.33405000  0.66695000  0.24111000
   0.99910000  0.66743000  0.12138000
   0.33151000  0.66804000  0.00174000
   0.33268000  0.33220000  0.00000000
   0.83466000  0.83460000  0.06076000
   0.63779953  0.67014834  0.36103030
   0.66616000  0.66699000  0.00091000
   0.82037097  0.83362023  0.30426456
   0.66704000  0.66746000  0.24229000
   0.50180000  0.83456000  0.18079000
   0.33306000  0.66709000  0.12143000
   0.50009000  0.83568000  0.06165000
   0.83330000  0.83486000  0.18207000
   0.66751000  0.66780000  0.12127000
   0.99568774  0.65152926  0.35517628
   0.16644000  0.83420000  0.06149000
   0.17088415  0.82496920  0.30276596
   0.00140000  0.66613000  0.00100000
   0.83479000  0.50089000  0.18130000
   0.00007000  0.66669000  0.24225000
   0.83460000  0.50057000  0.06135000
   0.66585000  0.33313000  0.12140000
   0.16565000  0.83456000  0.18183000
   0.48901542  0.83212304  0.30315029
   0.00179000  0.33550000  0.00090000
   0.00143485  0.35682970  0.36201466
   0.49795000  0.16690000  0.06150000
   0.50074000  0.16494000  0.18144000
   0.83062226  0.17325596  0.30394553
   0.66500000  0.00040000  0.00060000
   0.63928990  0.00966271  0.36473674
   0.83245000  0.16547000  0.18171000
   0.99997000  0.33361000  0.24198000
   0.17307819  0.49791478  0.29948082
   0.33438000  0.99945000  0.24203000
   0.49303656  0.16465893  0.30199614
   0.00050000  0.00053000  0.12178000
   0.16809000  0.16736000  0.18138000
   0.16712307  0.16695780  0.30335426
   0.16764000  0.16833000  0.06179000
   0.99934000  0.00030000  0.24219000
   0.33250000  0.00057000  0.00106000
   0.32294062  0.98611464  0.36420669
   0.16564000  0.49971000  0.18123000
   0.16746000  0.49787000  0.06247000
   0.48445161  0.50371537  0.30403201
   0.33345000  0.33400000  0.24176000
   0.50128000  0.50087000  0.18167000
   0.49793000  0.50025000  0.06116000
   0.81758113  0.50025017  0.30263153
   0.66663000  0.33329000  0.24218000
   0.66043288  0.32218367  0.36193341
   0.66547000  0.33470000  0.00081000
Direct configuration=    23
   0.31253892  0.67608769  0.40820906
   0.99559000  0.32828000  0.12092000
   0.33380719  0.31471817  0.37748489
   0.33554000  0.33717000  0.12244000
   0.99808000  0.00294000  0.00138000
   0.99291931  0.00140090  0.36902755
   0.33205000  0.99934000  0.12171000
   0.66680000  0.99880000  0.24350000
   0.83452000  0.16613000  0.06120000
   0.67294000  0.00204000  0.12069000
   0.33405000  0.66695000  0.24111000
   0.99910000  0.66743000  0.12138000
   0.33151000  0.66804000  0.00174000
   0.33268000  0.33220000  0.00000000
   0.83466000  0.83460000  0.06076000
   0.63944063  0.66959571  0.36084582
   0.66616000  0.66699000  0.00091000
   0.81992373  0.83475902  0.30401703
   0.66704000  0.66746000  0.24229000
   0.50180000  0.83456000  0.18079000
   0.33306000  0.66709000  0.12143000
   0.50009000  0.83568000  0.06165000
   0.83330000  0.83486000  0.18207000
   0.66751000  0.66780000  0.12127000
   0.99590479  0.65178520  0.35514915
   0.16644000  0.83420000  0.06149000
   0.17142807  0.82570786  0.30247752
   0.00140000  0.66613000  0.00100000
   0.83479000  0.50089000  0.18130000
   0.00007000  0.66669000  0.24225000
   0.83460000  0.50057000  0.06135000
   0.66585000  0.33313000  0.12140000
   0.16565000  0.83456000  0.18183000
   0.48892192  0.83266696  0.30285532
   0.00179000  0.33550000  0.00090000
   0.00180079  0.35778273  0.36148361
   0.49795000  0.16690000  0.06150000
   0.50074000  0.16494000  0.18144000
   0.83169286  0.17330712  0.30410080
   0.66500000  0.00040000  0.00060000
   0.63998524  0.00909827  0.36473912
   0.83245000  0.16547000  0.18171000
   0.99997000  0.33361000  0.24198000
   0.17139107  0.49626200  0.29947499
   0.33438000  0.99945000  0.24203000
   0.49242608  0.16383084  0.30215153
   0.00050000  0.00053000  0.12178000
   0.16809000  0.16736000  0.18138000
   0.16746241  0.16741032  0.30359257
   0.16764000  0.16833000  0.06179000
   0.99934000  0.00030000  0.24219000
   0.33250000  0.00057000  0.00106000
   0.32399751  0.98668276  0.36396587
   0.16564000  0.49971000  0.18123000
   0.16746000  0.49787000  0.06247000
   0.48480402  0.50393548  0.30414010
   0.33345000  0.33400000  0.24176000
   0.50128000  0.50087000  0.18167000
   0.49793000  0.50025000  0.06116000
   0.81760224  0.49875183  0.30249175
   0.66663000  0.33329000  0.24218000
   0.66135155  0.32280210  0.36183637
   0.66547000  0.33470000  0.00081000
Direct configuration=    24
   0.31236386  0.67511933  0.40772810
   0.99559000  0.32828000  0.12092000
   0.33348726  0.31567947  0.37741943
   0.33554000  0.33717000  0.12244000
   0.99808000  0.00294000  0.00138000
   0.99318754  0.00119339  0.36924821
   0.33205000  0.99934000  0.12171000
   0.66680000  0.99880000  0.24350000
   0.83452000  0.16613000  0.06120000
   0.67294000  0.00204000  0.12069000
   0.33405000  0.66695000  0.24111000
   0.99910000  0.66743000  0.12138000
   0.33151000  0.66804000  0.00174000
   0.33268000  0.33220000  0.00000000
   0.83466000  0.83460000  0.06076000
   0.64085822  0.66950371  0.36103490
   0.66616000  0.66699000  0.00091000
   0.82049266  0.83444867  0.30397745
   0.66704000  0.66746000  0.24229000
   0.50180000  0.83456000  0.18079000
   0.33306000  0.66709000  0.12143000
   0.50009000  0.83568000  0.06165000
   0.83330000  0.83486000  0.18207000
   0.66751000  0.66780000  0.12127000
   0.99556223  0.65343897  0.35560966
   0.16644000  0.83420000  0.06149000
   0.17091126  0.82602623  0.30249383
   0.00140000  0.66613000  0.00100000
   0.83479000  0.50089000  0.18130000
   0.00007000  0.66669000  0.24225000
   0.83460000  0.50057000  0.06135000
   0.66585000  0.33313000  0.12140000
   0.16565000  0.83456000  0.18183000
   0.48918821  0.83230539  0.30299029
   0.00179000  0.33550000  0.00090000
   0.00141102  0.35572600  0.36139668
   0.49795000  0.16690000  0.06150000
   0.50074000  0.16494000  0.18144000
   0.83134281  0.17283904  0.30394909
   0.66500000  0.00040000  0.00060000
   0.64065599  0.00888547  0.36458569
   0.83245000  0.16547000  0.18171000
   0.99997000  0.33361000  0.24198000
   0.17154103  0.49696830  0.29982287
   0.33438000  0.99945000  0.24203000
   0.49286481  0.16412055  0.30212122
   0.00050000  0.00053000  0.12178000
   0.16809000  0.16736000  0.18138000
   0.16742581  0.16712007  0.30346681
   0.16764000  0.16833000  0.06179000
   0.99934000  0.00030000  0.24219000
   0.33250000  0.00057000  0.00106000
   0.32414545  0.98763334  0.36377514
   0.16564000  0.49971000  0.18123000
   0.16746000  0.49787000  0.06247000
   0.48570756  0.50364422  0.30409691
   0.33345000  0.33400000  0.24176000
   0.50128000  0.50087000  0.18167000
   0.49793000  0.50025000  0.06116000
   0.81846679  0.49915905  0.30257075
   0.66663000  0.33329000  0.24218000
   0.66170934  0.32319593  0.36182807
   0.66547000  0.33470000  0.00081000
Direct configuration=    25
   0.31183866  0.67221426  0.40628521
   0.99559000  0.32828000  0.12092000
   0.33252746  0.31856337  0.37722305
   0.33554000  0.33717000  0.12244000
   0.99808000  0.00294000  0.00138000
   0.99399223  0.00057085  0.36991020
   0.33205000  0.99934000  0.12171000
   0.66680000  0.99880000  0.24350000
   0.83452000  0.16613000  0.06120000
   0.67294000  0.00204000  0.12069000
   0.33405000  0.66695000  0.24111000
   0.99910000  0.66743000  0.12138000
   0.33151000  0.66804000  0.00174000
   0.33268000  0.33220000  0.00000000
   0.83466000  0.83460000  0.06076000
   0.64511100  0.66922773  0.36160215
   0.66616000  0.66699000  0.00091000
   0.82219946  0.83351764  0.30385871
   0.66704000  0.66746000  0.24229000
   0.50180000  0.83456000  0.18079000
   0.33306000  0.66709000  0.12143000
   0.50009000  0.83568000  0.06165000
   0.83330000  0.83486000  0.18207000
   0.66751000  0.66780000  0.12127000
   0.99453454  0.65840025  0.35699120
   0.16644000  0.83420000  0.06149000
   0.16936083  0.82698134  0.30254278
   0.00140000  0.66613000  0.00100000
   0.83479000  0.50089000  0.18130000
   0.00007000  0.66669000  0.24225000
   0.83460000  0.50057000  0.06135000
   0.66585000  0.33313000  0.12140000
   0.16565000  0.83456000  0.18183000
   0.48998707  0.83122067  0.30339520
   0.00179000  0.33550000  0.00090000
   0.00024172  0.34955582  0.36113588
   0.49795000  0.16690000  0.06150000
   0.50074000  0.16494000  0.18144000
   0.83029268  0.17143482  0.30349399
   0.66500000  0.00040000  0.00060000
   0.64266824  0.00824708  0.36412540
   0.83245000  0.16547000  0.18171000
   0.99997000  0.33361000  0.24198000
   0.17199090  0.49908720  0.30086653
   0.33438000  0.99945000  0.24203000
   0.49418101  0.16498970  0.30203028
   0.00050000  0.00053000  0.12178000
   0.16809000  0.16736000  0.18138000
   0.16731600  0.16624934  0.30308954
   0.16764000  0.16833000  0.06179000
   0.99934000  0.00030000  0.24219000
   0.33250000  0.00057000  0.00106000
   0.32458927  0.99048509  0.36320297
   0.16564000  0.49971000  0.18123000
   0.16746000  0.49787000  0.06247000
   0.48841819  0.50277044  0.30396736
   0.33345000  0.33400000  0.24176000
   0.50128000  0.50087000  0.18167000
   0.49793000  0.50025000  0.06116000
   0.82106043  0.50038073  0.30280775
   0.66663000  0.33329000  0.24218000
   0.66278274  0.32437744  0.36180314
   0.66547000  0.33470000  0.00081000
Direct configuration=    26
   0.31078826  0.66640411  0.40339943
   0.99559000  0.32828000  0.12092000
   0.33060786  0.32433118  0.37683029
   0.33554000  0.33717000  0.12244000
   0.99808000  0.00294000  0.00138000
   0.99560162  0.99932577  0.37123417
   0.33205000  0.99934000  0.12171000
   0.66680000  0.99880000  0.24350000
   0.83452000  0.16613000  0.06120000
   0.67294000  0.00204000  0.12069000
   0.33405000  0.66695000  0.24111000
   0.99910000  0.66743000  0.12138000
   0.33151000  0.66804000  0.00174000
   0.33268000  0.33220000  0.00000000
   0.83466000  0.83460000  0.06076000
   0.65361655  0.66867576  0.36273666
   0.66616000  0.66699000  0.00091000
   0.82561306  0.83165557  0.30362124
   0.66704000  0.66746000  0.24229000
   0.50180000  0.83456000  0.18079000
   0.33306000  0.66709000  0.12143000
   0.50009000  0.83568000  0.06165000
   0.83330000  0.83486000  0.18207000
   0.66751000  0.66780000  0.12127000
   0.99247917  0.66832282  0.35975428
   0.16644000  0.83420000  0.06149000
   0.16625997  0.82889157  0.30264069
   0.00140000  0.66613000  0.00100000
   0.83479000  0.50089000  0.18130000
   0.00007000  0.66669000  0.24225000
   0.83460000  0.50057000  0.06135000
   0.66585000  0.33313000  0.12140000
   0.16565000  0.83456000  0.18183000
   0.49158480  0.82905122  0.30420502
   0.00179000  0.33550000  0.00090000
   0.99790312  0.33721547  0.36061429
   0.49795000  0.16690000  0.06150000
   0.50074000  0.16494000  0.18144000
   0.82819241  0.16862638  0.30258377
   0.66500000  0.00040000  0.00060000
   0.64669274  0.00697029  0.36320481
   0.83245000  0.16547000  0.18171000
   0.99997000  0.33361000  0.24198000
   0.17289065  0.50332501  0.30295385
   0.33438000  0.99945000  0.24203000
   0.49681340  0.16672798  0.30184842
   0.00050000  0.00053000  0.12178000
   0.16809000  0.16736000  0.18138000
   0.16709639  0.16450787  0.30233499
   0.16764000  0.16833000  0.06179000
   0.99934000  0.00030000  0.24219000
   0.33250000  0.00057000  0.00106000
   0.32547690  0.99618858  0.36205863
   0.16564000  0.49971000  0.18123000
   0.16746000  0.49787000  0.06247000
   0.49383946  0.50102288  0.30370825
   0.33345000  0.33400000  0.24176000
   0.50128000  0.50087000  0.18167000
   0.49793000  0.50025000  0.06116000
   0.82624773  0.50282408  0.30328176
   0.66663000  0.33329000  0.24218000
   0.66492953  0.32674044  0.36175330
   0.66547000  0.33470000  0.00081000
Direct configuration=    27
   0.31049694  0.66479273  0.40259909
   0.99559000  0.32828000  0.12092000
   0.33007548  0.32593081  0.37672136
   0.33554000  0.33717000  0.12244000
   0.99808000  0.00294000  0.00138000
   0.99604796  0.99898046  0.37160136
   0.33205000  0.99934000  0.12171000
   0.66680000  0.99880000  0.24350000
   0.83452000  0.16613000  0.06120000
   0.67294000  0.00204000  0.12069000
   0.33405000  0.66695000  0.24111000
   0.99910000  0.66743000  0.12138000
   0.33151000  0.66804000  0.00174000
   0.33268000  0.33220000  0.00000000
   0.83466000  0.83460000  0.06076000
   0.65597547  0.66852268  0.36305130
   0.66616000  0.66699000  0.00091000
   0.82655978  0.83113915  0.30355538
   0.66704000  0.66746000  0.24229000
   0.50180000  0.83456000  0.18079000
   0.33306000  0.66709000  0.12143000
   0.50009000  0.83568000  0.06165000
   0.83330000  0.83486000  0.18207000
   0.66751000  0.66780000  0.12127000
   0.99190914  0.67107473  0.36052059
   0.16644000  0.83420000  0.06149000
   0.16539998  0.82942135  0.30266784
   0.00140000  0.66613000  0.00100000
   0.83479000  0.50089000  0.18130000
   0.00007000  0.66669000  0.24225000
   0.83460000  0.50057000  0.06135000
   0.66585000  0.33313000  0.12140000
   0.16565000  0.83456000  0.18183000
   0.49202791  0.82844955  0.30442961
   0.00179000  0.33550000  0.00090000
   0.99725453  0.33379301  0.36046963
   0.49795000  0.16690000  0.06150000
   0.50074000  0.16494000  0.18144000
   0.82760992  0.16784749  0.30233133
   0.66500000  0.00040000  0.00060000
   0.64780889  0.00661619  0.36294949
   0.83245000  0.16547000  0.18171000
   0.99997000  0.33361000  0.24198000
   0.17314019  0.50450032  0.30353275
   0.33438000  0.99945000  0.24203000
   0.49754346  0.16721008  0.30179798
   0.00050000  0.00053000  0.12178000
   0.16809000  0.16736000  0.18138000
   0.16703548  0.16402490  0.30212572
   0.16764000  0.16833000  0.06179000
   0.99934000  0.00030000  0.24219000
   0.33250000  0.00057000  0.00106000
   0.32572308  0.99777038  0.36174126
   0.16564000  0.49971000  0.18123000
   0.16746000  0.49787000  0.06247000
   0.49534298  0.50053822  0.30363639
   0.33345000  0.33400000  0.24176000
   0.50128000  0.50087000  0.18167000
   0.49793000  0.50025000  0.06116000
   0.82768637  0.50350172  0.30341322
   0.66663000  0.33329000  0.24218000
   0.66552491  0.32739579  0.36173948
   0.66547000  0.33470000  0.00081000
Direct configuration=    28
   0.31212076  0.66476826  0.40147373
   0.99559000  0.32828000  0.12092000
   0.33012717  0.32639115  0.37603071
   0.33554000  0.33717000  0.12244000
   0.99808000  0.00294000  0.00138000
   0.99577699  0.99961326  0.37190597
   0.33205000  0.99934000  0.12171000
   0.66680000  0.99880000  0.24350000
   0.83452000  0.16613000  0.06120000
   0.67294000  0.00204000  0.12069000
   0.33405000  0.66695000  0.24111000
   0.99910000  0.66743000  0.12138000
   0.33151000  0.66804000  0.00174000
   0.33268000  0.33220000  0.00000000
   0.83466000  0.83460000  0.06076000
   0.65816939  0.66785999  0.36310187
   0.66616000  0.66699000  0.00091000
   0.82717691  0.83223995  0.30351720
   0.66704000  0.66746000  0.24229000
   0.50180000  0.83456000  0.18079000
   0.33306000  0.66709000  0.12143000
   0.50009000  0.83568000  0.06165000
   0.83330000  0.83486000  0.18207000
   0.66751000  0.66780000  0.12127000
   0.99153443  0.67072142  0.36097878
   0.16644000  0.83420000  0.06149000
   0.16582341  0.83031910  0.30273962
   0.00140000  0.66613000  0.00100000
   0.83479000  0.50089000  0.18130000
   0.00007000  0.66669000  0.24225000
   0.83460000  0.50057000  0.06135000
   0.66585000  0.33313000  0.12140000
   0.16565000  0.83456000  0.18183000
   0.49263218  0.82851354  0.30468104
   0.00179000  0.33550000  0.00090000
   0.99697353  0.33286048  0.35989987
   0.49795000  0.16690000  0.06150000
   0.50074000  0.16494000  0.18144000
   0.82928130  0.16695926  0.30252625
   0.66500000  0.00040000  0.00060000
   0.64908707  0.00583331  0.36261570
   0.83245000  0.16547000  0.18171000
   0.99997000  0.33361000  0.24198000
   0.17045700  0.50383782  0.30382452
   0.33438000  0.99945000  0.24203000
   0.49666335  0.16724538  0.30213761
   0.00050000  0.00053000  0.12178000
   0.16809000  0.16736000  0.18138000
   0.16704043  0.16526264  0.30222966
   0.16764000  0.16833000  0.06179000
   0.99934000  0.00030000  0.24219000
   0.33250000  0.00057000  0.00106000
   0.32681545  0.99817780  0.36146897
   0.16564000  0.49971000  0.18123000
   0.16746000  0.49787000  0.06247000
   0.49641054  0.50121268  0.30396424
   0.33345000  0.33400000  0.24176000
   0.50128000  0.50087000  0.18167000
   0.49793000  0.50025000  0.06116000
   0.82959911  0.50238417  0.30369945
   0.66663000  0.33329000  0.24218000
   0.66667014  0.32845071  0.36166166
   0.66547000  0.33470000  0.00081000
Direct configuration=    29
   0.31409592  0.66473850  0.40010487
   0.99559000  0.32828000  0.12092000
   0.33019004  0.32695108  0.37519062
   0.33554000  0.33717000  0.12244000
   0.99808000  0.00294000  0.00138000
   0.99544739  0.00038298  0.37227648
   0.33205000  0.99934000  0.12171000
   0.66680000  0.99880000  0.24350000
   0.83452000  0.16613000  0.06120000
   0.67294000  0.00204000  0.12069000
   0.33405000  0.66695000  0.24111000
   0.99910000  0.66743000  0.12138000
   0.33151000  0.66804000  0.00174000
   0.33268000  0.33220000  0.00000000
   0.83466000  0.83460000  0.06076000
   0.66083801  0.66705390  0.36316339
   0.66616000  0.66699000  0.00091000
   0.82792757  0.83357894  0.30347076
   0.66704000  0.66746000  0.24229000
   0.50180000  0.83456000  0.18079000
   0.33306000  0.66709000  0.12143000
   0.50009000  0.83568000  0.06165000
   0.83330000  0.83486000  0.18207000
   0.66751000  0.66780000  0.12127000
   0.99107865  0.67029167  0.36153612
   0.16644000  0.83420000  0.06149000
   0.16633846  0.83141109  0.30282693
   0.00140000  0.66613000  0.00100000
   0.83479000  0.50089000  0.18130000
   0.00007000  0.66669000  0.24225000
   0.83460000  0.50057000  0.06135000
   0.66585000  0.33313000  0.12140000
   0.16565000  0.83456000  0.18183000
   0.49336718  0.82859137  0.30498686
   0.00179000  0.33550000  0.00090000
   0.99663172  0.33172618  0.35920682
   0.49795000  0.16690000  0.06150000
   0.50074000  0.16494000  0.18144000
   0.83131431  0.16587884  0.30276335
   0.66500000  0.00040000  0.00060000
   0.65064181  0.00488106  0.36220968
   0.83245000  0.16547000  0.18171000
   0.99997000  0.33361000  0.24198000
   0.16719326  0.50303199  0.30417943
   0.33438000  0.99945000  0.24203000
   0.49559282  0.16728833  0.30255072
   0.00050000  0.00053000  0.12178000
   0.16809000  0.16736000  0.18138000
   0.16704645  0.16676818  0.30235608
   0.16764000  0.16833000  0.06179000
   0.99934000  0.00030000  0.24219000
   0.33250000  0.00057000  0.00106000
   0.32814418  0.99867338  0.36113777
   0.16564000  0.49971000  0.18123000
   0.16746000  0.49787000  0.06247000
   0.49770909  0.50203308  0.30436302
   0.33345000  0.33400000  0.24176000
   0.50128000  0.50087000  0.18167000
   0.49793000  0.50025000  0.06116000
   0.83192570  0.50102482  0.30404761
   0.66663000  0.33329000  0.24218000
   0.66806316  0.32973389  0.36156701
   0.66547000  0.33470000  0.00081000
Direct configuration=    30
   0.31653615  0.66554443  0.39914360
   0.99559000  0.32828000  0.12092000
   0.33044561  0.32710361  0.37462875
   0.33554000  0.33717000  0.12244000
   0.99808000  0.00294000  0.00138000
   0.99594677  0.00081565  0.37259679
   0.33205000  0.99934000  0.12171000
   0.66680000  0.99880000  0.24350000
   0.83452000  0.16613000  0.06120000
   0.67294000  0.00204000  0.12069000
   0.33405000  0.66695000  0.24111000
   0.99910000  0.66743000  0.12138000
   0.33151000  0.66804000  0.00174000
   0.33268000  0.33220000  0.00000000
   0.83466000  0.83460000  0.06076000
   0.66257316  0.66663296  0.36307803
   0.66616000  0.66699000  0.00091000
   0.82842600  0.83335576  0.30349508
   0.66704000  0.66746000  0.24229000
   0.50180000  0.83456000  0.18079000
   0.33306000  0.66709000  0.12143000
   0.50009000  0.83568000  0.06165000
   0.83330000  0.83486000  0.18207000
   0.66751000  0.66780000  0.12127000
   0.99136177  0.66944111  0.36155937
   0.16644000  0.83420000  0.06149000
   0.16652982  0.83150763  0.30289453
   0.00140000  0.66613000  0.00100000
   0.83479000  0.50089000  0.18130000
   0.00007000  0.66669000  0.24225000
   0.83460000  0.50057000  0.06135000
   0.66585000  0.33313000  0.12140000
   0.16565000  0.83456000  0.18183000
   0.49428271  0.82866719  0.30490135
   0.00179000  0.33550000  0.00090000
   0.99733621  0.33187172  0.35955724
   0.49795000  0.16690000  0.06150000
   0.50074000  0.16494000  0.18144000
   0.83109914  0.16591570  0.30259169
   0.66500000  0.00040000  0.00060000
   0.65197904  0.00419421  0.36202166
   0.83245000  0.16547000  0.18171000
   0.99997000  0.33361000  0.24198000
   0.16601251  0.50279024  0.30382023
   0.33438000  0.99945000  0.24203000
   0.49637752  0.16744174  0.30255677
   0.00050000  0.00053000  0.12178000
   0.16809000  0.16736000  0.18138000
   0.16713390  0.16669449  0.30225406
   0.16764000  0.16833000  0.06179000
   0.99934000  0.00030000  0.24219000
   0.33250000  0.00057000  0.00106000
   0.32856256  0.99871526  0.36119992
   0.16564000  0.49971000  0.18123000
   0.16746000  0.49787000  0.06247000
   0.49790273  0.50252426  0.30434937
   0.33345000  0.33400000  0.24176000
   0.50128000  0.50087000  0.18167000
   0.49793000  0.50025000  0.06116000
   0.83128096  0.50126081  0.30366445
   0.66663000  0.33329000  0.24218000
   0.66873384  0.33026486  0.36144746
   0.66547000  0.33470000  0.00081000
Direct configuration=    31
   0.32222225  0.66742237  0.39690369
   0.99559000  0.32828000  0.12092000
   0.33104113  0.32745901  0.37331950
   0.33554000  0.33717000  0.12244000
   0.99808000  0.00294000  0.00138000
   0.99711040  0.00182383  0.37334315
   0.33205000  0.99934000  0.12171000
   0.66680000  0.99880000  0.24350000
   0.83452000  0.16613000  0.06120000
   0.67294000  0.00204000  0.12069000
   0.33405000  0.66695000  0.24111000
   0.99910000  0.66743000  0.12138000
   0.33151000  0.66804000  0.00174000
   0.33268000  0.33220000  0.00000000
   0.83466000  0.83460000  0.06076000
   0.66661631  0.66565211  0.36287914
   0.66616000  0.66699000  0.00091000
   0.82958743  0.83283574  0.30355175
   0.66704000  0.66746000  0.24229000
   0.50180000  0.83456000  0.18079000
   0.33306000  0.66709000  0.12143000
   0.50009000  0.83568000  0.06165000
   0.83330000  0.83486000  0.18207000
   0.66751000  0.66780000  0.12127000
   0.99202148  0.66745919  0.36161356
   0.16644000  0.83420000  0.06149000
   0.16697573  0.83173259  0.30305204
   0.00140000  0.66613000  0.00100000
   0.83479000  0.50089000  0.18130000
   0.00007000  0.66669000  0.24225000
   0.83460000  0.50057000  0.06135000
   0.66585000  0.33313000  0.12140000
   0.16565000  0.83456000  0.18183000
   0.49641603  0.82884387  0.30470211
   0.00179000  0.33550000  0.00090000
   0.99897779  0.33221083  0.36037376
   0.49795000  0.16690000  0.06150000
   0.50074000  0.16494000  0.18144000
   0.83059774  0.16600160  0.30219171
   0.66500000  0.00040000  0.00060000
   0.65509500  0.00259377  0.36158355
   0.83245000  0.16547000  0.18171000
   0.99997000  0.33361000  0.24198000
   0.16326119  0.50222693  0.30298325
   0.33438000  0.99945000  0.24203000
   0.49820598  0.16779920  0.30257088
   0.00050000  0.00053000  0.12178000
   0.16809000  0.16736000  0.18138000
   0.16733769  0.16652278  0.30201635
   0.16764000  0.16833000  0.06179000
   0.99934000  0.00030000  0.24219000
   0.33250000  0.00057000  0.00106000
   0.32953747  0.99881286  0.36134476
   0.16564000  0.49971000  0.18123000
   0.16746000  0.49787000  0.06247000
   0.49835394  0.50366878  0.30431758
   0.33345000  0.33400000  0.24176000
   0.50128000  0.50087000  0.18167000
   0.49793000  0.50025000  0.06116000
   0.82977862  0.50181071  0.30277162
   0.66663000  0.33329000  0.24218000
   0.67029664  0.33150211  0.36116890
   0.66547000  0.33470000  0.00081000
Direct configuration=    32
   0.32591076  0.66802744  0.39572414
   0.99559000  0.32828000  0.12092000
   0.33129586  0.32832716  0.37260626
   0.33554000  0.33717000  0.12244000
   0.99808000  0.00294000  0.00138000
   0.99813834  0.00201871  0.37354823
   0.33205000  0.99934000  0.12171000
   0.66680000  0.99880000  0.24350000
   0.83452000  0.16613000  0.06120000
   0.67294000  0.00204000  0.12069000
   0.33405000  0.66695000  0.24111000
   0.99910000  0.66743000  0.12138000
   0.33151000  0.66804000  0.00174000
   0.33268000  0.33220000  0.00000000
   0.83466000  0.83460000  0.06076000
   0.66838388  0.66542705  0.36283818
   0.66616000  0.66699000  0.00091000
   0.83132603  0.83271393  0.30352323
   0.66704000  0.66746000  0.24229000
   0.50180000  0.83456000  0.18079000
   0.33306000  0.66709000  0.12143000
   0.50009000  0.83568000  0.06165000
   0.83330000  0.83486000  0.18207000
   0.66751000  0.66780000  0.12127000
   0.99323053  0.66629730  0.36136756
   0.16644000  0.83420000  0.06149000
   0.16681741  0.83178351  0.30300068
   0.00140000  0.66613000  0.00100000
   0.83479000  0.50089000  0.18130000
   0.00007000  0.66669000  0.24225000
   0.83460000  0.50057000  0.06135000
   0.66585000  0.33313000  0.12140000
   0.16565000  0.83456000  0.18183000
   0.49723430  0.82996314  0.30441880
   0.00179000  0.33550000  0.00090000
   0.99874256  0.33307251  0.36040537
   0.49795000  0.16690000  0.06150000
   0.50074000  0.16494000  0.18144000
   0.83165319  0.16662682  0.30240970
   0.66500000  0.00040000  0.00060000
   0.65699774  0.00191057  0.36146935
   0.83245000  0.16547000  0.18171000
   0.99997000  0.33361000  0.24198000
   0.16427943  0.50212435  0.30274831
   0.33438000  0.99945000  0.24203000
   0.49904480  0.16717103  0.30241914
   0.00050000  0.00053000  0.12178000
   0.16809000  0.16736000  0.18138000
   0.16732011  0.16570095  0.30214427
   0.16764000  0.16833000  0.06179000
   0.99934000  0.00030000  0.24219000
   0.33250000  0.00057000  0.00106000
   0.33041893  0.99937641  0.36111698
   0.16564000  0.49971000  0.18123000
   0.16746000  0.49787000  0.06247000
   0.49837547  0.50327198  0.30367763
   0.33345000  0.33400000  0.24176000
   0.50128000  0.50087000  0.18167000
   0.49793000  0.50025000  0.06116000
   0.83118659  0.50104365  0.30270939
   0.66663000  0.33329000  0.24218000
   0.67076111  0.33209206  0.36101935
   0.66547000  0.33470000  0.00081000
Direct configuration=    33
   0.32726835  0.66825014  0.39529000
   0.99559000  0.32828000  0.12092000
   0.33138962  0.32864669  0.37234374
   0.33554000  0.33717000  0.12244000
   0.99808000  0.00294000  0.00138000
   0.99851668  0.00209044  0.37362371
   0.33205000  0.99934000  0.12171000
   0.66680000  0.99880000  0.24350000
   0.83452000  0.16613000  0.06120000
   0.67294000  0.00204000  0.12069000
   0.33405000  0.66695000  0.24111000
   0.99910000  0.66743000  0.12138000
   0.33151000  0.66804000  0.00174000
   0.33268000  0.33220000  0.00000000
   0.83466000  0.83460000  0.06076000
   0.66903446  0.66534421  0.36282310
   0.66616000  0.66699000  0.00091000
   0.83196594  0.83266910  0.30351273
   0.66704000  0.66746000  0.24229000
   0.50180000  0.83456000  0.18079000
   0.33306000  0.66709000  0.12143000
   0.50009000  0.83568000  0.06165000
   0.83330000  0.83486000  0.18207000
   0.66751000  0.66780000  0.12127000
   0.99367553  0.66586966  0.36127701
   0.16644000  0.83420000  0.06149000
   0.16675913  0.83180225  0.30298177
   0.00140000  0.66613000  0.00100000
   0.83479000  0.50089000  0.18130000
   0.00007000  0.66669000  0.24225000
   0.83460000  0.50057000  0.06135000
   0.66585000  0.33313000  0.12140000
   0.16565000  0.83456000  0.18183000
   0.49753548  0.83037510  0.30431452
   0.00179000  0.33550000  0.00090000
   0.99865598  0.33338966  0.36041701
   0.49795000  0.16690000  0.06150000
   0.50074000  0.16494000  0.18144000
   0.83204166  0.16685694  0.30248993
   0.66500000  0.00040000  0.00060000
   0.65769806  0.00165911  0.36142732
   0.83245000  0.16547000  0.18171000
   0.99997000  0.33361000  0.24198000
   0.16465421  0.50208660  0.30266183
   0.33438000  0.99945000  0.24203000
   0.49935354  0.16693983  0.30236329
   0.00050000  0.00053000  0.12178000
   0.16809000  0.16736000  0.18138000
   0.16731364  0.16539847  0.30219135
   0.16764000  0.16833000  0.06179000
   0.99934000  0.00030000  0.24219000
   0.33250000  0.00057000  0.00106000
   0.33074336  0.99958383  0.36103314
   0.16564000  0.49971000  0.18123000
   0.16746000  0.49787000  0.06247000
   0.49838339  0.50312593  0.30344209
   0.33345000  0.33400000  0.24176000
   0.50128000  0.50087000  0.18167000
   0.49793000  0.50025000  0.06116000
   0.83170481  0.50076132  0.30268649
   0.66663000  0.33329000  0.24218000
   0.67093206  0.33230920  0.36096431
   0.66547000  0.33470000  0.00081000
Direct configuration=    34
   0.32794606  0.66836131  0.39507328
   0.99559000  0.32828000  0.12092000
   0.33143642  0.32880620  0.37221269
   0.33554000  0.33717000  0.12244000
   0.99808000  0.00294000  0.00138000
   0.99870555  0.00212624  0.37366139
   0.33205000  0.99934000  0.12171000
   0.66680000  0.99880000  0.24350000
   0.83452000  0.16613000  0.06120000
   0.67294000  0.00204000  0.12069000
   0.33405000  0.66695000  0.24111000
   0.99910000  0.66743000  0.12138000
   0.33151000  0.66804000  0.00174000
   0.33268000  0.33220000  0.00000000
   0.83466000  0.83460000  0.06076000
   0.66935922  0.66530286  0.36281557
   0.66616000  0.66699000  0.00091000
   0.83228538  0.83264672  0.30350749
   0.66704000  0.66746000  0.24229000
   0.50180000  0.83456000  0.18079000
   0.33306000  0.66709000  0.12143000
   0.50009000  0.83568000  0.06165000
   0.83330000  0.83486000  0.18207000
   0.66751000  0.66780000  0.12127000
   0.99389768  0.66565618  0.36123181
   0.16644000  0.83420000  0.06149000
   0.16673004  0.83181161  0.30297233
   0.00140000  0.66613000  0.00100000
   0.83479000  0.50089000  0.18130000
   0.00007000  0.66669000  0.24225000
   0.83460000  0.50057000  0.06135000
   0.66585000  0.33313000  0.12140000
   0.16565000  0.83456000  0.18183000
   0.49768582  0.83058075  0.30426247
   0.00179000  0.33550000  0.00090000
   0.99861276  0.33354798  0.36042281
   0.49795000  0.16690000  0.06150000
   0.50074000  0.16494000  0.18144000
   0.83223559  0.16697182  0.30252998
   0.66500000  0.00040000  0.00060000
   0.65804766  0.00153358  0.36140634
   0.83245000  0.16547000  0.18171000
   0.99997000  0.33361000  0.24198000
   0.16484129  0.50206776  0.30261867
   0.33438000  0.99945000  0.24203000
   0.49950766  0.16682441  0.30233541
   0.00050000  0.00053000  0.12178000
   0.16809000  0.16736000  0.18138000
   0.16731041  0.16524748  0.30221485
   0.16764000  0.16833000  0.06179000
   0.99934000  0.00030000  0.24219000
   0.33250000  0.00057000  0.00106000
   0.33090531  0.99968738  0.36099129
   0.16564000  0.49971000  0.18123000
   0.16746000  0.49787000  0.06247000
   0.49838735  0.50305302  0.30332451
   0.33345000  0.33400000  0.24176000
   0.50128000  0.50087000  0.18167000
   0.49793000  0.50025000  0.06116000
   0.83196351  0.50062038  0.30267505
   0.66663000  0.33329000  0.24218000
   0.67101740  0.33241759  0.36093683
   0.66547000  0.33470000  0.00081000
Direct configuration=    35
   0.32864670  0.66794792  0.39516862
   0.99559000  0.32828000  0.12092000
   0.33167252  0.32904039  0.37213671
   0.33554000  0.33717000  0.12244000
   0.99808000  0.00294000  0.00138000
   0.99927228  0.00162345  0.37362742
   0.33205000  0.99934000  0.12171000
   0.66680000  0.99880000  0.24350000
   0.83452000  0.16613000  0.06120000
   0.67294000  0.00204000  0.12069000
   0.33405000  0.66695000  0.24111000
   0.99910000  0.66743000  0.12138000
   0.33151000  0.66804000  0.00174000
   0.33268000  0.33220000  0.00000000
   0.83466000  0.83460000  0.06076000
   0.66932647  0.66552041  0.36239796
   0.66616000  0.66699000  0.00091000
   0.83216605  0.83262249  0.30348042
   0.66704000  0.66746000  0.24229000
   0.50180000  0.83456000  0.18079000
   0.33306000  0.66709000  0.12143000
   0.50009000  0.83568000  0.06165000
   0.83330000  0.83486000  0.18207000
   0.66751000  0.66780000  0.12127000
   0.99563039  0.66596660  0.36125261
   0.16644000  0.83420000  0.06149000
   0.16711462  0.83182173  0.30277978
   0.00140000  0.66613000  0.00100000
   0.83479000  0.50089000  0.18130000
   0.00007000  0.66669000  0.24225000
   0.83460000  0.50057000  0.06135000
   0.66585000  0.33313000  0.12140000
   0.16565000  0.83456000  0.18183000
   0.49813851  0.83071742  0.30410752
   0.00179000  0.33550000  0.00090000
   0.99872675  0.33361390  0.36020312
   0.49795000  0.16690000  0.06150000
   0.50074000  0.16494000  0.18144000
   0.83268934  0.16653482  0.30271292
   0.66500000  0.00040000  0.00060000
   0.65876448  0.00159340  0.36146333
   0.83245000  0.16547000  0.18171000
   0.99997000  0.33361000  0.24198000
   0.16657544  0.50235815  0.30261984
   0.33438000  0.99945000  0.24203000
   0.49941815  0.16674314  0.30233395
   0.00050000  0.00053000  0.12178000
   0.16809000  0.16736000  0.18138000
   0.16753691  0.16586510  0.30222310
   0.16764000  0.16833000  0.06179000
   0.99934000  0.00030000  0.24219000
   0.33250000  0.00057000  0.00106000
   0.33134005  0.00020443  0.36073386
   0.16564000  0.49971000  0.18123000
   0.16746000  0.49787000  0.06247000
   0.49959811  0.50279612  0.30300955
   0.33345000  0.33400000  0.24176000
   0.50128000  0.50087000  0.18167000
   0.49793000  0.50025000  0.06116000
   0.83234276  0.50084469  0.30284866
   0.66663000  0.33329000  0.24218000
   0.67024126  0.33251917  0.36090161
   0.66547000  0.33470000  0.00081000
Direct configuration=    36
   0.32904392  0.66771355  0.39522267
   0.99559000  0.32828000  0.12092000
   0.33180637  0.32917316  0.37209363
   0.33554000  0.33717000  0.12244000
   0.99808000  0.00294000  0.00138000
   0.99959358  0.00133839  0.37360816
   0.33205000  0.99934000  0.12171000
   0.66680000  0.99880000  0.24350000
   0.83452000  0.16613000  0.06120000
   0.67294000  0.00204000  0.12069000
   0.33405000  0.66695000  0.24111000
   0.99910000  0.66743000  0.12138000
   0.33151000  0.66804000  0.00174000
   0.33268000  0.33220000  0.00000000
   0.83466000  0.83460000  0.06076000
   0.66930791  0.66564375  0.36216120
   0.66616000  0.66699000  0.00091000
   0.83209839  0.83260876  0.30346507
   0.66704000  0.66746000  0.24229000
   0.50180000  0.83456000  0.18079000
   0.33306000  0.66709000  0.12143000
   0.50009000  0.83568000  0.06165000
   0.83330000  0.83486000  0.18207000
   0.66751000  0.66780000  0.12127000
   0.99661273  0.66614259  0.36126441
   0.16644000  0.83420000  0.06149000
   0.16733265  0.83182747  0.30267062
   0.00140000  0.66613000  0.00100000
   0.83479000  0.50089000  0.18130000
   0.00007000  0.66669000  0.24225000
   0.83460000  0.50057000  0.06135000
   0.66585000  0.33313000  0.12140000
   0.16565000  0.83456000  0.18183000
   0.49839515  0.83079490  0.30401967
   0.00179000  0.33550000  0.00090000
   0.99879138  0.33365127  0.36007856
   0.49795000  0.16690000  0.06150000
   0.50074000  0.16494000  0.18144000
   0.83294659  0.16628707  0.30281664
   0.66500000  0.00040000  0.00060000
   0.65917088  0.00162731  0.36149564
   0.83245000  0.16547000  0.18171000
   0.99997000  0.33361000  0.24198000
   0.16755860  0.50252279  0.30262051
   0.33438000  0.99945000  0.24203000
   0.49936741  0.16669706  0.30233313
   0.00050000  0.00053000  0.12178000
   0.16809000  0.16736000  0.18138000
   0.16766533  0.16621526  0.30222778
   0.16764000  0.16833000  0.06179000
   0.99934000  0.00030000  0.24219000
   0.33250000  0.00057000  0.00106000
   0.33158652  0.00049757  0.36058792
   0.16564000  0.49971000  0.18123000
   0.16746000  0.49787000  0.06247000
   0.50028453  0.50265047  0.30283098
   0.33345000  0.33400000  0.24176000
   0.50128000  0.50087000  0.18167000
   0.49793000  0.50025000  0.06116000
   0.83255777  0.50097185  0.30294708
   0.66663000  0.33329000  0.24218000
   0.66980123  0.33257675  0.36088165
   0.66547000  0.33470000  0.00081000
Direct configuration=    37
   0.32958011  0.66766346  0.39544986
   0.99559000  0.32828000  0.12092000
   0.33231897  0.32925959  0.37218233
   0.33554000  0.33717000  0.12244000
   0.99808000  0.00294000  0.00138000
   0.00037678  0.00086628  0.37348082
   0.33205000  0.99934000  0.12171000
   0.66680000  0.99880000  0.24350000
   0.83452000  0.16613000  0.06120000
   0.67294000  0.00204000  0.12069000
   0.33405000  0.66695000  0.24111000
   0.99910000  0.66743000  0.12138000
   0.33151000  0.66804000  0.00174000
   0.33268000  0.33220000  0.00000000
   0.83466000  0.83460000  0.06076000
   0.66912198  0.66596051  0.36207227
   0.66616000  0.66699000  0.00091000
   0.83255080  0.83263181  0.30352258
   0.66704000  0.66746000  0.24229000
   0.50180000  0.83456000  0.18079000
   0.33306000  0.66709000  0.12143000
   0.50009000  0.83568000  0.06165000
   0.83330000  0.83486000  0.18207000
   0.66751000  0.66780000  0.12127000
   0.99787479  0.66661945  0.36114385
   0.16644000  0.83420000  0.06149000
   0.16796735  0.83185686  0.30263575
   0.00140000  0.66613000  0.00100000
   0.83479000  0.50089000  0.18130000
   0.00007000  0.66669000  0.24225000
   0.83460000  0.50057000  0.06135000
   0.66585000  0.33313000  0.12140000
   0.16565000  0.83456000  0.18183000
   0.49816492  0.83072222  0.30396311
   0.00179000  0.33550000  0.00090000
   0.99941509  0.33369268  0.35994819
   0.49795000  0.16690000  0.06150000
   0.50074000  0.16494000  0.18144000
   0.83238196  0.16632395  0.30279757
   0.66500000  0.00040000  0.00060000
   0.65956175  0.00178328  0.36153606
   0.83245000  0.16547000  0.18171000
   0.99997000  0.33361000  0.24198000
   0.16763817  0.50292306  0.30253953
   0.33438000  0.99945000  0.24203000
   0.49967648  0.16692917  0.30229171
   0.00050000  0.00053000  0.12178000
   0.16809000  0.16736000  0.18138000
   0.16761568  0.16646998  0.30209727
   0.16764000  0.16833000  0.06179000
   0.99934000  0.00030000  0.24219000
   0.33250000  0.00057000  0.00106000
   0.33179854  0.00041702  0.36047235
   0.16564000  0.49971000  0.18123000
   0.16746000  0.49787000  0.06247000
   0.50014756  0.50257793  0.30296127
   0.33345000  0.33400000  0.24176000
   0.50128000  0.50087000  0.18167000
   0.49793000  0.50025000  0.06116000
   0.83309686  0.50106442  0.30293870
   0.66663000  0.33329000  0.24218000
   0.66924161  0.33236988  0.36083494
   0.66547000  0.33470000  0.00081000
Direct configuration=    38
   0.32973497  0.66764900  0.39551547
   0.99559000  0.32828000  0.12092000
   0.33246701  0.32928456  0.37220794
   0.33554000  0.33717000  0.12244000
   0.99808000  0.00294000  0.00138000
   0.00060297  0.00072993  0.37344405
   0.33205000  0.99934000  0.12171000
   0.66680000  0.99880000  0.24350000
   0.83452000  0.16613000  0.06120000
   0.67294000  0.00204000  0.12069000
   0.33405000  0.66695000  0.24111000
   0.99910000  0.66743000  0.12138000
   0.33151000  0.66804000  0.00174000
   0.33268000  0.33220000  0.00000000
   0.83466000  0.83460000  0.06076000
   0.66906828  0.66605199  0.36204659
   0.66616000  0.66699000  0.00091000
   0.83268146  0.83263847  0.30353919
   0.66704000  0.66746000  0.24229000
   0.50180000  0.83456000  0.18079000
   0.33306000  0.66709000  0.12143000
   0.50009000  0.83568000  0.06165000
   0.83330000  0.83486000  0.18207000
   0.66751000  0.66780000  0.12127000
   0.99823928  0.66675718  0.36110904
   0.16644000  0.83420000  0.06149000
   0.16815065  0.83186535  0.30262568
   0.00140000  0.66613000  0.00100000
   0.83479000  0.50089000  0.18130000
   0.00007000  0.66669000  0.24225000
   0.83460000  0.50057000  0.06135000
   0.66585000  0.33313000  0.12140000
   0.16565000  0.83456000  0.18183000
   0.49809842  0.83070123  0.30394677
   0.00179000  0.33550000  0.00090000
   0.99959522  0.33370464  0.35991053
   0.49795000  0.16690000  0.06150000
   0.50074000  0.16494000  0.18144000
   0.83221889  0.16633460  0.30279206
   0.66500000  0.00040000  0.00060000
   0.65967464  0.00182833  0.36154773
   0.83245000  0.16547000  0.18171000
   0.99997000  0.33361000  0.24198000
   0.16766115  0.50303866  0.30251614
   0.33438000  0.99945000  0.24203000
   0.49976574  0.16699620  0.30227974
   0.00050000  0.00053000  0.12178000
   0.16809000  0.16736000  0.18138000
   0.16760134  0.16654355  0.30205958
   0.16764000  0.16833000  0.06179000
   0.99934000  0.00030000  0.24219000
   0.33250000  0.00057000  0.00106000
   0.33185978  0.00039376  0.36043897
   0.16564000  0.49971000  0.18123000
   0.16746000  0.49787000  0.06247000
   0.50010800  0.50255699  0.30299890
   0.33345000  0.33400000  0.24176000
   0.50128000  0.50087000  0.18167000
   0.49793000  0.50025000  0.06116000
   0.83325255  0.50109115  0.30293628
   0.66663000  0.33329000  0.24218000
   0.66907999  0.33231013  0.36082145
   0.66547000  0.33470000  0.00081000
Direct configuration=    39
   0.33016827  0.66781718  0.39573411
   0.99559000  0.32828000  0.12092000
   0.33252026  0.32914769  0.37224978
   0.33554000  0.33717000  0.12244000
   0.99808000  0.00294000  0.00138000
   0.00109952  0.00089404  0.37328457
   0.33205000  0.99934000  0.12171000
   0.66680000  0.99880000  0.24350000
   0.83452000  0.16613000  0.06120000
   0.67294000  0.00204000  0.12069000
   0.33405000  0.66695000  0.24111000
   0.99910000  0.66743000  0.12138000
   0.33151000  0.66804000  0.00174000
   0.33268000  0.33220000  0.00000000
   0.83466000  0.83460000  0.06076000
   0.66923483  0.66622107  0.36208093
   0.66616000  0.66699000  0.00091000
   0.83282380  0.83265140  0.30354424
   0.66704000  0.66746000  0.24229000
   0.50180000  0.83456000  0.18079000
   0.33306000  0.66709000  0.12143000
   0.50009000  0.83568000  0.06165000
   0.83330000  0.83486000  0.18207000
   0.66751000  0.66780000  0.12127000
   0.99861427  0.66693428  0.36106815
   0.16644000  0.83420000  0.06149000
   0.16851518  0.83187239  0.30257277
   0.00140000  0.66613000  0.00100000
   0.83479000  0.50089000  0.18130000
   0.00007000  0.66669000  0.24225000
   0.83460000  0.50057000  0.06135000
   0.66585000  0.33313000  0.12140000
   0.16565000  0.83456000  0.18183000
   0.49822009  0.83068789  0.30396489
   0.00179000  0.33550000  0.00090000
   0.99994419  0.33365823  0.35986615
   0.49795000  0.16690000  0.06150000
   0.50074000  0.16494000  0.18144000
   0.83249594  0.16639270  0.30280862
   0.66500000  0.00040000  0.00060000
   0.65988807  0.00176567  0.36149526
   0.83245000  0.16547000  0.18171000
   0.99997000  0.33361000  0.24198000
   0.16761497  0.50296702  0.30252618
   0.33438000  0.99945000  0.24203000
   0.49957106  0.16691363  0.30225493
   0.00050000  0.00053000  0.12178000
   0.16809000  0.16736000  0.18138000
   0.16779573  0.16643860  0.30204299
   0.16764000  0.16833000  0.06179000
   0.99934000  0.00030000  0.24219000
   0.33250000  0.00057000  0.00106000
   0.33206736  0.00038001  0.36044401
   0.16564000  0.49971000  0.18123000
   0.16746000  0.49787000  0.06247000
   0.49973046  0.50277181  0.30313236
   0.33345000  0.33400000  0.24176000
   0.50128000  0.50087000  0.18167000
   0.49793000  0.50025000  0.06116000
   0.83297475  0.50105191  0.30298072
   0.66663000  0.33329000  0.24218000
   0.66911808  0.33239678  0.36079062
   0.66547000  0.33470000  0.00081000
