  62  62   0   0
  0.2762677E+02  0.8509700E-09  0.8539300E-09  0.2357140E-08  0.5000000E-15
  1.000000000000000E-004
  CAR 
 INCAR-For-OPT                           
      5.10496148    -45.75862207  301      0.74103083      1.00000000
    -45.759  0.0000E+00  0.0000E+00  0.0000E+00  0.0000E+00
    -45.589  0.0000E+00  0.0000E+00  0.0000E+00  0.0000E+00
    -45.420  0.0000E+00  0.0000E+00  0.0000E+00  0.0000E+00
    -45.250  0.0000E+00  0.0000E+00  0.0000E+00  0.0000E+00
    -45.080  0.0000E+00  0.0000E+00  0.0000E+00  0.0000E+00
    -44.911  0.0000E+00  0.0000E+00  0.0000E+00  0.0000E+00
    -44.741  0.0000E+00 -0.2948E-33  0.0000E+00 -0.4998E-34
    -44.572  0.0000E+00 -0.2214E-25  0.0000E+00 -0.3754E-26
    -44.402  0.0000E+00 -0.1272E-18  0.0000E+00 -0.2156E-19
    -44.233  0.0000E+00 -0.5368E-13  0.0000E+00 -0.9101E-14
    -44.063 -0.5233E-29 -0.1744E-08 -0.8872E-30 -0.2957E-09
    -43.894 -0.9599E-22 -0.4180E-05 -0.1627E-22 -0.7090E-06
    -43.724 -0.1316E-15 -0.6897E-03 -0.2232E-16 -0.1176E-03
    -43.555 -0.1384E-10 -0.2652E-02 -0.2346E-11 -0.5672E-03
    -43.385 -0.1092E-06  0.7785E-01 -0.1851E-07  0.1263E-01
    -43.215 -0.6071E-04  0.1377E+00 -0.1031E-04  0.3598E-01
    -43.046 -0.1606E-02  0.3156E-01 -0.2825E-03  0.4133E-01
    -42.876  0.1652E-01  0.7172E-01  0.2519E-02  0.5349E-01
    -42.707  0.4168E-01  0.1201E+00  0.9586E-02  0.7385E-01
    -42.537  0.8793E-02  0.5586E-01  0.1108E-01  0.8332E-01
    -42.368  0.4330E-01  0.3741E-01  0.1842E-01  0.8966E-01
    -42.198  0.1112E+00  0.3697E-01  0.3727E-01  0.9593E-01
    -42.029  0.1509E+00  0.6130E-01  0.6285E-01  0.1063E+00
    -41.859  0.1981E+00  0.2349E-01  0.9644E-01  0.1103E+00
    -41.690  0.8771E-01 -0.1655E-02  0.1113E+00  0.1100E+00
    -41.520 -0.7315E-02 -0.1525E-03  0.1101E+00  0.1100E+00
    -41.350 -0.4299E-03 -0.5416E-06  0.1100E+00  0.1100E+00
    -41.181 -0.1014E-05 -0.1326E-09  0.1100E+00  0.1100E+00
    -41.011 -0.2058E-05 -0.2387E-14  0.1100E+00  0.1100E+00
    -40.842 -0.3676E-03 -0.1679E-34  0.1099E+00  0.1100E+00
    -40.672 -0.4559E-03 -0.1691E-26  0.1099E+00  0.1100E+00
    -40.503  0.3753E-01 -0.1294E-19  0.1162E+00  0.1100E+00
    -40.333  0.2415E-01 -0.7215E-14  0.1203E+00  0.1100E+00
    -40.164 -0.1750E-02 -0.3037E-09  0.1200E+00  0.1100E+00
    -39.994 -0.1206E-03 -0.9088E-06  0.1200E+00  0.1100E+00
    -39.825 -0.3154E-06 -0.1734E-03  0.1200E+00  0.1100E+00
    -39.655 -0.5701E-10 -0.5439E-03  0.1200E+00  0.1099E+00
    -39.485 -0.7683E-15  0.1873E-01  0.1200E+00  0.1131E+00
    -39.316  0.0000E+00  0.3005E-01  0.1200E+00  0.1181E+00
    -39.146  0.0000E+00  0.1170E-01  0.1200E+00  0.1201E+00
    -38.977  0.0000E+00 -0.6915E-03  0.1200E+00  0.1200E+00
    -38.807  0.0000E+00 -0.8868E-04  0.1200E+00  0.1200E+00
    -38.638  0.0000E+00 -0.3128E-06  0.1200E+00  0.1200E+00
    -38.468  0.0000E+00 -0.7021E-10  0.1200E+00  0.1200E+00
    -38.299  0.0000E+00 -0.1121E-14  0.1200E+00  0.1200E+00
    -38.129  0.0000E+00  0.0000E+00  0.1200E+00  0.1200E+00
    -37.960  0.0000E+00  0.0000E+00  0.1200E+00  0.1200E+00
    -37.790  0.0000E+00  0.0000E+00  0.1200E+00  0.1200E+00
    -37.620  0.0000E+00  0.0000E+00  0.1200E+00  0.1200E+00
    -37.451  0.0000E+00  0.0000E+00  0.1200E+00  0.1200E+00
    -37.281  0.0000E+00  0.0000E+00  0.1200E+00  0.1200E+00
    -37.112  0.0000E+00  0.0000E+00  0.1200E+00  0.1200E+00
    -36.942  0.0000E+00  0.0000E+00  0.1200E+00  0.1200E+00
    -36.773  0.0000E+00  0.0000E+00  0.1200E+00  0.1200E+00
    -36.603  0.0000E+00  0.0000E+00  0.1200E+00  0.1200E+00
    -36.434  0.0000E+00  0.0000E+00  0.1200E+00  0.1200E+00
    -36.264  0.0000E+00  0.0000E+00  0.1200E+00  0.1200E+00
    -36.095  0.0000E+00  0.0000E+00  0.1200E+00  0.1200E+00
    -35.925  0.0000E+00  0.0000E+00  0.1200E+00  0.1200E+00
    -35.755  0.0000E+00  0.0000E+00  0.1200E+00  0.1200E+00
    -35.586  0.0000E+00  0.0000E+00  0.1200E+00  0.1200E+00
    -35.416  0.0000E+00  0.0000E+00  0.1200E+00  0.1200E+00
    -35.247  0.0000E+00  0.0000E+00  0.1200E+00  0.1200E+00
    -35.077  0.0000E+00  0.0000E+00  0.1200E+00  0.1200E+00
    -34.908  0.0000E+00  0.0000E+00  0.1200E+00  0.1200E+00
    -34.738  0.0000E+00  0.0000E+00  0.1200E+00  0.1200E+00
    -34.569  0.0000E+00  0.0000E+00  0.1200E+00  0.1200E+00
    -34.399  0.0000E+00  0.0000E+00  0.1200E+00  0.1200E+00
    -34.230  0.0000E+00  0.0000E+00  0.1200E+00  0.1200E+00
    -34.060  0.0000E+00  0.0000E+00  0.1200E+00  0.1200E+00
    -33.890  0.0000E+00  0.0000E+00  0.1200E+00  0.1200E+00
    -33.721  0.0000E+00  0.0000E+00  0.1200E+00  0.1200E+00
    -33.551  0.0000E+00  0.0000E+00  0.1200E+00  0.1200E+00
    -33.382  0.0000E+00  0.0000E+00  0.1200E+00  0.1200E+00
    -33.212  0.0000E+00  0.0000E+00  0.1200E+00  0.1200E+00
    -33.043  0.0000E+00  0.0000E+00  0.1200E+00  0.1200E+00
    -32.873  0.0000E+00  0.0000E+00  0.1200E+00  0.1200E+00
    -32.704  0.0000E+00  0.0000E+00  0.1200E+00  0.1200E+00
    -32.534  0.0000E+00  0.0000E+00  0.1200E+00  0.1200E+00
    -32.365  0.0000E+00  0.0000E+00  0.1200E+00  0.1200E+00
    -32.195  0.0000E+00  0.0000E+00  0.1200E+00  0.1200E+00
    -32.025  0.0000E+00  0.0000E+00  0.1200E+00  0.1200E+00
    -31.856  0.0000E+00  0.0000E+00  0.1200E+00  0.1200E+00
    -31.686  0.0000E+00  0.0000E+00  0.1200E+00  0.1200E+00
    -31.517  0.0000E+00  0.0000E+00  0.1200E+00  0.1200E+00
    -31.347  0.0000E+00  0.0000E+00  0.1200E+00  0.1200E+00
    -31.178  0.0000E+00  0.0000E+00  0.1200E+00  0.1200E+00
    -31.008  0.0000E+00  0.0000E+00  0.1200E+00  0.1200E+00
    -30.839  0.0000E+00  0.0000E+00  0.1200E+00  0.1200E+00
    -30.669  0.0000E+00  0.0000E+00  0.1200E+00  0.1200E+00
    -30.500  0.0000E+00  0.0000E+00  0.1200E+00  0.1200E+00
    -30.330  0.0000E+00  0.0000E+00  0.1200E+00  0.1200E+00
    -30.160  0.0000E+00  0.0000E+00  0.1200E+00  0.1200E+00
    -29.991  0.0000E+00  0.0000E+00  0.1200E+00  0.1200E+00
    -29.821  0.0000E+00  0.0000E+00  0.1200E+00  0.1200E+00
    -29.652  0.0000E+00  0.0000E+00  0.1200E+00  0.1200E+00
    -29.482  0.0000E+00  0.0000E+00  0.1200E+00  0.1200E+00
    -29.313  0.0000E+00  0.0000E+00  0.1200E+00  0.1200E+00
    -29.143  0.0000E+00  0.0000E+00  0.1200E+00  0.1200E+00
    -28.974  0.0000E+00  0.0000E+00  0.1200E+00  0.1200E+00
    -28.804  0.0000E+00  0.0000E+00  0.1200E+00  0.1200E+00
    -28.635  0.0000E+00  0.0000E+00  0.1200E+00  0.1200E+00
    -28.465  0.0000E+00  0.0000E+00  0.1200E+00  0.1200E+00
    -28.295  0.0000E+00  0.0000E+00  0.1200E+00  0.1200E+00
    -28.126  0.0000E+00  0.0000E+00  0.1200E+00  0.1200E+00
    -27.956  0.0000E+00  0.0000E+00  0.1200E+00  0.1200E+00
    -27.787  0.0000E+00  0.0000E+00  0.1200E+00  0.1200E+00
    -27.617  0.0000E+00  0.0000E+00  0.1200E+00  0.1200E+00
    -27.448  0.0000E+00  0.0000E+00  0.1200E+00  0.1200E+00
    -27.278  0.0000E+00  0.0000E+00  0.1200E+00  0.1200E+00
    -27.109  0.0000E+00  0.0000E+00  0.1200E+00  0.1200E+00
    -26.939  0.0000E+00  0.0000E+00  0.1200E+00  0.1200E+00
    -26.770  0.0000E+00  0.0000E+00  0.1200E+00  0.1200E+00
    -26.600  0.0000E+00  0.0000E+00  0.1200E+00  0.1200E+00
    -26.430  0.0000E+00  0.0000E+00  0.1200E+00  0.1200E+00
    -26.261  0.0000E+00  0.0000E+00  0.1200E+00  0.1200E+00
    -26.091  0.0000E+00  0.0000E+00  0.1200E+00  0.1200E+00
    -25.922  0.0000E+00  0.0000E+00  0.1200E+00  0.1200E+00
    -25.752  0.0000E+00  0.0000E+00  0.1200E+00  0.1200E+00
    -25.583  0.0000E+00  0.0000E+00  0.1200E+00  0.1200E+00
    -25.413  0.0000E+00  0.0000E+00  0.1200E+00  0.1200E+00
    -25.244  0.0000E+00  0.0000E+00  0.1200E+00  0.1200E+00
    -25.074  0.0000E+00  0.0000E+00  0.1200E+00  0.1200E+00
    -24.905  0.0000E+00  0.0000E+00  0.1200E+00  0.1200E+00
    -24.735  0.0000E+00  0.0000E+00  0.1200E+00  0.1200E+00
    -24.565  0.0000E+00  0.0000E+00  0.1200E+00  0.1200E+00
    -24.396  0.0000E+00  0.0000E+00  0.1200E+00  0.1200E+00
    -24.226  0.0000E+00  0.0000E+00  0.1200E+00  0.1200E+00
    -24.057  0.0000E+00  0.0000E+00  0.1200E+00  0.1200E+00
    -23.887  0.0000E+00  0.0000E+00  0.1200E+00  0.1200E+00
    -23.718  0.0000E+00  0.0000E+00  0.1200E+00  0.1200E+00
    -23.548  0.0000E+00  0.0000E+00  0.1200E+00  0.1200E+00
    -23.379  0.0000E+00  0.0000E+00  0.1200E+00  0.1200E+00
    -23.209  0.0000E+00  0.0000E+00  0.1200E+00  0.1200E+00
    -23.040  0.0000E+00  0.0000E+00  0.1200E+00  0.1200E+00
    -22.870  0.0000E+00  0.0000E+00  0.1200E+00  0.1200E+00
    -22.700  0.0000E+00  0.0000E+00  0.1200E+00  0.1200E+00
    -22.531  0.0000E+00  0.0000E+00  0.1200E+00  0.1200E+00
    -22.361  0.0000E+00  0.0000E+00  0.1200E+00  0.1200E+00
    -22.192  0.0000E+00  0.0000E+00  0.1200E+00  0.1200E+00
    -22.022  0.0000E+00  0.0000E+00  0.1200E+00  0.1200E+00
    -21.853  0.0000E+00  0.0000E+00  0.1200E+00  0.1200E+00
    -21.683  0.0000E+00  0.0000E+00  0.1200E+00  0.1200E+00
    -21.514  0.0000E+00  0.0000E+00  0.1200E+00  0.1200E+00
    -21.344  0.0000E+00  0.0000E+00  0.1200E+00  0.1200E+00
    -21.175  0.0000E+00  0.0000E+00  0.1200E+00  0.1200E+00
    -21.005  0.0000E+00  0.0000E+00  0.1200E+00  0.1200E+00
    -20.835  0.0000E+00  0.0000E+00  0.1200E+00  0.1200E+00
    -20.666  0.0000E+00  0.0000E+00  0.1200E+00  0.1200E+00
    -20.496  0.0000E+00  0.0000E+00  0.1200E+00  0.1200E+00
    -20.327  0.0000E+00  0.0000E+00  0.1200E+00  0.1200E+00
    -20.157  0.0000E+00  0.0000E+00  0.1200E+00  0.1200E+00
    -19.988  0.0000E+00  0.0000E+00  0.1200E+00  0.1200E+00
    -19.818  0.0000E+00  0.0000E+00  0.1200E+00  0.1200E+00
    -19.649  0.0000E+00  0.0000E+00  0.1200E+00  0.1200E+00
    -19.479  0.0000E+00  0.0000E+00  0.1200E+00  0.1200E+00
    -19.310  0.0000E+00  0.0000E+00  0.1200E+00  0.1200E+00
    -19.140  0.0000E+00  0.0000E+00  0.1200E+00  0.1200E+00
    -18.970  0.0000E+00  0.0000E+00  0.1200E+00  0.1200E+00
    -18.801  0.0000E+00  0.0000E+00  0.1200E+00  0.1200E+00
    -18.631  0.0000E+00  0.0000E+00  0.1200E+00  0.1200E+00
    -18.462  0.0000E+00  0.0000E+00  0.1200E+00  0.1200E+00
    -18.292  0.0000E+00  0.0000E+00  0.1200E+00  0.1200E+00
    -18.123  0.0000E+00  0.0000E+00  0.1200E+00  0.1200E+00
    -17.953  0.0000E+00  0.0000E+00  0.1200E+00  0.1200E+00
    -17.784  0.0000E+00  0.0000E+00  0.1200E+00  0.1200E+00
    -17.614  0.0000E+00  0.0000E+00  0.1200E+00  0.1200E+00
    -17.445  0.0000E+00  0.0000E+00  0.1200E+00  0.1200E+00
    -17.275  0.0000E+00  0.0000E+00  0.1200E+00  0.1200E+00
    -17.105  0.0000E+00  0.0000E+00  0.1200E+00  0.1200E+00
    -16.936  0.0000E+00  0.0000E+00  0.1200E+00  0.1200E+00
    -16.766  0.0000E+00  0.0000E+00  0.1200E+00  0.1200E+00
    -16.597  0.0000E+00  0.0000E+00  0.1200E+00  0.1200E+00
    -16.427  0.0000E+00  0.0000E+00  0.1200E+00  0.1200E+00
    -16.258  0.0000E+00  0.0000E+00  0.1200E+00  0.1200E+00
    -16.088  0.0000E+00  0.0000E+00  0.1200E+00  0.1200E+00
    -15.919  0.0000E+00  0.0000E+00  0.1200E+00  0.1200E+00
    -15.749  0.0000E+00  0.0000E+00  0.1200E+00  0.1200E+00
    -15.580  0.0000E+00  0.0000E+00  0.1200E+00  0.1200E+00
    -15.410  0.0000E+00  0.0000E+00  0.1200E+00  0.1200E+00
    -15.240  0.0000E+00  0.0000E+00  0.1200E+00  0.1200E+00
    -15.071  0.0000E+00  0.0000E+00  0.1200E+00  0.1200E+00
    -14.901  0.0000E+00  0.0000E+00  0.1200E+00  0.1200E+00
    -14.732  0.0000E+00  0.0000E+00  0.1200E+00  0.1200E+00
    -14.562  0.0000E+00  0.0000E+00  0.1200E+00  0.1200E+00
    -14.393  0.0000E+00  0.0000E+00  0.1200E+00  0.1200E+00
    -14.223  0.0000E+00  0.0000E+00  0.1200E+00  0.1200E+00
    -14.054  0.0000E+00  0.0000E+00  0.1200E+00  0.1200E+00
    -13.884  0.0000E+00  0.0000E+00  0.1200E+00  0.1200E+00
    -13.715  0.0000E+00  0.0000E+00  0.1200E+00  0.1200E+00
    -13.545  0.0000E+00  0.0000E+00  0.1200E+00  0.1200E+00
    -13.375  0.0000E+00  0.0000E+00  0.1200E+00  0.1200E+00
    -13.206  0.0000E+00  0.0000E+00  0.1200E+00  0.1200E+00
    -13.036  0.0000E+00  0.0000E+00  0.1200E+00  0.1200E+00
    -12.867  0.0000E+00  0.0000E+00  0.1200E+00  0.1200E+00
    -12.697  0.0000E+00  0.0000E+00  0.1200E+00  0.1200E+00
    -12.528  0.0000E+00  0.0000E+00  0.1200E+00  0.1200E+00
    -12.358  0.0000E+00  0.0000E+00  0.1200E+00  0.1200E+00
    -12.189  0.0000E+00  0.0000E+00  0.1200E+00  0.1200E+00
    -12.019  0.0000E+00  0.0000E+00  0.1200E+00  0.1200E+00
    -11.850  0.0000E+00  0.0000E+00  0.1200E+00  0.1200E+00
    -11.680  0.0000E+00  0.0000E+00  0.1200E+00  0.1200E+00
    -11.510  0.0000E+00  0.0000E+00  0.1200E+00  0.1200E+00
    -11.341  0.0000E+00  0.0000E+00  0.1200E+00  0.1200E+00
    -11.171  0.0000E+00  0.0000E+00  0.1200E+00  0.1200E+00
    -11.002  0.0000E+00  0.0000E+00  0.1200E+00  0.1200E+00
    -10.832  0.0000E+00  0.0000E+00  0.1200E+00  0.1200E+00
    -10.663  0.0000E+00  0.0000E+00  0.1200E+00  0.1200E+00
    -10.493  0.0000E+00  0.0000E+00  0.1200E+00  0.1200E+00
    -10.324  0.0000E+00  0.0000E+00  0.1200E+00  0.1200E+00
    -10.154  0.0000E+00  0.0000E+00  0.1200E+00  0.1200E+00
     -9.985  0.0000E+00  0.0000E+00  0.1200E+00  0.1200E+00
     -9.815  0.0000E+00  0.0000E+00  0.1200E+00  0.1200E+00
     -9.645  0.0000E+00  0.0000E+00  0.1200E+00  0.1200E+00
     -9.476  0.0000E+00  0.0000E+00  0.1200E+00  0.1200E+00
     -9.306  0.0000E+00  0.0000E+00  0.1200E+00  0.1200E+00
     -9.137  0.0000E+00  0.0000E+00  0.1200E+00  0.1200E+00
     -8.967  0.0000E+00  0.0000E+00  0.1200E+00  0.1200E+00
     -8.798  0.0000E+00  0.0000E+00  0.1200E+00  0.1200E+00
     -8.628 -0.1299E-30 -0.2672E-36  0.1200E+00  0.1200E+00
     -8.459 -0.2650E-23 -0.3215E-28  0.1200E+00  0.1200E+00
     -8.289 -0.3951E-17 -0.2940E-21  0.1200E+00  0.1200E+00
     -8.120 -0.4504E-12 -0.1960E-15  0.1200E+00  0.1200E+00
     -7.950 -0.3681E-08 -0.9858E-11  0.1200E+00  0.1200E+00
     -7.780 -0.2019E-05 -0.3515E-07  0.1200E+00  0.1200E+00
     -7.611 -0.5809E-04 -0.8050E-05  0.1200E+00  0.1200E+00
     -7.441  0.3088E-03 -0.7052E-04  0.1200E+00  0.1200E+00
     -7.272  0.3517E-02  0.8937E-03  0.1206E+00  0.1201E+00
     -7.102  0.5810E-02  0.4797E-02  0.1216E+00  0.1210E+00
     -6.933  0.2199E-02  0.4899E-02  0.1220E+00  0.1218E+00
     -6.763  0.7059E-02  0.2239E-02  0.1232E+00  0.1222E+00
     -6.594  0.6827E-02  0.8761E-02  0.1244E+00  0.1236E+00
     -6.424  0.1430E-02  0.4395E-02  0.1246E+00  0.1244E+00
     -6.255  0.1004E-01  0.1703E-02  0.1263E+00  0.1247E+00
     -6.085  0.1415E-01  0.1090E-01  0.1287E+00  0.1265E+00
     -5.915  0.9556E-02  0.1442E-01  0.1303E+00  0.1290E+00
     -5.746  0.1150E-01  0.7096E-02  0.1323E+00  0.1302E+00
     -5.576  0.8728E-02  0.1304E-01  0.1337E+00  0.1324E+00
     -5.407  0.8140E-02  0.8162E-02  0.1351E+00  0.1338E+00
     -5.237  0.2021E-01  0.5055E-02  0.1385E+00  0.1346E+00
     -5.068  0.1561E-01  0.1962E-01  0.1412E+00  0.1380E+00
     -4.898  0.1787E-01  0.1467E-01  0.1442E+00  0.1404E+00
     -4.729  0.1814E-01  0.1398E-01  0.1473E+00  0.1428E+00
     -4.559  0.2728E-01  0.1508E-01  0.1519E+00  0.1454E+00
     -4.390  0.2767E-01  0.1312E-01  0.1566E+00  0.1476E+00
     -4.220  0.4623E-01  0.2990E-01  0.1645E+00  0.1527E+00
     -4.050  0.6738E-01  0.2106E-01  0.1759E+00  0.1562E+00
     -3.881  0.9996E-01  0.2495E-01  0.1928E+00  0.1605E+00
     -3.711  0.1267E+00  0.1944E-01  0.2143E+00  0.1638E+00
     -3.542  0.1295E+00  0.2844E-01  0.2363E+00  0.1686E+00
     -3.372  0.1856E+00  0.4019E-01  0.2677E+00  0.1754E+00
     -3.203  0.1648E+00  0.5592E-01  0.2957E+00  0.1849E+00
     -3.033  0.1365E+00  0.6717E-01  0.3188E+00  0.1963E+00
     -2.864  0.1585E+00  0.7662E-01  0.3457E+00  0.2093E+00
     -2.694  0.2431E+00  0.6101E-01  0.3869E+00  0.2196E+00
     -2.525  0.2529E+00  0.8590E-01  0.4298E+00  0.2342E+00
     -2.355  0.2363E+00  0.1098E+00  0.4698E+00  0.2528E+00
     -2.185  0.2443E+00  0.1129E+00  0.5113E+00  0.2719E+00
     -2.016  0.2406E+00  0.1147E+00  0.5521E+00  0.2914E+00
     -1.846  0.2403E+00  0.1222E+00  0.5928E+00  0.3121E+00
     -1.677  0.2395E+00  0.1075E+00  0.6334E+00  0.3303E+00
     -1.507  0.2236E+00  0.1175E+00  0.6713E+00  0.3503E+00
     -1.338  0.1806E+00  0.1461E+00  0.7019E+00  0.3750E+00
     -1.168  0.1469E+00  0.1703E+00  0.7268E+00  0.4039E+00
     -0.999  0.1657E+00  0.1948E+00  0.7549E+00  0.4369E+00
     -0.829  0.2213E+00  0.2008E+00  0.7925E+00  0.4710E+00
     -0.660  0.2726E+00  0.2134E+00  0.8387E+00  0.5071E+00
     -0.490  0.3242E+00  0.2111E+00  0.8936E+00  0.5429E+00
     -0.320  0.2976E+00  0.1984E+00  0.9441E+00  0.5766E+00
     -0.151  0.2098E+00  0.1835E+00  0.9797E+00  0.6077E+00
      0.019  0.1580E+00  0.1564E+00  0.1006E+01  0.6342E+00
      0.188  0.1377E+00  0.1248E+00  0.1030E+01  0.6554E+00
      0.358  0.1340E+00  0.1117E+00  0.1053E+01  0.6743E+00
      0.527  0.1226E+00  0.1041E+00  0.1073E+01  0.6919E+00
      0.697  0.1092E+00  0.1128E+00  0.1092E+01  0.7111E+00
      0.866  0.9735E-01  0.1446E+00  0.1108E+01  0.7356E+00
      1.036  0.9196E-01  0.1560E+00  0.1124E+01  0.7620E+00
      1.205  0.9337E-01  0.1567E+00  0.1140E+01  0.7886E+00
      1.375  0.9712E-01  0.1683E+00  0.1156E+01  0.8171E+00
      1.545  0.1051E+00  0.2111E+00  0.1174E+01  0.8529E+00
      1.714  0.8475E-01  0.2529E+00  0.1188E+01  0.8958E+00
      1.884  0.1113E-01  0.2963E+00  0.1190E+01  0.9460E+00
      2.053 -0.1729E-02  0.3187E+00  0.1190E+01  0.1000E+01
      2.223 -0.4969E-04  0.2966E+00  0.1190E+01  0.1050E+01
      2.392 -0.1045E-06  0.3430E+00  0.1190E+01  0.1109E+01
      2.562 -0.2069E-10  0.2859E+00  0.1190E+01  0.1157E+01
      2.731 -0.3692E-15  0.1688E+00  0.1190E+01  0.1186E+01
      2.901  0.0000E+00  0.2974E-01  0.1190E+01  0.1191E+01
      3.070  0.0000E+00 -0.3562E-02  0.1190E+01  0.1190E+01
      3.240  0.0000E+00 -0.1762E-03  0.1190E+01  0.1190E+01
      3.410  0.0000E+00 -0.6200E-06  0.1190E+01  0.1190E+01
      3.579  0.0000E+00 -0.1918E-09  0.1190E+01  0.1190E+01
      3.749  0.0000E+00 -0.4955E-14  0.1190E+01  0.1190E+01
      3.918  0.0000E+00  0.0000E+00  0.1190E+01  0.1190E+01
      4.088  0.0000E+00  0.0000E+00  0.1190E+01  0.1190E+01
      4.257  0.0000E+00  0.0000E+00  0.1190E+01  0.1190E+01
      4.427  0.0000E+00  0.0000E+00  0.1190E+01  0.1190E+01
      4.596  0.0000E+00  0.0000E+00  0.1190E+01  0.1190E+01
      4.766  0.0000E+00  0.0000E+00  0.1190E+01  0.1190E+01
      4.935  0.0000E+00  0.0000E+00  0.1190E+01  0.1190E+01
      5.105  0.0000E+00  0.0000E+00  0.1190E+01  0.1190E+01
