INCAR-For-OPT                           
           1
     8.509700    0.000000    0.000000
    -0.003726    8.539299    0.000000
     0.000000    0.000000   23.571400
   Fe   Cr
    50    12
Direct configuration=     1
   0.83310000  0.49871000  0.06001000
   0.83472000  0.83192000  0.06027000
   0.67052500  0.66852600  0.35908100
   0.00081000  0.66425000  0.00034000
   0.15713500  0.82799500  0.30009900
   0.65959900  0.33132600  0.36028200
   0.66559000  0.33138000  0.00044000
   0.49968000  0.83322000  0.06046000
   0.66721000  0.33321000  0.24067000
   0.50058000  0.49950000  0.18024000
   0.33595000  0.33196000  0.11912000
   0.33462000  0.33376000  0.24059000
   0.49999200  0.50003400  0.30183700
   0.00055000  0.33190000  0.12006000
   0.16752000  0.49945000  0.18065000
   0.00021000  0.33145000  0.00038000
   0.33510000  0.33170000  0.00029000
   0.00755900  0.33333100  0.36042900
   0.00077000  0.99959000  0.12036000
   0.16814000  0.16634000  0.18048000
   0.33405000  0.66593000  0.12095000
   0.50078000  0.83242000  0.18121000
   0.99440000  0.66694300  0.35927700
   0.99982000  0.33359000  0.24030000
   0.00025000  0.66569000  0.12051000
   0.16581000  0.83217000  0.18114000
   0.66566000  0.33123000  0.11970000
   0.83372000  0.83826000  0.30251800
   0.16769000  0.49904800  0.30171000
   0.16624800  0.16849000  0.30218000
   0.00161000  0.99891000  0.00024000
   0.01142200  0.99775000  0.36084100
   0.16807000  0.16539000  0.06004000
   0.50677400  0.83059600  0.30066800
   0.83476000  0.83303000  0.18132000
   0.66715000  0.66559000  0.00000000
   0.66719000  0.66640000  0.12032000
   0.83302000  0.49937000  0.17995000
   0.16769000  0.83389000  0.06029000
   0.50104800  0.16711900  0.30245600
   0.33289000  0.99824000  0.24130000
   0.66679000  0.99914000  0.24097000
   0.33466000  0.00023000  0.12082000
   0.66746000  0.99815000  0.00001000
   0.83400800  0.16697200  0.30274700
   0.83358000  0.16456000  0.06013000
   0.65878800  0.99971600  0.36095600
   0.83364000  0.16593000  0.18062000
   0.66653000  0.99972000  0.12044000
   0.33407500  0.33098400  0.36056300
   0.33487000  0.00167000  0.00066000
   0.33284700  0.99446200  0.36013000
   0.00122000  0.00217000  0.24080000
   0.16722000  0.50179000  0.05903000
   0.50000000  0.50344000  0.05949000
   0.49861000  0.16115000  0.05868000
   0.49968000  0.16444000  0.18182000
   0.83425600  0.50522900  0.29955500
   0.99722000  0.66135000  0.24151000
   0.33419000  0.66573000  0.24040000
   0.33414000  0.65855000  0.00278000
   0.66923000  0.66337000  0.24097000
Direct configuration=     2
   0.83310000  0.49871000  0.06001000
   0.83472000  0.83192000  0.06027000
   0.67155711  0.66793470  0.35932529
   0.00081000  0.66425000  0.00034000
   0.15901782  0.82762701  0.29979814
   0.66012126  0.33173100  0.36035743
   0.66559000  0.33138000  0.00044000
   0.49968000  0.83322000  0.06046000
   0.66721000  0.33321000  0.24067000
   0.50058000  0.49950000  0.18024000
   0.33595000  0.33196000  0.11912000
   0.33462000  0.33376000  0.24059000
   0.49871950  0.50126295  0.30195967
   0.00055000  0.33190000  0.12006000
   0.16752000  0.49945000  0.18065000
   0.00021000  0.33145000  0.00038000
   0.33510000  0.33170000  0.00029000
   0.00691455  0.33376578  0.36053534
   0.00077000  0.99959000  0.12036000
   0.16814000  0.16634000  0.18048000
   0.33405000  0.66593000  0.12095000
   0.50078000  0.83242000  0.18121000
   0.99346261  0.66639522  0.35943601
   0.99982000  0.33359000  0.24030000
   0.00025000  0.66569000  0.12051000
   0.16581000  0.83217000  0.18114000
   0.66566000  0.33123000  0.11970000
   0.83356117  0.83839126  0.30265649
   0.16906880  0.50019580  0.30185749
   0.16632754  0.16859949  0.30158372
   0.00161000  0.99891000  0.00024000
   0.00988560  0.99803856  0.36054405
   0.16807000  0.16539000  0.06004000
   0.50545270  0.82860832  0.30002917
   0.83476000  0.83303000  0.18132000
   0.66715000  0.66559000  0.00000000
   0.66719000  0.66640000  0.12032000
   0.83302000  0.49937000  0.17995000
   0.16769000  0.83389000  0.06029000
   0.50078251  0.16732070  0.30183395
   0.33289000  0.99824000  0.24130000
   0.66679000  0.99914000  0.24097000
   0.33466000  0.00023000  0.12082000
   0.66746000  0.99815000  0.00001000
   0.83399851  0.16722964  0.30277939
   0.83358000  0.16456000  0.06013000
   0.66023836  0.99990683  0.36060578
   0.83364000  0.16593000  0.18062000
   0.66653000  0.99972000  0.12044000
   0.33400993  0.33061167  0.36042298
   0.33487000  0.00167000  0.00066000
   0.33244182  0.99382874  0.36164638
   0.00122000  0.00217000  0.24080000
   0.16722000  0.50179000  0.05903000
   0.50000000  0.50344000  0.05949000
   0.49861000  0.16115000  0.05868000
   0.49968000  0.16444000  0.18182000
   0.83426100  0.50531640  0.29931363
   0.99722000  0.66135000  0.24151000
   0.33419000  0.66573000  0.24040000
   0.33414000  0.65855000  0.00278000
   0.66923000  0.66337000  0.24097000
Direct configuration=     3
   0.83310000  0.49871000  0.06001000
   0.83472000  0.83192000  0.06027000
   0.67353164  0.66680348  0.35979264
   0.00081000  0.66425000  0.00034000
   0.16261986  0.82692300  0.29922257
   0.66112039  0.33250581  0.36050173
   0.66559000  0.33138000  0.00044000
   0.49968000  0.83322000  0.06046000
   0.66721000  0.33321000  0.24067000
   0.50058000  0.49950000  0.18024000
   0.33595000  0.33196000  0.11912000
   0.33462000  0.33376000  0.24059000
   0.49628507  0.50361406  0.30219435
   0.00055000  0.33190000  0.12006000
   0.16752000  0.49945000  0.18065000
   0.00021000  0.33145000  0.00038000
   0.33510000  0.33170000  0.00029000
   0.00568165  0.33459756  0.36073877
   0.00077000  0.99959000  0.12036000
   0.16814000  0.16634000  0.18048000
   0.33405000  0.66593000  0.12095000
   0.50078000  0.83242000  0.18121000
   0.99166928  0.66534725  0.35974021
   0.99982000  0.33359000  0.24030000
   0.00025000  0.66569000  0.12051000
   0.16581000  0.83217000  0.18114000
   0.66566000  0.33123000  0.11970000
   0.83325730  0.83864236  0.30292145
   0.17170660  0.50239167  0.30213967
   0.16647971  0.16880894  0.30044296
   0.00161000  0.99891000  0.00024000
   0.00694631  0.99859060  0.35997595
   0.16807000  0.16539000  0.06004000
   0.50292491  0.82480568  0.29880701
   0.83476000  0.83303000  0.18132000
   0.66715000  0.66559000  0.00000000
   0.66719000  0.66640000  0.12032000
   0.83302000  0.49937000  0.17995000
   0.16769000  0.83389000  0.06029000
   0.50027461  0.16770658  0.30064390
   0.33289000  0.99824000  0.24130000
   0.66679000  0.99914000  0.24097000
   0.33466000  0.00023000  0.12082000
   0.66746000  0.99815000  0.00001000
   0.83398035  0.16772254  0.30284137
   0.83358000  0.16456000  0.06013000
   0.66301306  0.00027191  0.35993578
   0.83364000  0.16593000  0.18062000
   0.66653000  0.99972000  0.12044000
   0.33388544  0.32989937  0.36015512
   0.33487000  0.00167000  0.00066000
   0.33166666  0.99261724  0.36454739
   0.00122000  0.00217000  0.24080000
   0.16722000  0.50179000  0.05903000
   0.50000000  0.50344000  0.05949000
   0.49861000  0.16115000  0.05868000
   0.49968000  0.16444000  0.18182000
   0.83427057  0.50548362  0.29885186
   0.99722000  0.66135000  0.24151000
   0.33419000  0.66573000  0.24040000
   0.33414000  0.65855000  0.00278000
   0.66923000  0.66337000  0.24097000
Direct configuration=     4
   0.83310000  0.49871000  0.06001000
   0.83472000  0.83192000  0.06027000
   0.67412959  0.66646510  0.35987441
   0.00081000  0.66425000  0.00034000
   0.16280538  0.82660113  0.29943581
   0.66072464  0.33298553  0.36025792
   0.66559000  0.33138000  0.00044000
   0.49968000  0.83322000  0.06046000
   0.66721000  0.33321000  0.24067000
   0.50058000  0.49950000  0.18024000
   0.33595000  0.33196000  0.11912000
   0.33462000  0.33376000  0.24059000
   0.49641763  0.50322346  0.30246537
   0.00055000  0.33190000  0.12006000
   0.16752000  0.49945000  0.18065000
   0.00021000  0.33145000  0.00038000
   0.33510000  0.33170000  0.00029000
   0.00590977  0.33523807  0.36054400
   0.00077000  0.99959000  0.12036000
   0.16814000  0.16634000  0.18048000
   0.33405000  0.66593000  0.12095000
   0.50078000  0.83242000  0.18121000
   0.99121363  0.66510687  0.35969811
   0.99982000  0.33359000  0.24030000
   0.00025000  0.66569000  0.12051000
   0.16581000  0.83217000  0.18114000
   0.66566000  0.33123000  0.11970000
   0.83359989  0.83813837  0.30276479
   0.17151849  0.50249240  0.30240492
   0.16651376  0.16846473  0.30075491
   0.00161000  0.99891000  0.00024000
   0.00546472  0.99881928  0.35952470
   0.16807000  0.16539000  0.06004000
   0.50236963  0.82469614  0.29914668
   0.83476000  0.83303000  0.18132000
   0.66715000  0.66559000  0.00000000
   0.66719000  0.66640000  0.12032000
   0.83302000  0.49937000  0.17995000
   0.16769000  0.83389000  0.06029000
   0.50021357  0.16729061  0.30107929
   0.33289000  0.99824000  0.24130000
   0.66679000  0.99914000  0.24097000
   0.33466000  0.00023000  0.12082000
   0.66746000  0.99815000  0.00001000
   0.83385469  0.16842756  0.30260677
   0.83358000  0.16456000  0.06013000
   0.66395995  0.00033076  0.35936320
   0.83364000  0.16593000  0.18062000
   0.66653000  0.99972000  0.12044000
   0.33385542  0.32912111  0.35981913
   0.33487000  0.00167000  0.00066000
   0.33224232  0.99269877  0.36575845
   0.00122000  0.00217000  0.24080000
   0.16722000  0.50179000  0.05903000
   0.50000000  0.50344000  0.05949000
   0.49861000  0.16115000  0.05868000
   0.49968000  0.16444000  0.18182000
   0.83432874  0.50561563  0.29868398
   0.99722000  0.66135000  0.24151000
   0.33419000  0.66573000  0.24040000
   0.33414000  0.65855000  0.00278000
   0.66923000  0.66337000  0.24097000
Direct configuration=     5
   0.83310000  0.49871000  0.06001000
   0.83472000  0.83192000  0.06027000
   0.67533544  0.66578272  0.36003931
   0.00081000  0.66425000  0.00034000
   0.16317949  0.82595204  0.29986585
   0.65992654  0.33395297  0.35976625
   0.66559000  0.33138000  0.00044000
   0.49968000  0.83322000  0.06046000
   0.66721000  0.33321000  0.24067000
   0.50058000  0.49950000  0.18024000
   0.33595000  0.33196000  0.11912000
   0.33462000  0.33376000  0.24059000
   0.49668494  0.50243575  0.30301192
   0.00055000  0.33190000  0.12006000
   0.16752000  0.49945000  0.18065000
   0.00021000  0.33145000  0.00038000
   0.33510000  0.33170000  0.00029000
   0.00636980  0.33652976  0.36015121
   0.00077000  0.99959000  0.12036000
   0.16814000  0.16634000  0.18048000
   0.33405000  0.66593000  0.12095000
   0.50078000  0.83242000  0.18121000
   0.99029475  0.66462211  0.35961322
   0.99982000  0.33359000  0.24030000
   0.00025000  0.66569000  0.12051000
   0.16581000  0.83217000  0.18114000
   0.66566000  0.33123000  0.11970000
   0.83429077  0.83712198  0.30244888
   0.17113913  0.50269554  0.30293983
   0.16658241  0.16777059  0.30138400
   0.00161000  0.99891000  0.00024000
   0.00247686  0.99928045  0.35861470
   0.16807000  0.16539000  0.06004000
   0.50124983  0.82447525  0.29983169
   0.83476000  0.83303000  0.18132000
   0.66715000  0.66559000  0.00000000
   0.66719000  0.66640000  0.12032000
   0.83302000  0.49937000  0.17995000
   0.16769000  0.83389000  0.06029000
   0.50009047  0.16645173  0.30195732
   0.33289000  0.99824000  0.24130000
   0.66679000  0.99914000  0.24097000
   0.33466000  0.00023000  0.12082000
   0.66746000  0.99815000  0.00001000
   0.83360126  0.16984934  0.30213367
   0.83358000  0.16456000  0.06013000
   0.66586949  0.00044944  0.35820851
   0.83364000  0.16593000  0.18062000
   0.66653000  0.99972000  0.12044000
   0.33379490  0.32755163  0.35914158
   0.33487000  0.00167000  0.00066000
   0.33340324  0.99286320  0.36820075
   0.00122000  0.00217000  0.24080000
   0.16722000  0.50179000  0.05903000
   0.50000000  0.50344000  0.05949000
   0.49861000  0.16115000  0.05868000
   0.49968000  0.16444000  0.18182000
   0.83444605  0.50588186  0.29834543
   0.99722000  0.66135000  0.24151000
   0.33419000  0.66573000  0.24040000
   0.33414000  0.65855000  0.00278000
   0.66923000  0.66337000  0.24097000
Direct configuration=     6
   0.83310000  0.49871000  0.06001000
   0.83472000  0.83192000  0.06027000
   0.67514326  0.66589147  0.36001303
   0.00081000  0.66425000  0.00034000
   0.16311987  0.82605549  0.29979731
   0.66005374  0.33379878  0.35984461
   0.66559000  0.33138000  0.00044000
   0.49968000  0.83322000  0.06046000
   0.66721000  0.33321000  0.24067000
   0.50058000  0.49950000  0.18024000
   0.33595000  0.33196000  0.11912000
   0.33462000  0.33376000  0.24059000
   0.49664234  0.50256129  0.30292482
   0.00055000  0.33190000  0.12006000
   0.16752000  0.49945000  0.18065000
   0.00021000  0.33145000  0.00038000
   0.33510000  0.33170000  0.00029000
   0.00629648  0.33632390  0.36021381
   0.00077000  0.99959000  0.12036000
   0.16814000  0.16634000  0.18048000
   0.33405000  0.66593000  0.12095000
   0.50078000  0.83242000  0.18121000
   0.99044120  0.66469937  0.35962675
   0.99982000  0.33359000  0.24030000
   0.00025000  0.66569000  0.12051000
   0.16581000  0.83217000  0.18114000
   0.66566000  0.33123000  0.11970000
   0.83418066  0.83728397  0.30249923
   0.17119959  0.50266316  0.30285458
   0.16657147  0.16788121  0.30128374
   0.00161000  0.99891000  0.00024000
   0.00295305  0.99920695  0.35875973
   0.16807000  0.16539000  0.06004000
   0.50142830  0.82451045  0.29972252
   0.83476000  0.83303000  0.18132000
   0.66715000  0.66559000  0.00000000
   0.66719000  0.66640000  0.12032000
   0.83302000  0.49937000  0.17995000
   0.16769000  0.83389000  0.06029000
   0.50011009  0.16658543  0.30181738
   0.33289000  0.99824000  0.24130000
   0.66679000  0.99914000  0.24097000
   0.33466000  0.00023000  0.12082000
   0.66746000  0.99815000  0.00001000
   0.83364165  0.16962275  0.30220907
   0.83358000  0.16456000  0.06013000
   0.66556515  0.00043052  0.35839254
   0.83364000  0.16593000  0.18062000
   0.66653000  0.99972000  0.12044000
   0.33380455  0.32780177  0.35924956
   0.33487000  0.00167000  0.00066000
   0.33321822  0.99283699  0.36781151
   0.00122000  0.00217000  0.24080000
   0.16722000  0.50179000  0.05903000
   0.50000000  0.50344000  0.05949000
   0.49861000  0.16115000  0.05868000
   0.49968000  0.16444000  0.18182000
   0.83442736  0.50583943  0.29839938
   0.99722000  0.66135000  0.24151000
   0.33419000  0.66573000  0.24040000
   0.33414000  0.65855000  0.00278000
   0.66923000  0.66337000  0.24097000
Direct configuration=     7
   0.83310000  0.49871000  0.06001000
   0.83472000  0.83192000  0.06027000
   0.67540216  0.66567667  0.36007550
   0.00081000  0.66425000  0.00034000
   0.16334385  0.82645728  0.30030336
   0.65970690  0.33459577  0.35987111
   0.66559000  0.33138000  0.00044000
   0.49968000  0.83322000  0.06046000
   0.66721000  0.33321000  0.24067000
   0.50058000  0.49950000  0.18024000
   0.33595000  0.33196000  0.11912000
   0.33462000  0.33376000  0.24059000
   0.49707401  0.50251717  0.30271512
   0.00055000  0.33190000  0.12006000
   0.16752000  0.49945000  0.18065000
   0.00021000  0.33145000  0.00038000
   0.33510000  0.33170000  0.00029000
   0.00674864  0.33707990  0.36015237
   0.00077000  0.99959000  0.12036000
   0.16814000  0.16634000  0.18048000
   0.33405000  0.66593000  0.12095000
   0.50078000  0.83242000  0.18121000
   0.99053586  0.66451596  0.35981284
   0.99982000  0.33359000  0.24030000
   0.00025000  0.66569000  0.12051000
   0.16581000  0.83217000  0.18114000
   0.66566000  0.33123000  0.11970000
   0.83379670  0.83671068  0.30186347
   0.17097603  0.50238006  0.30263494
   0.16675122  0.16699024  0.30140426
   0.00161000  0.99891000  0.00024000
   0.00217849  0.99926534  0.35875196
   0.16807000  0.16539000  0.06004000
   0.50163208  0.82511490  0.30021957
   0.83476000  0.83303000  0.18132000
   0.66715000  0.66559000  0.00000000
   0.66719000  0.66640000  0.12032000
   0.83302000  0.49937000  0.17995000
   0.16769000  0.83389000  0.06029000
   0.50003202  0.16598627  0.30165951
   0.33289000  0.99824000  0.24130000
   0.66679000  0.99914000  0.24097000
   0.33466000  0.00023000  0.12082000
   0.66746000  0.99815000  0.00001000
   0.83371233  0.17006463  0.30170360
   0.83358000  0.16456000  0.06013000
   0.66615433  0.99979889  0.35837856
   0.83364000  0.16593000  0.18062000
   0.66653000  0.99972000  0.12044000
   0.33360328  0.32697144  0.35964160
   0.33487000  0.00167000  0.00066000
   0.33327220  0.99310810  0.36861535
   0.00122000  0.00217000  0.24080000
   0.16722000  0.50179000  0.05903000
   0.50000000  0.50344000  0.05949000
   0.49861000  0.16115000  0.05868000
   0.49968000  0.16444000  0.18182000
   0.83432670  0.50573734  0.29827515
   0.99722000  0.66135000  0.24151000
   0.33419000  0.66573000  0.24040000
   0.33414000  0.65855000  0.00278000
   0.66923000  0.66337000  0.24097000
Direct configuration=     8
   0.83310000  0.49871000  0.06001000
   0.83472000  0.83192000  0.06027000
   0.67562079  0.66549528  0.36012825
   0.00081000  0.66425000  0.00034000
   0.16353300  0.82679657  0.30073071
   0.65941400  0.33526879  0.35989349
   0.66559000  0.33138000  0.00044000
   0.49968000  0.83322000  0.06046000
   0.66721000  0.33321000  0.24067000
   0.50058000  0.49950000  0.18024000
   0.33595000  0.33196000  0.11912000
   0.33462000  0.33376000  0.24059000
   0.49743854  0.50247991  0.30253803
   0.00055000  0.33190000  0.12006000
   0.16752000  0.49945000  0.18065000
   0.00021000  0.33145000  0.00038000
   0.33510000  0.33170000  0.00029000
   0.00713047  0.33771831  0.36010049
   0.00077000  0.99959000  0.12036000
   0.16814000  0.16634000  0.18048000
   0.33405000  0.66593000  0.12095000
   0.50078000  0.83242000  0.18121000
   0.99061580  0.66436108  0.35996998
   0.99982000  0.33359000  0.24030000
   0.00025000  0.66569000  0.12051000
   0.16581000  0.83217000  0.18114000
   0.66566000  0.33123000  0.11970000
   0.83347247  0.83622657  0.30132659
   0.17078724  0.50214099  0.30244947
   0.16690301  0.16623785  0.30150604
   0.00161000  0.99891000  0.00024000
   0.00152440  0.99931465  0.35874540
   0.16807000  0.16539000  0.06004000
   0.50180416  0.82562533  0.30063931
   0.83476000  0.83303000  0.18132000
   0.66715000  0.66559000  0.00000000
   0.66719000  0.66640000  0.12032000
   0.83302000  0.49937000  0.17995000
   0.16769000  0.83389000  0.06029000
   0.49996610  0.16548031  0.30152620
   0.33289000  0.99824000  0.24130000
   0.66679000  0.99914000  0.24097000
   0.33466000  0.00023000  0.12082000
   0.66746000  0.99815000  0.00001000
   0.83377201  0.17043778  0.30127676
   0.83358000  0.16456000  0.06013000
   0.66665186  0.99926550  0.35836675
   0.83364000  0.16593000  0.18062000
   0.66653000  0.99972000  0.12044000
   0.33343331  0.32627027  0.35997266
   0.33487000  0.00167000  0.00066000
   0.33331778  0.99333704  0.36929416
   0.00122000  0.00217000  0.24080000
   0.16722000  0.50179000  0.05903000
   0.50000000  0.50344000  0.05949000
   0.49861000  0.16115000  0.05868000
   0.49968000  0.16444000  0.18182000
   0.83424171  0.50565113  0.29817025
   0.99722000  0.66135000  0.24151000
   0.33419000  0.66573000  0.24040000
   0.33414000  0.65855000  0.00278000
   0.66923000  0.66337000  0.24097000
Direct configuration=     9
   0.83310000  0.49871000  0.06001000
   0.83472000  0.83192000  0.06027000
   0.67554170  0.66556090  0.36010917
   0.00081000  0.66425000  0.00034000
   0.16346458  0.82667383  0.30057612
   0.65951996  0.33502532  0.35988540
   0.66559000  0.33138000  0.00044000
   0.49968000  0.83322000  0.06046000
   0.66721000  0.33321000  0.24067000
   0.50058000  0.49950000  0.18024000
   0.33595000  0.33196000  0.11912000
   0.33462000  0.33376000  0.24059000
   0.49730667  0.50249339  0.30260209
   0.00055000  0.33190000  0.12006000
   0.16752000  0.49945000  0.18065000
   0.00021000  0.33145000  0.00038000
   0.33510000  0.33170000  0.00029000
   0.00699234  0.33748736  0.36011926
   0.00077000  0.99959000  0.12036000
   0.16814000  0.16634000  0.18048000
   0.33405000  0.66593000  0.12095000
   0.50078000  0.83242000  0.18121000
   0.99058688  0.66441711  0.35991314
   0.99982000  0.33359000  0.24030000
   0.00025000  0.66569000  0.12051000
   0.16581000  0.83217000  0.18114000
   0.66566000  0.33123000  0.11970000
   0.83358976  0.83640170  0.30152081
   0.17085553  0.50222747  0.30251657
   0.16684810  0.16651003  0.30146922
   0.00161000  0.99891000  0.00024000
   0.00176102  0.99929681  0.35874778
   0.16807000  0.16539000  0.06004000
   0.50174191  0.82544068  0.30048746
   0.83476000  0.83303000  0.18132000
   0.66715000  0.66559000  0.00000000
   0.66719000  0.66640000  0.12032000
   0.83302000  0.49937000  0.17995000
   0.16769000  0.83389000  0.06029000
   0.49998995  0.16566334  0.30157442
   0.33289000  0.99824000  0.24130000
   0.66679000  0.99914000  0.24097000
   0.33466000  0.00023000  0.12082000
   0.66746000  0.99815000  0.00001000
   0.83375042  0.17030279  0.30143117
   0.83358000  0.16456000  0.06013000
   0.66647187  0.99945845  0.35837102
   0.83364000  0.16593000  0.18062000
   0.66653000  0.99972000  0.12044000
   0.33349480  0.32652392  0.35985289
   0.33487000  0.00167000  0.00066000
   0.33330129  0.99325422  0.36904860
   0.00122000  0.00217000  0.24080000
   0.16722000  0.50179000  0.05903000
   0.50000000  0.50344000  0.05949000
   0.49861000  0.16115000  0.05868000
   0.49968000  0.16444000  0.18182000
   0.83427245  0.50568232  0.29820820
   0.99722000  0.66135000  0.24151000
   0.33419000  0.66573000  0.24040000
   0.33414000  0.65855000  0.00278000
   0.66923000  0.66337000  0.24097000
Direct configuration=    10
   0.83310000  0.49871000  0.06001000
   0.83472000  0.83192000  0.06027000
   0.67549595  0.66559886  0.36009813
   0.00081000  0.66425000  0.00034000
   0.16342500  0.82660284  0.30048670
   0.65958124  0.33488450  0.35988071
   0.66559000  0.33138000  0.00044000
   0.49968000  0.83322000  0.06046000
   0.66721000  0.33321000  0.24067000
   0.50058000  0.49950000  0.18024000
   0.33595000  0.33196000  0.11912000
   0.33462000  0.33376000  0.24059000
   0.49723040  0.50250119  0.30263915
   0.00055000  0.33190000  0.12006000
   0.16752000  0.49945000  0.18065000
   0.00021000  0.33145000  0.00038000
   0.33510000  0.33170000  0.00029000
   0.00691245  0.33735378  0.36013011
   0.00077000  0.99959000  0.12036000
   0.16814000  0.16634000  0.18048000
   0.33405000  0.66593000  0.12095000
   0.50078000  0.83242000  0.18121000
   0.99057016  0.66444952  0.35988026
   0.99982000  0.33359000  0.24030000
   0.00025000  0.66569000  0.12051000
   0.16581000  0.83217000  0.18114000
   0.66566000  0.33123000  0.11970000
   0.83365760  0.83650299  0.30163314
   0.17089503  0.50227749  0.30255537
   0.16681634  0.16666746  0.30144792
   0.00161000  0.99891000  0.00024000
   0.00189788  0.99928650  0.35874915
   0.16807000  0.16539000  0.06004000
   0.50170590  0.82533388  0.30039964
   0.83476000  0.83303000  0.18132000
   0.66715000  0.66559000  0.00000000
   0.66719000  0.66640000  0.12032000
   0.83302000  0.49937000  0.17995000
   0.16769000  0.83389000  0.06029000
   0.50000374  0.16576921  0.30160232
   0.33289000  0.99824000  0.24130000
   0.66679000  0.99914000  0.24097000
   0.33466000  0.00023000  0.12082000
   0.66746000  0.99815000  0.00001000
   0.83373793  0.17022472  0.30152048
   0.83358000  0.16456000  0.06013000
   0.66636777  0.99957006  0.35837349
   0.83364000  0.16593000  0.18062000
   0.66653000  0.99972000  0.12044000
   0.33353036  0.32667063  0.35978362
   0.33487000  0.00167000  0.00066000
   0.33329175  0.99320632  0.36890656
   0.00122000  0.00217000  0.24080000
   0.16722000  0.50179000  0.05903000
   0.50000000  0.50344000  0.05949000
   0.49861000  0.16115000  0.05868000
   0.49968000  0.16444000  0.18182000
   0.83429024  0.50570036  0.29823015
   0.99722000  0.66135000  0.24151000
   0.33419000  0.66573000  0.24040000
   0.33414000  0.65855000  0.00278000
   0.66923000  0.66337000  0.24097000
Direct configuration=    11
   0.83310000  0.49871000  0.06001000
   0.83472000  0.83192000  0.06027000
   0.67551079  0.66558655  0.36010171
   0.00081000  0.66425000  0.00034000
   0.16343783  0.82662586  0.30051569
   0.65956137  0.33493016  0.35988223
   0.66559000  0.33138000  0.00044000
   0.49968000  0.83322000  0.06046000
   0.66721000  0.33321000  0.24067000
   0.50058000  0.49950000  0.18024000
   0.33595000  0.33196000  0.11912000
   0.33462000  0.33376000  0.24059000
   0.49725513  0.50249866  0.30262713
   0.00055000  0.33190000  0.12006000
   0.16752000  0.49945000  0.18065000
   0.00021000  0.33145000  0.00038000
   0.33510000  0.33170000  0.00029000
   0.00693835  0.33739710  0.36012659
   0.00077000  0.99959000  0.12036000
   0.16814000  0.16634000  0.18048000
   0.33405000  0.66593000  0.12095000
   0.50078000  0.83242000  0.18121000
   0.99057558  0.66443901  0.35989092
   0.99982000  0.33359000  0.24030000
   0.00025000  0.66569000  0.12051000
   0.16581000  0.83217000  0.18114000
   0.66566000  0.33123000  0.11970000
   0.83363561  0.83647015  0.30159672
   0.17088222  0.50226127  0.30254279
   0.16682664  0.16661641  0.30145483
   0.00161000  0.99891000  0.00024000
   0.00185350  0.99928984  0.35874871
   0.16807000  0.16539000  0.06004000
   0.50171758  0.82536851  0.30042812
   0.83476000  0.83303000  0.18132000
   0.66715000  0.66559000  0.00000000
   0.66719000  0.66640000  0.12032000
   0.83302000  0.49937000  0.17995000
   0.16769000  0.83389000  0.06029000
   0.49999927  0.16573488  0.30159327
   0.33289000  0.99824000  0.24130000
   0.66679000  0.99914000  0.24097000
   0.33466000  0.00023000  0.12082000
   0.66746000  0.99815000  0.00001000
   0.83374198  0.17025003  0.30149152
   0.83358000  0.16456000  0.06013000
   0.66640153  0.99953387  0.35837269
   0.83364000  0.16593000  0.18062000
   0.66653000  0.99972000  0.12044000
   0.33351883  0.32662306  0.35980609
   0.33487000  0.00167000  0.00066000
   0.33329485  0.99322185  0.36895262
   0.00122000  0.00217000  0.24080000
   0.16722000  0.50179000  0.05903000
   0.50000000  0.50344000  0.05949000
   0.49861000  0.16115000  0.05868000
   0.49968000  0.16444000  0.18182000
   0.83428447  0.50569451  0.29822303
   0.99722000  0.66135000  0.24151000
   0.33419000  0.66573000  0.24040000
   0.33414000  0.65855000  0.00278000
   0.66923000  0.66337000  0.24097000
Direct configuration=    12
   0.83310000  0.49871000  0.06001000
   0.83472000  0.83192000  0.06027000
   0.67572650  0.66542621  0.36010334
   0.00081000  0.66425000  0.00034000
   0.16355028  0.82676109  0.30068360
   0.65931429  0.33513270  0.35984782
   0.66559000  0.33138000  0.00044000
   0.49968000  0.83322000  0.06046000
   0.66721000  0.33321000  0.24067000
   0.50058000  0.49950000  0.18024000
   0.33595000  0.33196000  0.11912000
   0.33462000  0.33376000  0.24059000
   0.49690957  0.50256531  0.30256870
   0.00055000  0.33190000  0.12006000
   0.16752000  0.49945000  0.18065000
   0.00021000  0.33145000  0.00038000
   0.33510000  0.33170000  0.00029000
   0.00729373  0.33760783  0.36008559
   0.00077000  0.99959000  0.12036000
   0.16814000  0.16634000  0.18048000
   0.33405000  0.66593000  0.12095000
   0.50078000  0.83242000  0.18121000
   0.99052986  0.66436899  0.35987903
   0.99982000  0.33359000  0.24030000
   0.00025000  0.66569000  0.12051000
   0.16581000  0.83217000  0.18114000
   0.66566000  0.33123000  0.11970000
   0.83383731  0.83634410  0.30165234
   0.17120445  0.50210940  0.30244853
   0.16687074  0.16660602  0.30150086
   0.00161000  0.99891000  0.00024000
   0.00154406  0.99918935  0.35884505
   0.16807000  0.16539000  0.06004000
   0.50168945  0.82558792  0.30048313
   0.83476000  0.83303000  0.18132000
   0.66715000  0.66559000  0.00000000
   0.66719000  0.66640000  0.12032000
   0.83302000  0.49937000  0.17995000
   0.16769000  0.83389000  0.06029000
   0.50005162  0.16593759  0.30168673
   0.33289000  0.99824000  0.24130000
   0.66679000  0.99914000  0.24097000
   0.33466000  0.00023000  0.12082000
   0.66746000  0.99815000  0.00001000
   0.83368199  0.16988808  0.30164086
   0.83358000  0.16456000  0.06013000
   0.66664780  0.99932685  0.35848334
   0.83364000  0.16593000  0.18062000
   0.66653000  0.99972000  0.12044000
   0.33352485  0.32637164  0.35995783
   0.33487000  0.00167000  0.00066000
   0.33318854  0.99357484  0.36909398
   0.00122000  0.00217000  0.24080000
   0.16722000  0.50179000  0.05903000
   0.50000000  0.50344000  0.05949000
   0.49861000  0.16115000  0.05868000
   0.49968000  0.16444000  0.18182000
   0.83440418  0.50561478  0.29826231
   0.99722000  0.66135000  0.24151000
   0.33419000  0.66573000  0.24040000
   0.33414000  0.65855000  0.00278000
   0.66923000  0.66337000  0.24097000
Direct configuration=    13
   0.83310000  0.49871000  0.06001000
   0.83472000  0.83192000  0.06027000
   0.67597177  0.66524392  0.36010520
   0.00081000  0.66425000  0.00034000
   0.16367812  0.82691485  0.30087451
   0.65903336  0.33536297  0.35980870
   0.66559000  0.33138000  0.00044000
   0.49968000  0.83322000  0.06046000
   0.66721000  0.33321000  0.24067000
   0.50058000  0.49950000  0.18024000
   0.33595000  0.33196000  0.11912000
   0.33462000  0.33376000  0.24059000
   0.49651668  0.50264109  0.30250227
   0.00055000  0.33190000  0.12006000
   0.16752000  0.49945000  0.18065000
   0.00021000  0.33145000  0.00038000
   0.33510000  0.33170000  0.00029000
   0.00769778  0.33784744  0.36003898
   0.00077000  0.99959000  0.12036000
   0.16814000  0.16634000  0.18048000
   0.33405000  0.66593000  0.12095000
   0.50078000  0.83242000  0.18121000
   0.99047787  0.66428939  0.35986551
   0.99982000  0.33359000  0.24030000
   0.00025000  0.66569000  0.12051000
   0.16581000  0.83217000  0.18114000
   0.66566000  0.33123000  0.11970000
   0.83406665  0.83620079  0.30171557
   0.17157081  0.50193672  0.30234137
   0.16692088  0.16659420  0.30155321
   0.00161000  0.99891000  0.00024000
   0.00119223  0.99907510  0.35895459
   0.16807000  0.16539000  0.06004000
   0.50165747  0.82583737  0.30054568
   0.83476000  0.83303000  0.18132000
   0.66715000  0.66559000  0.00000000
   0.66719000  0.66640000  0.12032000
   0.83302000  0.49937000  0.17995000
   0.16769000  0.83389000  0.06029000
   0.50011114  0.16616807  0.30179298
   0.33289000  0.99824000  0.24130000
   0.66679000  0.99914000  0.24097000
   0.33466000  0.00023000  0.12082000
   0.66746000  0.99815000  0.00001000
   0.83361377  0.16947654  0.30181065
   0.83358000  0.16456000  0.06013000
   0.66692780  0.99909148  0.35860914
   0.83364000  0.16593000  0.18062000
   0.66653000  0.99972000  0.12044000
   0.33353170  0.32608579  0.36013035
   0.33487000  0.00167000  0.00066000
   0.33306767  0.99397618  0.36925471
   0.00122000  0.00217000  0.24080000
   0.16722000  0.50179000  0.05903000
   0.50000000  0.50344000  0.05949000
   0.49861000  0.16115000  0.05868000
   0.49968000  0.16444000  0.18182000
   0.83454029  0.50552413  0.29830696
   0.99722000  0.66135000  0.24151000
   0.33419000  0.66573000  0.24040000
   0.33414000  0.65855000  0.00278000
   0.66923000  0.66337000  0.24097000
Direct configuration=    14
   0.83310000  0.49871000  0.06001000
   0.83472000  0.83192000  0.06027000
   0.67614921  0.66500635  0.36007973
   0.00081000  0.66425000  0.00034000
   0.16388876  0.82688446  0.30090505
   0.65861386  0.33574306  0.35980472
   0.66559000  0.33138000  0.00044000
   0.49968000  0.83322000  0.06046000
   0.66721000  0.33321000  0.24067000
   0.50058000  0.49950000  0.18024000
   0.33595000  0.33196000  0.11912000
   0.33462000  0.33376000  0.24059000
   0.49642347  0.50283421  0.30254943
   0.00055000  0.33190000  0.12006000
   0.16752000  0.49945000  0.18065000
   0.00021000  0.33145000  0.00038000
   0.33510000  0.33170000  0.00029000
   0.00830878  0.33805851  0.36003506
   0.00077000  0.99959000  0.12036000
   0.16814000  0.16634000  0.18048000
   0.33405000  0.66593000  0.12095000
   0.50078000  0.83242000  0.18121000
   0.99061511  0.66391760  0.35989048
   0.99982000  0.33359000  0.24030000
   0.00025000  0.66569000  0.12051000
   0.16581000  0.83217000  0.18114000
   0.66566000  0.33123000  0.11970000
   0.83402640  0.83610447  0.30173969
   0.17175098  0.50204811  0.30235147
   0.16678920  0.16659019  0.30157603
   0.00161000  0.99891000  0.00024000
   0.00110358  0.99902006  0.35918202
   0.16807000  0.16539000  0.06004000
   0.50166957  0.82599637  0.30059910
   0.83476000  0.83303000  0.18132000
   0.66715000  0.66559000  0.00000000
   0.66719000  0.66640000  0.12032000
   0.83302000  0.49937000  0.17995000
   0.16769000  0.83389000  0.06029000
   0.50017524  0.16603911  0.30187058
   0.33289000  0.99824000  0.24130000
   0.66679000  0.99914000  0.24097000
   0.33466000  0.00023000  0.12082000
   0.66746000  0.99815000  0.00001000
   0.83364808  0.16957330  0.30182419
   0.83358000  0.16456000  0.06013000
   0.66693258  0.99884601  0.35879074
   0.83364000  0.16593000  0.18062000
   0.66653000  0.99972000  0.12044000
   0.33348450  0.32611892  0.36025832
   0.33487000  0.00167000  0.00066000
   0.33309107  0.99440991  0.36942475
   0.00122000  0.00217000  0.24080000
   0.16722000  0.50179000  0.05903000
   0.50000000  0.50344000  0.05949000
   0.49861000  0.16115000  0.05868000
   0.49968000  0.16444000  0.18182000
   0.83460649  0.50520609  0.29829237
   0.99722000  0.66135000  0.24151000
   0.33419000  0.66573000  0.24040000
   0.33414000  0.65855000  0.00278000
   0.66923000  0.66337000  0.24097000
Direct configuration=    15
   0.83310000  0.49871000  0.06001000
   0.83472000  0.83192000  0.06027000
   0.67625202  0.66486870  0.36006497
   0.00081000  0.66425000  0.00034000
   0.16401082  0.82686686  0.30092275
   0.65837079  0.33596330  0.35980241
   0.66559000  0.33138000  0.00044000
   0.49968000  0.83322000  0.06046000
   0.66721000  0.33321000  0.24067000
   0.50058000  0.49950000  0.18024000
   0.33595000  0.33196000  0.11912000
   0.33462000  0.33376000  0.24059000
   0.49636946  0.50294611  0.30257675
   0.00055000  0.33190000  0.12006000
   0.16752000  0.49945000  0.18065000
   0.00021000  0.33145000  0.00038000
   0.33510000  0.33170000  0.00029000
   0.00866281  0.33818081  0.36003278
   0.00077000  0.99959000  0.12036000
   0.16814000  0.16634000  0.18048000
   0.33405000  0.66593000  0.12095000
   0.50078000  0.83242000  0.18121000
   0.99069463  0.66370217  0.35990495
   0.99982000  0.33359000  0.24030000
   0.00025000  0.66569000  0.12051000
   0.16581000  0.83217000  0.18114000
   0.66566000  0.33123000  0.11970000
   0.83400308  0.83604866  0.30175367
   0.17185538  0.50211266  0.30235733
   0.16671290  0.16658787  0.30158926
   0.00161000  0.99891000  0.00024000
   0.00105222  0.99898817  0.35931380
   0.16807000  0.16539000  0.06004000
   0.50167658  0.82608850  0.30063006
   0.83476000  0.83303000  0.18132000
   0.66715000  0.66559000  0.00000000
   0.66719000  0.66640000  0.12032000
   0.83302000  0.49937000  0.17995000
   0.16769000  0.83389000  0.06029000
   0.50021238  0.16596438  0.30191555
   0.33289000  0.99824000  0.24130000
   0.66679000  0.99914000  0.24097000
   0.33466000  0.00023000  0.12082000
   0.66746000  0.99815000  0.00001000
   0.83366796  0.16962937  0.30183203
   0.83358000  0.16456000  0.06013000
   0.66693535  0.99870378  0.35889596
   0.83364000  0.16593000  0.18062000
   0.66653000  0.99972000  0.12044000
   0.33345716  0.32613811  0.36033247
   0.33487000  0.00167000  0.00066000
   0.33310463  0.99466122  0.36952327
   0.00122000  0.00217000  0.24080000
   0.16722000  0.50179000  0.05903000
   0.50000000  0.50344000  0.05949000
   0.49861000  0.16115000  0.05868000
   0.49968000  0.16444000  0.18182000
   0.83464486  0.50502182  0.29828392
   0.99722000  0.66135000  0.24151000
   0.33419000  0.66573000  0.24040000
   0.33414000  0.65855000  0.00278000
   0.66923000  0.66337000  0.24097000
Direct configuration=    16
   0.83310000  0.49871000  0.06001000
   0.83472000  0.83192000  0.06027000
   0.67640094  0.66476169  0.36008110
   0.00081000  0.66425000  0.00034000
   0.16399457  0.82686458  0.30091941
   0.65806820  0.33611671  0.35983963
   0.66559000  0.33138000  0.00044000
   0.49968000  0.83322000  0.06046000
   0.66721000  0.33321000  0.24067000
   0.50058000  0.49950000  0.18024000
   0.33595000  0.33196000  0.11912000
   0.33462000  0.33376000  0.24059000
   0.49651047  0.50298694  0.30261216
   0.00055000  0.33190000  0.12006000
   0.16752000  0.49945000  0.18065000
   0.00021000  0.33145000  0.00038000
   0.33510000  0.33170000  0.00029000
   0.00914318  0.33819062  0.36010039
   0.00077000  0.99959000  0.12036000
   0.16814000  0.16634000  0.18048000
   0.33405000  0.66593000  0.12095000
   0.50078000  0.83242000  0.18121000
   0.99074606  0.66343836  0.35988934
   0.99982000  0.33359000  0.24030000
   0.00025000  0.66569000  0.12051000
   0.16581000  0.83217000  0.18114000
   0.66566000  0.33123000  0.11970000
   0.83409702  0.83620677  0.30181287
   0.17179905  0.50232015  0.30240184
   0.16670199  0.16642142  0.30162632
   0.00161000  0.99891000  0.00024000
   0.00103222  0.99900337  0.35928117
   0.16807000  0.16539000  0.06004000
   0.50164244  0.82606612  0.30068616
   0.83476000  0.83303000  0.18132000
   0.66715000  0.66559000  0.00000000
   0.66719000  0.66640000  0.12032000
   0.83302000  0.49937000  0.17995000
   0.16769000  0.83389000  0.06029000
   0.50021913  0.16585167  0.30190990
   0.33289000  0.99824000  0.24130000
   0.66679000  0.99914000  0.24097000
   0.33466000  0.00023000  0.12082000
   0.66746000  0.99815000  0.00001000
   0.83366301  0.16964700  0.30186461
   0.83358000  0.16456000  0.06013000
   0.66690854  0.99875341  0.35889197
   0.83364000  0.16593000  0.18062000
   0.66653000  0.99972000  0.12044000
   0.33340380  0.32640770  0.36031733
   0.33487000  0.00167000  0.00066000
   0.33312557  0.99473589  0.36959303
   0.00122000  0.00217000  0.24080000
   0.16722000  0.50179000  0.05903000
   0.50000000  0.50344000  0.05949000
   0.49861000  0.16115000  0.05868000
   0.49968000  0.16444000  0.18182000
   0.83465683  0.50499822  0.29825460
   0.99722000  0.66135000  0.24151000
   0.33419000  0.66573000  0.24040000
   0.33414000  0.65855000  0.00278000
   0.66923000  0.66337000  0.24097000
