Generated by VASPKIT code               
   1.00000000000000     
     8.5261999999999993    0.0000000000000000    0.0000000000000000
    -0.0017663600000000    8.5045998199999993    0.0000000000000000
     0.0000000000000000    0.0000000000000000   23.5558000000000014
   Pb   Cr   Fe
     1    13    49
Selective dynamics
Direct
  0.3370098016119940  0.3251369025071329  0.3927668310981701   T   T   T
  0.9996200000000002  0.3343100000000021  0.0019899999999993   F   F   F
  0.9895173802145832  0.3329940379921149  0.3662342421628794   T   T   T
  0.3428355402991571  0.6751423558835002  0.3637064105825430   T   T   T
  0.6687900000000013  0.9968900000000005  0.1222500000000011   F   F   F
  0.1659912631855584  0.8382185690177810  0.3000935601647466   T   T   T
  0.8336104633488416  0.8324524547584347  0.3022132217987607   T   T   T
  0.3366200000000035  0.9978399999999965  0.2417200000000008   F   F   F
  0.0024000000000015  0.3333200000000005  0.2407899999999970   F   F   F
  0.0012699999999981  0.6647600000000011  0.1204600000000013   F   F   F
  0.3392199999999974  0.3307199999999995  0.0000000000000000   F   F   F
  0.3352399999999989  0.6703699999999984  0.0002300000000020   F   F   F
  0.5027199999999965  0.8339100000000030  0.1809799999999981   F   F   F
  0.8377899999999983  0.4999899999999968  0.0613499999999974   F   F   F
  0.6688199999999966  0.6665500000000009  0.0006800000000027   F   F   F
  0.5022200000000012  0.8331799999999987  0.0607699999999980   F   F   F
  0.1689399999999992  0.8330399999999969  0.0606200000000001   F   F   F
  0.0061800185391026  0.6707482653852389  0.3602579572347432   T   T   T
  0.0023899999999983  0.6644099999999966  0.0005099999999985   F   F   F
  0.6771776694227308  0.3345545086612196  0.3609624162349072   T   T   T
  0.6692999999999998  0.3335799999999978  0.0005000000000024   F   F   F
  0.5021500000000003  0.4999200000000030  0.0608599999999981   F   F   F
  0.8361999999999981  0.8320599999999985  0.0608599999999981   F   F   F
  0.6677444575890246  0.6604961567073838  0.3607776685250668   T   T   T
  0.6694800000000001  0.9988299999999981  0.0005299999999977   F   F   F
  0.6641952803355595  0.0040247342472538  0.3600717564882234   T   T   T
  0.3307708773690914  0.9867375944952429  0.3605902841076286   T   T   T
  0.5034300000000016  0.1651999999999987  0.0610500000000016   F   F   F
  0.1692899999999966  0.1669399999999968  0.0607100000000003   F   F   F
  0.3365700000000018  0.0007499999999965  0.0006699999999995   F   F   F
  0.0027100000000004  0.9986900000000034  0.0003400000000013   F   F   F
  0.0092355883319369  0.9985255185393971  0.3601489319923123   T   T   T
  0.8357000000000028  0.1655599999999993  0.0609400000000022   F   F   F
  0.1706100000000035  0.4974599999999967  0.0603199999999973   F   F   F
  0.5014896311265007  0.1655887178824640  0.3030226357701651   T   T   T
  0.6698799999999991  0.9992400000000004  0.2414199999999980   F   F   F
  0.6696499999999972  0.3330399999999969  0.1210299999999975   F   F   F
  0.8362600000000029  0.4996300000000033  0.1811700000000016   F   F   F
  0.1689900000000009  0.8332899999999981  0.1817700000000002   F   F   F
  0.3358199999999982  0.6668900000000022  0.1209500000000006   F   F   F
  0.6691399999999987  0.6672200000000004  0.1211699999999993   F   F   F
  0.8367999999999967  0.8322000000000003  0.1811399999999992   F   F   F
  0.0017199999999988  0.9994399999999999  0.2415099999999981   F   F   F
  0.1666426584044722  0.1682151669212500  0.3032975689585805   T   T   T
  0.0026000000000010  0.3328399999999974  0.1210099999999983   F   F   F
  0.1699399999999969  0.4992500000000035  0.1810400000000030   F   F   F
  0.5016400000000019  0.1659399999999991  0.1813500000000019   F   F   F
  0.8361500000000035  0.1655900000000017  0.1809900000000013   F   F   F
  0.1698000000000022  0.1658699999999982  0.1809900000000013   F   F   F
  0.3362300000000005  0.9985199999999992  0.1210999999999984   F   F   F
  0.0024500000000032  0.9986499999999978  0.1211699999999993   F   F   F
  0.3365099999999970  0.3328699999999998  0.1208600000000004   F   F   F
  0.5018000000000029  0.4993699999999990  0.1812299999999993   F   F   F
  0.1666863033564315  0.5008685960431185  0.3034165714524457   T   T   T
  0.8354714999825591  0.1645467293075707  0.3029368300305011   T   T   T
  0.5025364319082969  0.4975639117586749  0.3032741455213698   T   T   T
  0.3352399999999989  0.3324599999999975  0.2418300000000002   F   F   F
  0.8371645926841171  0.5011921431489118  0.3031254776890254   T   T   T
  0.6690200000000033  0.3331700000000026  0.2412300000000016   F   F   F
  0.3360500000000002  0.6658800000000014  0.2414600000000036   F   F   F
  0.0031800000000004  0.6659799999999976  0.2417700000000025   F   F   F
  0.6691799999999972  0.6667399999999972  0.2413099999999986   F   F   F
  0.5041366681542869  0.8337421361630140  0.3024671772371674   T   T   T
 
  0.00000000E+00  0.00000000E+00  0.00000000E+00
  0.00000000E+00  0.00000000E+00  0.00000000E+00
  0.00000000E+00  0.00000000E+00  0.00000000E+00
  0.00000000E+00  0.00000000E+00  0.00000000E+00
  0.00000000E+00  0.00000000E+00  0.00000000E+00
  0.00000000E+00  0.00000000E+00  0.00000000E+00
  0.00000000E+00  0.00000000E+00  0.00000000E+00
  0.00000000E+00  0.00000000E+00  0.00000000E+00
  0.00000000E+00  0.00000000E+00  0.00000000E+00
  0.00000000E+00  0.00000000E+00  0.00000000E+00
  0.00000000E+00  0.00000000E+00  0.00000000E+00
  0.00000000E+00  0.00000000E+00  0.00000000E+00
  0.00000000E+00  0.00000000E+00  0.00000000E+00
  0.00000000E+00  0.00000000E+00  0.00000000E+00
  0.00000000E+00  0.00000000E+00  0.00000000E+00
  0.00000000E+00  0.00000000E+00  0.00000000E+00
  0.00000000E+00  0.00000000E+00  0.00000000E+00
  0.00000000E+00  0.00000000E+00  0.00000000E+00
  0.00000000E+00  0.00000000E+00  0.00000000E+00
  0.00000000E+00  0.00000000E+00  0.00000000E+00
  0.00000000E+00  0.00000000E+00  0.00000000E+00
  0.00000000E+00  0.00000000E+00  0.00000000E+00
  0.00000000E+00  0.00000000E+00  0.00000000E+00
  0.00000000E+00  0.00000000E+00  0.00000000E+00
  0.00000000E+00  0.00000000E+00  0.00000000E+00
  0.00000000E+00  0.00000000E+00  0.00000000E+00
  0.00000000E+00  0.00000000E+00  0.00000000E+00
  0.00000000E+00  0.00000000E+00  0.00000000E+00
  0.00000000E+00  0.00000000E+00  0.00000000E+00
  0.00000000E+00  0.00000000E+00  0.00000000E+00
  0.00000000E+00  0.00000000E+00  0.00000000E+00
  0.00000000E+00  0.00000000E+00  0.00000000E+00
  0.00000000E+00  0.00000000E+00  0.00000000E+00
  0.00000000E+00  0.00000000E+00  0.00000000E+00
  0.00000000E+00  0.00000000E+00  0.00000000E+00
  0.00000000E+00  0.00000000E+00  0.00000000E+00
  0.00000000E+00  0.00000000E+00  0.00000000E+00
  0.00000000E+00  0.00000000E+00  0.00000000E+00
  0.00000000E+00  0.00000000E+00  0.00000000E+00
  0.00000000E+00  0.00000000E+00  0.00000000E+00
  0.00000000E+00  0.00000000E+00  0.00000000E+00
  0.00000000E+00  0.00000000E+00  0.00000000E+00
  0.00000000E+00  0.00000000E+00  0.00000000E+00
  0.00000000E+00  0.00000000E+00  0.00000000E+00
  0.00000000E+00  0.00000000E+00  0.00000000E+00
  0.00000000E+00  0.00000000E+00  0.00000000E+00
  0.00000000E+00  0.00000000E+00  0.00000000E+00
  0.00000000E+00  0.00000000E+00  0.00000000E+00
  0.00000000E+00  0.00000000E+00  0.00000000E+00
  0.00000000E+00  0.00000000E+00  0.00000000E+00
  0.00000000E+00  0.00000000E+00  0.00000000E+00
  0.00000000E+00  0.00000000E+00  0.00000000E+00
  0.00000000E+00  0.00000000E+00  0.00000000E+00
  0.00000000E+00  0.00000000E+00  0.00000000E+00
  0.00000000E+00  0.00000000E+00  0.00000000E+00
  0.00000000E+00  0.00000000E+00  0.00000000E+00
  0.00000000E+00  0.00000000E+00  0.00000000E+00
  0.00000000E+00  0.00000000E+00  0.00000000E+00
  0.00000000E+00  0.00000000E+00  0.00000000E+00
  0.00000000E+00  0.00000000E+00  0.00000000E+00
  0.00000000E+00  0.00000000E+00  0.00000000E+00
  0.00000000E+00  0.00000000E+00  0.00000000E+00
  0.00000000E+00  0.00000000E+00  0.00000000E+00
