   63   63  300    2
  0.2711232E+02  0.8526200E-09  0.8504600E-09  0.2355580E-08  0.5000000E-15
  1.000000000000000E-004
  CAR 
 ni3al                                   
    562      8    369
 
  0.1250000E+00  0.1250000E+00  0.0000000E+00  0.1250000E+00
      1        -42.532845      -43.358143   1.000000   1.000000
      2        -42.478027      -43.353717   1.000000   1.000000
      3        -42.406209      -43.321074   1.000000   1.000000
      4        -42.353769      -43.318462   1.000000   1.000000
      5        -42.320694      -43.299955   1.000000   1.000000
      6        -42.303715      -43.288603   1.000000   1.000000
      7        -42.286715      -43.235435   1.000000   1.000000
      8        -42.281504      -43.162356   1.000000   1.000000
      9        -42.229607      -43.154470   1.000000   1.000000
     10        -42.218968      -43.070607   1.000000   1.000000
     11        -42.202943      -43.014999   1.000000   1.000000
     12        -42.162848      -42.960104   1.000000   1.000000
     13        -42.135861      -42.910311   1.000000   1.000000
     14        -42.123689      -42.862371   1.000000   1.000000
     15        -42.096199      -42.792794   1.000000   1.000000
     16        -42.052720      -42.768920   1.000000   1.000000
     17        -42.023075      -42.752062   1.000000   1.000000
     18        -41.999705      -42.701851   1.000000   1.000000
     19        -41.971604      -42.612934   1.000000   1.000000
     20        -41.942506      -42.603904   1.000000   1.000000
     21        -41.926878      -42.569766   1.000000   1.000000
     22        -41.907701      -42.555290   1.000000   1.000000
     23        -41.889021      -42.549936   1.000000   1.000000
     24        -41.855813      -42.512607   1.000000   1.000000
     25        -41.852895      -42.386260   1.000000   1.000000
     26        -41.776359      -42.377867   1.000000   1.000000
     27        -41.773437      -42.305909   1.000000   1.000000
     28        -41.761107      -42.215616   1.000000   1.000000
     29        -41.756743      -42.142274   1.000000   1.000000
     30        -41.740374      -41.990535   1.000000   1.000000
     31        -41.710769      -41.869678   1.000000   1.000000
     32        -41.693201      -41.838418   1.000000   1.000000
     33        -41.691681      -41.804933   1.000000   1.000000
     34        -40.332870      -41.784749   1.000000   1.000000
     35        -40.284403      -41.748038   1.000000   1.000000
     36        -40.236070      -41.720962   1.000000   1.000000
     37        -40.184596      -41.671947   1.000000   1.000000
     38        -40.170083      -41.577671   1.000000   1.000000
     39        -40.057323      -41.418582   1.000000   1.000000
     40        -15.562052      -15.572112   1.000000   1.000000
     41        -15.555802      -15.560706   1.000000   1.000000
     42        -15.550867      -15.553085   1.000000   1.000000
     43        -15.538553      -15.547551   1.000000   1.000000
     44        -15.514576      -15.519982   1.000000   1.000000
     45         -7.921314       -7.922104   1.000000   1.000000
     46         -7.091803       -6.974264   1.000000   1.000000
     47         -6.088590       -5.947354   1.000000   1.000000
     48         -5.630174       -5.462110   1.000000   1.000000
     49         -5.598192       -5.438088   1.000000   1.000000
     50         -4.927286       -4.682746   1.000000   1.000000
     51         -4.893846       -4.655235   1.000000   1.000000
     52         -4.839941       -4.592643   1.000000   1.000000
     53         -4.752769       -4.531044   1.000000   1.000000
     54         -4.691286       -4.425190   1.000000   1.000000
     55         -4.491788       -4.186795   1.000000   1.000000
     56         -4.337520       -3.918806   1.000000   1.000000
     57         -4.331883       -3.893380   1.000000   1.000000
     58         -4.144013       -3.649552   1.000000   1.000000
     59         -4.091377       -3.612519   1.000000   1.000000
     60         -4.074843       -3.550816   1.000000   1.000000
     61         -4.033025       -3.510070   1.000000   1.000000
     62         -4.002396       -3.384400   1.000000   1.000000
     63         -3.970390       -3.290872   1.000000   1.000000
     64         -3.901795       -3.261462   1.000000   1.000000
     65         -3.855190       -3.217662   1.000000   1.000000
     66         -3.834627       -3.080032   1.000000   1.000000
     67         -3.751311       -2.853198   1.000000   1.000000
     68         -3.741723       -2.850933   1.000000   1.000000
     69         -3.673338       -2.822255   1.000000   1.000000
     70         -3.660324       -2.780926   1.000000   1.000000
     71         -3.605122       -2.722169   1.000000   1.000000
     72         -3.568820       -2.669774   1.000000   1.000000
     73         -3.552556       -2.578347   1.000000   1.000000
     74         -3.471972       -2.522530   1.000000   1.000000
     75         -3.439620       -2.499434   1.000000   1.000000
     76         -3.427997       -2.481957   1.000000   1.000000
     77         -3.411001       -2.438625   1.000000   1.000000
     78         -3.401463       -2.431460   1.000000   1.000000
     79         -3.379455       -2.355815   1.000000   1.000000
     80         -3.357630       -2.325796   1.000000   1.000000
     81         -3.341900       -2.287343   1.000000   1.000000
     82         -3.326474       -2.250231   1.000000   1.000000
     83         -3.310979       -2.223474   1.000000   1.000000
     84         -3.274907       -2.175114   1.000000   1.000000
     85         -3.255573       -2.148419   1.000000   1.000000
     86         -3.231638       -2.129595   1.000000   1.000000
     87         -3.228289       -2.109659   1.000000   1.000000
     88         -3.211635       -2.083441   1.000000   1.000000
     89         -3.184923       -2.065967   1.000000   1.000000
     90         -3.165191       -2.038767   1.000000   1.000000
     91         -3.148068       -2.004480   1.000000   1.000000
     92         -3.134799       -1.980158   1.000000   1.000000
     93         -3.086914       -1.964119   1.000000   1.000000
     94         -3.069266       -1.924831   1.000000   1.000000
     95         -3.045833       -1.883556   1.000000   1.000000
     96         -3.040290       -1.875973   1.000000   1.000000
     97         -3.026068       -1.851403   1.000000   1.000000
     98         -2.999121       -1.829567   1.000000   1.000000
     99         -2.965057       -1.806294   1.000000   1.000000
    100         -2.943501       -1.790784   1.000000   1.000000
    101         -2.921838       -1.744315   1.000000   1.000000
    102         -2.883705       -1.714392   1.000000   1.000000
    103         -2.860008       -1.692837   1.000000   1.000000
    104         -2.825914       -1.634467   1.000000   1.000000
    105         -2.807916       -1.596020   1.000000   1.000000
    106         -2.804745       -1.553909   1.000000   1.000000
    107         -2.743500       -1.544669   1.000000   1.000000
    108         -2.720824       -1.527789   1.000000   1.000000
    109         -2.707842       -1.505289   1.000000   1.000000
    110         -2.680460       -1.488946   1.000000   1.000000
    111         -2.669331       -1.464249   1.000000   1.000000
    112         -2.638878       -1.416532   1.000000   1.000000
    113         -2.630287       -1.403190   1.000000   1.000000
    114         -2.620104       -1.384446   1.000000   1.000000
    115         -2.610950       -1.343942   1.000000   1.000000
    116         -2.595045       -1.315089   1.000000   1.000000
    117         -2.582853       -1.296748   1.000000   1.000000
    118         -2.567311       -1.268212   1.000000   1.000000
    119         -2.556611       -1.251436   1.000000   1.000000
    120         -2.543695       -1.221757   1.000000   1.000000
    121         -2.526246       -1.211826   1.000000   1.000000
    122         -2.517187       -1.204590   1.000000   1.000000
    123         -2.514075       -1.171493   1.000000   1.000000
    124         -2.499080       -1.166881   1.000000   1.000000
    125         -2.490653       -1.141561   1.000000   1.000000
    126         -2.479757       -1.130389   1.000000   1.000000
    127         -2.465191       -1.116494   1.000000   1.000000
    128         -2.457273       -1.101496   1.000000   1.000000
    129         -2.451057       -1.083196   1.000000   1.000000
    130         -2.431390       -1.079736   1.000000   1.000000
    131         -2.415974       -1.058141   1.000000   1.000000
    132         -2.405270       -1.043886   1.000000   1.000000
    133         -2.390484       -1.032764   1.000000   1.000000
    134         -2.388198       -1.009719   1.000000   1.000000
    135         -2.378241       -1.001121   1.000000   1.000000
    136         -2.364502       -0.989204   1.000000   1.000000
    137         -2.352152       -0.959754   1.000000   1.000000
    138         -2.337760       -0.948303   1.000000   1.000000
    139         -2.326737       -0.938490   1.000000   1.000000
    140         -2.312796       -0.929051   1.000000   1.000000
    141         -2.300067       -0.904189   1.000000   1.000000
    142         -2.280904       -0.890214   1.000000   1.000000
    143         -2.271611       -0.883850   1.000000   1.000000
    144         -2.261598       -0.869522   1.000000   1.000000
    145         -2.247233       -0.854306   1.000000   1.000000
    146         -2.230779       -0.847229   1.000000   1.000000
    147         -2.223199       -0.823795   1.000000   1.000000
    148         -2.218413       -0.805499   1.000000   1.000000
    149         -2.196742       -0.791435   1.000000   1.000000
    150         -2.186398       -0.774017   1.000000   1.000000
    151         -2.170668       -0.759083   1.000000   1.000000
    152         -2.167097       -0.748191   1.000000   1.000000
    153         -2.155785       -0.738327   1.000000   1.000000
    154         -2.142448       -0.708443   1.000000   1.000000
    155         -2.130315       -0.692668   1.000000   1.000000
    156         -2.117796       -0.683876   1.000000   1.000000
    157         -2.098142       -0.674497   1.000000   1.000000
    158         -2.082093       -0.656354   1.000000   1.000000
    159         -2.062894       -0.635520   1.000000   1.000000
    160         -2.055766       -0.629634   1.000000   1.000000
    161         -2.041021       -0.607459   1.000000   1.000000
    162         -2.027741       -0.595345   1.000000   1.000000
    163         -2.001238       -0.591327   1.000000   1.000000
    164         -1.990809       -0.559649   1.000000   1.000000
    165         -1.979452       -0.539412   1.000000   1.000000
    166         -1.963543       -0.531892   1.000000   1.000000
    167         -1.947997       -0.514416   1.000000   1.000000
    168         -1.938822       -0.502978   1.000000   1.000000
    169         -1.932033       -0.481281   1.000000   1.000000
    170         -1.915272       -0.468230   1.000000   1.000000
    171         -1.906337       -0.450896   1.000000   1.000000
    172         -1.879657       -0.435089   1.000000   1.000000
    173         -1.861704       -0.424909   1.000000   1.000000
    174         -1.852630       -0.410790   1.000000   1.000000
    175         -1.840279       -0.394739   1.000000   1.000000
    176         -1.835512       -0.370247   1.000000   1.000000
    177         -1.807392       -0.344291   1.000000   1.000000
    178         -1.783849       -0.338304   1.000000   1.000000
    179         -1.775339       -0.305626   1.000000   1.000000
    180         -1.757979       -0.275702   1.000000   1.000000
    181         -1.736738       -0.267428   1.000000   1.000000
    182         -1.726399       -0.235666   1.000000   1.000000
    183         -1.706844       -0.231605   1.000000   1.000000
    184         -1.686631       -0.199307   1.000000   1.000000
    185         -1.674039       -0.188901   1.000000   1.000000
    186         -1.659897       -0.172016   1.000000   1.000000
    187         -1.634821       -0.143282   1.000000   1.000000
    188         -1.632561       -0.110900   1.000000   1.000000
    189         -1.604547       -0.085026   1.000000   1.000000
    190         -1.574864       -0.069560   1.000000   1.000000
    191         -1.565033       -0.064436   1.000000   1.000000
    192         -1.553789       -0.036837   1.000000   1.000000
    193         -1.545066       -0.020743   1.000000   1.000000
    194         -1.529392        0.009229   1.000000   1.000000
    195         -1.508213        0.023089   1.000000   1.000000
    196         -1.495232        0.043318   1.000000   1.000000
    197         -1.485154        0.057230   1.000000   1.000000
    198         -1.467861        0.084222   1.000000   1.000000
    199         -1.451296        0.115443   1.000000   1.000000
    200         -1.438993        0.140295   1.000000   1.000000
    201         -1.436192        0.163425   1.000000   1.000000
    202         -1.417186        0.178878   1.000000   1.000000
    203         -1.394876        0.214739   1.000000   1.000000
    204         -1.381245        0.218121   1.000000   1.000000
    205         -1.366107        0.247639   1.000000   1.000000
    206         -1.344438        0.260755   1.000000   1.000000
    207         -1.335172        0.275969   1.000000   1.000000
    208         -1.321488        0.310838   1.000000   1.000000
    209         -1.319026        0.344726   1.000000   1.000000
    210         -1.287104        0.367246   1.000000   1.000001
    211         -1.267317        0.383746   1.000000   1.000003
    212         -1.248170        0.404327   1.000000   1.000007
    213         -1.219457        0.449453   1.000000   1.000047
    214         -1.200553        0.488757   1.000000   1.000201
    215         -1.192251        0.507853   1.000000   1.000387
    216         -1.178713        0.536423   1.000000   1.000961
    217         -1.132664        0.541219   1.000000   1.001111
    218         -1.124491        0.572037   1.000000   1.002659
    219         -1.100757        0.585435   1.000000   1.003765
    220         -1.076682        0.606373   1.000000   1.006230
    221         -1.057162        0.634934   1.000000   1.011403
    222         -1.030212        0.652937   1.000000   1.015835
    223         -1.002158        0.663033   1.000000   1.018672
    224         -0.992516        0.674470   1.000000   1.022103
    225         -0.973482        0.692045   1.000000   1.027485
    226         -0.952828        0.751947   1.000000   1.032843
    227         -0.933864        0.806910   1.000000   0.972428
    228         -0.922888        0.878542   1.000000   0.712307
    229         -0.900170        0.895539   1.000000   0.622997
    230         -0.887935        0.923024   1.000000   0.469436
    231         -0.866632        0.961101   1.000000   0.265659
    232         -0.861094        1.018595   1.000000   0.049804
    233         -0.852133        1.030496   1.000000   0.023086
    234         -0.826992        1.048652   1.000000  -0.006566
    235         -0.811817        1.064385   1.000000  -0.022756
    236         -0.787771        1.079681   1.000000  -0.031592
    237         -0.767049        1.104666   1.000000  -0.035383
    238         -0.745724        1.125202   1.000000  -0.032341
    239         -0.738399        1.139644   1.000000  -0.028522
    240         -0.722039        1.145476   1.000000  -0.026790
    241         -0.704463        1.165573   1.000000  -0.020631
    242         -0.689296        1.175136   1.000000  -0.017817
    243         -0.665463        1.195572   1.000000  -0.012474
    244         -0.658424        1.221205   1.000000  -0.007392
    245         -0.635813        1.232697   1.000000  -0.005699
    246         -0.617453        1.249412   1.000000  -0.003799
    247         -0.611713        1.265104   1.000000  -0.002525
    248         -0.606706        1.275953   1.000000  -0.001874
    249         -0.586958        1.309279   1.000000  -0.000695
    250         -0.570361        1.333174   1.000000  -0.000318
    251         -0.564581        1.365278   1.000000  -0.000102
    252         -0.547142        1.379244   1.000000  -0.000060
    253         -0.532457        1.394760   1.000000  -0.000033
    254         -0.518791        1.401022   1.000000  -0.000025
    255         -0.514961        1.425564   1.000000  -0.000009
    256         -0.499983        1.438576   1.000000  -0.000005
    257         -0.496732        1.454602   1.000000  -0.000003
    258         -0.485180        1.474516   1.000000  -0.000001
    259         -0.472300        1.504643   1.000000  -0.000000
    260         -0.463289        1.519963   1.000000  -0.000000
    261         -0.456491        1.529685   1.000000  -0.000000
    262         -0.448472        1.540482   1.000000  -0.000000
    263         -0.431660        1.557084   1.000000  -0.000000
    264         -0.427377        1.567857   1.000000  -0.000000
    265         -0.419792        1.576926   1.000000  -0.000000
    266         -0.398291        1.597945   1.000000  -0.000000
    267         -0.389384        1.605842   1.000000  -0.000000
    268         -0.382230        1.629129   1.000000  -0.000000
    269         -0.368817        1.647513   1.000000  -0.000000
    270         -0.361262        1.657772   1.000000  -0.000000
    271         -0.353762        1.672193   1.000000  -0.000000
    272         -0.335379        1.685727   1.000000  -0.000000
    273         -0.326087        1.704285   1.000000  -0.000000
    274         -0.318441        1.726172   1.000000  -0.000000
    275         -0.305762        1.737523   1.000000  -0.000000
    276         -0.294598        1.767177   1.000000  -0.000000
    277         -0.289358        1.777462   1.000000  -0.000000
    278         -0.275459        1.792074   1.000000  -0.000000
    279         -0.269038        1.801361   1.000000  -0.000000
    280         -0.257925        1.822940   1.000000  -0.000000
    281         -0.248897        1.841289   1.000000  -0.000000
    282         -0.240324        1.854499   1.000000  -0.000000
    283         -0.236187        1.857951   1.000000  -0.000000
    284         -0.224056        1.877310   1.000000  -0.000000
    285         -0.209533        1.892474   1.000000  -0.000000
    286         -0.198756        1.908924   1.000000  -0.000000
    287         -0.188449        1.926333   1.000000  -0.000000
    288         -0.182143        1.936329   1.000000  -0.000000
    289         -0.171813        1.943641   1.000000  -0.000000
    290         -0.159875        1.953870   1.000000  -0.000000
    291         -0.140813        1.965665   1.000000  -0.000000
    292         -0.133383        1.984521   1.000000  -0.000000
    293         -0.127573        2.000265   1.000000  -0.000000
    294         -0.101877        2.011846   1.000000  -0.000000
    295         -0.079853        2.022922   1.000000  -0.000000
    296         -0.071875        2.029859   1.000000  -0.000000
    297         -0.062321        2.032970   1.000000  -0.000000
    298         -0.049981        2.050713   1.000000  -0.000000
    299         -0.032530        2.063954   1.000000  -0.000000
    300         -0.012938        2.077872   1.000000  -0.000000
    301          0.002702        2.086730   1.000000  -0.000000
    302          0.033308        2.098144   1.000000  -0.000000
    303          0.081193        2.108368   1.000000  -0.000000
    304          0.090169        2.125567   1.000000  -0.000000
    305          0.129203        2.129511   1.000000  -0.000000
    306          0.161694        2.139991   1.000000  -0.000000
    307          0.168022        2.154703   1.000000  -0.000000
    308          0.211776        2.160578   1.000000  -0.000000
    309          0.237922        2.176164   1.000000  -0.000000
    310          0.265316        2.183995   1.000000  -0.000000
    311          0.311382        2.193843   1.000000  -0.000000
    312          0.334498        2.206037   1.000000  -0.000000
    313          0.354980        2.222289   1.000001  -0.000000
    314          0.371657        2.228104   1.000002  -0.000000
    315          0.412928        2.232071   1.000011  -0.000000
    316          0.447539        2.240655   1.000043  -0.000000
    317          0.462064        2.252398   1.000076  -0.000000
    318          0.470605        2.261279   1.000104  -0.000000
    319          0.521860        2.270089   1.000611  -0.000000
    320          0.533849        2.284256   1.000889  -0.000000
    321          0.564893        2.291575   1.002192  -0.000000
    322          0.583468        2.306917   1.003582  -0.000000
    323          0.593975        2.314736   1.004651  -0.000000
    324          0.629515        2.320821   1.010245  -0.000000
    325          0.659502        2.339005   1.017656  -0.000000
    326          0.670099        2.346454   1.020772  -0.000000
    327          0.721408        2.353739   1.034507  -0.000000
    328          0.728584        2.368533   1.035274  -0.000000
    329          0.755778        2.373449   1.031492  -0.000000
    330          0.774231        2.385536   1.019913  -0.000000
    331          0.805343        2.396844   0.975643  -0.000000
    332          0.841455        2.400276   0.874271  -0.000000
    333          0.856809        2.411359   0.813749  -0.000000
    334          0.933459        2.420202   0.411096  -0.000000
    335          0.973956        2.423111   0.205576  -0.000000
    336          0.995301        2.436347   0.120184  -0.000000
    337          1.006279        2.452694   0.083987  -0.000000
    338          1.034466        2.460709   0.015498  -0.000000
    339          1.053971        2.464436  -0.012945  -0.000000
    340          1.098482        2.475265  -0.035402  -0.000000
    341          1.117967        2.482616  -0.033832  -0.000000
    342          1.153823        2.496621  -0.024232  -0.000000
    343          1.177333        2.505674  -0.017195  -0.000000
    344          1.215449        2.508782  -0.008372  -0.000000
    345          1.238383        2.518535  -0.004982  -0.000000
    346          1.263872        2.532584  -0.002610  -0.000000
    347          1.274454        2.541815  -0.001954  -0.000000
    348          1.287629        2.553436  -0.001341  -0.000000
    349          1.331314        2.556692  -0.000339  -0.000000
    350          1.375649        2.564291  -0.000069  -0.000000
    351          1.423339        2.578947  -0.000010  -0.000000
    352          1.453720        2.587143  -0.000003  -0.000000
    353          1.497156        2.602848  -0.000000  -0.000000
    354          1.542372        2.619520  -0.000000  -0.000000
    355          1.571976        2.625595  -0.000000  -0.000000
    356          1.628613        2.644655  -0.000000  -0.000000
    357          1.639890        2.675836  -0.000000  -0.000000
    358          1.656117        2.698124  -0.000000  -0.000000
    359          1.687307        2.702760  -0.000000  -0.000000
    360          1.724219        2.716144  -0.000000  -0.000000
    361          1.747578        2.729957  -0.000000  -0.000000
    362          1.777908        2.742931  -0.000000  -0.000000
    363          1.802206        2.754837  -0.000000  -0.000000
    364          1.839505        2.776684  -0.000000  -0.000000
    365          1.865299        2.801513  -0.000000  -0.000000
    366          1.897993        2.818489  -0.000000  -0.000000
    367          1.927845        2.836093  -0.000000  -0.000000
    368          1.949078        2.865953  -0.000000  -0.000000
    369          1.981121        2.892401  -0.000000  -0.000000
 
  0.3750000E+00  0.1250000E+00  0.0000000E+00  0.1250000E+00
      1        -42.532842      -43.358139   1.000000   1.000000
      2        -42.478020      -43.353710   1.000000   1.000000
      3        -42.406203      -43.321072   1.000000   1.000000
      4        -42.353756      -43.318463   1.000000   1.000000
      5        -42.320688      -43.299950   1.000000   1.000000
      6        -42.303667      -43.288608   1.000000   1.000000
      7        -42.286716      -43.235433   1.000000   1.000000
      8        -42.281513      -43.162359   1.000000   1.000000
      9        -42.229692      -43.154466   1.000000   1.000000
     10        -42.218966      -43.070606   1.000000   1.000000
     11        -42.202940      -43.014995   1.000000   1.000000
     12        -42.162835      -42.960094   1.000000   1.000000
     13        -42.135837      -42.910305   1.000000   1.000000
     14        -42.123672      -42.862376   1.000000   1.000000
     15        -42.096227      -42.792791   1.000000   1.000000
     16        -42.052720      -42.768925   1.000000   1.000000
     17        -42.023074      -42.752061   1.000000   1.000000
     18        -41.999708      -42.701851   1.000000   1.000000
     19        -41.971595      -42.612928   1.000000   1.000000
     20        -41.942512      -42.603912   1.000000   1.000000
     21        -41.926864      -42.569766   1.000000   1.000000
     22        -41.907716      -42.555302   1.000000   1.000000
     23        -41.889019      -42.549932   1.000000   1.000000
     24        -41.855809      -42.512605   1.000000   1.000000
     25        -41.852869      -42.386256   1.000000   1.000000
     26        -41.776346      -42.377864   1.000000   1.000000
     27        -41.773454      -42.305903   1.000000   1.000000
     28        -41.761124      -42.215608   1.000000   1.000000
     29        -41.756736      -42.142277   1.000000   1.000000
     30        -41.740369      -41.990531   1.000000   1.000000
     31        -41.710768      -41.869656   1.000000   1.000000
     32        -41.693203      -41.838421   1.000000   1.000000
     33        -41.691674      -41.804935   1.000000   1.000000
     34        -40.332869      -41.784748   1.000000   1.000000
     35        -40.284403      -41.748042   1.000000   1.000000
     36        -40.236070      -41.720953   1.000000   1.000000
     37        -40.184595      -41.671955   1.000000   1.000000
     38        -40.170076      -41.577665   1.000000   1.000000
     39        -40.057317      -41.418586   1.000000   1.000000
     40        -15.562004      -15.572050   1.000000   1.000000
     41        -15.555785      -15.560699   1.000000   1.000000
     42        -15.550889      -15.553119   1.000000   1.000000
     43        -15.538518      -15.547509   1.000000   1.000000
     44        -15.514579      -15.519986   1.000000   1.000000
     45         -7.883340       -7.888076   1.000000   1.000000
     46         -6.851617       -6.729787   1.000000   1.000000
     47         -6.351013       -6.209281   1.000000   1.000000
     48         -5.869838       -5.731430   1.000000   1.000000
     49         -5.439399       -5.266733   1.000000   1.000000
     50         -5.355280       -5.175515   1.000000   1.000000
     51         -4.987032       -4.774883   1.000000   1.000000
     52         -4.688986       -4.424385   1.000000   1.000000
     53         -4.663794       -4.395596   1.000000   1.000000
     54         -4.566940       -4.325577   1.000000   1.000000
     55         -4.341586       -4.012090   1.000000   1.000000
     56         -4.291024       -3.984264   1.000000   1.000000
     57         -4.173326       -3.868323   1.000000   1.000000
     58         -4.089804       -3.667911   1.000000   1.000000
     59         -4.044284       -3.608286   1.000000   1.000000
     60         -4.000511       -3.387912   1.000000   1.000000
     61         -3.982547       -3.295031   1.000000   1.000000
     62         -3.888452       -3.242899   1.000000   1.000000
     63         -3.835490       -3.133606   1.000000   1.000000
     64         -3.806473       -3.099268   1.000000   1.000000
     65         -3.780171       -3.061373   1.000000   1.000000
     66         -3.759285       -3.042230   1.000000   1.000000
     67         -3.744123       -2.979612   1.000000   1.000000
     68         -3.730047       -2.927223   1.000000   1.000000
     69         -3.709473       -2.888082   1.000000   1.000000
     70         -3.688180       -2.851211   1.000000   1.000000
     71         -3.627970       -2.776801   1.000000   1.000000
     72         -3.582971       -2.701849   1.000000   1.000000
     73         -3.557063       -2.685067   1.000000   1.000000
     74         -3.538485       -2.603693   1.000000   1.000000
     75         -3.525281       -2.567015   1.000000   1.000000
     76         -3.496863       -2.481763   1.000000   1.000000
     77         -3.473427       -2.438558   1.000000   1.000000
     78         -3.465992       -2.415011   1.000000   1.000000
     79         -3.423801       -2.401954   1.000000   1.000000
     80         -3.408990       -2.322770   1.000000   1.000000
     81         -3.385179       -2.284253   1.000000   1.000000
     82         -3.309179       -2.271100   1.000000   1.000000
     83         -3.284462       -2.238859   1.000000   1.000000
     84         -3.266301       -2.229799   1.000000   1.000000
     85         -3.255306       -2.204047   1.000000   1.000000
     86         -3.232391       -2.160117   1.000000   1.000000
     87         -3.207420       -2.115318   1.000000   1.000000
     88         -3.199594       -2.109036   1.000000   1.000000
     89         -3.186538       -2.074991   1.000000   1.000000
     90         -3.177741       -2.049964   1.000000   1.000000
     91         -3.153522       -2.037780   1.000000   1.000000
     92         -3.129361       -2.016845   1.000000   1.000000
     93         -3.119237       -1.990586   1.000000   1.000000
     94         -3.099729       -1.966211   1.000000   1.000000
     95         -3.082364       -1.938869   1.000000   1.000000
     96         -3.066370       -1.921171   1.000000   1.000000
     97         -3.054897       -1.905384   1.000000   1.000000
     98         -3.045519       -1.857618   1.000000   1.000000
     99         -3.033376       -1.817407   1.000000   1.000000
    100         -3.002812       -1.773886   1.000000   1.000000
    101         -2.985649       -1.741113   1.000000   1.000000
    102         -2.950531       -1.707102   1.000000   1.000000
    103         -2.898654       -1.684186   1.000000   1.000000
    104         -2.869914       -1.666493   1.000000   1.000000
    105         -2.862597       -1.643719   1.000000   1.000000
    106         -2.835095       -1.625919   1.000000   1.000000
    107         -2.810064       -1.582726   1.000000   1.000000
    108         -2.793970       -1.566425   1.000000   1.000000
    109         -2.761909       -1.549059   1.000000   1.000000
    110         -2.745448       -1.516724   1.000000   1.000000
    111         -2.717325       -1.488068   1.000000   1.000000
    112         -2.699699       -1.463688   1.000000   1.000000
    113         -2.687537       -1.415809   1.000000   1.000000
    114         -2.667216       -1.410241   1.000000   1.000000
    115         -2.651542       -1.377279   1.000000   1.000000
    116         -2.634369       -1.345829   1.000000   1.000000
    117         -2.625815       -1.320407   1.000000   1.000000
    118         -2.608556       -1.299785   1.000000   1.000000
    119         -2.599440       -1.275712   1.000000   1.000000
    120         -2.592429       -1.251507   1.000000   1.000000
    121         -2.583515       -1.233865   1.000000   1.000000
    122         -2.569197       -1.214930   1.000000   1.000000
    123         -2.552634       -1.201636   1.000000   1.000000
    124         -2.539203       -1.162163   1.000000   1.000000
    125         -2.532791       -1.147716   1.000000   1.000000
    126         -2.511139       -1.132752   1.000000   1.000000
    127         -2.490994       -1.119478   1.000000   1.000000
    128         -2.479032       -1.114872   1.000000   1.000000
    129         -2.464089       -1.096026   1.000000   1.000000
    130         -2.455057       -1.071699   1.000000   1.000000
    131         -2.447908       -1.060634   1.000000   1.000000
    132         -2.435519       -1.037134   1.000000   1.000000
    133         -2.419442       -1.027288   1.000000   1.000000
    134         -2.402358       -1.008561   1.000000   1.000000
    135         -2.393125       -0.998181   1.000000   1.000000
    136         -2.377115       -0.973861   1.000000   1.000000
    137         -2.362882       -0.969328   1.000000   1.000000
    138         -2.359475       -0.943049   1.000000   1.000000
    139         -2.353290       -0.926281   1.000000   1.000000
    140         -2.318814       -0.919851   1.000000   1.000000
    141         -2.295497       -0.897152   1.000000   1.000000
    142         -2.277195       -0.883276   1.000000   1.000000
    143         -2.260723       -0.867820   1.000000   1.000000
    144         -2.246578       -0.838848   1.000000   1.000000
    145         -2.233055       -0.808434   1.000000   1.000000
    146         -2.215066       -0.794366   1.000000   1.000000
    147         -2.196126       -0.771078   1.000000   1.000000
    148         -2.184444       -0.765593   1.000000   1.000000
    149         -2.180312       -0.754725   1.000000   1.000000
    150         -2.165170       -0.739694   1.000000   1.000000
    151         -2.155698       -0.725967   1.000000   1.000000
    152         -2.147115       -0.692144   1.000000   1.000000
    153         -2.123492       -0.672143   1.000000   1.000000
    154         -2.110437       -0.664260   1.000000   1.000000
    155         -2.099025       -0.654310   1.000000   1.000000
    156         -2.091812       -0.640912   1.000000   1.000000
    157         -2.065770       -0.622807   1.000000   1.000000
    158         -2.056443       -0.617583   1.000000   1.000000
    159         -2.038717       -0.607956   1.000000   1.000000
    160         -2.034448       -0.578718   1.000000   1.000000
    161         -2.021894       -0.575550   1.000000   1.000000
    162         -1.997893       -0.553819   1.000000   1.000000
    163         -1.993850       -0.536491   1.000000   1.000000
    164         -1.986284       -0.518368   1.000000   1.000000
    165         -1.971358       -0.507473   1.000000   1.000000
    166         -1.946102       -0.499242   1.000000   1.000000
    167         -1.937368       -0.484787   1.000000   1.000000
    168         -1.920583       -0.461009   1.000000   1.000000
    169         -1.904617       -0.441822   1.000000   1.000000
    170         -1.898281       -0.429437   1.000000   1.000000
    171         -1.877978       -0.407832   1.000000   1.000000
    172         -1.869679       -0.399916   1.000000   1.000000
    173         -1.859149       -0.390805   1.000000   1.000000
    174         -1.846120       -0.367563   1.000000   1.000000
    175         -1.828811       -0.350238   1.000000   1.000000
    176         -1.807193       -0.330266   1.000000   1.000000
    177         -1.787833       -0.313483   1.000000   1.000000
    178         -1.779008       -0.306391   1.000000   1.000000
    179         -1.763799       -0.293532   1.000000   1.000000
    180         -1.741354       -0.274451   1.000000   1.000000
    181         -1.724096       -0.258335   1.000000   1.000000
    182         -1.716361       -0.248569   1.000000   1.000000
    183         -1.690373       -0.232413   1.000000   1.000000
    184         -1.675504       -0.206989   1.000000   1.000000
    185         -1.657578       -0.200156   1.000000   1.000000
    186         -1.646366       -0.181820   1.000000   1.000000
    187         -1.637136       -0.163238   1.000000   1.000000
    188         -1.626472       -0.153557   1.000000   1.000000
    189         -1.612373       -0.127813   1.000000   1.000000
    190         -1.604544       -0.112033   1.000000   1.000000
    191         -1.592356       -0.090367   1.000000   1.000000
    192         -1.573428       -0.085761   1.000000   1.000000
    193         -1.565667       -0.056132   1.000000   1.000000
    194         -1.539278       -0.036868   1.000000   1.000000
    195         -1.527768       -0.014451   1.000000   1.000000
    196         -1.518315        0.005433   1.000000   1.000000
    197         -1.507880        0.019015   1.000000   1.000000
    198         -1.495335        0.022818   1.000000   1.000000
    199         -1.487730        0.055603   1.000000   1.000000
    200         -1.479313        0.078545   1.000000   1.000000
    201         -1.464511        0.099160   1.000000   1.000000
    202         -1.439062        0.121424   1.000000   1.000000
    203         -1.415473        0.131485   1.000000   1.000000
    204         -1.402925        0.174605   1.000000   1.000000
    205         -1.376825        0.192034   1.000000   1.000000
    206         -1.353479        0.218804   1.000000   1.000000
    207         -1.333943        0.257508   1.000000   1.000000
    208         -1.312477        0.269003   1.000000   1.000000
    209         -1.287790        0.281683   1.000000   1.000000
    210         -1.276097        0.316700   1.000000   1.000000
    211         -1.256073        0.352483   1.000000   1.000001
    212         -1.239338        0.369312   1.000000   1.000002
    213         -1.231282        0.427589   1.000000   1.000019
    214         -1.198167        0.463350   1.000000   1.000080
    215         -1.183586        0.495214   1.000000   1.000252
    216         -1.161039        0.546493   1.000000   1.001299
    217         -1.134058        0.577734   1.000000   1.003090
    218         -1.116429        0.627369   1.000000   1.009810
    219         -1.099349        0.632648   1.000000   1.010904
    220         -1.075139        0.651789   1.000000   1.015527
    221         -1.070896        0.675494   1.000000   1.022417
    222         -1.018792        0.705591   1.000000   1.031271
    223         -0.981216        0.729735   1.000000   1.035344
    224         -0.972359        0.757151   1.000000   1.030929
    225         -0.949085        0.792946   1.000000   0.997570
    226         -0.942456        0.805090   1.000000   0.976153
    227         -0.919010        0.849403   1.000000   0.844193
    228         -0.913586        0.892833   1.000000   0.637654
    229         -0.894448        0.909636   1.000000   0.544877
    230         -0.880240        0.943924   1.000000   0.354006
    231         -0.837655        0.961125   1.000000   0.265543
    232         -0.830532        0.978084   1.000000   0.187590
    233         -0.820518        1.006811   1.000000   0.082368
    234         -0.798213        1.027527   1.000000   0.029187
    235         -0.787443        1.035745   1.000000   0.013189
    236         -0.773327        1.063923   1.000000  -0.022390
    237         -0.748385        1.072862   1.000000  -0.028393
    238         -0.730146        1.110332   1.000000  -0.034945
    239         -0.717105        1.129514   1.000000  -0.031297
    240         -0.702353        1.150817   1.000000  -0.025159
    241         -0.683122        1.172418   1.000000  -0.018601
    242         -0.676966        1.191967   1.000000  -0.013338
    243         -0.662838        1.201793   1.000000  -0.011069
    244         -0.647985        1.217440   1.000000  -0.008023
    245         -0.637590        1.242396   1.000000  -0.004521
    246         -0.612803        1.264855   1.000000  -0.002542
    247         -0.608502        1.289699   1.000000  -0.001262
    248         -0.595624        1.312526   1.000000  -0.000627
    249         -0.585295        1.339178   1.000000  -0.000259
    250         -0.576975        1.353170   1.000000  -0.000158
    251         -0.561187        1.392142   1.000000  -0.000036
    252         -0.548353        1.415721   1.000000  -0.000014
    253         -0.538051        1.430900   1.000000  -0.000007
    254         -0.517261        1.458141   1.000000  -0.000002
    255         -0.507441        1.501744   1.000000  -0.000000
    256         -0.498718        1.510319   1.000000  -0.000000
    257         -0.487811        1.530051   1.000000  -0.000000
    258         -0.477674        1.553539   1.000000  -0.000000
    259         -0.463714        1.575577   1.000000  -0.000000
    260         -0.456426        1.582649   1.000000  -0.000000
    261         -0.449697        1.610782   1.000000  -0.000000
    262         -0.437242        1.614661   1.000000  -0.000000
    263         -0.424101        1.630985   1.000000  -0.000000
    264         -0.419128        1.644996   1.000000  -0.000000
    265         -0.405415        1.661881   1.000000  -0.000000
    266         -0.389295        1.664970   1.000000  -0.000000
    267         -0.377440        1.671893   1.000000  -0.000000
    268         -0.366296        1.691442   1.000000  -0.000000
    269         -0.361330        1.702349   1.000000  -0.000000
    270         -0.353917        1.721892   1.000000  -0.000000
    271         -0.345960        1.733722   1.000000  -0.000000
    272         -0.337370        1.750924   1.000000  -0.000000
    273         -0.321184        1.756836   1.000000  -0.000000
    274         -0.318279        1.769908   1.000000  -0.000000
    275         -0.308427        1.794064   1.000000  -0.000000
    276         -0.278067        1.807220   1.000000  -0.000000
    277         -0.270609        1.817919   1.000000  -0.000000
    278         -0.266340        1.827689   1.000000  -0.000000
    279         -0.250337        1.843595   1.000000  -0.000000
    280         -0.244456        1.854506   1.000000  -0.000000
    281         -0.231998        1.862602   1.000000  -0.000000
    282         -0.214158        1.874621   1.000000  -0.000000
    283         -0.208884        1.882552   1.000000  -0.000000
    284         -0.194117        1.901833   1.000000  -0.000000
    285         -0.181032        1.909454   1.000000  -0.000000
    286         -0.170737        1.922246   1.000000  -0.000000
    287         -0.148630        1.932838   1.000000  -0.000000
    288         -0.139275        1.943045   1.000000  -0.000000
    289         -0.127045        1.957868   1.000000  -0.000000
    290         -0.111373        1.967220   1.000000  -0.000000
    291         -0.082870        1.979842   1.000000  -0.000000
    292         -0.070169        1.983932   1.000000  -0.000000
    293         -0.056090        1.998595   1.000000  -0.000000
    294         -0.042233        2.000900   1.000000  -0.000000
    295         -0.032735        2.015199   1.000000  -0.000000
    296         -0.019787        2.028349   1.000000  -0.000000
    297         -0.001515        2.042429   1.000000  -0.000000
    298          0.016227        2.048554   1.000000  -0.000000
    299          0.050235        2.062834   1.000000  -0.000000
    300          0.069455        2.069853   1.000000  -0.000000
    301          0.080167        2.077419   1.000000  -0.000000
    302          0.132163        2.085258   1.000000  -0.000000
    303          0.139371        2.092274   1.000000  -0.000000
    304          0.151986        2.105359   1.000000  -0.000000
    305          0.163893        2.111169   1.000000  -0.000000
    306          0.215048        2.125524   1.000000  -0.000000
    307          0.236588        2.128662   1.000000  -0.000000
    308          0.255559        2.143524   1.000000  -0.000000
    309          0.284209        2.149405   1.000000  -0.000000
    310          0.326538        2.157997   1.000000  -0.000000
    311          0.339010        2.177922   1.000000  -0.000000
    312          0.354457        2.191127   1.000001  -0.000000
    313          0.381945        2.195021   1.000003  -0.000000
    314          0.405171        2.201195   1.000008  -0.000000
    315          0.429883        2.212003   1.000021  -0.000000
    316          0.456611        2.224341   1.000062  -0.000000
    317          0.465334        2.239371   1.000086  -0.000000
    318          0.499835        2.251136   1.000295  -0.000000
    319          0.524219        2.258135   1.000658  -0.000000
    320          0.561120        2.270061   1.001975  -0.000000
    321          0.587956        2.279846   1.004011  -0.000000
    322          0.602377        2.290175   1.005681  -0.000000
    323          0.641169        2.316463   1.012838  -0.000000
    324          0.666872        2.346576   1.019804  -0.000000
    325          0.693145        2.348274   1.027812  -0.000000
    326          0.725652        2.359110   1.035027  -0.000000
    327          0.738969        2.368111   1.035273  -0.000000
    328          0.754628        2.384184   1.031932  -0.000000
    329          0.781643        2.402954   1.012490  -0.000000
    330          0.815880        2.409979   0.952015  -0.000000
    331          0.832521        2.418651   0.904757  -0.000000
    332          0.886468        2.425870   0.671529  -0.000000
    333          0.919273        2.437080   0.490579  -0.000000
    334          0.951426        2.442312   0.314450  -0.000000
    335          0.970029        2.455410   0.223299  -0.000000
    336          1.012041        2.469499   0.067151  -0.000000
    337          1.016609        2.477681   0.054859  -0.000000
    338          1.053489        2.484224  -0.012407  -0.000000
    339          1.076138        2.490845  -0.030069  -0.000000
    340          1.093381        2.497196  -0.034995  -0.000000
    341          1.127163        2.504044  -0.031879  -0.000000
    342          1.156166        2.511283  -0.023509  -0.000000
    343          1.170370        2.520160  -0.019201  -0.000000
    344          1.210914        2.524845  -0.009209  -0.000000
    345          1.232089        2.534018  -0.005780  -0.000000
    346          1.275123        2.550253  -0.001918  -0.000000
    347          1.312734        2.557278  -0.000623  -0.000000
    348          1.331653        2.567167  -0.000335  -0.000000
    349          1.350231        2.570547  -0.000176  -0.000000
    350          1.392786        2.582894  -0.000035  -0.000000
    351          1.442446        2.599364  -0.000004  -0.000000
    352          1.487504        2.605526  -0.000001  -0.000000
    353          1.531996        2.618568  -0.000000  -0.000000
    354          1.541646        2.628653  -0.000000  -0.000000
    355          1.581459        2.648511  -0.000000  -0.000000
    356          1.610117        2.661536  -0.000000  -0.000000
    357          1.647897        2.684392  -0.000000  -0.000000
    358          1.672545        2.699621  -0.000000  -0.000000
    359          1.710731        2.711890  -0.000000  -0.000000
    360          1.736332        2.719345  -0.000000  -0.000000
    361          1.763893        2.730307  -0.000000  -0.000000
    362          1.786225        2.736167  -0.000000  -0.000000
    363          1.806802        2.764585  -0.000000  -0.000000
    364          1.837388        2.767936  -0.000000  -0.000000
    365          1.872540        2.778826  -0.000000  -0.000000
    366          1.927748        2.803256  -0.000000  -0.000000
    367          1.942535        2.815729  -0.000000  -0.000000
    368          1.974220        2.835165  -0.000000  -0.000000
    369          1.997407        2.866676  -0.000000  -0.000000
 
 -0.3750000E+00  0.1250000E+00  0.0000000E+00  0.1250000E+00
      1        -42.532845      -43.358139   1.000000   1.000000
      2        -42.478021      -43.353711   1.000000   1.000000
      3        -42.406203      -43.321072   1.000000   1.000000
      4        -42.353762      -43.318466   1.000000   1.000000
      5        -42.320686      -43.299951   1.000000   1.000000
      6        -42.303664      -43.288611   1.000000   1.000000
      7        -42.286727      -43.235431   1.000000   1.000000
      8        -42.281509      -43.162363   1.000000   1.000000
      9        -42.229693      -43.154466   1.000000   1.000000
     10        -42.218964      -43.070607   1.000000   1.000000
     11        -42.202937      -43.014995   1.000000   1.000000
     12        -42.162825      -42.960095   1.000000   1.000000
     13        -42.135838      -42.910306   1.000000   1.000000
     14        -42.123673      -42.862380   1.000000   1.000000
     15        -42.096231      -42.792793   1.000000   1.000000
     16        -42.052716      -42.768928   1.000000   1.000000
     17        -42.023076      -42.752051   1.000000   1.000000
     18        -41.999712      -42.701845   1.000000   1.000000
     19        -41.971603      -42.612933   1.000000   1.000000
     20        -41.942512      -42.603914   1.000000   1.000000
     21        -41.926861      -42.569767   1.000000   1.000000
     22        -41.907721      -42.555304   1.000000   1.000000
     23        -41.889019      -42.549940   1.000000   1.000000
     24        -41.855808      -42.512599   1.000000   1.000000
     25        -41.852868      -42.386256   1.000000   1.000000
     26        -41.776352      -42.377867   1.000000   1.000000
     27        -41.773456      -42.305910   1.000000   1.000000
     28        -41.761124      -42.215608   1.000000   1.000000
     29        -41.756741      -42.142278   1.000000   1.000000
     30        -41.740369      -41.990535   1.000000   1.000000
     31        -41.710768      -41.869656   1.000000   1.000000
     32        -41.693206      -41.838436   1.000000   1.000000
     33        -41.691675      -41.804923   1.000000   1.000000
     34        -40.332868      -41.784749   1.000000   1.000000
     35        -40.284405      -41.748038   1.000000   1.000000
     36        -40.236073      -41.720959   1.000000   1.000000
     37        -40.184595      -41.671955   1.000000   1.000000
     38        -40.170076      -41.577666   1.000000   1.000000
     39        -40.057317      -41.418585   1.000000   1.000000
     40        -15.562004      -15.572050   1.000000   1.000000
     41        -15.555785      -15.560698   1.000000   1.000000
     42        -15.550889      -15.553119   1.000000   1.000000
     43        -15.538518      -15.547509   1.000000   1.000000
     44        -15.514579      -15.519986   1.000000   1.000000
     45         -7.883394       -7.888106   1.000000   1.000000
     46         -6.851344       -6.729630   1.000000   1.000000
     47         -6.351325       -6.209477   1.000000   1.000000
     48         -5.870852       -5.731489   1.000000   1.000000
     49         -5.417259       -5.255840   1.000000   1.000000
     50         -5.375602       -5.187654   1.000000   1.000000
     51         -4.991176       -4.775770   1.000000   1.000000
     52         -4.695374       -4.423858   1.000000   1.000000
     53         -4.659751       -4.394635   1.000000   1.000000
     54         -4.566572       -4.323285   1.000000   1.000000
     55         -4.345893       -4.012720   1.000000   1.000000
     56         -4.263006       -3.981020   1.000000   1.000000
     57         -4.180090       -3.870922   1.000000   1.000000
     58         -4.108130       -3.664147   1.000000   1.000000
     59         -4.032819       -3.616296   1.000000   1.000000
     60         -4.004134       -3.380256   1.000000   1.000000
     61         -3.979465       -3.288498   1.000000   1.000000
     62         -3.886213       -3.252256   1.000000   1.000000
     63         -3.838879       -3.140324   1.000000   1.000000
     64         -3.810248       -3.111347   1.000000   1.000000
     65         -3.781295       -3.079863   1.000000   1.000000
     66         -3.757028       -3.021926   1.000000   1.000000
     67         -3.743492       -2.978394   1.000000   1.000000
     68         -3.732954       -2.925665   1.000000   1.000000
     69         -3.705836       -2.877978   1.000000   1.000000
     70         -3.688992       -2.853768   1.000000   1.000000
     71         -3.632175       -2.783212   1.000000   1.000000
     72         -3.580933       -2.715108   1.000000   1.000000
     73         -3.551543       -2.632515   1.000000   1.000000
     74         -3.534213       -2.606460   1.000000   1.000000
     75         -3.516602       -2.567806   1.000000   1.000000
     76         -3.505202       -2.492345   1.000000   1.000000
     77         -3.487994       -2.442906   1.000000   1.000000
     78         -3.467595       -2.415152   1.000000   1.000000
     79         -3.423004       -2.379603   1.000000   1.000000
     80         -3.409791       -2.335905   1.000000   1.000000
     81         -3.382721       -2.309926   1.000000   1.000000
     82         -3.313940       -2.283217   1.000000   1.000000
     83         -3.279973       -2.259581   1.000000   1.000000
     84         -3.261519       -2.197793   1.000000   1.000000
     85         -3.247215       -2.182265   1.000000   1.000000
     86         -3.221401       -2.165776   1.000000   1.000000
     87         -3.211609       -2.133121   1.000000   1.000000
     88         -3.202126       -2.101088   1.000000   1.000000
     89         -3.191469       -2.082933   1.000000   1.000000
     90         -3.175196       -2.051893   1.000000   1.000000
     91         -3.153868       -2.031531   1.000000   1.000000
     92         -3.130901       -2.016520   1.000000   1.000000
     93         -3.120579       -2.005139   1.000000   1.000000
     94         -3.107302       -1.970673   1.000000   1.000000
     95         -3.080735       -1.930537   1.000000   1.000000
     96         -3.073862       -1.909913   1.000000   1.000000
     97         -3.062109       -1.900133   1.000000   1.000000
     98         -3.047296       -1.848331   1.000000   1.000000
     99         -3.025120       -1.817840   1.000000   1.000000
    100         -3.007625       -1.777003   1.000000   1.000000
    101         -2.979991       -1.751555   1.000000   1.000000
    102         -2.945403       -1.727095   1.000000   1.000000
    103         -2.908777       -1.700313   1.000000   1.000000
    104         -2.876138       -1.671075   1.000000   1.000000
    105         -2.843808       -1.643618   1.000000   1.000000
    106         -2.825973       -1.593296   1.000000   1.000000
    107         -2.805638       -1.574603   1.000000   1.000000
    108         -2.792491       -1.557527   1.000000   1.000000
    109         -2.764804       -1.551869   1.000000   1.000000
    110         -2.747004       -1.515239   1.000000   1.000000
    111         -2.716099       -1.478530   1.000000   1.000000
    112         -2.705645       -1.463286   1.000000   1.000000
    113         -2.693317       -1.414529   1.000000   1.000000
    114         -2.666781       -1.396337   1.000000   1.000000
    115         -2.653080       -1.368974   1.000000   1.000000
    116         -2.642397       -1.350773   1.000000   1.000000
    117         -2.629806       -1.327097   1.000000   1.000000
    118         -2.612231       -1.296427   1.000000   1.000000
    119         -2.605623       -1.276835   1.000000   1.000000
    120         -2.597548       -1.264924   1.000000   1.000000
    121         -2.574659       -1.246473   1.000000   1.000000
    122         -2.554869       -1.204740   1.000000   1.000000
    123         -2.551906       -1.181616   1.000000   1.000000
    124         -2.538812       -1.170275   1.000000   1.000000
    125         -2.519788       -1.153635   1.000000   1.000000
    126         -2.513894       -1.134742   1.000000   1.000000
    127         -2.498689       -1.125902   1.000000   1.000000
    128         -2.481877       -1.107754   1.000000   1.000000
    129         -2.458909       -1.090822   1.000000   1.000000
    130         -2.454625       -1.065843   1.000000   1.000000
    131         -2.435579       -1.054762   1.000000   1.000000
    132         -2.432730       -1.042063   1.000000   1.000000
    133         -2.417835       -1.034855   1.000000   1.000000
    134         -2.404590       -1.016802   1.000000   1.000000
    135         -2.396498       -0.999015   1.000000   1.000000
    136         -2.380059       -0.975388   1.000000   1.000000
    137         -2.374808       -0.970841   1.000000   1.000000
    138         -2.356048       -0.964589   1.000000   1.000000
    139         -2.339984       -0.938074   1.000000   1.000000
    140         -2.325407       -0.920166   1.000000   1.000000
    141         -2.302350       -0.908664   1.000000   1.000000
    142         -2.268549       -0.878968   1.000000   1.000000
    143         -2.264794       -0.849621   1.000000   1.000000
    144         -2.248977       -0.832632   1.000000   1.000000
    145         -2.230323       -0.815019   1.000000   1.000000
    146         -2.224687       -0.794665   1.000000   1.000000
    147         -2.201229       -0.773629   1.000000   1.000000
    148         -2.193687       -0.765615   1.000000   1.000000
    149         -2.182159       -0.751388   1.000000   1.000000
    150         -2.169255       -0.746025   1.000000   1.000000
    151         -2.152100       -0.705311   1.000000   1.000000
    152         -2.141150       -0.700925   1.000000   1.000000
    153         -2.120922       -0.679065   1.000000   1.000000
    154         -2.106469       -0.663364   1.000000   1.000000
    155         -2.092464       -0.660528   1.000000   1.000000
    156         -2.080631       -0.637326   1.000000   1.000000
    157         -2.066638       -0.628165   1.000000   1.000000
    158         -2.056000       -0.610581   1.000000   1.000000
    159         -2.044164       -0.598783   1.000000   1.000000
    160         -2.030116       -0.576526   1.000000   1.000000
    161         -2.020988       -0.565277   1.000000   1.000000
    162         -2.011449       -0.552157   1.000000   1.000000
    163         -1.996282       -0.545193   1.000000   1.000000
    164         -1.983866       -0.523116   1.000000   1.000000
    165         -1.959704       -0.515824   1.000000   1.000000
    166         -1.955817       -0.497136   1.000000   1.000000
    167         -1.948221       -0.481523   1.000000   1.000000
    168         -1.931578       -0.471447   1.000000   1.000000
    169         -1.919064       -0.440013   1.000000   1.000000
    170         -1.892470       -0.422095   1.000000   1.000000
    171         -1.875845       -0.414171   1.000000   1.000000
    172         -1.867347       -0.392194   1.000000   1.000000
    173         -1.853572       -0.384465   1.000000   1.000000
    174         -1.837916       -0.362863   1.000000   1.000000
    175         -1.833496       -0.352366   1.000000   1.000000
    176         -1.814867       -0.337948   1.000000   1.000000
    177         -1.789443       -0.318136   1.000000   1.000000
    178         -1.766527       -0.305163   1.000000   1.000000
    179         -1.757013       -0.299888   1.000000   1.000000
    180         -1.745184       -0.269948   1.000000   1.000000
    181         -1.723896       -0.252590   1.000000   1.000000
    182         -1.702633       -0.242401   1.000000   1.000000
    183         -1.695109       -0.228463   1.000000   1.000000
    184         -1.687845       -0.211830   1.000000   1.000000
    185         -1.669056       -0.204692   1.000000   1.000000
    186         -1.661310       -0.193845   1.000000   1.000000
    187         -1.638969       -0.164954   1.000000   1.000000
    188         -1.629016       -0.143321   1.000000   1.000000
    189         -1.618949       -0.124571   1.000000   1.000000
    190         -1.595282       -0.111473   1.000000   1.000000
    191         -1.582543       -0.095211   1.000000   1.000000
    192         -1.562573       -0.083363   1.000000   1.000000
    193         -1.560791       -0.062814   1.000000   1.000000
    194         -1.543910       -0.034523   1.000000   1.000000
    195         -1.527555       -0.014811   1.000000   1.000000
    196         -1.520471        0.003800   1.000000   1.000000
    197         -1.500272        0.018882   1.000000   1.000000
    198         -1.482739        0.028729   1.000000   1.000000
    199         -1.461968        0.057116   1.000000   1.000000
    200         -1.455399        0.082662   1.000000   1.000000
    201         -1.440387        0.094234   1.000000   1.000000
    202         -1.432004        0.126282   1.000000   1.000000
    203         -1.413038        0.148797   1.000000   1.000000
    204         -1.399919        0.163357   1.000000   1.000000
    205         -1.389422        0.191414   1.000000   1.000000
    206         -1.375415        0.224897   1.000000   1.000000
    207         -1.348639        0.247014   1.000000   1.000000
    208         -1.324631        0.259268   1.000000   1.000000
    209         -1.309691        0.289345   1.000000   1.000000
    210         -1.292421        0.306591   1.000000   1.000000
    211         -1.259840        0.355200   1.000000   1.000001
    212         -1.236053        0.397999   1.000000   1.000006
    213         -1.221219        0.440328   1.000000   1.000033
    214         -1.191232        0.463730   1.000000   1.000081
    215         -1.176650        0.493051   1.000000   1.000234
    216         -1.160187        0.535160   1.000000   1.000925
    217         -1.128520        0.571095   1.000000   1.002593
    218         -1.109503        0.589691   1.000000   1.004188
    219         -1.093874        0.650955   1.000000   1.015305
    220         -1.068810        0.662960   1.000000   1.018651
    221         -1.045308        0.683782   1.000000   1.024972
    222         -1.032091        0.703888   1.000000   1.030832
    223         -0.995378        0.721840   1.000000   1.034568
    224         -0.978830        0.760536   1.000000   1.029351
    225         -0.954641        0.797385   1.000000   0.990419
    226         -0.947291        0.819558   1.000000   0.942633
    227         -0.924429        0.838585   1.000000   0.884453
    228         -0.913934        0.867009   1.000000   0.768239
    229         -0.893803        0.911984   1.000000   0.531674
    230         -0.881375        0.944587   1.000000   0.350457
    231         -0.855100        0.959231   1.000000   0.274872
    232         -0.835618        0.992769   1.000000   0.129294
    233         -0.818673        1.005077   1.000000   0.087684
    234         -0.803008        1.022062   1.000000   0.041392
    235         -0.786679        1.038060   1.000000   0.009176
    236         -0.762653        1.050147   1.000000  -0.008458
    237         -0.755369        1.086019   1.000000  -0.033625
    238         -0.731726        1.104239   1.000000  -0.035401
    239         -0.713960        1.140416   1.000000  -0.028297
    240         -0.700261        1.151366   1.000000  -0.024990
    241         -0.685427        1.161256   1.000000  -0.021943
    242         -0.672510        1.194994   1.000000  -0.012610
    243         -0.654542        1.210737   1.000000  -0.009243
    244         -0.641851        1.220399   1.000000  -0.007524
    245         -0.632413        1.252331   1.000000  -0.003528
    246         -0.618724        1.271032   1.000000  -0.002149
    247         -0.609817        1.292586   1.000000  -0.001159
    248         -0.606707        1.311570   1.000000  -0.000646
    249         -0.586461        1.326043   1.000000  -0.000404
    250         -0.565380        1.369700   1.000000  -0.000086
    251         -0.552892        1.380713   1.000000  -0.000057
    252         -0.543498        1.399275   1.000000  -0.000027
    253         -0.533934        1.441665   1.000000  -0.000005
    254         -0.524610        1.467111   1.000000  -0.000001
    255         -0.513825        1.477268   1.000000  -0.000001
    256         -0.501805        1.492727   1.000000  -0.000000
    257         -0.493787        1.531627   1.000000  -0.000000
    258         -0.484430        1.552440   1.000000  -0.000000
    259         -0.465141        1.570103   1.000000  -0.000000
    260         -0.451680        1.583922   1.000000  -0.000000
    261         -0.447251        1.612116   1.000000  -0.000000
    262         -0.435869        1.623399   1.000000  -0.000000
    263         -0.427783        1.642726   1.000000  -0.000000
    264         -0.422518        1.647991   1.000000  -0.000000
    265         -0.402783        1.667639   1.000000  -0.000000
    266         -0.386560        1.674153   1.000000  -0.000000
    267         -0.377733        1.683044   1.000000  -0.000000
    268         -0.366158        1.691263   1.000000  -0.000000
    269         -0.363418        1.700882   1.000000  -0.000000
    270         -0.353920        1.713200   1.000000  -0.000000
    271         -0.347711        1.733643   1.000000  -0.000000
    272         -0.334906        1.751999   1.000000  -0.000000
    273         -0.324539        1.758211   1.000000  -0.000000
    274         -0.307937        1.775044   1.000000  -0.000000
    275         -0.302842        1.785029   1.000000  -0.000000
    276         -0.295455        1.802176   1.000000  -0.000000
    277         -0.280155        1.813108   1.000000  -0.000000
    278         -0.269592        1.827056   1.000000  -0.000000
    279         -0.257821        1.840877   1.000000  -0.000000
    280         -0.248607        1.848905   1.000000  -0.000000
    281         -0.233085        1.855890   1.000000  -0.000000
    282         -0.210528        1.875093   1.000000  -0.000000
    283         -0.204679        1.891398   1.000000  -0.000000
    284         -0.185739        1.904980   1.000000  -0.000000
    285         -0.171294        1.917114   1.000000  -0.000000
    286         -0.165437        1.923672   1.000000  -0.000000
    287         -0.161391        1.940446   1.000000  -0.000000
    288         -0.135783        1.949795   1.000000  -0.000000
    289         -0.127182        1.953540   1.000000  -0.000000
    290         -0.109493        1.962457   1.000000  -0.000000
    291         -0.095785        1.974257   1.000000  -0.000000
    292         -0.079910        1.984773   1.000000  -0.000000
    293         -0.055578        1.999508   1.000000  -0.000000
    294         -0.040881        2.005743   1.000000  -0.000000
    295         -0.027844        2.010349   1.000000  -0.000000
    296         -0.013217        2.025898   1.000000  -0.000000
    297         -0.008325        2.030009   1.000000  -0.000000
    298          0.023592        2.046256   1.000000  -0.000000
    299          0.037649        2.054428   1.000000  -0.000000
    300          0.061291        2.062833   1.000000  -0.000000
    301          0.089708        2.073511   1.000000  -0.000000
    302          0.118603        2.083505   1.000000  -0.000000
    303          0.145215        2.096796   1.000000  -0.000000
    304          0.176116        2.102716   1.000000  -0.000000
    305          0.191157        2.111028   1.000000  -0.000000
    306          0.217901        2.126196   1.000000  -0.000000
    307          0.242180        2.136742   1.000000  -0.000000
    308          0.267715        2.140789   1.000000  -0.000000
    309          0.288990        2.145078   1.000000  -0.000000
    310          0.305196        2.164751   1.000000  -0.000000
    311          0.338200        2.177142   1.000000  -0.000000
    312          0.343983        2.189669   1.000000  -0.000000
    313          0.375406        2.197327   1.000002  -0.000000
    314          0.389652        2.209112   1.000004  -0.000000
    315          0.446007        2.217994   1.000041  -0.000000
    316          0.466060        2.228053   1.000088  -0.000000
    317          0.487398        2.241253   1.000192  -0.000000
    318          0.507288        2.253354   1.000380  -0.000000
    319          0.530320        2.261378   1.000797  -0.000000
    320          0.551097        2.269457   1.001486  -0.000000
    321          0.577935        2.280996   1.003107  -0.000000
    322          0.615207        2.302849   1.007590  -0.000000
    323          0.643244        2.317120   1.013339  -0.000000
    324          0.668119        2.324587   1.020176  -0.000000
    325          0.693101        2.342605   1.027799  -0.000000
    326          0.700993        2.352664   1.030057  -0.000000
    327          0.721108        2.367427   1.034464  -0.000000
    328          0.753267        2.382396   1.032414  -0.000000
    329          0.800228        2.397887   0.985433  -0.000000
    330          0.825377        2.413254   0.926563  -0.000000
    331          0.840703        2.420516   0.876974  -0.000000
    332          0.876419        2.434578   0.722928  -0.000000
    333          0.906714        2.447325   0.561254  -0.000000
    334          0.963213        2.449577   0.255390  -0.000000
    335          0.979756        2.456368   0.180497  -0.000000
    336          0.998843        2.466996   0.107914  -0.000000
    337          1.024806        2.477840   0.035103  -0.000000
    338          1.038910        2.485765   0.007757  -0.000000
    339          1.060267        2.488375  -0.019279  -0.000000
    340          1.086627        2.497079  -0.033776  -0.000000
    341          1.119299        2.506461  -0.033586  -0.000000
    342          1.141750        2.511183  -0.027904  -0.000000
    343          1.179698        2.515571  -0.016536  -0.000000
    344          1.215296        2.527244  -0.008399  -0.000000
    345          1.235275        2.534892  -0.005364  -0.000000
    346          1.279306        2.548905  -0.001705  -0.000000
    347          1.319079        2.557398  -0.000508  -0.000000
    348          1.342187        2.561811  -0.000233  -0.000000
    349          1.376289        2.570240  -0.000067  -0.000000
    350          1.412141        2.582089  -0.000016  -0.000000
    351          1.442725        2.595086  -0.000004  -0.000000
    352          1.495107        2.613522  -0.000000  -0.000000
    353          1.509100        2.619220  -0.000000  -0.000000
    354          1.561137        2.631339  -0.000000  -0.000000
    355          1.573762        2.636844  -0.000000  -0.000000
    356          1.601239        2.668086  -0.000000  -0.000000
    357          1.640305        2.676310  -0.000000  -0.000000
    358          1.663227        2.695481  -0.000000  -0.000000
    359          1.689380        2.703380  -0.000000  -0.000000
    360          1.731693        2.716153  -0.000000  -0.000000
    361          1.741248        2.727926  -0.000000  -0.000000
    362          1.789921        2.751628  -0.000000  -0.000000
    363          1.803446        2.764172  -0.000000  -0.000000
    364          1.818344        2.771539  -0.000000  -0.000000
    365          1.896728        2.783008  -0.000000  -0.000000
    366          1.926076        2.801275  -0.000000  -0.000000
    367          1.946819        2.810296  -0.000000  -0.000000
    368          1.983373        2.838598  -0.000000  -0.000000
    369          2.017237        2.851883  -0.000000  -0.000000
 
 -0.1250000E+00  0.1250000E+00  0.0000000E+00  0.1250000E+00
      1        -42.532851      -43.358142   1.000000   1.000000
      2        -42.478024      -43.353715   1.000000   1.000000
      3        -42.406207      -43.321065   1.000000   1.000000
      4        -42.353779      -43.318468   1.000000   1.000000
      5        -42.320680      -43.299947   1.000000   1.000000
      6        -42.303706      -43.288611   1.000000   1.000000
      7        -42.286726      -43.235426   1.000000   1.000000
      8        -42.281491      -43.162363   1.000000   1.000000
      9        -42.229606      -43.154467   1.000000   1.000000
     10        -42.218963      -43.070602   1.000000   1.000000
     11        -42.202935      -43.014999   1.000000   1.000000
     12        -42.162828      -42.960104   1.000000   1.000000
     13        -42.135862      -42.910308   1.000000   1.000000
     14        -42.123693      -42.862383   1.000000   1.000000
     15        -42.096199      -42.792793   1.000000   1.000000
     16        -42.052710      -42.768931   1.000000   1.000000
     17        -42.023076      -42.752037   1.000000   1.000000
     18        -41.999715      -42.701831   1.000000   1.000000
     19        -41.971617      -42.612939   1.000000   1.000000
     20        -41.942513      -42.603906   1.000000   1.000000
     21        -41.926867      -42.569766   1.000000   1.000000
     22        -41.907699      -42.555289   1.000000   1.000000
     23        -41.889017      -42.549947   1.000000   1.000000
     24        -41.855808      -42.512589   1.000000   1.000000
     25        -41.852891      -42.386255   1.000000   1.000000
     26        -41.776367      -42.377874   1.000000   1.000000
     27        -41.773441      -42.305916   1.000000   1.000000
     28        -41.761101      -42.215610   1.000000   1.000000
     29        -41.756747      -42.142275   1.000000   1.000000
     30        -41.740372      -41.990539   1.000000   1.000000
     31        -41.710760      -41.869669   1.000000   1.000000
     32        -41.693208      -41.838431   1.000000   1.000000
     33        -41.691678      -41.804925   1.000000   1.000000
     34        -40.332862      -41.784750   1.000000   1.000000
     35        -40.284407      -41.748030   1.000000   1.000000
     36        -40.236075      -41.720960   1.000000   1.000000
     37        -40.184588      -41.671947   1.000000   1.000000
     38        -40.170080      -41.577668   1.000000   1.000000
     39        -40.057321      -41.418580   1.000000   1.000000
     40        -15.562052      -15.572112   1.000000   1.000000
     41        -15.555802      -15.560706   1.000000   1.000000
     42        -15.550867      -15.553085   1.000000   1.000000
     43        -15.538553      -15.547551   1.000000   1.000000
     44        -15.514576      -15.519982   1.000000   1.000000
     45         -7.921363       -7.922132   1.000000   1.000000
     46         -7.091704       -6.974205   1.000000   1.000000
     47         -6.087687       -5.947005   1.000000   1.000000
     48         -5.658800       -5.477797   1.000000   1.000000
     49         -5.565811       -5.420747   1.000000   1.000000
     50         -4.934736       -4.687058   1.000000   1.000000
     51         -4.886521       -4.655469   1.000000   1.000000
     52         -4.827662       -4.585458   1.000000   1.000000
     53         -4.793504       -4.555150   1.000000   1.000000
     54         -4.680956       -4.408222   1.000000   1.000000
     55         -4.492409       -4.175828   1.000000   1.000000
     56         -4.339923       -3.927520   1.000000   1.000000
     57         -4.288698       -3.880230   1.000000   1.000000
     58         -4.158940       -3.678276   1.000000   1.000000
     59         -4.100392       -3.600906   1.000000   1.000000
     60         -4.083472       -3.562095   1.000000   1.000000
     61         -4.040380       -3.505965   1.000000   1.000000
     62         -3.986939       -3.392729   1.000000   1.000000
     63         -3.963475       -3.266218   1.000000   1.000000
     64         -3.910615       -3.264409   1.000000   1.000000
     65         -3.855514       -3.206930   1.000000   1.000000
     66         -3.834275       -3.090141   1.000000   1.000000
     67         -3.761971       -2.866823   1.000000   1.000000
     68         -3.718578       -2.850630   1.000000   1.000000
     69         -3.680683       -2.823295   1.000000   1.000000
     70         -3.660957       -2.785833   1.000000   1.000000
     71         -3.608112       -2.714808   1.000000   1.000000
     72         -3.575700       -2.658374   1.000000   1.000000
     73         -3.551631       -2.562096   1.000000   1.000000
     74         -3.470111       -2.521011   1.000000   1.000000
     75         -3.432295       -2.499443   1.000000   1.000000
     76         -3.425639       -2.473252   1.000000   1.000000
     77         -3.414727       -2.453553   1.000000   1.000000
     78         -3.394787       -2.437794   1.000000   1.000000
     79         -3.382941       -2.361110   1.000000   1.000000
     80         -3.364981       -2.341347   1.000000   1.000000
     81         -3.343861       -2.291583   1.000000   1.000000
     82         -3.328932       -2.258830   1.000000   1.000000
     83         -3.313909       -2.219860   1.000000   1.000000
     84         -3.274207       -2.162426   1.000000   1.000000
     85         -3.251581       -2.138386   1.000000   1.000000
     86         -3.238272       -2.124573   1.000000   1.000000
     87         -3.226202       -2.104783   1.000000   1.000000
     88         -3.207048       -2.074839   1.000000   1.000000
     89         -3.180533       -2.047366   1.000000   1.000000
     90         -3.171281       -2.033889   1.000000   1.000000
     91         -3.139666       -2.006884   1.000000   1.000000
     92         -3.110009       -1.982558   1.000000   1.000000
     93         -3.099964       -1.970170   1.000000   1.000000
     94         -3.085703       -1.931800   1.000000   1.000000
     95         -3.045743       -1.919334   1.000000   1.000000
     96         -3.038990       -1.889156   1.000000   1.000000
     97         -3.030445       -1.857511   1.000000   1.000000
     98         -3.007191       -1.836932   1.000000   1.000000
     99         -2.967209       -1.820873   1.000000   1.000000
    100         -2.927791       -1.767383   1.000000   1.000000
    101         -2.923325       -1.745991   1.000000   1.000000
    102         -2.878426       -1.706313   1.000000   1.000000
    103         -2.849025       -1.670841   1.000000   1.000000
    104         -2.837965       -1.644627   1.000000   1.000000
    105         -2.814764       -1.607467   1.000000   1.000000
    106         -2.785935       -1.545714   1.000000   1.000000
    107         -2.762616       -1.532432   1.000000   1.000000
    108         -2.755208       -1.516534   1.000000   1.000000
    109         -2.691790       -1.505602   1.000000   1.000000
    110         -2.678415       -1.483293   1.000000   1.000000
    111         -2.661037       -1.466363   1.000000   1.000000
    112         -2.641231       -1.433129   1.000000   1.000000
    113         -2.633424       -1.376433   1.000000   1.000000
    114         -2.617285       -1.356661   1.000000   1.000000
    115         -2.602103       -1.338216   1.000000   1.000000
    116         -2.591663       -1.312064   1.000000   1.000000
    117         -2.576416       -1.290721   1.000000   1.000000
    118         -2.567616       -1.281488   1.000000   1.000000
    119         -2.553817       -1.261320   1.000000   1.000000
    120         -2.536199       -1.238419   1.000000   1.000000
    121         -2.530684       -1.223618   1.000000   1.000000
    122         -2.517859       -1.197469   1.000000   1.000000
    123         -2.508976       -1.187102   1.000000   1.000000
    124         -2.495506       -1.159975   1.000000   1.000000
    125         -2.485619       -1.142874   1.000000   1.000000
    126         -2.478380       -1.130169   1.000000   1.000000
    127         -2.467055       -1.125029   1.000000   1.000000
    128         -2.452558       -1.102350   1.000000   1.000000
    129         -2.443269       -1.081182   1.000000   1.000000
    130         -2.436237       -1.073035   1.000000   1.000000
    131         -2.423094       -1.055199   1.000000   1.000000
    132         -2.411746       -1.039131   1.000000   1.000000
    133         -2.404976       -1.032460   1.000000   1.000000
    134         -2.390156       -1.017846   1.000000   1.000000
    135         -2.382882       -1.001040   1.000000   1.000000
    136         -2.356087       -0.995279   1.000000   1.000000
    137         -2.348321       -0.973620   1.000000   1.000000
    138         -2.340406       -0.956990   1.000000   1.000000
    139         -2.326797       -0.937562   1.000000   1.000000
    140         -2.304763       -0.928225   1.000000   1.000000
    141         -2.300180       -0.915003   1.000000   1.000000
    142         -2.289832       -0.897933   1.000000   1.000000
    143         -2.269496       -0.875288   1.000000   1.000000
    144         -2.263037       -0.867954   1.000000   1.000000
    145         -2.251129       -0.857186   1.000000   1.000000
    146         -2.241721       -0.846169   1.000000   1.000000
    147         -2.219992       -0.824510   1.000000   1.000000
    148         -2.215422       -0.796233   1.000000   1.000000
    149         -2.201735       -0.781547   1.000000   1.000000
    150         -2.189556       -0.767235   1.000000   1.000000
    151         -2.177306       -0.755152   1.000000   1.000000
    152         -2.163367       -0.742674   1.000000   1.000000
    153         -2.158231       -0.736223   1.000000   1.000000
    154         -2.138430       -0.710864   1.000000   1.000000
    155         -2.122441       -0.701446   1.000000   1.000000
    156         -2.116231       -0.689024   1.000000   1.000000
    157         -2.098632       -0.682924   1.000000   1.000000
    158         -2.080401       -0.661914   1.000000   1.000000
    159         -2.072509       -0.651457   1.000000   1.000000
    160         -2.062433       -0.630889   1.000000   1.000000
    161         -2.038329       -0.606852   1.000000   1.000000
    162         -2.021596       -0.584186   1.000000   1.000000
    163         -2.006030       -0.564347   1.000000   1.000000
    164         -1.994361       -0.556216   1.000000   1.000000
    165         -1.978956       -0.545048   1.000000   1.000000
    166         -1.967034       -0.531911   1.000000   1.000000
    167         -1.954493       -0.515326   1.000000   1.000000
    168         -1.938726       -0.496894   1.000000   1.000000
    169         -1.923297       -0.490490   1.000000   1.000000
    170         -1.910331       -0.467338   1.000000   1.000000
    171         -1.898233       -0.458481   1.000000   1.000000
    172         -1.888542       -0.437343   1.000000   1.000000
    173         -1.874921       -0.417516   1.000000   1.000000
    174         -1.856387       -0.413991   1.000000   1.000000
    175         -1.841987       -0.393296   1.000000   1.000000
    176         -1.822369       -0.360931   1.000000   1.000000
    177         -1.814663       -0.351042   1.000000   1.000000
    178         -1.785892       -0.323153   1.000000   1.000000
    179         -1.773077       -0.307065   1.000000   1.000000
    180         -1.758335       -0.279818   1.000000   1.000000
    181         -1.730277       -0.263716   1.000000   1.000000
    182         -1.717448       -0.248982   1.000000   1.000000
    183         -1.709143       -0.239238   1.000000   1.000000
    184         -1.684685       -0.207267   1.000000   1.000000
    185         -1.669519       -0.175400   1.000000   1.000000
    186         -1.650556       -0.169519   1.000000   1.000000
    187         -1.630460       -0.147822   1.000000   1.000000
    188         -1.619756       -0.107612   1.000000   1.000000
    189         -1.605902       -0.083322   1.000000   1.000000
    190         -1.586241       -0.069961   1.000000   1.000000
    191         -1.575079       -0.058731   1.000000   1.000000
    192         -1.557404       -0.025763   1.000000   1.000000
    193         -1.535354       -0.009858   1.000000   1.000000
    194         -1.524750        0.004444   1.000000   1.000000
    195         -1.508898        0.026113   1.000000   1.000000
    196         -1.499343        0.043822   1.000000   1.000000
    197         -1.484354        0.056690   1.000000   1.000000
    198         -1.474073        0.062728   1.000000   1.000000
    199         -1.448110        0.109414   1.000000   1.000000
    200         -1.438800        0.129726   1.000000   1.000000
    201         -1.426280        0.154802   1.000000   1.000000
    202         -1.401177        0.176454   1.000000   1.000000
    203         -1.394710        0.207883   1.000000   1.000000
    204         -1.373823        0.213245   1.000000   1.000000
    205         -1.364351        0.229040   1.000000   1.000000
    206         -1.347547        0.282284   1.000000   1.000000
    207         -1.335085        0.314590   1.000000   1.000000
    208         -1.318431        0.331902   1.000000   1.000000
    209         -1.311016        0.343404   1.000000   1.000000
    210         -1.283272        0.367002   1.000000   1.000001
    211         -1.273992        0.385615   1.000000   1.000003
    212         -1.253748        0.406070   1.000000   1.000008
    213         -1.229587        0.443685   1.000000   1.000037
    214         -1.210690        0.475583   1.000000   1.000125
    215         -1.181765        0.498920   1.000000   1.000286
    216         -1.161975        0.511265   1.000000   1.000433
    217         -1.157261        0.547571   1.000000   1.001341
    218         -1.123923        0.586984   1.000000   1.003915
    219         -1.096411        0.600515   1.000000   1.005438
    220         -1.083124        0.620391   1.000000   1.008485
    221         -1.063568        0.634092   1.000000   1.011217
    222         -1.030758        0.659747   1.000000   1.017725
    223         -1.012639        0.670502   1.000000   1.020894
    224         -1.003407        0.679233   1.000000   1.023569
    225         -0.979838        0.703097   1.000000   1.030624
    226         -0.959388        0.754542   1.000000   1.031963
    227         -0.946586        0.770676   1.000000   1.022868
    228         -0.927581        0.830407   1.000000   0.911451
    229         -0.905031        0.917197   1.000000   0.502289
    230         -0.877138        0.932929   1.000000   0.414030
    231         -0.867987        0.972060   1.000000   0.214059
    232         -0.846433        0.993745   1.000000   0.125749
    233         -0.829886        1.028556   1.000000   0.027031
    234         -0.810589        1.048450   1.000000  -0.006305
    235         -0.793680        1.066599   1.000000  -0.024418
    236         -0.780953        1.098338   1.000000  -0.035396
    237         -0.761020        1.100698   1.000000  -0.035455
    238         -0.758943        1.116565   1.000000  -0.034076
    239         -0.740438        1.135889   1.000000  -0.029593
    240         -0.711449        1.160073   1.000000  -0.022306
    241         -0.697297        1.174010   1.000000  -0.018141
    242         -0.690178        1.184144   1.000000  -0.015333
    243         -0.670377        1.200541   1.000000  -0.011343
    244         -0.658527        1.208127   1.000000  -0.009752
    245         -0.652240        1.225477   1.000000  -0.006723
    246         -0.642812        1.239980   1.000000  -0.004794
    247         -0.615315        1.267311   1.000000  -0.002379
    248         -0.607841        1.288881   1.000000  -0.001293
    249         -0.596781        1.308041   1.000000  -0.000722
    250         -0.586404        1.334673   1.000000  -0.000302
    251         -0.569713        1.359943   1.000000  -0.000124
    252         -0.546471        1.360870   1.000000  -0.000120
    253         -0.542768        1.392970   1.000000  -0.000035
    254         -0.532227        1.405692   1.000000  -0.000021
    255         -0.516806        1.419651   1.000000  -0.000012
    256         -0.502378        1.438926   1.000000  -0.000005
    257         -0.481990        1.453387   1.000000  -0.000003
    258         -0.469900        1.487291   1.000000  -0.000001
    259         -0.466764        1.499112   1.000000  -0.000000
    260         -0.452852        1.515886   1.000000  -0.000000
    261         -0.444814        1.532227   1.000000  -0.000000
    262         -0.436978        1.544377   1.000000  -0.000000
    263         -0.433134        1.565044   1.000000  -0.000000
    264         -0.422428        1.576718   1.000000  -0.000000
    265         -0.411879        1.582065   1.000000  -0.000000
    266         -0.400186        1.593973   1.000000  -0.000000
    267         -0.394652        1.618432   1.000000  -0.000000
    268         -0.382425        1.621765   1.000000  -0.000000
    269         -0.370154        1.638370   1.000000  -0.000000
    270         -0.360855        1.665434   1.000000  -0.000000
    271         -0.355780        1.679857   1.000000  -0.000000
    272         -0.344455        1.689169   1.000000  -0.000000
    273         -0.325481        1.697877   1.000000  -0.000000
    274         -0.316470        1.716950   1.000000  -0.000000
    275         -0.306592        1.727582   1.000000  -0.000000
    276         -0.299545        1.760174   1.000000  -0.000000
    277         -0.290488        1.765994   1.000000  -0.000000
    278         -0.271752        1.795218   1.000000  -0.000000
    279         -0.269827        1.804266   1.000000  -0.000000
    280         -0.261878        1.813533   1.000000  -0.000000
    281         -0.253197        1.842720   1.000000  -0.000000
    282         -0.250173        1.865532   1.000000  -0.000000
    283         -0.236296        1.875041   1.000000  -0.000000
    284         -0.220993        1.883891   1.000000  -0.000000
    285         -0.212452        1.890990   1.000000  -0.000000
    286         -0.200361        1.908069   1.000000  -0.000000
    287         -0.195981        1.921469   1.000000  -0.000000
    288         -0.185085        1.935405   1.000000  -0.000000
    289         -0.175648        1.950493   1.000000  -0.000000
    290         -0.163806        1.961984   1.000000  -0.000000
    291         -0.152855        1.965278   1.000000  -0.000000
    292         -0.142270        1.976173   1.000000  -0.000000
    293         -0.127725        1.989461   1.000000  -0.000000
    294         -0.109677        2.001102   1.000000  -0.000000
    295         -0.081673        2.022346   1.000000  -0.000000
    296         -0.064876        2.032773   1.000000  -0.000000
    297         -0.060415        2.041015   1.000000  -0.000000
    298         -0.042621        2.052197   1.000000  -0.000000
    299         -0.015892        2.058336   1.000000  -0.000000
    300          0.001236        2.071238   1.000000  -0.000000
    301          0.006987        2.090589   1.000000  -0.000000
    302          0.059945        2.094732   1.000000  -0.000000
    303          0.071819        2.104814   1.000000  -0.000000
    304          0.109142        2.116549   1.000000  -0.000000
    305          0.118163        2.133558   1.000000  -0.000000
    306          0.161039        2.139563   1.000000  -0.000000
    307          0.188644        2.150250   1.000000  -0.000000
    308          0.225770        2.166123   1.000000  -0.000000
    309          0.250678        2.176073   1.000000  -0.000000
    310          0.262001        2.188361   1.000000  -0.000000
    311          0.299185        2.199994   1.000000  -0.000000
    312          0.318835        2.203152   1.000000  -0.000000
    313          0.350919        2.218877   1.000001  -0.000000
    314          0.370768        2.226260   1.000002  -0.000000
    315          0.393342        2.232000   1.000004  -0.000000
    316          0.454235        2.245912   1.000056  -0.000000
    317          0.482972        2.257265   1.000164  -0.000000
    318          0.485432        2.264606   1.000179  -0.000000
    319          0.505029        2.271665   1.000352  -0.000000
    320          0.528319        2.286935   1.000749  -0.000000
    321          0.553659        2.293320   1.001599  -0.000000
    322          0.593611        2.305097   1.004610  -0.000000
    323          0.602385        2.313850   1.005682  -0.000000
    324          0.618670        2.323346   1.008180  -0.000000
    325          0.664103        2.337340   1.018985  -0.000000
    326          0.675014        2.343899   1.022270  -0.000000
    327          0.699110        2.350739   1.029535  -0.000000
    328          0.728786        2.365360   1.035287  -0.000000
    329          0.754429        2.372124   1.032005  -0.000000
    330          0.789480        2.377885   1.002634  -0.000000
    331          0.819441        2.388686   0.942939  -0.000000
    332          0.830618        2.404775   0.910791  -0.000000
    333          0.868893        2.409640   0.759409  -0.000000
    334          0.934363        2.421265   0.406094  -0.000000
    335          0.956364        2.438942   0.289205  -0.000000
    336          0.973359        2.443258   0.208231  -0.000000
    337          1.001850        2.456608   0.097938  -0.000000
    338          1.025881        2.462804   0.032729  -0.000000
    339          1.054839        2.472899  -0.013894  -0.000000
    340          1.088789        2.476336  -0.034257  -0.000000
    341          1.115095        2.485727  -0.034314  -0.000000
    342          1.150785        2.490045  -0.025169  -0.000000
    343          1.185840        2.498044  -0.014887  -0.000000
    344          1.216208        2.504440  -0.008238  -0.000000
    345          1.231969        2.510507  -0.005796  -0.000000
    346          1.251980        2.527521  -0.003560  -0.000000
    347          1.287866        2.540220  -0.001332  -0.000000
    348          1.326594        2.546342  -0.000397  -0.000000
    349          1.356127        2.560221  -0.000142  -0.000000
    350          1.400056        2.569653  -0.000026  -0.000000
    351          1.418308        2.585363  -0.000012  -0.000000
    352          1.460395        2.598111  -0.000002  -0.000000
    353          1.501287        2.603885  -0.000000  -0.000000
    354          1.532264        2.617657  -0.000000  -0.000000
    355          1.565699        2.620599  -0.000000  -0.000000
    356          1.617070        2.639544  -0.000000  -0.000000
    357          1.652132        2.681893  -0.000000  -0.000000
    358          1.653363        2.694048  -0.000000  -0.000000
    359          1.680448        2.702152  -0.000000  -0.000000
    360          1.701303        2.719300  -0.000000  -0.000000
    361          1.729017        2.732395  -0.000000  -0.000000
    362          1.763217        2.742222  -0.000000  -0.000000
    363          1.796382        2.765137  -0.000000  -0.000000
    364          1.835226        2.772230  -0.000000  -0.000000
    365          1.871971        2.800104  -0.000000  -0.000000
    366          1.909157        2.804342  -0.000000  -0.000000
    367          1.932908        2.837337  -0.000000  -0.000000
    368          1.952287        2.876286  -0.000000  -0.000000
    369          1.984850        2.885341  -0.000000  -0.000000
 
  0.1250000E+00  0.3750000E+00  0.0000000E+00  0.1250000E+00
      1        -42.532847      -43.358143   1.000000   1.000000
      2        -42.478020      -43.353712   1.000000   1.000000
      3        -42.406203      -43.321067   1.000000   1.000000
      4        -42.353777      -43.318464   1.000000   1.000000
      5        -42.320660      -43.299949   1.000000   1.000000
      6        -42.303726      -43.288614   1.000000   1.000000
      7        -42.286681      -43.235436   1.000000   1.000000
      8        -42.281510      -43.162359   1.000000   1.000000
      9        -42.229607      -43.154464   1.000000   1.000000
     10        -42.219027      -43.070598   1.000000   1.000000
     11        -42.202944      -43.014998   1.000000   1.000000
     12        -42.162849      -42.960112   1.000000   1.000000
     13        -42.135874      -42.910306   1.000000   1.000000
     14        -42.123697      -42.862379   1.000000   1.000000
     15        -42.096201      -42.792789   1.000000   1.000000
     16        -42.052711      -42.768931   1.000000   1.000000
     17        -42.023080      -42.752059   1.000000   1.000000
     18        -41.999704      -42.701852   1.000000   1.000000
     19        -41.971610      -42.612942   1.000000   1.000000
     20        -41.942507      -42.603907   1.000000   1.000000
     21        -41.926877      -42.569768   1.000000   1.000000
     22        -41.907692      -42.555290   1.000000   1.000000
     23        -41.889013      -42.549947   1.000000   1.000000
     24        -41.855813      -42.512595   1.000000   1.000000
     25        -41.852878      -42.386252   1.000000   1.000000
     26        -41.776356      -42.377865   1.000000   1.000000
     27        -41.773438      -42.305902   1.000000   1.000000
     28        -41.761106      -42.215605   1.000000   1.000000
     29        -41.756736      -42.142278   1.000000   1.000000
     30        -41.740369      -41.990530   1.000000   1.000000
     31        -41.710762      -41.869680   1.000000   1.000000
     32        -41.693216      -41.838374   1.000000   1.000000
     33        -41.691671      -41.804940   1.000000   1.000000
     34        -40.332859      -41.784747   1.000000   1.000000
     35        -40.284414      -41.748025   1.000000   1.000000
     36        -40.236080      -41.720995   1.000000   1.000000
     37        -40.184587      -41.671954   1.000000   1.000000
     38        -40.170076      -41.577671   1.000000   1.000000
     39        -40.057319      -41.418580   1.000000   1.000000
     40        -15.561994      -15.572022   1.000000   1.000000
     41        -15.555806      -15.560731   1.000000   1.000000
     42        -15.550858      -15.553083   1.000000   1.000000
     43        -15.538544      -15.547544   1.000000   1.000000
     44        -15.514579      -15.519986   1.000000   1.000000
     45         -7.884273       -7.888627   1.000000   1.000000
     46         -6.845297       -6.723278   1.000000   1.000000
     47         -6.343749       -6.205035   1.000000   1.000000
     48         -5.879135       -5.734299   1.000000   1.000000
     49         -5.454189       -5.281458   1.000000   1.000000
     50         -5.344770       -5.169429   1.000000   1.000000
     51         -4.979980       -4.774164   1.000000   1.000000
     52         -4.700799       -4.441684   1.000000   1.000000
     53         -4.631984       -4.384578   1.000000   1.000000
     54         -4.580585       -4.320562   1.000000   1.000000
     55         -4.348874       -4.017203   1.000000   1.000000
     56         -4.306656       -3.995954   1.000000   1.000000
     57         -4.174331       -3.874064   1.000000   1.000000
     58         -4.094603       -3.671005   1.000000   1.000000
     59         -4.044807       -3.603978   1.000000   1.000000
     60         -3.998751       -3.381165   1.000000   1.000000
     61         -3.986149       -3.295790   1.000000   1.000000
     62         -3.882604       -3.243696   1.000000   1.000000
     63         -3.839919       -3.120138   1.000000   1.000000
     64         -3.806797       -3.103427   1.000000   1.000000
     65         -3.768050       -3.058058   1.000000   1.000000
     66         -3.760386       -3.047954   1.000000   1.000000
     67         -3.742330       -2.973241   1.000000   1.000000
     68         -3.726130       -2.936589   1.000000   1.000000
     69         -3.705949       -2.896062   1.000000   1.000000
     70         -3.690731       -2.841465   1.000000   1.000000
     71         -3.621353       -2.750408   1.000000   1.000000
     72         -3.577136       -2.718371   1.000000   1.000000
     73         -3.552367       -2.674185   1.000000   1.000000
     74         -3.544919       -2.608424   1.000000   1.000000
     75         -3.533778       -2.549879   1.000000   1.000000
     76         -3.500011       -2.509335   1.000000   1.000000
     77         -3.473638       -2.447396   1.000000   1.000000
     78         -3.461322       -2.424894   1.000000   1.000000
     79         -3.434926       -2.383827   1.000000   1.000000
     80         -3.404678       -2.327724   1.000000   1.000000
     81         -3.396787       -2.293022   1.000000   1.000000
     82         -3.310523       -2.258900   1.000000   1.000000
     83         -3.275542       -2.231586   1.000000   1.000000
     84         -3.257040       -2.206395   1.000000   1.000000
     85         -3.246052       -2.184261   1.000000   1.000000
     86         -3.229469       -2.140140   1.000000   1.000000
     87         -3.212640       -2.124601   1.000000   1.000000
     88         -3.202094       -2.107599   1.000000   1.000000
     89         -3.189681       -2.076560   1.000000   1.000000
     90         -3.162478       -2.032659   1.000000   1.000000
     91         -3.148500       -2.014390   1.000000   1.000000
     92         -3.127568       -2.002933   1.000000   1.000000
     93         -3.119439       -1.992248   1.000000   1.000000
     94         -3.105896       -1.969508   1.000000   1.000000
     95         -3.084511       -1.950988   1.000000   1.000000
     96         -3.067546       -1.930384   1.000000   1.000000
     97         -3.063411       -1.889673   1.000000   1.000000
     98         -3.050440       -1.848307   1.000000   1.000000
     99         -3.032334       -1.826572   1.000000   1.000000
    100         -2.997576       -1.801224   1.000000   1.000000
    101         -2.974504       -1.770634   1.000000   1.000000
    102         -2.965277       -1.740910   1.000000   1.000000
    103         -2.899791       -1.710013   1.000000   1.000000
    104         -2.876054       -1.673818   1.000000   1.000000
    105         -2.861583       -1.651861   1.000000   1.000000
    106         -2.836973       -1.630801   1.000000   1.000000
    107         -2.807026       -1.602784   1.000000   1.000000
    108         -2.793430       -1.585238   1.000000   1.000000
    109         -2.765064       -1.538085   1.000000   1.000000
    110         -2.740731       -1.523926   1.000000   1.000000
    111         -2.713858       -1.485962   1.000000   1.000000
    112         -2.692898       -1.451768   1.000000   1.000000
    113         -2.679975       -1.439243   1.000000   1.000000
    114         -2.667550       -1.397373   1.000000   1.000000
    115         -2.663745       -1.362805   1.000000   1.000000
    116         -2.653920       -1.343049   1.000000   1.000000
    117         -2.625378       -1.327567   1.000000   1.000000
    118         -2.617016       -1.302947   1.000000   1.000000
    119         -2.602816       -1.279914   1.000000   1.000000
    120         -2.588439       -1.263850   1.000000   1.000000
    121         -2.576826       -1.234829   1.000000   1.000000
    122         -2.567045       -1.203003   1.000000   1.000000
    123         -2.557007       -1.186611   1.000000   1.000000
    124         -2.543563       -1.154699   1.000000   1.000000
    125         -2.514894       -1.136613   1.000000   1.000000
    126         -2.505849       -1.121811   1.000000   1.000000
    127         -2.492361       -1.105939   1.000000   1.000000
    128         -2.484610       -1.100474   1.000000   1.000000
    129         -2.474318       -1.086774   1.000000   1.000000
    130         -2.457241       -1.070219   1.000000   1.000000
    131         -2.442879       -1.051616   1.000000   1.000000
    132         -2.434595       -1.047588   1.000000   1.000000
    133         -2.425034       -1.025288   1.000000   1.000000
    134         -2.402268       -1.010893   1.000000   1.000000
    135         -2.388350       -0.986609   1.000000   1.000000
    136         -2.384284       -0.965704   1.000000   1.000000
    137         -2.362977       -0.957978   1.000000   1.000000
    138         -2.350794       -0.946422   1.000000   1.000000
    139         -2.332988       -0.932105   1.000000   1.000000
    140         -2.322822       -0.914534   1.000000   1.000000
    141         -2.315387       -0.896065   1.000000   1.000000
    142         -2.283690       -0.874485   1.000000   1.000000
    143         -2.262515       -0.863595   1.000000   1.000000
    144         -2.255871       -0.830957   1.000000   1.000000
    145         -2.241142       -0.823376   1.000000   1.000000
    146         -2.224786       -0.807883   1.000000   1.000000
    147         -2.216082       -0.787185   1.000000   1.000000
    148         -2.191931       -0.774029   1.000000   1.000000
    149         -2.174796       -0.764974   1.000000   1.000000
    150         -2.169199       -0.742191   1.000000   1.000000
    151         -2.151192       -0.711944   1.000000   1.000000
    152         -2.139340       -0.698543   1.000000   1.000000
    153         -2.115652       -0.691825   1.000000   1.000000
    154         -2.104904       -0.671627   1.000000   1.000000
    155         -2.091094       -0.655274   1.000000   1.000000
    156         -2.081938       -0.639546   1.000000   1.000000
    157         -2.075182       -0.623359   1.000000   1.000000
    158         -2.058414       -0.614468   1.000000   1.000000
    159         -2.045564       -0.601492   1.000000   1.000000
    160         -2.027536       -0.574999   1.000000   1.000000
    161         -2.022147       -0.569184   1.000000   1.000000
    162         -2.007765       -0.556577   1.000000   1.000000
    163         -1.998365       -0.537237   1.000000   1.000000
    164         -1.973078       -0.526023   1.000000   1.000000
    165         -1.959928       -0.508258   1.000000   1.000000
    166         -1.943829       -0.497664   1.000000   1.000000
    167         -1.928569       -0.469547   1.000000   1.000000
    168         -1.920798       -0.465016   1.000000   1.000000
    169         -1.902831       -0.440244   1.000000   1.000000
    170         -1.883237       -0.427292   1.000000   1.000000
    171         -1.874161       -0.409482   1.000000   1.000000
    172         -1.858568       -0.397227   1.000000   1.000000
    173         -1.840476       -0.388347   1.000000   1.000000
    174         -1.829436       -0.368956   1.000000   1.000000
    175         -1.819094       -0.349121   1.000000   1.000000
    176         -1.806656       -0.333955   1.000000   1.000000
    177         -1.790271       -0.320771   1.000000   1.000000
    178         -1.774814       -0.318734   1.000000   1.000000
    179         -1.763610       -0.295300   1.000000   1.000000
    180         -1.746955       -0.269289   1.000000   1.000000
    181         -1.730542       -0.263047   1.000000   1.000000
    182         -1.718036       -0.250774   1.000000   1.000000
    183         -1.705000       -0.233252   1.000000   1.000000
    184         -1.677914       -0.216458   1.000000   1.000000
    185         -1.670895       -0.193124   1.000000   1.000000
    186         -1.658333       -0.178986   1.000000   1.000000
    187         -1.635811       -0.170915   1.000000   1.000000
    188         -1.629623       -0.143810   1.000000   1.000000
    189         -1.618266       -0.124282   1.000000   1.000000
    190         -1.606854       -0.108515   1.000000   1.000000
    191         -1.596687       -0.094175   1.000000   1.000000
    192         -1.577789       -0.060057   1.000000   1.000000
    193         -1.565206       -0.051688   1.000000   1.000000
    194         -1.551442       -0.039162   1.000000   1.000000
    195         -1.541396       -0.010547   1.000000   1.000000
    196         -1.522916        0.007531   1.000000   1.000000
    197         -1.504349        0.012926   1.000000   1.000000
    198         -1.497005        0.036229   1.000000   1.000000
    199         -1.479760        0.054347   1.000000   1.000000
    200         -1.470662        0.066326   1.000000   1.000000
    201         -1.454177        0.080260   1.000000   1.000000
    202         -1.440589        0.134490   1.000000   1.000000
    203         -1.426937        0.145198   1.000000   1.000000
    204         -1.393605        0.158616   1.000000   1.000000
    205         -1.372386        0.193695   1.000000   1.000000
    206         -1.353212        0.227467   1.000000   1.000000
    207         -1.334381        0.243184   1.000000   1.000000
    208         -1.320684        0.268612   1.000000   1.000000
    209         -1.293256        0.296047   1.000000   1.000000
    210         -1.283944        0.320321   1.000000   1.000000
    211         -1.260467        0.352320   1.000000   1.000001
    212         -1.238706        0.362440   1.000000   1.000001
    213         -1.221015        0.421136   1.000000   1.000015
    214         -1.203936        0.469226   1.000000   1.000099
    215         -1.187605        0.488135   1.000000   1.000197
    216         -1.161072        0.540215   1.000000   1.001078
    217         -1.139944        0.564104   1.000000   1.002145
    218         -1.123574        0.603315   1.000000   1.005806
    219         -1.100378        0.623470   1.000000   1.009053
    220         -1.086202        0.667200   1.000000   1.019902
    221         -1.047366        0.680459   1.000000   1.023947
    222         -1.038461        0.700039   1.000000   1.029794
    223         -1.005082        0.733800   1.000000   1.035458
    224         -0.986183        0.765999   1.000000   1.026202
    225         -0.953518        0.794178   1.000000   0.995661
    226         -0.941466        0.817477   1.000000   0.948014
    227         -0.913602        0.844273   1.000000   0.863922
    228         -0.883115        0.892397   1.000000   0.640006
    229         -0.878682        0.913679   1.000000   0.522130
    230         -0.856588        0.937005   1.000000   0.391544
    231         -0.843354        0.958283   1.000000   0.279582
    232         -0.822419        0.991337   1.000000   0.134573
    233         -0.817029        1.000199   1.000000   0.103366
    234         -0.798558        1.019181   1.000000   0.048344
    235         -0.783469        1.043030   1.000000   0.001267
    236         -0.766503        1.054852   1.000000  -0.013908
    237         -0.741104        1.076764   1.000000  -0.030359
    238         -0.720614        1.106030   1.000000  -0.035312
    239         -0.714063        1.137661   1.000000  -0.029093
    240         -0.701557        1.152793   1.000000  -0.024550
    241         -0.685039        1.172299   1.000000  -0.018636
    242         -0.671554        1.198184   1.000000  -0.011871
    243         -0.664581        1.210602   1.000000  -0.009269
    244         -0.642851        1.215765   1.000000  -0.008316
    245         -0.632301        1.225537   1.000000  -0.006713
    246         -0.626084        1.268971   1.000000  -0.002274
    247         -0.617371        1.288963   1.000000  -0.001290
    248         -0.602386        1.313970   1.000000  -0.000599
    249         -0.581897        1.343477   1.000000  -0.000223
    250         -0.573782        1.374203   1.000000  -0.000073
    251         -0.562469        1.386389   1.000000  -0.000046
    252         -0.556010        1.425694   1.000000  -0.000009
    253         -0.531121        1.430739   1.000000  -0.000007
    254         -0.523902        1.458118   1.000000  -0.000002
    255         -0.515694        1.493033   1.000000  -0.000000
    256         -0.510370        1.509246   1.000000  -0.000000
    257         -0.491450        1.543022   1.000000  -0.000000
    258         -0.484742        1.556872   1.000000  -0.000000
    259         -0.470984        1.576705   1.000000  -0.000000
    260         -0.456818        1.586842   1.000000  -0.000000
    261         -0.447997        1.605286   1.000000  -0.000000
    262         -0.443800        1.624353   1.000000  -0.000000
    263         -0.429113        1.628760   1.000000  -0.000000
    264         -0.405675        1.648317   1.000000  -0.000000
    265         -0.399083        1.655317   1.000000  -0.000000
    266         -0.388518        1.673509   1.000000  -0.000000
    267         -0.373182        1.685992   1.000000  -0.000000
    268         -0.369720        1.699939   1.000000  -0.000000
    269         -0.364036        1.702498   1.000000  -0.000000
    270         -0.349441        1.718852   1.000000  -0.000000
    271         -0.339074        1.728218   1.000000  -0.000000
    272         -0.321482        1.746506   1.000000  -0.000000
    273         -0.314023        1.755416   1.000000  -0.000000
    274         -0.305562        1.764204   1.000000  -0.000000
    275         -0.296258        1.775701   1.000000  -0.000000
    276         -0.293337        1.804648   1.000000  -0.000000
    277         -0.276571        1.812861   1.000000  -0.000000
    278         -0.265875        1.821141   1.000000  -0.000000
    279         -0.259672        1.840030   1.000000  -0.000000
    280         -0.243779        1.851716   1.000000  -0.000000
    281         -0.236292        1.869783   1.000000  -0.000000
    282         -0.220428        1.876568   1.000000  -0.000000
    283         -0.217505        1.889343   1.000000  -0.000000
    284         -0.207325        1.904441   1.000000  -0.000000
    285         -0.186167        1.914217   1.000000  -0.000000
    286         -0.165830        1.924224   1.000000  -0.000000
    287         -0.154762        1.937106   1.000000  -0.000000
    288         -0.140298        1.944466   1.000000  -0.000000
    289         -0.121071        1.956135   1.000000  -0.000000
    290         -0.112443        1.967189   1.000000  -0.000000
    291         -0.097602        1.973285   1.000000  -0.000000
    292         -0.087834        1.983304   1.000000  -0.000000
    293         -0.059381        1.995405   1.000000  -0.000000
    294         -0.043478        2.011650   1.000000  -0.000000
    295         -0.017250        2.015761   1.000000  -0.000000
    296          0.002345        2.020579   1.000000  -0.000000
    297          0.020562        2.033018   1.000000  -0.000000
    298          0.046890        2.049094   1.000000  -0.000000
    299          0.055096        2.059274   1.000000  -0.000000
    300          0.061244        2.066729   1.000000  -0.000000
    301          0.094091        2.077842   1.000000  -0.000000
    302          0.112178        2.083527   1.000000  -0.000000
    303          0.140000        2.088435   1.000000  -0.000000
    304          0.154692        2.102738   1.000000  -0.000000
    305          0.174162        2.107661   1.000000  -0.000000
    306          0.196845        2.115028   1.000000  -0.000000
    307          0.225292        2.124688   1.000000  -0.000000
    308          0.245628        2.134535   1.000000  -0.000000
    309          0.289584        2.151334   1.000000  -0.000000
    310          0.306972        2.157680   1.000000  -0.000000
    311          0.337571        2.173755   1.000000  -0.000000
    312          0.365039        2.184042   1.000001  -0.000000
    313          0.383434        2.185785   1.000003  -0.000000
    314          0.397546        2.203687   1.000005  -0.000000
    315          0.417673        2.217633   1.000013  -0.000000
    316          0.458901        2.228509   1.000067  -0.000000
    317          0.487778        2.239185   1.000194  -0.000000
    318          0.513447        2.242963   1.000465  -0.000000
    319          0.541754        2.255402   1.001129  -0.000000
    320          0.557965        2.260461   1.001807  -0.000000
    321          0.572977        2.283867   1.002727  -0.000000
    322          0.597331        2.296886   1.005043  -0.000000
    323          0.622726        2.323470   1.008914  -0.000000
    324          0.657178        2.332458   1.017000  -0.000000
    325          0.684265        2.341222   1.025121  -0.000000
    326          0.710414        2.365223   1.032435  -0.000000
    327          0.730308        2.369491   1.035373  -0.000000
    328          0.755801        2.377962   1.031483  -0.000000
    329          0.769188        2.390385   1.023996  -0.000000
    330          0.821191        2.403987   0.938275  -0.000000
    331          0.836051        2.421001   0.893138  -0.000000
    332          0.855638        2.426003   0.818713  -0.000000
    333          0.926137        2.437314   0.451936  -0.000000
    334          0.955609        2.454208   0.293021  -0.000000
    335          0.977227        2.459544   0.191265  -0.000000
    336          1.001793        2.469710   0.098125  -0.000000
    337          1.012115        2.478245   0.066943  -0.000000
    338          1.052943        2.482968  -0.011788  -0.000000
    339          1.077605        2.490741  -0.030735  -0.000000
    340          1.113387        2.502793  -0.034565  -0.000000
    341          1.147856        2.512855  -0.026067  -0.000000
    342          1.167704        2.518497  -0.019992  -0.000000
    343          1.196521        2.527683  -0.012253  -0.000000
    344          1.217044        2.536621  -0.008091  -0.000000
    345          1.241431        2.541131  -0.004629  -0.000000
    346          1.294200        2.551369  -0.001104  -0.000000
    347          1.325912        2.554352  -0.000406  -0.000000
    348          1.337488        2.562244  -0.000275  -0.000000
    349          1.375892        2.573531  -0.000068  -0.000000
    350          1.407757        2.587150  -0.000019  -0.000000
    351          1.445673        2.596190  -0.000004  -0.000000
    352          1.482081        2.609451  -0.000001  -0.000000
    353          1.504816        2.621805  -0.000000  -0.000000
    354          1.545360        2.628149  -0.000000  -0.000000
    355          1.600061        2.642895  -0.000000  -0.000000
    356          1.629294        2.659534  -0.000000  -0.000000
    357          1.644316        2.678943  -0.000000  -0.000000
    358          1.662508        2.688525  -0.000000  -0.000000
    359          1.709493        2.711366  -0.000000  -0.000000
    360          1.736811        2.724269  -0.000000  -0.000000
    361          1.752288        2.731099  -0.000000  -0.000000
    362          1.796394        2.744279  -0.000000  -0.000000
    363          1.814733        2.751523  -0.000000  -0.000000
    364          1.827058        2.761921  -0.000000  -0.000000
    365          1.865509        2.790983  -0.000000  -0.000000
    366          1.910805        2.799673  -0.000000  -0.000000
    367          1.968896        2.824445  -0.000000  -0.000000
    368          1.985676        2.835106  -0.000000  -0.000000
    369          2.014551        2.853634  -0.000000  -0.000000
 
  0.3750000E+00  0.3750000E+00  0.0000000E+00  0.1250000E+00
      1        -42.532837      -43.358133   1.000000   1.000000
      2        -42.478010      -43.353702   1.000000   1.000000
      3        -42.406192      -43.321043   1.000000   1.000000
      4        -42.353749      -43.318455   1.000000   1.000000
      5        -42.320634      -43.299926   1.000000   1.000000
      6        -42.303639      -43.288605   1.000000   1.000000
      7        -42.286668      -43.235411   1.000000   1.000000
      8        -42.281494      -43.162351   1.000000   1.000000
      9        -42.229685      -43.154452   1.000000   1.000000
     10        -42.219013      -43.070579   1.000000   1.000000
     11        -42.202920      -43.014987   1.000000   1.000000
     12        -42.162811      -42.960085   1.000000   1.000000
     13        -42.135822      -42.910291   1.000000   1.000000
     14        -42.123660      -42.862370   1.000000   1.000000
     15        -42.096224      -42.792774   1.000000   1.000000
     16        -42.052700      -42.768919   1.000000   1.000000
     17        -42.023065      -42.752036   1.000000   1.000000
     18        -41.999693      -42.701829   1.000000   1.000000
     19        -41.971585      -42.612920   1.000000   1.000000
     20        -41.942495      -42.603903   1.000000   1.000000
     21        -41.926856      -42.569755   1.000000   1.000000
     22        -41.907694      -42.555292   1.000000   1.000000
     23        -41.889006      -42.549923   1.000000   1.000000
     24        -41.855798      -42.512575   1.000000   1.000000
     25        -41.852851      -42.386239   1.000000   1.000000
     26        -41.776329      -42.377847   1.000000   1.000000
     27        -41.773438      -42.305884   1.000000   1.000000
     28        -41.761105      -42.215594   1.000000   1.000000
     29        -41.756720      -42.142272   1.000000   1.000000
     30        -41.740359      -41.990512   1.000000   1.000000
     31        -41.710738      -41.869632   1.000000   1.000000
     32        -41.693203      -41.838360   1.000000   1.000000
     33        -41.691661      -41.804926   1.000000   1.000000
     34        -40.332838      -41.784732   1.000000   1.000000
     35        -40.284398      -41.748016   1.000000   1.000000
     36        -40.236066      -41.720971   1.000000   1.000000
     37        -40.184563      -41.671949   1.000000   1.000000
     38        -40.170064      -41.577659   1.000000   1.000000
     39        -40.057307      -41.418577   1.000000   1.000000
     40        -15.561946      -15.571959   1.000000   1.000000
     41        -15.555789      -15.560723   1.000000   1.000000
     42        -15.550879      -15.553117   1.000000   1.000000
     43        -15.538508      -15.547501   1.000000   1.000000
     44        -15.514582      -15.519988   1.000000   1.000000
     45         -7.856809       -7.862705   1.000000   1.000000
     46         -6.595904       -6.469709   1.000000   1.000000
     47         -6.112954       -5.970485   1.000000   1.000000
     48         -6.080294       -5.937040   1.000000   1.000000
     49         -5.654048       -5.523486   1.000000   1.000000
     50         -5.615971       -5.439560   1.000000   1.000000
     51         -5.243466       -5.088863   1.000000   1.000000
     52         -5.120175       -4.929605   1.000000   1.000000
     53         -4.753786       -4.548865   1.000000   1.000000
     54         -4.444054       -4.179076   1.000000   1.000000
     55         -4.190701       -3.882950   1.000000   1.000000
     56         -4.054178       -3.698130   1.000000   1.000000
     57         -3.931237       -3.498065   1.000000   1.000000
     58         -3.898128       -3.447469   1.000000   1.000000
     59         -3.874922       -3.363451   1.000000   1.000000
     60         -3.846888       -3.267120   1.000000   1.000000
     61         -3.840514       -3.200640   1.000000   1.000000
     62         -3.830816       -3.078102   1.000000   1.000000
     63         -3.819990       -3.019807   1.000000   1.000000
     64         -3.803309       -2.998313   1.000000   1.000000
     65         -3.769564       -2.928841   1.000000   1.000000
     66         -3.721051       -2.902059   1.000000   1.000000
     67         -3.694261       -2.865240   1.000000   1.000000
     68         -3.618108       -2.818446   1.000000   1.000000
     69         -3.609556       -2.804472   1.000000   1.000000
     70         -3.601213       -2.765926   1.000000   1.000000
     71         -3.588093       -2.745618   1.000000   1.000000
     72         -3.515570       -2.720267   1.000000   1.000000
     73         -3.499456       -2.697828   1.000000   1.000000
     74         -3.486393       -2.655511   1.000000   1.000000
     75         -3.478380       -2.633781   1.000000   1.000000
     76         -3.459222       -2.600392   1.000000   1.000000
     77         -3.451185       -2.537615   1.000000   1.000000
     78         -3.437054       -2.509569   1.000000   1.000000
     79         -3.429058       -2.469933   1.000000   1.000000
     80         -3.410118       -2.441705   1.000000   1.000000
     81         -3.395408       -2.399143   1.000000   1.000000
     82         -3.379860       -2.347415   1.000000   1.000000
     83         -3.355274       -2.343740   1.000000   1.000000
     84         -3.344668       -2.288135   1.000000   1.000000
     85         -3.334273       -2.257847   1.000000   1.000000
     86         -3.315068       -2.230787   1.000000   1.000000
     87         -3.301509       -2.203219   1.000000   1.000000
     88         -3.294010       -2.183231   1.000000   1.000000
     89         -3.268707       -2.160044   1.000000   1.000000
     90         -3.256647       -2.122803   1.000000   1.000000
     91         -3.234356       -2.070304   1.000000   1.000000
     92         -3.197024       -2.046317   1.000000   1.000000
     93         -3.167898       -2.021278   1.000000   1.000000
     94         -3.148734       -1.974561   1.000000   1.000000
     95         -3.129680       -1.947681   1.000000   1.000000
     96         -3.117385       -1.935567   1.000000   1.000000
     97         -3.083543       -1.903525   1.000000   1.000000
     98         -3.060911       -1.864402   1.000000   1.000000
     99         -3.046929       -1.833789   1.000000   1.000000
    100         -3.010611       -1.828523   1.000000   1.000000
    101         -2.984149       -1.800216   1.000000   1.000000
    102         -2.959381       -1.748405   1.000000   1.000000
    103         -2.948191       -1.724027   1.000000   1.000000
    104         -2.919223       -1.687940   1.000000   1.000000
    105         -2.885631       -1.682776   1.000000   1.000000
    106         -2.876185       -1.652956   1.000000   1.000000
    107         -2.847200       -1.638466   1.000000   1.000000
    108         -2.826139       -1.600947   1.000000   1.000000
    109         -2.809829       -1.587680   1.000000   1.000000
    110         -2.766916       -1.581159   1.000000   1.000000
    111         -2.736352       -1.512752   1.000000   1.000000
    112         -2.711181       -1.492289   1.000000   1.000000
    113         -2.691841       -1.452513   1.000000   1.000000
    114         -2.673110       -1.421482   1.000000   1.000000
    115         -2.660742       -1.398179   1.000000   1.000000
    116         -2.650032       -1.375943   1.000000   1.000000
    117         -2.633251       -1.357620   1.000000   1.000000
    118         -2.625768       -1.339340   1.000000   1.000000
    119         -2.614855       -1.322418   1.000000   1.000000
    120         -2.598175       -1.298930   1.000000   1.000000
    121         -2.589400       -1.264099   1.000000   1.000000
    122         -2.585251       -1.232980   1.000000   1.000000
    123         -2.571080       -1.218876   1.000000   1.000000
    124         -2.566224       -1.200773   1.000000   1.000000
    125         -2.552861       -1.196825   1.000000   1.000000
    126         -2.538849       -1.180994   1.000000   1.000000
    127         -2.524549       -1.146630   1.000000   1.000000
    128         -2.519397       -1.134710   1.000000   1.000000
    129         -2.510954       -1.118719   1.000000   1.000000
    130         -2.502114       -1.106478   1.000000   1.000000
    131         -2.493884       -1.090220   1.000000   1.000000
    132         -2.474006       -1.048695   1.000000   1.000000
    133         -2.467717       -1.030893   1.000000   1.000000
    134         -2.448734       -1.006402   1.000000   1.000000
    135         -2.429134       -0.989803   1.000000   1.000000
    136         -2.417743       -0.973210   1.000000   1.000000
    137         -2.412729       -0.956395   1.000000   1.000000
    138         -2.399699       -0.948240   1.000000   1.000000
    139         -2.382648       -0.935347   1.000000   1.000000
    140         -2.370193       -0.891154   1.000000   1.000000
    141         -2.351936       -0.880194   1.000000   1.000000
    142         -2.314175       -0.858257   1.000000   1.000000
    143         -2.292207       -0.845440   1.000000   1.000000
    144         -2.290431       -0.827432   1.000000   1.000000
    145         -2.266716       -0.798826   1.000000   1.000000
    146         -2.245855       -0.783058   1.000000   1.000000
    147         -2.238143       -0.771801   1.000000   1.000000
    148         -2.222204       -0.749288   1.000000   1.000000
    149         -2.206732       -0.737814   1.000000   1.000000
    150         -2.173778       -0.702250   1.000000   1.000000
    151         -2.151072       -0.695713   1.000000   1.000000
    152         -2.149243       -0.679500   1.000000   1.000000
    153         -2.139975       -0.649122   1.000000   1.000000
    154         -2.123274       -0.642038   1.000000   1.000000
    155         -2.104305       -0.626598   1.000000   1.000000
    156         -2.087588       -0.604996   1.000000   1.000000
    157         -2.078443       -0.588319   1.000000   1.000000
    158         -2.065701       -0.579149   1.000000   1.000000
    159         -2.051347       -0.572424   1.000000   1.000000
    160         -2.032892       -0.554247   1.000000   1.000000
    161         -2.022345       -0.539850   1.000000   1.000000
    162         -2.015765       -0.535859   1.000000   1.000000
    163         -1.996999       -0.517243   1.000000   1.000000
    164         -1.984167       -0.501240   1.000000   1.000000
    165         -1.970476       -0.488264   1.000000   1.000000
    166         -1.954013       -0.478960   1.000000   1.000000
    167         -1.950089       -0.458438   1.000000   1.000000
    168         -1.930033       -0.444916   1.000000   1.000000
    169         -1.916270       -0.432166   1.000000   1.000000
    170         -1.905497       -0.412119   1.000000   1.000000
    171         -1.897022       -0.394109   1.000000   1.000000
    172         -1.884388       -0.383246   1.000000   1.000000
    173         -1.874587       -0.376910   1.000000   1.000000
    174         -1.852681       -0.360501   1.000000   1.000000
    175         -1.827194       -0.344369   1.000000   1.000000
    176         -1.801754       -0.315809   1.000000   1.000000
    177         -1.790092       -0.307182   1.000000   1.000000
    178         -1.779064       -0.293871   1.000000   1.000000
    179         -1.762712       -0.276779   1.000000   1.000000
    180         -1.758590       -0.261610   1.000000   1.000000
    181         -1.736782       -0.252858   1.000000   1.000000
    182         -1.716260       -0.232078   1.000000   1.000000
    183         -1.691096       -0.212731   1.000000   1.000000
    184         -1.684121       -0.190290   1.000000   1.000000
    185         -1.677432       -0.186061   1.000000   1.000000
    186         -1.646750       -0.168767   1.000000   1.000000
    187         -1.635766       -0.153741   1.000000   1.000000
    188         -1.627189       -0.149136   1.000000   1.000000
    189         -1.617576       -0.122367   1.000000   1.000000
    190         -1.596164       -0.109765   1.000000   1.000000
    191         -1.586575       -0.097144   1.000000   1.000000
    192         -1.572392       -0.069850   1.000000   1.000000
    193         -1.546661       -0.052615   1.000000   1.000000
    194         -1.527463       -0.035987   1.000000   1.000000
    195         -1.518055       -0.013141   1.000000   1.000000
    196         -1.498252        0.021462   1.000000   1.000000
    197         -1.487630        0.023108   1.000000   1.000000
    198         -1.478128        0.056130   1.000000   1.000000
    199         -1.453978        0.058512   1.000000   1.000000
    200         -1.440807        0.079562   1.000000   1.000000
    201         -1.416803        0.102499   1.000000   1.000000
    202         -1.399049        0.139481   1.000000   1.000000
    203         -1.388024        0.178215   1.000000   1.000000
    204         -1.370782        0.189126   1.000000   1.000000
    205         -1.349634        0.237312   1.000000   1.000000
    206         -1.342060        0.248725   1.000000   1.000000
    207         -1.320976        0.273707   1.000000   1.000000
    208         -1.298001        0.285282   1.000000   1.000000
    209         -1.275646        0.327603   1.000000   1.000000
    210         -1.237852        0.334308   1.000000   1.000000
    211         -1.226225        0.400461   1.000000   1.000006
    212         -1.211085        0.433490   1.000000   1.000025
    213         -1.189069        0.459271   1.000000   1.000068
    214         -1.172321        0.519035   1.000000   1.000558
    215         -1.157707        0.539317   1.000000   1.001049
    216         -1.141718        0.569256   1.000000   1.002468
    217         -1.091330        0.594032   1.000000   1.004658
    218         -1.070362        0.612168   1.000000   1.007099
    219         -1.059914        0.641166   1.000000   1.012837
    220         -1.042504        0.663962   1.000000   1.018944
    221         -1.005759        0.707907   1.000000   1.031846
    222         -0.988191        0.726878   1.000000   1.035142
    223         -0.963855        0.781034   1.000000   1.013167
    224         -0.938228        0.802099   1.000000   0.981976
    225         -0.915135        0.805298   1.000000   0.975734
    226         -0.908027        0.835834   1.000000   0.893870
    227         -0.890187        0.843469   1.000000   0.866910
    228         -0.859189        0.866656   1.000000   0.769878
    229         -0.843513        0.888998   1.000000   0.658175
    230         -0.829688        0.932366   1.000000   0.417153
    231         -0.809716        0.948926   1.000000   0.327482
    232         -0.785843        0.961425   1.000000   0.264073
    233         -0.766767        0.984299   1.000000   0.161806
    234         -0.754548        1.002674   1.000000   0.095276
    235         -0.738156        1.032130   1.000000   0.019886
    236         -0.723658        1.051746   1.000000  -0.010395
    237         -0.718609        1.070334   1.000000  -0.026915
    238         -0.711544        1.086440   1.000000  -0.033730
    239         -0.693536        1.092164   1.000000  -0.034836
    240         -0.674857        1.116899   1.000000  -0.034019
    241         -0.661845        1.128154   1.000000  -0.031637
    242         -0.653786        1.176260   1.000000  -0.017498
    243         -0.636199        1.187439   1.000000  -0.014474
    244         -0.623891        1.209783   1.000000  -0.009427
    245         -0.609961        1.251226   1.000000  -0.003629
    246         -0.600428        1.279614   1.000000  -0.001690
    247         -0.578815        1.289449   1.000000  -0.001271
    248         -0.572346        1.334619   1.000000  -0.000303
    249         -0.558558        1.349651   1.000000  -0.000180
    250         -0.537965        1.381053   1.000000  -0.000056
    251         -0.527030        1.420134   1.000000  -0.000012
    252         -0.518633        1.437387   1.000000  -0.000005
    253         -0.501774        1.443608   1.000000  -0.000004
    254         -0.498747        1.468910   1.000000  -0.000001
    255         -0.490466        1.488592   1.000000  -0.000001
    256         -0.474471        1.516336   1.000000  -0.000000
    257         -0.465640        1.534953   1.000000  -0.000000
    258         -0.455517        1.545436   1.000000  -0.000000
    259         -0.450510        1.551771   1.000000  -0.000000
    260         -0.437660        1.571182   1.000000  -0.000000
    261         -0.432017        1.593360   1.000000  -0.000000
    262         -0.417491        1.617988   1.000000  -0.000000
    263         -0.407523        1.628360   1.000000  -0.000000
    264         -0.398726        1.636481   1.000000  -0.000000
    265         -0.390274        1.640496   1.000000  -0.000000
    266         -0.384378        1.664511   1.000000  -0.000000
    267         -0.368566        1.675312   1.000000  -0.000000
    268         -0.361874        1.687606   1.000000  -0.000000
    269         -0.355831        1.699342   1.000000  -0.000000
    270         -0.342729        1.739819   1.000000  -0.000000
    271         -0.328877        1.751968   1.000000  -0.000000
    272         -0.320374        1.769094   1.000000  -0.000000
    273         -0.313205        1.785901   1.000000  -0.000000
    274         -0.292898        1.792557   1.000000  -0.000000
    275         -0.288266        1.797920   1.000000  -0.000000
    276         -0.278923        1.821894   1.000000  -0.000000
    277         -0.272138        1.827709   1.000000  -0.000000
    278         -0.260640        1.839799   1.000000  -0.000000
    279         -0.243569        1.864095   1.000000  -0.000000
    280         -0.230523        1.872250   1.000000  -0.000000
    281         -0.210419        1.895482   1.000000  -0.000000
    282         -0.204765        1.905712   1.000000  -0.000000
    283         -0.196956        1.913622   1.000000  -0.000000
    284         -0.189202        1.923273   1.000000  -0.000000
    285         -0.169136        1.929523   1.000000  -0.000000
    286         -0.164408        1.952698   1.000000  -0.000000
    287         -0.136745        1.964854   1.000000  -0.000000
    288         -0.123932        1.975108   1.000000  -0.000000
    289         -0.110458        1.982060   1.000000  -0.000000
    290         -0.097771        1.994148   1.000000  -0.000000
    291         -0.082193        2.002921   1.000000  -0.000000
    292         -0.071870        2.018743   1.000000  -0.000000
    293         -0.041815        2.023923   1.000000  -0.000000
    294         -0.036840        2.041602   1.000000  -0.000000
    295         -0.013847        2.052097   1.000000  -0.000000
    296          0.012379        2.066218   1.000000  -0.000000
    297          0.015185        2.069038   1.000000  -0.000000
    298          0.035314        2.080439   1.000000  -0.000000
    299          0.062499        2.088032   1.000000  -0.000000
    300          0.084874        2.096547   1.000000  -0.000000
    301          0.090325        2.105461   1.000000  -0.000000
    302          0.113488        2.113622   1.000000  -0.000000
    303          0.137469        2.125838   1.000000  -0.000000
    304          0.166656        2.128449   1.000000  -0.000000
    305          0.187776        2.141831   1.000000  -0.000000
    306          0.205588        2.150404   1.000000  -0.000000
    307          0.218871        2.158849   1.000000  -0.000000
    308          0.244776        2.163281   1.000000  -0.000000
    309          0.273490        2.173505   1.000000  -0.000000
    310          0.312066        2.182229   1.000000  -0.000000
    311          0.329022        2.194248   1.000000  -0.000000
    312          0.350670        2.205761   1.000001  -0.000000
    313          0.375970        2.214382   1.000002  -0.000000
    314          0.385218        2.227002   1.000003  -0.000000
    315          0.421815        2.234499   1.000015  -0.000000
    316          0.452417        2.251751   1.000052  -0.000000
    317          0.462926        2.257470   1.000078  -0.000000
    318          0.490751        2.264763   1.000216  -0.000000
    319          0.526599        2.286805   1.000710  -0.000000
    320          0.568210        2.292998   1.002399  -0.000000
    321          0.584851        2.305349   1.003710  -0.000000
    322          0.601994        2.311831   1.005630  -0.000000
    323          0.628777        2.327740   1.010094  -0.000000
    324          0.654350        2.340265   1.016219  -0.000000
    325          0.692246        2.351081   1.027545  -0.000000
    326          0.731522        2.364932   1.035420  -0.000000
    327          0.742323        2.382563   1.034933  -0.000000
    328          0.759196        2.388713   1.030009  -0.000000
    329          0.792612        2.395360   0.998076  -0.000000
    330          0.831727        2.406773   0.907294  -0.000000
    331          0.856436        2.414048   0.815335  -0.000000
    332          0.898888        2.428988   0.604682  -0.000000
    333          0.922730        2.435331   0.471090  -0.000000
    334          0.948737        2.447554   0.328474  -0.000000
    335          0.979634        2.451611   0.181009  -0.000000
    336          1.025103        2.460004   0.034443  -0.000000
    337          1.048382        2.464637  -0.006217  -0.000000
    338          1.060004        2.470563  -0.019040  -0.000000
    339          1.073414        2.478773  -0.028695  -0.000000
    340          1.107295        2.486485  -0.035226  -0.000000
    341          1.145650        2.492744  -0.026737  -0.000000
    342          1.178816        2.499243  -0.016781  -0.000000
    343          1.192250        2.509790  -0.013269  -0.000000
    344          1.259134        2.523390  -0.002959  -0.000000
    345          1.274905        2.530905  -0.001930  -0.000000
    346          1.309622        2.535582  -0.000687  -0.000000
    347          1.328238        2.542008  -0.000375  -0.000000
    348          1.364121        2.547164  -0.000106  -0.000000
    349          1.377603        2.559012  -0.000064  -0.000000
    350          1.439595        2.565697  -0.000005  -0.000000
    351          1.487653        2.576570  -0.000001  -0.000000
    352          1.523198        2.584408  -0.000000  -0.000000
    353          1.537347        2.592434  -0.000000  -0.000000
    354          1.567698        2.601337  -0.000000  -0.000000
    355          1.587999        2.611395  -0.000000  -0.000000
    356          1.632207        2.620916  -0.000000  -0.000000
    357          1.649584        2.624993  -0.000000  -0.000000
    358          1.672014        2.635288  -0.000000  -0.000000
    359          1.695266        2.646137  -0.000000  -0.000000
    360          1.733660        2.658473  -0.000000  -0.000000
    361          1.775811        2.668111  -0.000000  -0.000000
    362          1.824940        2.675489  -0.000000  -0.000000
    363          1.855648        2.699751  -0.000000  -0.000000
    364          1.901445        2.711829  -0.000000  -0.000000
    365          1.938278        2.735467  -0.000000  -0.000000
    366          1.967221        2.750733  -0.000000  -0.000000
    367          1.971821        2.794186  -0.000000  -0.000000
    368          2.040162        2.816295  -0.000000  -0.000000
    369          2.059189        2.860982  -0.000000  -0.000000
 
 -0.3750000E+00  0.3750000E+00  0.0000000E+00  0.1250000E+00
      1        -42.532831      -43.358132   1.000000   1.000000
      2        -42.478011      -43.353700   1.000000   1.000000
      3        -42.406192      -43.321059   1.000000   1.000000
      4        -42.353737      -43.318439   1.000000   1.000000
      5        -42.320651      -43.299943   1.000000   1.000000
      6        -42.303654      -43.288590   1.000000   1.000000
      7        -42.286654      -43.235427   1.000000   1.000000
      8        -42.281500      -43.162333   1.000000   1.000000
      9        -42.229682      -43.154454   1.000000   1.000000
     10        -42.219015      -43.070583   1.000000   1.000000
     11        -42.202919      -43.014984   1.000000   1.000000
     12        -42.162826      -42.960085   1.000000   1.000000
     13        -42.135826      -42.910298   1.000000   1.000000
     14        -42.123659      -42.862348   1.000000   1.000000
     15        -42.096213      -42.792779   1.000000   1.000000
     16        -42.052704      -42.768900   1.000000   1.000000
     17        -42.023064      -42.752050   1.000000   1.000000
     18        -41.999679      -42.701842   1.000000   1.000000
     19        -41.971589      -42.612912   1.000000   1.000000
     20        -41.942483      -42.603888   1.000000   1.000000
     21        -41.926852      -42.569756   1.000000   1.000000
     22        -41.907698      -42.555296   1.000000   1.000000
     23        -41.888993      -42.549922   1.000000   1.000000
     24        -41.855801      -42.512583   1.000000   1.000000
     25        -41.852852      -42.386232   1.000000   1.000000
     26        -41.776340      -42.377851   1.000000   1.000000
     27        -41.773423      -42.305892   1.000000   1.000000
     28        -41.761120      -42.215593   1.000000   1.000000
     29        -41.756725      -42.142265   1.000000   1.000000
     30        -41.740359      -41.990523   1.000000   1.000000
     31        -41.710751      -41.869650   1.000000   1.000000
     32        -41.693189      -41.838347   1.000000   1.000000
     33        -41.691661      -41.804918   1.000000   1.000000
     34        -40.332847      -41.784728   1.000000   1.000000
     35        -40.284388      -41.748023   1.000000   1.000000
     36        -40.236054      -41.720990   1.000000   1.000000
     37        -40.184574      -41.671944   1.000000   1.000000
     38        -40.170067      -41.577660   1.000000   1.000000
     39        -40.057307      -41.418566   1.000000   1.000000
     40        -15.561947      -15.571959   1.000000   1.000000
     41        -15.555789      -15.560723   1.000000   1.000000
     42        -15.550879      -15.553117   1.000000   1.000000
     43        -15.538508      -15.547502   1.000000   1.000000
     44        -15.514582      -15.519988   1.000000   1.000000
     45         -7.856864       -7.862737   1.000000   1.000000
     46         -6.594759       -6.469234   1.000000   1.000000
     47         -6.137477       -5.981127   1.000000   1.000000
     48         -6.053843       -5.925846   1.000000   1.000000
     49         -5.671935       -5.527305   1.000000   1.000000
     50         -5.592031       -5.432687   1.000000   1.000000
     51         -5.273132       -5.102497   1.000000   1.000000
     52         -5.100476       -4.920126   1.000000   1.000000
     53         -4.749047       -4.548611   1.000000   1.000000
     54         -4.450843       -4.170868   1.000000   1.000000
     55         -4.189980       -3.906909   1.000000   1.000000
     56         -4.055434       -3.683783   1.000000   1.000000
     57         -3.932367       -3.483126   1.000000   1.000000
     58         -3.897278       -3.452194   1.000000   1.000000
     59         -3.877596       -3.360733   1.000000   1.000000
     60         -3.849151       -3.251154   1.000000   1.000000
     61         -3.836746       -3.206800   1.000000   1.000000
     62         -3.817193       -3.113013   1.000000   1.000000
     63         -3.807693       -3.053735   1.000000   1.000000
     64         -3.792679       -2.989962   1.000000   1.000000
     65         -3.778030       -2.911382   1.000000   1.000000
     66         -3.728354       -2.903639   1.000000   1.000000
     67         -3.700900       -2.866727   1.000000   1.000000
     68         -3.633853       -2.844196   1.000000   1.000000
     69         -3.610985       -2.795373   1.000000   1.000000
     70         -3.607104       -2.754791   1.000000   1.000000
     71         -3.585816       -2.738417   1.000000   1.000000
     72         -3.511875       -2.708872   1.000000   1.000000
     73         -3.500141       -2.685443   1.000000   1.000000
     74         -3.482547       -2.647395   1.000000   1.000000
     75         -3.472413       -2.623663   1.000000   1.000000
     76         -3.462690       -2.584224   1.000000   1.000000
     77         -3.444234       -2.524192   1.000000   1.000000
     78         -3.440704       -2.499499   1.000000   1.000000
     79         -3.420733       -2.482547   1.000000   1.000000
     80         -3.405373       -2.446129   1.000000   1.000000
     81         -3.393573       -2.407568   1.000000   1.000000
     82         -3.382927       -2.363504   1.000000   1.000000
     83         -3.362649       -2.336304   1.000000   1.000000
     84         -3.350733       -2.316363   1.000000   1.000000
     85         -3.342260       -2.275126   1.000000   1.000000
     86         -3.313085       -2.241228   1.000000   1.000000
     87         -3.298197       -2.188027   1.000000   1.000000
     88         -3.277964       -2.173011   1.000000   1.000000
     89         -3.268237       -2.149538   1.000000   1.000000
     90         -3.257730       -2.106889   1.000000   1.000000
     91         -3.252980       -2.101966   1.000000   1.000000
     92         -3.201388       -2.062047   1.000000   1.000000
     93         -3.173039       -2.010101   1.000000   1.000000
     94         -3.145552       -1.973818   1.000000   1.000000
     95         -3.133756       -1.952142   1.000000   1.000000
     96         -3.095763       -1.916768   1.000000   1.000000
     97         -3.089705       -1.890187   1.000000   1.000000
     98         -3.058210       -1.874289   1.000000   1.000000
     99         -3.046395       -1.859424   1.000000   1.000000
    100         -3.015469       -1.847231   1.000000   1.000000
    101         -2.995310       -1.774575   1.000000   1.000000
    102         -2.951001       -1.759934   1.000000   1.000000
    103         -2.936599       -1.711240   1.000000   1.000000
    104         -2.902448       -1.684332   1.000000   1.000000
    105         -2.884762       -1.677482   1.000000   1.000000
    106         -2.866791       -1.647334   1.000000   1.000000
    107         -2.857797       -1.636955   1.000000   1.000000
    108         -2.835126       -1.601165   1.000000   1.000000
    109         -2.812811       -1.590646   1.000000   1.000000
    110         -2.777436       -1.562463   1.000000   1.000000
    111         -2.752988       -1.518955   1.000000   1.000000
    112         -2.710591       -1.491324   1.000000   1.000000
    113         -2.686023       -1.453219   1.000000   1.000000
    114         -2.672913       -1.421907   1.000000   1.000000
    115         -2.656754       -1.391042   1.000000   1.000000
    116         -2.652812       -1.375663   1.000000   1.000000
    117         -2.636916       -1.347291   1.000000   1.000000
    118         -2.626693       -1.331057   1.000000   1.000000
    119         -2.617402       -1.313578   1.000000   1.000000
    120         -2.598797       -1.287213   1.000000   1.000000
    121         -2.596285       -1.267241   1.000000   1.000000
    122         -2.582754       -1.257977   1.000000   1.000000
    123         -2.572511       -1.241091   1.000000   1.000000
    124         -2.562090       -1.215912   1.000000   1.000000
    125         -2.547528       -1.191500   1.000000   1.000000
    126         -2.536278       -1.171398   1.000000   1.000000
    127         -2.528588       -1.161423   1.000000   1.000000
    128         -2.522490       -1.122268   1.000000   1.000000
    129         -2.504445       -1.118487   1.000000   1.000000
    130         -2.492920       -1.098874   1.000000   1.000000
    131         -2.487275       -1.078314   1.000000   1.000000
    132         -2.473750       -1.056096   1.000000   1.000000
    133         -2.453867       -1.034638   1.000000   1.000000
    134         -2.443325       -1.019631   1.000000   1.000000
    135         -2.433987       -1.010372   1.000000   1.000000
    136         -2.420390       -0.973913   1.000000   1.000000
    137         -2.410819       -0.961513   1.000000   1.000000
    138         -2.401747       -0.940076   1.000000   1.000000
    139         -2.382249       -0.924044   1.000000   1.000000
    140         -2.362447       -0.907571   1.000000   1.000000
    141         -2.340451       -0.878529   1.000000   1.000000
    142         -2.327540       -0.857935   1.000000   1.000000
    143         -2.305660       -0.833825   1.000000   1.000000
    144         -2.287295       -0.822406   1.000000   1.000000
    145         -2.270415       -0.799721   1.000000   1.000000
    146         -2.256034       -0.782032   1.000000   1.000000
    147         -2.238093       -0.768400   1.000000   1.000000
    148         -2.224140       -0.740692   1.000000   1.000000
    149         -2.202046       -0.728345   1.000000   1.000000
    150         -2.178283       -0.709683   1.000000   1.000000
    151         -2.167206       -0.690586   1.000000   1.000000
    152         -2.144821       -0.682507   1.000000   1.000000
    153         -2.142081       -0.662069   1.000000   1.000000
    154         -2.121543       -0.643849   1.000000   1.000000
    155         -2.101008       -0.627186   1.000000   1.000000
    156         -2.093764       -0.607947   1.000000   1.000000
    157         -2.079126       -0.605988   1.000000   1.000000
    158         -2.064935       -0.595577   1.000000   1.000000
    159         -2.046816       -0.574011   1.000000   1.000000
    160         -2.039451       -0.568110   1.000000   1.000000
    161         -2.027095       -0.554959   1.000000   1.000000
    162         -2.010463       -0.515870   1.000000   1.000000
    163         -1.998749       -0.503649   1.000000   1.000000
    164         -1.985401       -0.490591   1.000000   1.000000
    165         -1.969409       -0.479494   1.000000   1.000000
    166         -1.959894       -0.470102   1.000000   1.000000
    167         -1.946240       -0.452745   1.000000   1.000000
    168         -1.934649       -0.438985   1.000000   1.000000
    169         -1.923970       -0.430564   1.000000   1.000000
    170         -1.899388       -0.412840   1.000000   1.000000
    171         -1.886694       -0.396869   1.000000   1.000000
    172         -1.866594       -0.378891   1.000000   1.000000
    173         -1.857262       -0.364191   1.000000   1.000000
    174         -1.847544       -0.347106   1.000000   1.000000
    175         -1.824294       -0.333518   1.000000   1.000000
    176         -1.812957       -0.322438   1.000000   1.000000
    177         -1.797848       -0.306017   1.000000   1.000000
    178         -1.790968       -0.301567   1.000000   1.000000
    179         -1.772422       -0.288749   1.000000   1.000000
    180         -1.749626       -0.270183   1.000000   1.000000
    181         -1.737104       -0.254956   1.000000   1.000000
    182         -1.724189       -0.241692   1.000000   1.000000
    183         -1.705108       -0.223050   1.000000   1.000000
    184         -1.688887       -0.205781   1.000000   1.000000
    185         -1.669575       -0.187827   1.000000   1.000000
    186         -1.661451       -0.171750   1.000000   1.000000
    187         -1.646572       -0.151585   1.000000   1.000000
    188         -1.625482       -0.142083   1.000000   1.000000
    189         -1.600998       -0.122225   1.000000   1.000000
    190         -1.584793       -0.095637   1.000000   1.000000
    191         -1.566968       -0.079060   1.000000   1.000000
    192         -1.560852       -0.068976   1.000000   1.000000
    193         -1.542838       -0.042315   1.000000   1.000000
    194         -1.530651       -0.023408   1.000000   1.000000
    195         -1.504577       -0.010720   1.000000   1.000000
    196         -1.501189       -0.004883   1.000000   1.000000
    197         -1.487436        0.014875   1.000000   1.000000
    198         -1.469457        0.051080   1.000000   1.000000
    199         -1.448904        0.062254   1.000000   1.000000
    200         -1.435161        0.086584   1.000000   1.000000
    201         -1.431582        0.104332   1.000000   1.000000
    202         -1.402842        0.118535   1.000000   1.000000
    203         -1.381380        0.140985   1.000000   1.000000
    204         -1.372830        0.197508   1.000000   1.000000
    205         -1.352480        0.236914   1.000000   1.000000
    206         -1.338663        0.255644   1.000000   1.000000
    207         -1.327268        0.288559   1.000000   1.000000
    208         -1.298247        0.309382   1.000000   1.000000
    209         -1.275847        0.339789   1.000000   1.000000
    210         -1.249965        0.343383   1.000000   1.000000
    211         -1.227384        0.413175   1.000000   1.000011
    212         -1.218716        0.418860   1.000000   1.000014
    213         -1.195008        0.474723   1.000000   1.000121
    214         -1.173438        0.500835   1.000000   1.000305
    215         -1.158204        0.542440   1.000000   1.001152
    216         -1.136519        0.574738   1.000000   1.002857
    217         -1.093153        0.584410   1.000000   1.003669
    218         -1.084957        0.605150   1.000000   1.006058
    219         -1.037181        0.636956   1.000000   1.011856
    220         -1.028984        0.678423   1.000000   1.023319
    221         -1.011248        0.695425   1.000000   1.028482
    222         -0.999413        0.741550   1.000000   1.035028
    223         -0.951378        0.777775   1.000000   1.016583
    224         -0.924159        0.790041   1.000000   1.001844
    225         -0.915776        0.810042   1.000000   0.965693
    226         -0.895618        0.823763   1.000000   0.931170
    227         -0.887352        0.843502   1.000000   0.866789
    228         -0.855934        0.859648   1.000000   0.801483
    229         -0.844720        0.886389   1.000000   0.671945
    230         -0.833188        0.916363   1.000000   0.506993
    231         -0.813783        0.959117   1.000000   0.275436
    232         -0.793789        0.968928   1.000000   0.228371
    233         -0.779151        0.981218   1.000000   0.174388
    234         -0.762335        0.994712   1.000000   0.122276
    235         -0.754587        1.022631   1.000000   0.040062
    236         -0.733265        1.047432   1.000000  -0.004964
    237         -0.723632        1.066063   1.000000  -0.024029
    238         -0.713673        1.083635   1.000000  -0.032959
    239         -0.689638        1.097552   1.000000  -0.035358
    240         -0.680774        1.124512   1.000000  -0.032499
    241         -0.655731        1.161091   1.000000  -0.021994
    242         -0.641990        1.172618   1.000000  -0.018543
    243         -0.627025        1.203384   1.000000  -0.010728
    244         -0.619134        1.215605   1.000000  -0.008344
    245         -0.604718        1.247590   1.000000  -0.003977
    246         -0.593871        1.267972   1.000000  -0.002336
    247         -0.582685        1.297167   1.000000  -0.001010
    248         -0.570889        1.350636   1.000000  -0.000173
    249         -0.559221        1.357314   1.000000  -0.000136
    250         -0.546795        1.385681   1.000000  -0.000047
    251         -0.527780        1.403081   1.000000  -0.000023
    252         -0.516558        1.421333   1.000000  -0.000011
    253         -0.506091        1.437169   1.000000  -0.000006
    254         -0.495647        1.458164   1.000000  -0.000002
    255         -0.484132        1.480711   1.000000  -0.000001
    256         -0.471046        1.511044   1.000000  -0.000000
    257         -0.465464        1.530822   1.000000  -0.000000
    258         -0.452113        1.550740   1.000000  -0.000000
    259         -0.447310        1.570089   1.000000  -0.000000
    260         -0.437331        1.583501   1.000000  -0.000000
    261         -0.418937        1.596720   1.000000  -0.000000
    262         -0.413167        1.602369   1.000000  -0.000000
    263         -0.409304        1.626310   1.000000  -0.000000
    264         -0.402846        1.638174   1.000000  -0.000000
    265         -0.388695        1.651252   1.000000  -0.000000
    266         -0.381204        1.669533   1.000000  -0.000000
    267         -0.375151        1.672800   1.000000  -0.000000
    268         -0.371122        1.689260   1.000000  -0.000000
    269         -0.359542        1.710385   1.000000  -0.000000
    270         -0.345890        1.719730   1.000000  -0.000000
    271         -0.334899        1.741104   1.000000  -0.000000
    272         -0.322752        1.760053   1.000000  -0.000000
    273         -0.310580        1.784255   1.000000  -0.000000
    274         -0.304863        1.797206   1.000000  -0.000000
    275         -0.291443        1.809347   1.000000  -0.000000
    276         -0.276560        1.819480   1.000000  -0.000000
    277         -0.272682        1.830634   1.000000  -0.000000
    278         -0.265644        1.845031   1.000000  -0.000000
    279         -0.259172        1.861882   1.000000  -0.000000
    280         -0.240642        1.873105   1.000000  -0.000000
    281         -0.224470        1.884630   1.000000  -0.000000
    282         -0.212384        1.892531   1.000000  -0.000000
    283         -0.202525        1.913672   1.000000  -0.000000
    284         -0.189326        1.924828   1.000000  -0.000000
    285         -0.175720        1.940353   1.000000  -0.000000
    286         -0.159148        1.959490   1.000000  -0.000000
    287         -0.140823        1.963639   1.000000  -0.000000
    288         -0.127519        1.970337   1.000000  -0.000000
    289         -0.113631        1.978581   1.000000  -0.000000
    290         -0.096862        1.990450   1.000000  -0.000000
    291         -0.085807        1.997936   1.000000  -0.000000
    292         -0.073147        2.013149   1.000000  -0.000000
    293         -0.038921        2.040776   1.000000  -0.000000
    294         -0.025676        2.047013   1.000000  -0.000000
    295          0.003073        2.055596   1.000000  -0.000000
    296          0.010556        2.064276   1.000000  -0.000000
    297          0.038111        2.073183   1.000000  -0.000000
    298          0.042430        2.080247   1.000000  -0.000000
    299          0.062581        2.084399   1.000000  -0.000000
    300          0.082119        2.095336   1.000000  -0.000000
    301          0.096311        2.103107   1.000000  -0.000000
    302          0.129653        2.113585   1.000000  -0.000000
    303          0.141557        2.121027   1.000000  -0.000000
    304          0.166363        2.136454   1.000000  -0.000000
    305          0.183506        2.143149   1.000000  -0.000000
    306          0.215350        2.151695   1.000000  -0.000000
    307          0.240074        2.156497   1.000000  -0.000000
    308          0.263363        2.164661   1.000000  -0.000000
    309          0.274883        2.176318   1.000000  -0.000000
    310          0.289106        2.182891   1.000000  -0.000000
    311          0.341064        2.195928   1.000000  -0.000000
    312          0.354743        2.204539   1.000001  -0.000000
    313          0.371332        2.215928   1.000002  -0.000000
    314          0.387288        2.227242   1.000003  -0.000000
    315          0.406822        2.234323   1.000008  -0.000000
    316          0.435607        2.241622   1.000027  -0.000000
    317          0.462474        2.262535   1.000077  -0.000000
    318          0.499515        2.272687   1.000292  -0.000000
    319          0.511743        2.286650   1.000440  -0.000000
    320          0.545501        2.296938   1.001262  -0.000000
    321          0.601834        2.307819   1.005609  -0.000000
    322          0.627539        2.311052   1.009844  -0.000000
    323          0.638991        2.319326   1.012324  -0.000000
    324          0.665310        2.343749   1.019341  -0.000000
    325          0.697266        2.348607   1.029013  -0.000000
    326          0.717463        2.358309   1.033872  -0.000000
    327          0.746623        2.371680   1.034215  -0.000000
    328          0.762446        2.382037   1.028337  -0.000000
    329          0.803085        2.400873   0.980098  -0.000000
    330          0.820927        2.407703   0.938988  -0.000000
    331          0.856645        2.418437   0.814447  -0.000000
    332          0.895084        2.425440   0.625474  -0.000000
    333          0.921306        2.432551   0.479112  -0.000000
    334          0.956206        2.448835   0.290000  -0.000000
    335          0.967563        2.451306   0.234719  -0.000000
    336          0.997206        2.454774   0.113515  -0.000000
    337          1.041240        2.465602   0.004007  -0.000000
    338          1.060575        2.470755  -0.019557  -0.000000
    339          1.073972        2.481122  -0.028991  -0.000000
    340          1.119236        2.487887  -0.033598  -0.000000
    341          1.148980        2.496858  -0.025723  -0.000000
    342          1.169699        2.507991  -0.019399  -0.000000
    343          1.207321        2.513742  -0.009913  -0.000000
    344          1.227673        2.520611  -0.006397  -0.000000
    345          1.265239        2.524635  -0.002516  -0.000000
    346          1.286618        2.538953  -0.001381  -0.000000
    347          1.317990        2.543991  -0.000526  -0.000000
    348          1.376837        2.549325  -0.000066  -0.000000
    349          1.403216        2.562301  -0.000023  -0.000000
    350          1.432876        2.566709  -0.000007  -0.000000
    351          1.477965        2.577845  -0.000001  -0.000000
    352          1.520644        2.582710  -0.000000  -0.000000
    353          1.539493        2.588988  -0.000000  -0.000000
    354          1.569483        2.597227  -0.000000  -0.000000
    355          1.611335        2.609820  -0.000000  -0.000000
    356          1.647397        2.621977  -0.000000  -0.000000
    357          1.670494        2.629364  -0.000000  -0.000000
    358          1.682745        2.636334  -0.000000  -0.000000
    359          1.710638        2.644105  -0.000000  -0.000000
    360          1.740585        2.648964  -0.000000  -0.000000
    361          1.763584        2.657776  -0.000000  -0.000000
    362          1.823909        2.677306  -0.000000  -0.000000
    363          1.865689        2.694567  -0.000000  -0.000000
    364          1.914210        2.720456  -0.000000  -0.000000
    365          1.931980        2.741723  -0.000000  -0.000000
    366          1.949335        2.749383  -0.000000  -0.000000
    367          1.986506        2.793984  -0.000000  -0.000000
    368          2.012048        2.818328  -0.000000  -0.000000
    369          2.058126        2.868852  -0.000000  -0.000000
 
 -0.1250000E+00  0.3750000E+00  0.0000000E+00  0.1250000E+00
      1        -42.532847      -43.358143   1.000000   1.000000
      2        -42.478019      -43.353712   1.000000   1.000000
      3        -42.406202      -43.321068   1.000000   1.000000
      4        -42.353779      -43.318463   1.000000   1.000000
      5        -42.320658      -43.299951   1.000000   1.000000
      6        -42.303721      -43.288614   1.000000   1.000000
      7        -42.286684      -43.235435   1.000000   1.000000
      8        -42.281507      -43.162359   1.000000   1.000000
      9        -42.229610      -43.154464   1.000000   1.000000
     10        -42.219027      -43.070598   1.000000   1.000000
     11        -42.202948      -43.014998   1.000000   1.000000
     12        -42.162846      -42.960112   1.000000   1.000000
     13        -42.135868      -42.910306   1.000000   1.000000
     14        -42.123693      -42.862378   1.000000   1.000000
     15        -42.096207      -42.792789   1.000000   1.000000
     16        -42.052711      -42.768930   1.000000   1.000000
     17        -42.023080      -42.752058   1.000000   1.000000
     18        -41.999703      -42.701849   1.000000   1.000000
     19        -41.971611      -42.612942   1.000000   1.000000
     20        -41.942508      -42.603908   1.000000   1.000000
     21        -41.926877      -42.569766   1.000000   1.000000
     22        -41.907685      -42.555291   1.000000   1.000000
     23        -41.889013      -42.549952   1.000000   1.000000
     24        -41.855811      -42.512594   1.000000   1.000000
     25        -41.852881      -42.386252   1.000000   1.000000
     26        -41.776360      -42.377861   1.000000   1.000000
     27        -41.773436      -42.305905   1.000000   1.000000
     28        -41.761111      -42.215605   1.000000   1.000000
     29        -41.756737      -42.142277   1.000000   1.000000
     30        -41.740368      -41.990534   1.000000   1.000000
     31        -41.710762      -41.869679   1.000000   1.000000
     32        -41.693216      -41.838377   1.000000   1.000000
     33        -41.691670      -41.804933   1.000000   1.000000
     34        -40.332859      -41.784749   1.000000   1.000000
     35        -40.284414      -41.748025   1.000000   1.000000
     36        -40.236080      -41.721000   1.000000   1.000000
     37        -40.184587      -41.671954   1.000000   1.000000
     38        -40.170076      -41.577670   1.000000   1.000000
     39        -40.057318      -41.418577   1.000000   1.000000
     40        -15.561994      -15.572022   1.000000   1.000000
     41        -15.555806      -15.560731   1.000000   1.000000
     42        -15.550858      -15.553083   1.000000   1.000000
     43        -15.538544      -15.547544   1.000000   1.000000
     44        -15.514579      -15.519986   1.000000   1.000000
     45         -7.884327       -7.888657   1.000000   1.000000
     46         -6.845022       -6.723132   1.000000   1.000000
     47         -6.344018       -6.205257   1.000000   1.000000
     48         -5.880725       -5.734021   1.000000   1.000000
     49         -5.432384       -5.274069   1.000000   1.000000
     50         -5.364230       -5.178847   1.000000   1.000000
     51         -4.987716       -4.774494   1.000000   1.000000
     52         -4.697284       -4.440535   1.000000   1.000000
     53         -4.634385       -4.382259   1.000000   1.000000
     54         -4.575597       -4.319648   1.000000   1.000000
     55         -4.343920       -4.018036   1.000000   1.000000
     56         -4.299674       -3.993959   1.000000   1.000000
     57         -4.191815       -3.879591   1.000000   1.000000
     58         -4.101164       -3.659353   1.000000   1.000000
     59         -4.030411       -3.612450   1.000000   1.000000
     60         -3.998650       -3.384101   1.000000   1.000000
     61         -3.980434       -3.290163   1.000000   1.000000
     62         -3.873122       -3.248181   1.000000   1.000000
     63         -3.840955       -3.131034   1.000000   1.000000
     64         -3.816840       -3.113889   1.000000   1.000000
     65         -3.782119       -3.051627   1.000000   1.000000
     66         -3.750410       -3.021086   1.000000   1.000000
     67         -3.744057       -3.004093   1.000000   1.000000
     68         -3.721813       -2.924133   1.000000   1.000000
     69         -3.701732       -2.892890   1.000000   1.000000
     70         -3.696538       -2.843600   1.000000   1.000000
     71         -3.627359       -2.758414   1.000000   1.000000
     72         -3.575183       -2.709060   1.000000   1.000000
     73         -3.557410       -2.633897   1.000000   1.000000
     74         -3.546090       -2.611264   1.000000   1.000000
     75         -3.524040       -2.576314   1.000000   1.000000
     76         -3.496036       -2.511094   1.000000   1.000000
     77         -3.481152       -2.460421   1.000000   1.000000
     78         -3.466538       -2.417947   1.000000   1.000000
     79         -3.437368       -2.370449   1.000000   1.000000
     80         -3.402237       -2.327429   1.000000   1.000000
     81         -3.389350       -2.299936   1.000000   1.000000
     82         -3.312239       -2.261542   1.000000   1.000000
     83         -3.275919       -2.239833   1.000000   1.000000
     84         -3.259220       -2.205785   1.000000   1.000000
     85         -3.242746       -2.182044   1.000000   1.000000
     86         -3.220953       -2.145784   1.000000   1.000000
     87         -3.206102       -2.116432   1.000000   1.000000
     88         -3.200143       -2.091736   1.000000   1.000000
     89         -3.184080       -2.073065   1.000000   1.000000
     90         -3.164874       -2.038336   1.000000   1.000000
     91         -3.156141       -2.030670   1.000000   1.000000
     92         -3.150365       -2.001752   1.000000   1.000000
     93         -3.122267       -1.994372   1.000000   1.000000
     94         -3.094919       -1.965255   1.000000   1.000000
     95         -3.084781       -1.953352   1.000000   1.000000
     96         -3.076116       -1.923677   1.000000   1.000000
     97         -3.065970       -1.901637   1.000000   1.000000
     98         -3.046766       -1.864863   1.000000   1.000000
     99         -3.028580       -1.822942   1.000000   1.000000
    100         -2.996683       -1.804696   1.000000   1.000000
    101         -2.975241       -1.775799   1.000000   1.000000
    102         -2.953565       -1.739920   1.000000   1.000000
    103         -2.907192       -1.703049   1.000000   1.000000
    104         -2.893675       -1.682443   1.000000   1.000000
    105         -2.842787       -1.644562   1.000000   1.000000
    106         -2.832093       -1.617768   1.000000   1.000000
    107         -2.797353       -1.606074   1.000000   1.000000
    108         -2.793983       -1.568855   1.000000   1.000000
    109         -2.771386       -1.533798   1.000000   1.000000
    110         -2.733462       -1.512041   1.000000   1.000000
    111         -2.722526       -1.491134   1.000000   1.000000
    112         -2.695425       -1.444339   1.000000   1.000000
    113         -2.687148       -1.425594   1.000000   1.000000
    114         -2.680418       -1.406005   1.000000   1.000000
    115         -2.663674       -1.363754   1.000000   1.000000
    116         -2.650192       -1.349126   1.000000   1.000000
    117         -2.629335       -1.312855   1.000000   1.000000
    118         -2.612811       -1.299141   1.000000   1.000000
    119         -2.603319       -1.285266   1.000000   1.000000
    120         -2.592171       -1.260081   1.000000   1.000000
    121         -2.573038       -1.236922   1.000000   1.000000
    122         -2.561939       -1.203688   1.000000   1.000000
    123         -2.546258       -1.184071   1.000000   1.000000
    124         -2.528320       -1.164794   1.000000   1.000000
    125         -2.513892       -1.136973   1.000000   1.000000
    126         -2.511075       -1.131515   1.000000   1.000000
    127         -2.496578       -1.121581   1.000000   1.000000
    128         -2.485043       -1.106664   1.000000   1.000000
    129         -2.468834       -1.083437   1.000000   1.000000
    130         -2.457339       -1.060947   1.000000   1.000000
    131         -2.446842       -1.052323   1.000000   1.000000
    132         -2.429113       -1.039745   1.000000   1.000000
    133         -2.423455       -1.023449   1.000000   1.000000
    134         -2.412167       -1.009492   1.000000   1.000000
    135         -2.390590       -1.002213   1.000000   1.000000
    136         -2.382648       -0.992353   1.000000   1.000000
    137         -2.369597       -0.971251   1.000000   1.000000
    138         -2.359369       -0.944793   1.000000   1.000000
    139         -2.327844       -0.925777   1.000000   1.000000
    140         -2.320904       -0.908511   1.000000   1.000000
    141         -2.301176       -0.895719   1.000000   1.000000
    142         -2.287523       -0.871970   1.000000   1.000000
    143         -2.269647       -0.861180   1.000000   1.000000
    144         -2.244852       -0.839977   1.000000   1.000000
    145         -2.236415       -0.821853   1.000000   1.000000
    146         -2.228101       -0.815350   1.000000   1.000000
    147         -2.212591       -0.783299   1.000000   1.000000
    148         -2.204955       -0.774552   1.000000   1.000000
    149         -2.182894       -0.743699   1.000000   1.000000
    150         -2.171624       -0.735565   1.000000   1.000000
    151         -2.153005       -0.720526   1.000000   1.000000
    152         -2.140114       -0.697138   1.000000   1.000000
    153         -2.118604       -0.695971   1.000000   1.000000
    154         -2.113992       -0.669986   1.000000   1.000000
    155         -2.099733       -0.654333   1.000000   1.000000
    156         -2.083844       -0.642259   1.000000   1.000000
    157         -2.071830       -0.617368   1.000000   1.000000
    158         -2.059682       -0.613954   1.000000   1.000000
    159         -2.036680       -0.586683   1.000000   1.000000
    160         -2.031953       -0.584014   1.000000   1.000000
    161         -2.014999       -0.567356   1.000000   1.000000
    162         -2.010825       -0.559229   1.000000   1.000000
    163         -1.988895       -0.537322   1.000000   1.000000
    164         -1.978231       -0.522271   1.000000   1.000000
    165         -1.964526       -0.511392   1.000000   1.000000
    166         -1.939463       -0.499479   1.000000   1.000000
    167         -1.922397       -0.485682   1.000000   1.000000
    168         -1.904180       -0.462031   1.000000   1.000000
    169         -1.902166       -0.442371   1.000000   1.000000
    170         -1.883857       -0.420187   1.000000   1.000000
    171         -1.878467       -0.414911   1.000000   1.000000
    172         -1.863835       -0.407543   1.000000   1.000000
    173         -1.845752       -0.369582   1.000000   1.000000
    174         -1.837605       -0.363051   1.000000   1.000000
    175         -1.824559       -0.351166   1.000000   1.000000
    176         -1.799627       -0.331335   1.000000   1.000000
    177         -1.783962       -0.314162   1.000000   1.000000
    178         -1.770417       -0.306963   1.000000   1.000000
    179         -1.765709       -0.300852   1.000000   1.000000
    180         -1.746578       -0.282227   1.000000   1.000000
    181         -1.735717       -0.255119   1.000000   1.000000
    182         -1.730543       -0.242380   1.000000   1.000000
    183         -1.706985       -0.221647   1.000000   1.000000
    184         -1.695953       -0.211159   1.000000   1.000000
    185         -1.657124       -0.205829   1.000000   1.000000
    186         -1.651066       -0.181312   1.000000   1.000000
    187         -1.639813       -0.166597   1.000000   1.000000
    188         -1.632805       -0.148012   1.000000   1.000000
    189         -1.613572       -0.130422   1.000000   1.000000
    190         -1.601378       -0.116961   1.000000   1.000000
    191         -1.585096       -0.092470   1.000000   1.000000
    192         -1.577230       -0.069500   1.000000   1.000000
    193         -1.566782       -0.058353   1.000000   1.000000
    194         -1.559055       -0.038659   1.000000   1.000000
    195         -1.535711       -0.009737   1.000000   1.000000
    196         -1.517859       -0.005207   1.000000   1.000000
    197         -1.502002        0.015707   1.000000   1.000000
    198         -1.493395        0.030628   1.000000   1.000000
    199         -1.484356        0.054183   1.000000   1.000000
    200         -1.461185        0.064732   1.000000   1.000000
    201         -1.432439        0.086239   1.000000   1.000000
    202         -1.426906        0.132601   1.000000   1.000000
    203         -1.412256        0.153091   1.000000   1.000000
    204         -1.401727        0.172171   1.000000   1.000000
    205         -1.379498        0.186652   1.000000   1.000000
    206         -1.361259        0.235178   1.000000   1.000000
    207         -1.336613        0.256885   1.000000   1.000000
    208         -1.316350        0.263506   1.000000   1.000000
    209         -1.301034        0.300151   1.000000   1.000000
    210         -1.286172        0.306227   1.000000   1.000000
    211         -1.271669        0.355778   1.000000   1.000001
    212         -1.236480        0.376702   1.000000   1.000002
    213         -1.226361        0.426254   1.000000   1.000018
    214         -1.199453        0.443770   1.000000   1.000037
    215         -1.190343        0.509847   1.000000   1.000413
    216         -1.161338        0.540706   1.000000   1.001094
    217         -1.142850        0.565562   1.000000   1.002232
    218         -1.124235        0.582730   1.000000   1.003515
    219         -1.083465        0.640378   1.000000   1.012650
    220         -1.080422        0.663227   1.000000   1.018729
    221         -1.049386        0.679717   1.000000   1.023718
    222         -1.026772        0.702364   1.000000   1.030428
    223         -1.015846        0.734109   1.000000   1.035458
    224         -0.987705        0.769319   1.000000   1.023899
    225         -0.964876        0.802500   1.000000   0.981217
    226         -0.935258        0.816488   1.000000   0.950503
    227         -0.919329        0.830831   1.000000   0.910123
    228         -0.899746        0.877660   1.000000   0.716734
    229         -0.885472        0.911981   1.000000   0.531695
    230         -0.866568        0.939361   1.000000   0.378665
    231         -0.846520        0.956115   1.000000   0.290459
    232         -0.826771        0.990948   1.000000   0.136023
    233         -0.821463        1.001640   1.000000   0.098623
    234         -0.800631        1.015813   1.000000   0.056934
    235         -0.776367        1.036385   1.000000   0.012059
    236         -0.760760        1.051988   1.000000  -0.010680
    237         -0.748953        1.076040   1.000000  -0.030023
    238         -0.717500        1.107891   1.000000  -0.035179
    239         -0.707125        1.146147   1.000000  -0.026587
    240         -0.691508        1.165176   1.000000  -0.020751
    241         -0.677266        1.173618   1.000000  -0.018253
    242         -0.673831        1.196983   1.000000  -0.012146
    243         -0.659615        1.210256   1.000000  -0.009335
    244         -0.651519        1.231576   1.000000  -0.005849
    245         -0.629930        1.256716   1.000000  -0.003152
    246         -0.625288        1.268240   1.000000  -0.002319
    247         -0.614115        1.301983   1.000000  -0.000872
    248         -0.603435        1.309107   1.000000  -0.000698
    249         -0.592784        1.321532   1.000000  -0.000469
    250         -0.572290        1.349296   1.000000  -0.000182
    251         -0.561060        1.364199   1.000000  -0.000106
    252         -0.555613        1.409740   1.000000  -0.000018
    253         -0.541505        1.449725   1.000000  -0.000003
    254         -0.529688        1.461609   1.000000  -0.000002
    255         -0.523486        1.491033   1.000000  -0.000000
    256         -0.502793        1.516116   1.000000  -0.000000
    257         -0.483226        1.539230   1.000000  -0.000000
    258         -0.474353        1.551353   1.000000  -0.000000
    259         -0.466301        1.561980   1.000000  -0.000000
    260         -0.450013        1.585372   1.000000  -0.000000
    261         -0.442801        1.613698   1.000000  -0.000000
    262         -0.432847        1.627374   1.000000  -0.000000
    263         -0.416677        1.641879   1.000000  -0.000000
    264         -0.409744        1.652947   1.000000  -0.000000
    265         -0.402174        1.661438   1.000000  -0.000000
    266         -0.392464        1.669779   1.000000  -0.000000
    267         -0.388615        1.681063   1.000000  -0.000000
    268         -0.368674        1.690325   1.000000  -0.000000
    269         -0.359745        1.704869   1.000000  -0.000000
    270         -0.353149        1.722508   1.000000  -0.000000
    271         -0.348832        1.725427   1.000000  -0.000000
    272         -0.333653        1.749071   1.000000  -0.000000
    273         -0.316542        1.755960   1.000000  -0.000000
    274         -0.308409        1.772232   1.000000  -0.000000
    275         -0.295144        1.793431   1.000000  -0.000000
    276         -0.283349        1.802489   1.000000  -0.000000
    277         -0.280449        1.814000   1.000000  -0.000000
    278         -0.267553        1.823154   1.000000  -0.000000
    279         -0.253924        1.835573   1.000000  -0.000000
    280         -0.240336        1.849880   1.000000  -0.000000
    281         -0.234895        1.862521   1.000000  -0.000000
    282         -0.222207        1.880227   1.000000  -0.000000
    283         -0.214792        1.890785   1.000000  -0.000000
    284         -0.205730        1.903573   1.000000  -0.000000
    285         -0.193730        1.910418   1.000000  -0.000000
    286         -0.167702        1.919723   1.000000  -0.000000
    287         -0.155990        1.934952   1.000000  -0.000000
    288         -0.151475        1.951985   1.000000  -0.000000
    289         -0.133367        1.958309   1.000000  -0.000000
    290         -0.111291        1.961176   1.000000  -0.000000
    291         -0.104216        1.978796   1.000000  -0.000000
    292         -0.082588        1.982833   1.000000  -0.000000
    293         -0.066023        1.993180   1.000000  -0.000000
    294         -0.044911        1.998545   1.000000  -0.000000
    295         -0.021637        2.009382   1.000000  -0.000000
    296         -0.013177        2.020530   1.000000  -0.000000
    297          0.011560        2.031012   1.000000  -0.000000
    298          0.022477        2.043677   1.000000  -0.000000
    299          0.068676        2.060248   1.000000  -0.000000
    300          0.082871        2.064648   1.000000  -0.000000
    301          0.109221        2.070850   1.000000  -0.000000
    302          0.128952        2.085958   1.000000  -0.000000
    303          0.134109        2.094845   1.000000  -0.000000
    304          0.167746        2.100024   1.000000  -0.000000
    305          0.192593        2.107059   1.000000  -0.000000
    306          0.225450        2.120478   1.000000  -0.000000
    307          0.243246        2.130772   1.000000  -0.000000
    308          0.261622        2.144650   1.000000  -0.000000
    309          0.285981        2.147377   1.000000  -0.000000
    310          0.292016        2.157166   1.000000  -0.000000
    311          0.327786        2.168291   1.000000  -0.000000
    312          0.353461        2.178125   1.000001  -0.000000
    313          0.367864        2.193163   1.000001  -0.000000
    314          0.403284        2.198092   1.000007  -0.000000
    315          0.422451        2.209544   1.000016  -0.000000
    316          0.466177        2.225281   1.000089  -0.000000
    317          0.495096        2.245558   1.000251  -0.000000
    318          0.515426        2.247663   1.000496  -0.000000
    319          0.537255        2.263559   1.000986  -0.000000
    320          0.556282        2.272252   1.001724  -0.000000
    321          0.591566        2.285609   1.004386  -0.000000
    322          0.603726        2.299453   1.005862  -0.000000
    323          0.624571        2.313708   1.009262  -0.000000
    324          0.654849        2.327609   1.016355  -0.000000
    325          0.678319        2.349819   1.023287  -0.000000
    326          0.706453        2.355209   1.031488  -0.000000
    327          0.723320        2.367814   1.034764  -0.000000
    328          0.736576        2.378123   1.035407  -0.000000
    329          0.776278        2.392059   1.018037  -0.000000
    330          0.801196        2.406220   0.983662  -0.000000
    331          0.828864        2.415045   0.916206  -0.000000
    332          0.878670        2.430421   0.711663  -0.000000
    333          0.887922        2.447853   0.663874  -0.000000
    334          0.954087        2.450410   0.300760  -0.000000
    335          0.971132        2.458282   0.218264  -0.000000
    336          0.994450        2.466214   0.123214  -0.000000
    337          1.026974        2.479823   0.030363  -0.000000
    338          1.047407        2.484838  -0.004932  -0.000000
    339          1.092500        2.494626  -0.034882  -0.000000
    340          1.101001        2.503667  -0.035457  -0.000000
    341          1.149283        2.509821  -0.025630  -0.000000
    342          1.178452        2.520766  -0.016882  -0.000000
    343          1.192881        2.526471  -0.013116  -0.000000
    344          1.218995        2.532936  -0.007758  -0.000000
    345          1.260312        2.543017  -0.002869  -0.000000
    346          1.291106        2.547990  -0.001211  -0.000000
    347          1.322701        2.555896  -0.000451  -0.000000
    348          1.350885        2.561302  -0.000172  -0.000000
    349          1.382243        2.572658  -0.000054  -0.000000
    350          1.409764        2.583450  -0.000018  -0.000000
    351          1.443167        2.597859  -0.000004  -0.000000
    352          1.477678        2.612724  -0.000001  -0.000000
    353          1.503262        2.620245  -0.000000  -0.000000
    354          1.545480        2.628053  -0.000000  -0.000000
    355          1.597265        2.642806  -0.000000  -0.000000
    356          1.628113        2.662114  -0.000000  -0.000000
    357          1.644507        2.682523  -0.000000  -0.000000
    358          1.675579        2.691166  -0.000000  -0.000000
    359          1.705449        2.709988  -0.000000  -0.000000
    360          1.718084        2.714122  -0.000000  -0.000000
    361          1.760893        2.724937  -0.000000  -0.000000
    362          1.779898        2.734087  -0.000000  -0.000000
    363          1.825715        2.757716  -0.000000  -0.000000
    364          1.848301        2.777186  -0.000000  -0.000000
    365          1.883406        2.791534  -0.000000  -0.000000
    366          1.901123        2.799780  -0.000000  -0.000000
    367          1.943835        2.814790  -0.000000  -0.000000
    368          1.975016        2.838677  -0.000000  -0.000000
    369          2.022595        2.849566  -0.000000  -0.000000
