ni3al                                   
           1
     8.526200    0.000000    0.000000
    -0.001766    8.504600    0.000000
     0.000000    0.000000   23.555800
   Pb   Cr   Fe
     1    13    49
Direct configuration=     1
   0.27350328  0.41765207  0.41823537
   0.99962000  0.33431000  0.00199000
   0.99037204  0.34347693  0.37121890
   0.35599761  0.69376544  0.35884831
   0.66879000  0.99689000  0.12225000
   0.16344912  0.83966028  0.29851182
   0.83025576  0.83417905  0.30237450
   0.33662000  0.99784000  0.24172000
   0.00240000  0.33332000  0.24079000
   0.00127000  0.66476000  0.12046000
   0.33922000  0.33072000  0.00000000
   0.33524000  0.67037000  0.00023000
   0.50272000  0.83391000  0.18098000
   0.83779000  0.49999000  0.06135000
   0.66882000  0.66655000  0.00068000
   0.50222000  0.83318000  0.06077000
   0.16894000  0.83304000  0.06062000
   0.01008034  0.65587308  0.36069865
   0.00239000  0.66441000  0.00051000
   0.67526149  0.33654791  0.36068947
   0.66930000  0.33358000  0.00050000
   0.50215000  0.49992000  0.06086000
   0.83620000  0.83206000  0.06086000
   0.65887586  0.66474103  0.36410829
   0.66948000  0.99883000  0.00053000
   0.66696316  0.01058590  0.36059160
   0.32980023  0.98529280  0.35985614
   0.50343000  0.16520000  0.06105000
   0.16929000  0.16694000  0.06071000
   0.33657000  0.00075000  0.00067000
   0.00271000  0.99869000  0.00034000
   0.01291160  0.99831348  0.35866740
   0.83570000  0.16556000  0.06094000
   0.17061000  0.49746000  0.06032000
   0.49548466  0.17396343  0.30431064
   0.66988000  0.99924000  0.24142000
   0.66965000  0.33304000  0.12103000
   0.83626000  0.49963000  0.18117000
   0.16899000  0.83329000  0.18177000
   0.33582000  0.66689000  0.12095000
   0.66914000  0.66722000  0.12117000
   0.83680000  0.83220000  0.18114000
   0.00172000  0.99944000  0.24151000
   0.17156550  0.17875430  0.30683760
   0.00260000  0.33284000  0.12101000
   0.16994000  0.49925000  0.18104000
   0.50164000  0.16594000  0.18135000
   0.83615000  0.16559000  0.18099000
   0.16980000  0.16587000  0.18099000
   0.33623000  0.99852000  0.12110000
   0.00245000  0.99865000  0.12117000
   0.33651000  0.33287000  0.12086000
   0.50180000  0.49937000  0.18123000
   0.17244815  0.50354394  0.30193453
   0.83926540  0.17207414  0.30404122
   0.50055181  0.49330543  0.30615408
   0.33524000  0.33246000  0.24183000
   0.83209028  0.49938973  0.30296514
   0.66902000  0.33317000  0.24123000
   0.33605000  0.66588000  0.24146000
   0.00318000  0.66598000  0.24177000
   0.66918000  0.66674000  0.24131000
   0.50466577  0.83926902  0.30096280
Direct configuration=     2
   0.27482962  0.41551465  0.41712352
   0.99962000  0.33431000  0.00199000
   0.98819092  0.34291876  0.36761644
   0.35336636  0.69233777  0.35940822
   0.66879000  0.99689000  0.12225000
   0.16470309  0.83844826  0.29911754
   0.83121142  0.83359293  0.30263165
   0.33662000  0.99784000  0.24172000
   0.00240000  0.33332000  0.24079000
   0.00127000  0.66476000  0.12046000
   0.33922000  0.33072000  0.00000000
   0.33524000  0.67037000  0.00023000
   0.50272000  0.83391000  0.18098000
   0.83779000  0.49999000  0.06135000
   0.66882000  0.66655000  0.00068000
   0.50222000  0.83318000  0.06077000
   0.16894000  0.83304000  0.06062000
   0.01090707  0.65581106  0.36088489
   0.00239000  0.66441000  0.00051000
   0.67574707  0.33606133  0.36151438
   0.66930000  0.33358000  0.00050000
   0.50215000  0.49992000  0.06086000
   0.83620000  0.83206000  0.06086000
   0.65925024  0.66473799  0.36345862
   0.66948000  0.99883000  0.00053000
   0.66609981  0.01005311  0.36034101
   0.32954404  0.98660249  0.36030452
   0.50343000  0.16520000  0.06105000
   0.16929000  0.16694000  0.06071000
   0.33657000  0.00075000  0.00067000
   0.00271000  0.99869000  0.00034000
   0.01272571  0.99924166  0.35899095
   0.83570000  0.16556000  0.06094000
   0.17061000  0.49746000  0.06032000
   0.49700771  0.17207277  0.30432608
   0.66988000  0.99924000  0.24142000
   0.66965000  0.33304000  0.12103000
   0.83626000  0.49963000  0.18117000
   0.16899000  0.83329000  0.18177000
   0.33582000  0.66689000  0.12095000
   0.66914000  0.66722000  0.12117000
   0.83680000  0.83220000  0.18114000
   0.00172000  0.99944000  0.24151000
   0.16951069  0.17888946  0.30715646
   0.00260000  0.33284000  0.12101000
   0.16994000  0.49925000  0.18104000
   0.50164000  0.16594000  0.18135000
   0.83615000  0.16559000  0.18099000
   0.16980000  0.16587000  0.18099000
   0.33623000  0.99852000  0.12110000
   0.00245000  0.99865000  0.12117000
   0.33651000  0.33287000  0.12086000
   0.50180000  0.49937000  0.18123000
   0.17105707  0.50221177  0.30308982
   0.83961681  0.17084762  0.30434822
   0.49931075  0.49447854  0.30568923
   0.33524000  0.33246000  0.24183000
   0.83497800  0.50014529  0.30360111
   0.66902000  0.33317000  0.24123000
   0.33605000  0.66588000  0.24146000
   0.00318000  0.66598000  0.24177000
   0.66918000  0.66674000  0.24131000
   0.50692505  0.84017284  0.30077067
Direct configuration=     3
   0.27643524  0.40991658  0.41524124
   0.99962000  0.33431000  0.00199000
   0.98603244  0.34192169  0.36265521
   0.35030729  0.69219834  0.35970187
   0.66879000  0.99689000  0.12225000
   0.16648503  0.83694832  0.29991999
   0.83309013  0.83277536  0.30292123
   0.33662000  0.99784000  0.24172000
   0.00240000  0.33332000  0.24079000
   0.00127000  0.66476000  0.12046000
   0.33922000  0.33072000  0.00000000
   0.33524000  0.67037000  0.00023000
   0.50272000  0.83391000  0.18098000
   0.83779000  0.49999000  0.06135000
   0.66882000  0.66655000  0.00068000
   0.50222000  0.83318000  0.06077000
   0.16894000  0.83304000  0.06062000
   0.01266200  0.65723066  0.36141989
   0.00239000  0.66441000  0.00051000
   0.67590329  0.33576816  0.36221071
   0.66930000  0.33358000  0.00050000
   0.50215000  0.49992000  0.06086000
   0.83620000  0.83206000  0.06086000
   0.65961880  0.66465235  0.36243356
   0.66948000  0.99883000  0.00053000
   0.66495876  0.00884976  0.36027284
   0.32986853  0.98818354  0.36085539
   0.50343000  0.16520000  0.06105000
   0.16929000  0.16694000  0.06071000
   0.33657000  0.00075000  0.00067000
   0.00271000  0.99869000  0.00034000
   0.01272326  1.00008611  0.35955479
   0.83570000  0.16556000  0.06094000
   0.17061000  0.49746000  0.06032000
   0.49867461  0.17058438  0.30429078
   0.66988000  0.99924000  0.24142000
   0.66965000  0.33304000  0.12103000
   0.83626000  0.49963000  0.18117000
   0.16899000  0.83329000  0.18177000
   0.33582000  0.66689000  0.12095000
   0.66914000  0.66722000  0.12117000
   0.83680000  0.83220000  0.18114000
   0.00172000  0.99944000  0.24151000
   0.16796203  0.17820958  0.30721555
   0.00260000  0.33284000  0.12101000
   0.16994000  0.49925000  0.18104000
   0.50164000  0.16594000  0.18135000
   0.83615000  0.16559000  0.18099000
   0.16980000  0.16587000  0.18099000
   0.33623000  0.99852000  0.12110000
   0.00245000  0.99865000  0.12117000
   0.33651000  0.33287000  0.12086000
   0.50180000  0.49937000  0.18123000
   0.16963162  0.50088502  0.30417855
   0.83879968  0.16913470  0.30442510
   0.49861799  0.49539705  0.30522897
   0.33524000  0.33246000  0.24183000
   0.83680038  0.50071059  0.30415647
   0.66902000  0.33317000  0.24123000
   0.33605000  0.66588000  0.24146000
   0.00318000  0.66598000  0.24177000
   0.66918000  0.66674000  0.24131000
   0.50747198  0.83997775  0.30113211
Direct configuration=     4
   0.27921435  0.40037612  0.41262750
   0.99962000  0.33431000  0.00199000
   0.98478454  0.34044981  0.35762125
   0.34695916  0.69234821  0.35984749
   0.66879000  0.99689000  0.12225000
   0.16784001  0.83586356  0.30054010
   0.83509398  0.83194978  0.30315249
   0.33662000  0.99784000  0.24172000
   0.00240000  0.33332000  0.24079000
   0.00127000  0.66476000  0.12046000
   0.33922000  0.33072000  0.00000000
   0.33524000  0.67037000  0.00023000
   0.50272000  0.83391000  0.18098000
   0.83779000  0.49999000  0.06135000
   0.66882000  0.66655000  0.00068000
   0.50222000  0.83318000  0.06077000
   0.16894000  0.83304000  0.06062000
   0.01464111  0.66026173  0.36209547
   0.00239000  0.66441000  0.00051000
   0.67571936  0.33551871  0.36247983
   0.66930000  0.33358000  0.00050000
   0.50215000  0.49992000  0.06086000
   0.83620000  0.83206000  0.06086000
   0.66011259  0.66435260  0.36140310
   0.66948000  0.99883000  0.00053000
   0.66384641  0.00722029  0.36041874
   0.33065328  0.99012770  0.36138605
   0.50343000  0.16520000  0.06105000
   0.16929000  0.16694000  0.06071000
   0.33657000  0.00075000  0.00067000
   0.00271000  0.99869000  0.00034000
   0.01279305  1.00035084  0.36025499
   0.83570000  0.16556000  0.06094000
   0.17061000  0.49746000  0.06032000
   0.49950395  0.17014530  0.30419613
   0.66988000  0.99924000  0.24142000
   0.66965000  0.33304000  0.12103000
   0.83626000  0.49963000  0.18117000
   0.16899000  0.83329000  0.18177000
   0.33582000  0.66689000  0.12095000
   0.66914000  0.66722000  0.12117000
   0.83680000  0.83220000  0.18114000
   0.00172000  0.99944000  0.24151000
   0.16790653  0.17657847  0.30684514
   0.00260000  0.33284000  0.12101000
   0.16994000  0.49925000  0.18104000
   0.50164000  0.16594000  0.18135000
   0.83615000  0.16559000  0.18099000
   0.16980000  0.16587000  0.18099000
   0.33623000  0.99852000  0.12110000
   0.00245000  0.99865000  0.12117000
   0.33651000  0.33287000  0.12086000
   0.50180000  0.49937000  0.18123000
   0.16870936  0.50043654  0.30461911
   0.83700769  0.16704685  0.30420749
   0.49858632  0.49580695  0.30496357
   0.33524000  0.33246000  0.24183000
   0.83649616  0.50184763  0.30417458
   0.66902000  0.33317000  0.24123000
   0.33605000  0.66588000  0.24146000
   0.00318000  0.66598000  0.24177000
   0.66918000  0.66674000  0.24131000
   0.50690841  0.83894118  0.30154875
Direct configuration=     5
   0.28071885  0.39844194  0.41238689
   0.99962000  0.33431000  0.00199000
   0.98582732  0.34025901  0.35882657
   0.34703811  0.69203207  0.35989582
   0.66879000  0.99689000  0.12225000
   0.16710011  0.83650803  0.30029686
   0.83472942  0.83231900  0.30309328
   0.33662000  0.99784000  0.24172000
   0.00240000  0.33332000  0.24079000
   0.00127000  0.66476000  0.12046000
   0.33922000  0.33072000  0.00000000
   0.33524000  0.67037000  0.00023000
   0.50272000  0.83391000  0.18098000
   0.83779000  0.49999000  0.06135000
   0.66882000  0.66655000  0.00068000
   0.50222000  0.83318000  0.06077000
   0.16894000  0.83304000  0.06062000
   0.01420364  0.66077617  0.36200091
   0.00239000  0.66441000  0.00051000
   0.67500825  0.33553516  0.36221571
   0.66930000  0.33358000  0.00050000
   0.50215000  0.49992000  0.06086000
   0.83620000  0.83206000  0.06086000
   0.66026396  0.66436997  0.36168403
   0.66948000  0.99883000  0.00053000
   0.66389536  0.00707932  0.36050020
   0.33089028  0.99006629  0.36133720
   0.50343000  0.16520000  0.06105000
   0.16929000  0.16694000  0.06071000
   0.33657000  0.00075000  0.00067000
   0.00271000  0.99869000  0.00034000
   0.01269667  0.99981166  0.36020110
   0.83570000  0.16556000  0.06094000
   0.17061000  0.49746000  0.06032000
   0.49901797  0.17063557  0.30426172
   0.66988000  0.99924000  0.24142000
   0.66965000  0.33304000  0.12103000
   0.83626000  0.49963000  0.18117000
   0.16899000  0.83329000  0.18177000
   0.33582000  0.66689000  0.12095000
   0.66914000  0.66722000  0.12117000
   0.83680000  0.83220000  0.18114000
   0.00172000  0.99944000  0.24151000
   0.16914724  0.17572735  0.30653478
   0.00260000  0.33284000  0.12101000
   0.16994000  0.49925000  0.18104000
   0.50164000  0.16594000  0.18135000
   0.83615000  0.16559000  0.18099000
   0.16980000  0.16587000  0.18099000
   0.33623000  0.99852000  0.12110000
   0.00245000  0.99865000  0.12117000
   0.33651000  0.33287000  0.12086000
   0.50180000  0.49937000  0.18123000
   0.16952793  0.50158069  0.30403499
   0.83627233  0.16638100  0.30394385
   0.49871392  0.49547902  0.30514730
   0.33524000  0.33246000  0.24183000
   0.83487073  0.50291383  0.30366097
   0.66902000  0.33317000  0.24123000
   0.33605000  0.66588000  0.24146000
   0.00318000  0.66598000  0.24177000
   0.66918000  0.66674000  0.24131000
   0.50663030  0.83890224  0.30143793
Direct configuration=     6
   0.28067710  0.40006210  0.41288546
   0.99962000  0.33431000  0.00199000
   0.98589082  0.34028879  0.36029530
   0.34770353  0.69198830  0.35988253
   0.66879000  0.99689000  0.12225000
   0.16694439  0.83672543  0.30016244
   0.83433035  0.83248272  0.30303592
   0.33662000  0.99784000  0.24172000
   0.00240000  0.33332000  0.24079000
   0.00127000  0.66476000  0.12046000
   0.33922000  0.33072000  0.00000000
   0.33524000  0.67037000  0.00023000
   0.50272000  0.83391000  0.18098000
   0.83779000  0.49999000  0.06135000
   0.66882000  0.66655000  0.00068000
   0.50222000  0.83318000  0.06077000
   0.16894000  0.83304000  0.06062000
   0.01368193  0.66017547  0.36185194
   0.00239000  0.66441000  0.00051000
   0.67511591  0.33557825  0.36217892
   0.66930000  0.33358000  0.00050000
   0.50215000  0.49992000  0.06086000
   0.83620000  0.83206000  0.06086000
   0.66026029  0.66439476  0.36183359
   0.66948000  0.99883000  0.00053000
   0.66418216  0.00749528  0.36043513
   0.33074185  0.98986255  0.36120882
   0.50343000  0.16520000  0.06105000
   0.16929000  0.16694000  0.06071000
   0.33657000  0.00075000  0.00067000
   0.00271000  0.99869000  0.00034000
   0.01248379  0.99987545  0.36005468
   0.83570000  0.16556000  0.06094000
   0.17061000  0.49746000  0.06032000
   0.49882115  0.17065028  0.30426967
   0.66988000  0.99924000  0.24142000
   0.66965000  0.33304000  0.12103000
   0.83626000  0.49963000  0.18117000
   0.16899000  0.83329000  0.18177000
   0.33582000  0.66689000  0.12095000
   0.66914000  0.66722000  0.12117000
   0.83680000  0.83220000  0.18114000
   0.00172000  0.99944000  0.24151000
   0.16922293  0.17609371  0.30659905
   0.00260000  0.33284000  0.12101000
   0.16994000  0.49925000  0.18104000
   0.50164000  0.16594000  0.18135000
   0.83615000  0.16559000  0.18099000
   0.16980000  0.16587000  0.18099000
   0.33623000  0.99852000  0.12110000
   0.00245000  0.99865000  0.12117000
   0.33651000  0.33287000  0.12086000
   0.50180000  0.49937000  0.18123000
   0.16976460  0.50168865  0.30385600
   0.83644955  0.16662374  0.30393608
   0.49862387  0.49546020  0.30517343
   0.33524000  0.33246000  0.24183000
   0.83478703  0.50278290  0.30360029
   0.66902000  0.33317000  0.24123000
   0.33605000  0.66588000  0.24146000
   0.00318000  0.66598000  0.24177000
   0.66918000  0.66674000  0.24131000
   0.50670909  0.83910822  0.30136795
Direct configuration=     7
   0.27780225  0.40085080  0.41289431
   0.99962000  0.33431000  0.00199000
   0.98716722  0.34125118  0.35821112
   0.34779846  0.69203112  0.35979740
   0.66879000  0.99689000  0.12225000
   0.16683045  0.83662793  0.30018231
   0.83414639  0.83248651  0.30307811
   0.33662000  0.99784000  0.24172000
   0.00240000  0.33332000  0.24079000
   0.00127000  0.66476000  0.12046000
   0.33922000  0.33072000  0.00000000
   0.33524000  0.67037000  0.00023000
   0.50272000  0.83391000  0.18098000
   0.83779000  0.49999000  0.06135000
   0.66882000  0.66655000  0.00068000
   0.50222000  0.83318000  0.06077000
   0.16894000  0.83304000  0.06062000
   0.01443715  0.65985195  0.36199761
   0.00239000  0.66441000  0.00051000
   0.67525883  0.33553534  0.36209945
   0.66930000  0.33358000  0.00050000
   0.50215000  0.49992000  0.06086000
   0.83620000  0.83206000  0.06086000
   0.65992301  0.66457393  0.36198047
   0.66948000  0.99883000  0.00053000
   0.66394796  0.00706774  0.36052942
   0.33074720  0.98922608  0.36126033
   0.50343000  0.16520000  0.06105000
   0.16929000  0.16694000  0.06071000
   0.33657000  0.00075000  0.00067000
   0.00271000  0.99869000  0.00034000
   0.01341375  0.99985724  0.36008179
   0.83570000  0.16556000  0.06094000
   0.17061000  0.49746000  0.06032000
   0.49889832  0.17077663  0.30427995
   0.66988000  0.99924000  0.24142000
   0.66965000  0.33304000  0.12103000
   0.83626000  0.49963000  0.18117000
   0.16899000  0.83329000  0.18177000
   0.33582000  0.66689000  0.12095000
   0.66914000  0.66722000  0.12117000
   0.83680000  0.83220000  0.18114000
   0.00172000  0.99944000  0.24151000
   0.16889098  0.17598316  0.30667898
   0.00260000  0.33284000  0.12101000
   0.16994000  0.49925000  0.18104000
   0.50164000  0.16594000  0.18135000
   0.83615000  0.16559000  0.18099000
   0.16980000  0.16587000  0.18099000
   0.33623000  0.99852000  0.12110000
   0.00245000  0.99865000  0.12117000
   0.33651000  0.33287000  0.12086000
   0.50180000  0.49937000  0.18123000
   0.16966869  0.50143979  0.30418478
   0.83687151  0.16709815  0.30421748
   0.49888683  0.49536192  0.30521267
   0.33524000  0.33246000  0.24183000
   0.83504737  0.50258729  0.30386223
   0.66902000  0.33317000  0.24123000
   0.33605000  0.66588000  0.24146000
   0.00318000  0.66598000  0.24177000
   0.66918000  0.66674000  0.24131000
   0.50662442  0.83906526  0.30135057
Direct configuration=     8
   0.28842286  0.39210420  0.41091300
   0.99962000  0.33431000  0.00199000
   0.98283119  0.33798225  0.36086568
   0.34543164  0.69192618  0.36017549
   0.66879000  0.99689000  0.12225000
   0.16770800  0.83660303  0.30048153
   0.83571517  0.83208459  0.30306116
   0.33662000  0.99784000  0.24172000
   0.00240000  0.33332000  0.24079000
   0.00127000  0.66476000  0.12046000
   0.33922000  0.33072000  0.00000000
   0.33524000  0.67037000  0.00023000
   0.50272000  0.83391000  0.18098000
   0.83779000  0.49999000  0.06135000
   0.66882000  0.66655000  0.00068000
   0.50222000  0.83318000  0.06077000
   0.16894000  0.83304000  0.06062000
   0.01344543  0.66238162  0.36190372
   0.00239000  0.66441000  0.00051000
   0.67455200  0.33550466  0.36240165
   0.66930000  0.33358000  0.00050000
   0.50215000  0.49992000  0.06086000
   0.83620000  0.83206000  0.06086000
   0.66118866  0.66381971  0.36108229
   0.66948000  0.99883000  0.00053000
   0.66390221  0.00723549  0.36041005
   0.33125970  0.99216745  0.36144961
   0.50343000  0.16520000  0.06105000
   0.16929000  0.16694000  0.06071000
   0.33657000  0.00075000  0.00067000
   0.00271000  0.99869000  0.00034000
   0.01090395  0.99996698  0.36033749
   0.83570000  0.16556000  0.06094000
   0.17061000  0.49746000  0.06032000
   0.49912940  0.17029779  0.30424941
   0.66988000  0.99924000  0.24142000
   0.66965000  0.33304000  0.12103000
   0.83626000  0.49963000  0.18117000
   0.16899000  0.83329000  0.18177000
   0.33582000  0.66689000  0.12095000
   0.66914000  0.66722000  0.12117000
   0.83680000  0.83220000  0.18114000
   0.00172000  0.99944000  0.24151000
   0.16929900  0.17527583  0.30629596
   0.00260000  0.33284000  0.12101000
   0.16994000  0.49925000  0.18104000
   0.50164000  0.16594000  0.18135000
   0.83615000  0.16559000  0.18099000
   0.16980000  0.16587000  0.18099000
   0.33623000  0.99852000  0.12110000
   0.00245000  0.99865000  0.12117000
   0.33651000  0.33287000  0.12086000
   0.50180000  0.49937000  0.18123000
   0.16880916  0.50161560  0.30378720
   0.83504670  0.16511660  0.30337542
   0.49811375  0.49582155  0.30499065
   0.33524000  0.33246000  0.24183000
   0.83480780  0.50314892  0.30328697
   0.66902000  0.33317000  0.24123000
   0.33605000  0.66588000  0.24146000
   0.00318000  0.66598000  0.24177000
   0.66918000  0.66674000  0.24131000
   0.50653826  0.83868536  0.30163077
Direct configuration=     9
   0.29714628  0.38314215  0.40867508
   0.99962000  0.33431000  0.00199000
   0.98110312  0.33576578  0.36301301
   0.34378279  0.69150344  0.36052749
   0.66879000  0.99689000  0.12225000
   0.16797057  0.83719078  0.30055117
   0.83621896  0.83206521  0.30296893
   0.33662000  0.99784000  0.24172000
   0.00240000  0.33332000  0.24079000
   0.00127000  0.66476000  0.12046000
   0.33922000  0.33072000  0.00000000
   0.33524000  0.67037000  0.00023000
   0.50272000  0.83391000  0.18098000
   0.83779000  0.49999000  0.06135000
   0.66882000  0.66655000  0.00068000
   0.50222000  0.83318000  0.06077000
   0.16894000  0.83304000  0.06062000
   0.01256925  0.66384765  0.36179206
   0.00239000  0.66441000  0.00051000
   0.67384141  0.33543621  0.36236021
   0.66930000  0.33358000  0.00050000
   0.50215000  0.49992000  0.06086000
   0.83620000  0.83206000  0.06086000
   0.66223406  0.66322669  0.36067137
   0.66948000  0.99883000  0.00053000
   0.66391971  0.00714860  0.36039471
   0.33184069  0.99437568  0.36155192
   0.50343000  0.16520000  0.06105000
   0.16929000  0.16694000  0.06071000
   0.33657000  0.00075000  0.00067000
   0.00271000  0.99869000  0.00034000
   0.00924991  1.00013634  0.36039739
   0.83570000  0.16556000  0.06094000
   0.17061000  0.49746000  0.06032000
   0.49889604  0.17027696  0.30428129
   0.66988000  0.99924000  0.24142000
   0.66965000  0.33304000  0.12103000
   0.83626000  0.49963000  0.18117000
   0.16899000  0.83329000  0.18177000
   0.33582000  0.66689000  0.12095000
   0.66914000  0.66722000  0.12117000
   0.83680000  0.83220000  0.18114000
   0.00172000  0.99944000  0.24151000
   0.16948894  0.17445213  0.30598887
   0.00260000  0.33284000  0.12101000
   0.16994000  0.49925000  0.18104000
   0.50164000  0.16594000  0.18135000
   0.83615000  0.16559000  0.18099000
   0.16980000  0.16587000  0.18099000
   0.33623000  0.99852000  0.12110000
   0.00245000  0.99865000  0.12117000
   0.33651000  0.33287000  0.12086000
   0.50180000  0.49937000  0.18123000
   0.16811150  0.50185366  0.30346579
   0.83370670  0.16398132  0.30287323
   0.49759456  0.49610291  0.30489129
   0.33524000  0.33246000  0.24183000
   0.83423795  0.50351144  0.30285362
   0.66902000  0.33317000  0.24123000
   0.33605000  0.66588000  0.24146000
   0.00318000  0.66598000  0.24177000
   0.66918000  0.66674000  0.24131000
   0.50613227  0.83842991  0.30179447
Direct configuration=    10
   0.30171428  0.37741664  0.40708813
   0.99962000  0.33431000  0.00199000
   0.98117150  0.33502107  0.36382501
   0.34318538  0.69087348  0.36077208
   0.66879000  0.99689000  0.12225000
   0.16776665  0.83779551  0.30050704
   0.83596929  0.83219104  0.30288618
   0.33662000  0.99784000  0.24172000
   0.00240000  0.33332000  0.24079000
   0.00127000  0.66476000  0.12046000
   0.33922000  0.33072000  0.00000000
   0.33524000  0.67037000  0.00023000
   0.50272000  0.83391000  0.18098000
   0.83779000  0.49999000  0.06135000
   0.66882000  0.66655000  0.00068000
   0.50222000  0.83318000  0.06077000
   0.16894000  0.83304000  0.06062000
   0.01201794  0.66428263  0.36167925
   0.00239000  0.66441000  0.00051000
   0.67340471  0.33541811  0.36219666
   0.66930000  0.33358000  0.00050000
   0.50215000  0.49992000  0.06086000
   0.83620000  0.83206000  0.06086000
   0.66264882  0.66301812  0.36067708
   0.66948000  0.99883000  0.00053000
   0.66389062  0.00695243  0.36042006
   0.33212330  0.99525940  0.36157521
   0.50343000  0.16520000  0.06105000
   0.16929000  0.16694000  0.06071000
   0.33657000  0.00075000  0.00067000
   0.00271000  0.99869000  0.00034000
   0.00874920  1.00017054  0.36033064
   0.83570000  0.16556000  0.06094000
   0.17061000  0.49746000  0.06032000
   0.49863264  0.17040403  0.30433152
   0.66988000  0.99924000  0.24142000
   0.66965000  0.33304000  0.12103000
   0.83626000  0.49963000  0.18117000
   0.16899000  0.83329000  0.18177000
   0.33582000  0.66689000  0.12095000
   0.66914000  0.66722000  0.12117000
   0.83680000  0.83220000  0.18114000
   0.00172000  0.99944000  0.24151000
   0.16930350  0.17403625  0.30584214
   0.00260000  0.33284000  0.12101000
   0.16994000  0.49925000  0.18104000
   0.50164000  0.16594000  0.18135000
   0.83615000  0.16559000  0.18099000
   0.16980000  0.16587000  0.18099000
   0.33623000  0.99852000  0.12110000
   0.00245000  0.99865000  0.12117000
   0.33651000  0.33287000  0.12086000
   0.50180000  0.49937000  0.18123000
   0.16771506  0.50190506  0.30336201
   0.83349096  0.16405311  0.30282708
   0.49754037  0.49630713  0.30485825
   0.33524000  0.33246000  0.24183000
   0.83413636  0.50328182  0.30280544
   0.66902000  0.33317000  0.24123000
   0.33605000  0.66588000  0.24146000
   0.00318000  0.66598000  0.24177000
   0.66918000  0.66674000  0.24131000
   0.50582484  0.83831507  0.30185494
Direct configuration=    11
   0.31426502  0.36146957  0.40253471
   0.99962000  0.33431000  0.00199000
   0.98153340  0.33342051  0.36558446
   0.34178768  0.68878812  0.36147296
   0.66879000  0.99689000  0.12225000
   0.16715110  0.83926864  0.30042071
   0.83513787  0.83242709  0.30267444
   0.33662000  0.99784000  0.24172000
   0.00240000  0.33332000  0.24079000
   0.00127000  0.66476000  0.12046000
   0.33922000  0.33072000  0.00000000
   0.33524000  0.67037000  0.00023000
   0.50272000  0.83391000  0.18098000
   0.83779000  0.49999000  0.06135000
   0.66882000  0.66655000  0.00068000
   0.50222000  0.83318000  0.06077000
   0.16894000  0.83304000  0.06062000
   0.01040356  0.66552533  0.36129500
   0.00239000  0.66441000  0.00051000
   0.67223981  0.33546713  0.36184404
   0.66930000  0.33358000  0.00050000
   0.50215000  0.49992000  0.06086000
   0.83620000  0.83206000  0.06086000
   0.66360530  0.66257019  0.36071358
   0.66948000  0.99883000  0.00053000
   0.66377863  0.00642662  0.36042969
   0.33262169  0.99724164  0.36159920
   0.50343000  0.16520000  0.06105000
   0.16929000  0.16694000  0.06071000
   0.33657000  0.00075000  0.00067000
   0.00271000  0.99869000  0.00034000
   0.00764632  1.00004403  0.36014005
   0.83570000  0.16556000  0.06094000
   0.17061000  0.49746000  0.06032000
   0.49813133  0.17057595  0.30443280
   0.66988000  0.99924000  0.24142000
   0.66965000  0.33304000  0.12103000
   0.83626000  0.49963000  0.18117000
   0.16899000  0.83329000  0.18177000
   0.33582000  0.66689000  0.12095000
   0.66914000  0.66722000  0.12117000
   0.83680000  0.83220000  0.18114000
   0.00172000  0.99944000  0.24151000
   0.16844503  0.17310733  0.30542676
   0.00260000  0.33284000  0.12101000
   0.16994000  0.49925000  0.18104000
   0.50164000  0.16594000  0.18135000
   0.83615000  0.16559000  0.18099000
   0.16980000  0.16587000  0.18099000
   0.33623000  0.99852000  0.12110000
   0.00245000  0.99865000  0.12117000
   0.33651000  0.33287000  0.12086000
   0.50180000  0.49937000  0.18123000
   0.16651016  0.50192521  0.30318984
   0.83329358  0.16456097  0.30281610
   0.49776878  0.49711225  0.30466775
   0.33524000  0.33246000  0.24183000
   0.83439632  0.50238901  0.30286649
   0.66902000  0.33317000  0.24123000
   0.33605000  0.66588000  0.24146000
   0.00318000  0.66598000  0.24177000
   0.66918000  0.66674000  0.24131000
   0.50501819  0.83790408  0.30207892
Direct configuration=    12
   0.33139403  0.33939111  0.39605514
   0.99962000  0.33431000  0.00199000
   0.98253886  0.33179467  0.36749180
   0.34018703  0.68522774  0.36246472
   0.66879000  0.99689000  0.12225000
   0.16645118  0.84071573  0.30039279
   0.83404449  0.83254817  0.30243430
   0.33662000  0.99784000  0.24172000
   0.00240000  0.33332000  0.24079000
   0.00127000  0.66476000  0.12046000
   0.33922000  0.33072000  0.00000000
   0.33524000  0.67037000  0.00023000
   0.50272000  0.83391000  0.18098000
   0.83779000  0.49999000  0.06135000
   0.66882000  0.66655000  0.00068000
   0.50222000  0.83318000  0.06077000
   0.16894000  0.83304000  0.06062000
   0.00798357  0.66761260  0.36071570
   0.00239000  0.66441000  0.00051000
   0.67097679  0.33569984  0.36151928
   0.66930000  0.33358000  0.00050000
   0.50215000  0.49992000  0.06086000
   0.83620000  0.83206000  0.06086000
   0.66484195  0.66210970  0.36076026
   0.66948000  0.99883000  0.00053000
   0.66369005  0.00574622  0.36035762
   0.33278020  0.99903917  0.36154463
   0.50343000  0.16520000  0.06105000
   0.16929000  0.16694000  0.06071000
   0.33657000  0.00075000  0.00067000
   0.00271000  0.99869000  0.00034000
   0.00642697  0.99948055  0.35994130
   0.83570000  0.16556000  0.06094000
   0.17061000  0.49746000  0.06032000
   0.49794754  0.17038732  0.30440247
   0.66988000  0.99924000  0.24142000
   0.66965000  0.33304000  0.12103000
   0.83626000  0.49963000  0.18117000
   0.16899000  0.83329000  0.18177000
   0.33582000  0.66689000  0.12095000
   0.66914000  0.66722000  0.12117000
   0.83680000  0.83220000  0.18114000
   0.00172000  0.99944000  0.24151000
   0.16687100  0.17194731  0.30475682
   0.00260000  0.33284000  0.12101000
   0.16994000  0.49925000  0.18104000
   0.50164000  0.16594000  0.18135000
   0.83615000  0.16559000  0.18099000
   0.16980000  0.16587000  0.18099000
   0.33623000  0.99852000  0.12110000
   0.00245000  0.99865000  0.12117000
   0.33651000  0.33287000  0.12086000
   0.50180000  0.49937000  0.18123000
   0.16500661  0.50171240  0.30311718
   0.83333065  0.16530006  0.30286432
   0.49871129  0.49852067  0.30416912
   0.33524000  0.33246000  0.24183000
   0.83511081  0.50123616  0.30309314
   0.66902000  0.33317000  0.24123000
   0.33605000  0.66588000  0.24146000
   0.00318000  0.66598000  0.24177000
   0.66918000  0.66674000  0.24131000
   0.50391913  0.83722501  0.30241518
Direct configuration=    13
   0.32954169  0.34121961  0.39653300
   0.99962000  0.33431000  0.00199000
   0.98312733  0.33227014  0.36710254
   0.34048969  0.68467313  0.36251079
   0.66879000  0.99689000  0.12225000
   0.16654059  0.84033657  0.30041975
   0.83407735  0.83247247  0.30246678
   0.33662000  0.99784000  0.24172000
   0.00240000  0.33332000  0.24079000
   0.00127000  0.66476000  0.12046000
   0.33922000  0.33072000  0.00000000
   0.33524000  0.67037000  0.00023000
   0.50272000  0.83391000  0.18098000
   0.83779000  0.49999000  0.06135000
   0.66882000  0.66655000  0.00068000
   0.50222000  0.83318000  0.06077000
   0.16894000  0.83304000  0.06062000
   0.00797711  0.66778101  0.36073575
   0.00239000  0.66441000  0.00051000
   0.67175829  0.33582301  0.36155021
   0.66930000  0.33358000  0.00050000
   0.50215000  0.49992000  0.06086000
   0.83620000  0.83206000  0.06086000
   0.66480064  0.66221697  0.36076607
   0.66948000  0.99883000  0.00053000
   0.66377306  0.00576734  0.36030304
   0.33238361  0.99779926  0.36142376
   0.50343000  0.16520000  0.06105000
   0.16929000  0.16694000  0.06071000
   0.33657000  0.00075000  0.00067000
   0.00271000  0.99869000  0.00034000
   0.00667869  0.99923609  0.35998761
   0.83570000  0.16556000  0.06094000
   0.17061000  0.49746000  0.06032000
   0.49864681  0.16977831  0.30409839
   0.66988000  0.99924000  0.24142000
   0.66965000  0.33304000  0.12103000
   0.83626000  0.49963000  0.18117000
   0.16899000  0.83329000  0.18177000
   0.33582000  0.66689000  0.12095000
   0.66914000  0.66722000  0.12117000
   0.83680000  0.83220000  0.18114000
   0.00172000  0.99944000  0.24151000
   0.16666075  0.17189933  0.30467315
   0.00260000  0.33284000  0.12101000
   0.16994000  0.49925000  0.18104000
   0.50164000  0.16594000  0.18135000
   0.83615000  0.16559000  0.18099000
   0.16980000  0.16587000  0.18099000
   0.33623000  0.99852000  0.12110000
   0.00245000  0.99865000  0.12117000
   0.33651000  0.33287000  0.12086000
   0.50180000  0.49937000  0.18123000
   0.16532679  0.50151719  0.30324547
   0.83350933  0.16523832  0.30291602
   0.49916147  0.49862359  0.30401461
   0.33524000  0.33246000  0.24183000
   0.83515821  0.50140585  0.30316447
   0.66902000  0.33317000  0.24123000
   0.33605000  0.66588000  0.24146000
   0.00318000  0.66598000  0.24177000
   0.66918000  0.66674000  0.24131000
   0.50402864  0.83718104  0.30239686
Direct configuration=    14
   0.32945558  0.34063646  0.39628088
   0.99962000  0.33431000  0.00199000
   0.98396847  0.33264938  0.36685914
   0.34075176  0.68358535  0.36267967
   0.66879000  0.99689000  0.12225000
   0.16649026  0.84001398  0.30041680
   0.83399057  0.83241426  0.30246876
   0.33662000  0.99784000  0.24172000
   0.00240000  0.33332000  0.24079000
   0.00127000  0.66476000  0.12046000
   0.33922000  0.33072000  0.00000000
   0.33524000  0.67037000  0.00023000
   0.50272000  0.83391000  0.18098000
   0.83779000  0.49999000  0.06135000
   0.66882000  0.66655000  0.00068000
   0.50222000  0.83318000  0.06077000
   0.16894000  0.83304000  0.06062000
   0.00770258  0.66823003  0.36069844
   0.00239000  0.66441000  0.00051000
   0.67245067  0.33592416  0.36153171
   0.66930000  0.33358000  0.00050000
   0.50215000  0.49992000  0.06086000
   0.83620000  0.83206000  0.06086000
   0.66490329  0.66229319  0.36079256
   0.66948000  0.99883000  0.00053000
   0.66387845  0.00571677  0.36024903
   0.33196619  0.99658658  0.36125561
   0.50343000  0.16520000  0.06105000
   0.16929000  0.16694000  0.06071000
   0.33657000  0.00075000  0.00067000
   0.00271000  0.99869000  0.00034000
   0.00689064  0.99890751  0.36002145
   0.83570000  0.16556000  0.06094000
   0.17061000  0.49746000  0.06032000
   0.49919745  0.16924477  0.30385159
   0.66988000  0.99924000  0.24142000
   0.66965000  0.33304000  0.12103000
   0.83626000  0.49963000  0.18117000
   0.16899000  0.83329000  0.18177000
   0.33582000  0.66689000  0.12095000
   0.66914000  0.66722000  0.12117000
   0.83680000  0.83220000  0.18114000
   0.00172000  0.99944000  0.24151000
   0.16637804  0.17160911  0.30450711
   0.00260000  0.33284000  0.12101000
   0.16994000  0.49925000  0.18104000
   0.50164000  0.16594000  0.18135000
   0.83615000  0.16559000  0.18099000
   0.16980000  0.16587000  0.18099000
   0.33623000  0.99852000  0.12110000
   0.00245000  0.99865000  0.12117000
   0.33651000  0.33287000  0.12086000
   0.50180000  0.49937000  0.18123000
   0.16554494  0.50139833  0.30335657
   0.83376701  0.16521819  0.30297250
   0.49976233  0.49873915  0.30381695
   0.33524000  0.33246000  0.24183000
   0.83533279  0.50152695  0.30323119
   0.66902000  0.33317000  0.24123000
   0.33605000  0.66588000  0.24146000
   0.00318000  0.66598000  0.24177000
   0.66918000  0.66674000  0.24131000
   0.50399144  0.83693086  0.30241025
Direct configuration=    15
   0.33013360  0.33844633  0.39552718
   0.99962000  0.33431000  0.00199000
   0.98554616  0.33324679  0.36650432
   0.34128733  0.68152577  0.36298717
   0.66879000  0.99689000  0.12225000
   0.16629403  0.83940804  0.30036390
   0.83373798  0.83239423  0.30242056
   0.33662000  0.99784000  0.24172000
   0.00240000  0.33332000  0.24079000
   0.00127000  0.66476000  0.12046000
   0.33922000  0.33072000  0.00000000
   0.33524000  0.67037000  0.00023000
   0.50272000  0.83391000  0.18098000
   0.83779000  0.49999000  0.06135000
   0.66882000  0.66655000  0.00068000
   0.50222000  0.83318000  0.06077000
   0.16894000  0.83304000  0.06062000
   0.00714210  0.66912598  0.36061556
   0.00239000  0.66441000  0.00051000
   0.67359927  0.33601368  0.36144745
   0.66930000  0.33358000  0.00050000
   0.50215000  0.49992000  0.06086000
   0.83620000  0.83206000  0.06086000
   0.66519687  0.66236446  0.36085416
   0.66948000  0.99883000  0.00053000
   0.66407342  0.00559052  0.36016593
   0.33127297  0.99443176  0.36093544
   0.50343000  0.16520000  0.06105000
   0.16929000  0.16694000  0.06071000
   0.33657000  0.00075000  0.00067000
   0.00271000  0.99869000  0.00034000
   0.00729187  0.99834785  0.36007364
   0.83570000  0.16556000  0.06094000
   0.17061000  0.49746000  0.06032000
   0.49991377  0.16845832  0.30353653
   0.66988000  0.99924000  0.24142000
   0.66965000  0.33304000  0.12103000
   0.83626000  0.49963000  0.18117000
   0.16899000  0.83329000  0.18177000
   0.33582000  0.66689000  0.12095000
   0.66914000  0.66722000  0.12117000
   0.83680000  0.83220000  0.18114000
   0.00172000  0.99944000  0.24151000
   0.16603600  0.17087774  0.30418351
   0.00260000  0.33284000  0.12101000
   0.16994000  0.49925000  0.18104000
   0.50164000  0.16594000  0.18135000
   0.83615000  0.16559000  0.18099000
   0.16980000  0.16587000  0.18099000
   0.33623000  0.99852000  0.12110000
   0.00245000  0.99865000  0.12117000
   0.33651000  0.33287000  0.12086000
   0.50180000  0.49937000  0.18123000
   0.16587989  0.50139220  0.30348011
   0.83424896  0.16517400  0.30304728
   0.50077690  0.49878250  0.30351986
   0.33524000  0.33246000  0.24183000
   0.83569813  0.50172953  0.30329251
   0.66902000  0.33317000  0.24123000
   0.33605000  0.66588000  0.24146000
   0.00318000  0.66598000  0.24177000
   0.66918000  0.66674000  0.24131000
   0.50384575  0.83630883  0.30243823
Direct configuration=    16
   0.33141227  0.33565921  0.39468579
   0.99962000  0.33431000  0.00199000
   0.98675739  0.33359210  0.36628609
   0.34177787  0.67987429  0.36323049
   0.66879000  0.99689000  0.12225000
   0.16605234  0.83900364  0.30028087
   0.83352675  0.83244698  0.30235356
   0.33662000  0.99784000  0.24172000
   0.00240000  0.33332000  0.24079000
   0.00127000  0.66476000  0.12046000
   0.33922000  0.33072000  0.00000000
   0.33524000  0.67037000  0.00023000
   0.50272000  0.83391000  0.18098000
   0.83779000  0.49999000  0.06135000
   0.66882000  0.66655000  0.00068000
   0.50222000  0.83318000  0.06077000
   0.16894000  0.83304000  0.06062000
   0.00666571  0.66989104  0.36053484
   0.00239000  0.66441000  0.00051000
   0.67451104  0.33597994  0.36133827
   0.66930000  0.33358000  0.00050000
   0.50215000  0.49992000  0.06086000
   0.83620000  0.83206000  0.06086000
   0.66556255  0.66231841  0.36090789
   0.66948000  0.99883000  0.00053000
   0.66422923  0.00543398  0.36010683
   0.33077719  0.99262906  0.36068947
   0.50343000  0.16520000  0.06105000
   0.16929000  0.16694000  0.06071000
   0.33657000  0.00075000  0.00067000
   0.00271000  0.99869000  0.00034000
   0.00765063  0.99796684  0.36010769
   0.83570000  0.16556000  0.06094000
   0.17061000  0.49746000  0.06032000
   0.50028560  0.16793401  0.30339488
   0.66988000  0.99924000  0.24142000
   0.66965000  0.33304000  0.12103000
   0.83626000  0.49963000  0.18117000
   0.16899000  0.83329000  0.18177000
   0.33582000  0.66689000  0.12095000
   0.66914000  0.66722000  0.12117000
   0.83680000  0.83220000  0.18114000
   0.00172000  0.99944000  0.24151000
   0.16593939  0.17015324  0.30391041
   0.00260000  0.33284000  0.12101000
   0.16994000  0.49925000  0.18104000
   0.50164000  0.16594000  0.18135000
   0.83615000  0.16559000  0.18099000
   0.16980000  0.16587000  0.18099000
   0.33623000  0.99852000  0.12110000
   0.00245000  0.99865000  0.12117000
   0.33651000  0.33287000  0.12086000
   0.50180000  0.49937000  0.18123000
   0.16611331  0.50154121  0.30350011
   0.83461125  0.16512818  0.30307797
   0.50147347  0.49865560  0.30335373
   0.33524000  0.33246000  0.24183000
   0.83600980  0.50184266  0.30328785
   0.66902000  0.33317000  0.24123000
   0.33605000  0.66588000  0.24146000
   0.00318000  0.66598000  0.24177000
   0.66918000  0.66674000  0.24131000
   0.50374445  0.83574397  0.30244354
Direct configuration=    17
   0.33509453  0.32797438  0.39250637
   0.99962000  0.33431000  0.00199000
   0.98993515  0.33433326  0.36578333
   0.34309483  0.67558844  0.36382759
   0.66879000  0.99689000  0.12225000
   0.16538258  0.83789155  0.30004177
   0.83293645  0.83266095  0.30216210
   0.33662000  0.99784000  0.24172000
   0.00240000  0.33332000  0.24079000
   0.00127000  0.66476000  0.12046000
   0.33922000  0.33072000  0.00000000
   0.33524000  0.67037000  0.00023000
   0.50272000  0.83391000  0.18098000
   0.83779000  0.49999000  0.06135000
   0.66882000  0.66655000  0.00068000
   0.50222000  0.83318000  0.06077000
   0.16894000  0.83304000  0.06062000
   0.00551115  0.67176814  0.36032406
   0.00239000  0.66441000  0.00051000
   0.67683316  0.33576820  0.36104100
   0.66930000  0.33358000  0.00050000
   0.50215000  0.49992000  0.06086000
   0.83620000  0.83206000  0.06086000
   0.66663716  0.66200223  0.36099785
   0.66948000  0.99883000  0.00053000
   0.66453385  0.00497291  0.35996353
   0.32964628  0.98798280  0.36015962
   0.50343000  0.16520000  0.06105000
   0.16929000  0.16694000  0.06071000
   0.33657000  0.00075000  0.00067000
   0.00271000  0.99869000  0.00034000
   0.00862268  0.99717953  0.36017674
   0.83570000  0.16556000  0.06094000
   0.17061000  0.49746000  0.06032000
   0.50122798  0.16646564  0.30310739
   0.66988000  0.99924000  0.24142000
   0.66965000  0.33304000  0.12103000
   0.83626000  0.49963000  0.18117000
   0.16899000  0.83329000  0.18177000
   0.33582000  0.66689000  0.12095000
   0.66914000  0.66722000  0.12117000
   0.83680000  0.83220000  0.18114000
   0.00172000  0.99944000  0.24151000
   0.16582734  0.16824653  0.30321647
   0.00260000  0.33284000  0.12101000
   0.16994000  0.49925000  0.18104000
   0.50164000  0.16594000  0.18135000
   0.83615000  0.16559000  0.18099000
   0.16980000  0.16587000  0.18099000
   0.33623000  0.99852000  0.12110000
   0.00245000  0.99865000  0.12117000
   0.33651000  0.33287000  0.12086000
   0.50180000  0.49937000  0.18123000
   0.16668141  0.50196829  0.30348492
   0.83548999  0.16496203  0.30311119
   0.50309463  0.49826065  0.30303993
   0.33524000  0.33246000  0.24183000
   0.83679226  0.50210156  0.30323673
   0.66902000  0.33317000  0.24123000
   0.33605000  0.66588000  0.24146000
   0.00318000  0.66598000  0.24177000
   0.66918000  0.66674000  0.24131000
   0.50362810  0.83428523  0.30244599
Direct configuration=    18
   0.33519894  0.32795844  0.39260788
   0.99962000  0.33431000  0.00199000
   0.98965473  0.33413899  0.36587429
   0.34298844  0.67592526  0.36375980
   0.66879000  0.99689000  0.12225000
   0.16549956  0.83798809  0.30005258
   0.83302315  0.83265883  0.30217453
   0.33662000  0.99784000  0.24172000
   0.00240000  0.33332000  0.24079000
   0.00127000  0.66476000  0.12046000
   0.33922000  0.33072000  0.00000000
   0.33524000  0.67037000  0.00023000
   0.50272000  0.83391000  0.18098000
   0.83779000  0.49999000  0.06135000
   0.66882000  0.66655000  0.00068000
   0.50222000  0.83318000  0.06077000
   0.16894000  0.83304000  0.06062000
   0.00561782  0.67157493  0.36032959
   0.00239000  0.66441000  0.00051000
   0.67673881  0.33568325  0.36104456
   0.66930000  0.33358000  0.00050000
   0.50215000  0.49992000  0.06086000
   0.83620000  0.83206000  0.06086000
   0.66671312  0.66186341  0.36095820
   0.66948000  0.99883000  0.00053000
   0.66447703  0.00490948  0.35998429
   0.32980478  0.98815449  0.36026972
   0.50343000  0.16520000  0.06105000
   0.16929000  0.16694000  0.06071000
   0.33657000  0.00075000  0.00067000
   0.00271000  0.99869000  0.00034000
   0.00860085  0.99738492  0.36015747
   0.83570000  0.16556000  0.06094000
   0.17061000  0.49746000  0.06032000
   0.50120165  0.16644469  0.30312595
   0.66988000  0.99924000  0.24142000
   0.66965000  0.33304000  0.12103000
   0.83626000  0.49963000  0.18117000
   0.16899000  0.83329000  0.18177000
   0.33582000  0.66689000  0.12095000
   0.66914000  0.66722000  0.12117000
   0.83680000  0.83220000  0.18114000
   0.00172000  0.99944000  0.24151000
   0.16595070  0.16835066  0.30326560
   0.00260000  0.33284000  0.12101000
   0.16994000  0.49925000  0.18104000
   0.50164000  0.16594000  0.18135000
   0.83615000  0.16559000  0.18099000
   0.16980000  0.16587000  0.18099000
   0.33623000  0.99852000  0.12110000
   0.00245000  0.99865000  0.12117000
   0.33651000  0.33287000  0.12086000
   0.50180000  0.49937000  0.18123000
   0.16663665  0.50190973  0.30343817
   0.83540537  0.16496224  0.30307390
   0.50286772  0.49821824  0.30311535
   0.33524000  0.33246000  0.24183000
   0.83674545  0.50200960  0.30321574
   0.66902000  0.33317000  0.24123000
   0.33605000  0.66588000  0.24146000
   0.00318000  0.66598000  0.24177000
   0.66918000  0.66674000  0.24131000
   0.50371321  0.83437196  0.30243507
Direct configuration=    19
   0.33555171  0.32761695  0.39274852
   0.99962000  0.33431000  0.00199000
   0.98926841  0.33374931  0.36604133
   0.34286411  0.67633376  0.36367688
   0.66879000  0.99689000  0.12225000
   0.16568589  0.83823511  0.30006377
   0.83321453  0.83264645  0.30218229
   0.33662000  0.99784000  0.24172000
   0.00240000  0.33332000  0.24079000
   0.00127000  0.66476000  0.12046000
   0.33922000  0.33072000  0.00000000
   0.33524000  0.67037000  0.00023000
   0.50272000  0.83391000  0.18098000
   0.83779000  0.49999000  0.06135000
   0.66882000  0.66655000  0.00068000
   0.50222000  0.83318000  0.06077000
   0.16894000  0.83304000  0.06062000
   0.00580789  0.67124054  0.36032908
   0.00239000  0.66441000  0.00051000
   0.67663794  0.33546822  0.36105068
   0.66930000  0.33358000  0.00050000
   0.50215000  0.49992000  0.06086000
   0.83620000  0.83206000  0.06086000
   0.66690871  0.66155193  0.36089841
   0.66948000  0.99883000  0.00053000
   0.66438342  0.00475436  0.36003416
   0.33010556  0.98827610  0.36046371
   0.50343000  0.16520000  0.06105000
   0.16929000  0.16694000  0.06071000
   0.33657000  0.00075000  0.00067000
   0.00271000  0.99869000  0.00034000
   0.00862611  0.99779234  0.36013314
   0.83570000  0.16556000  0.06094000
   0.17061000  0.49746000  0.06032000
   0.50117185  0.16635465  0.30314267
   0.66988000  0.99924000  0.24142000
   0.66965000  0.33304000  0.12103000
   0.83626000  0.49963000  0.18117000
   0.16899000  0.83329000  0.18177000
   0.33582000  0.66689000  0.12095000
   0.66914000  0.66722000  0.12117000
   0.83680000  0.83220000  0.18114000
   0.00172000  0.99944000  0.24151000
   0.16618002  0.16852652  0.30334315
   0.00260000  0.33284000  0.12101000
   0.16994000  0.49925000  0.18104000
   0.50164000  0.16594000  0.18135000
   0.83615000  0.16559000  0.18099000
   0.16980000  0.16587000  0.18099000
   0.33623000  0.99852000  0.12110000
   0.00245000  0.99865000  0.12117000
   0.33651000  0.33287000  0.12086000
   0.50180000  0.49937000  0.18123000
   0.16655450  0.50170424  0.30337616
   0.83528130  0.16494446  0.30299624
   0.50248138  0.49811290  0.30323925
   0.33524000  0.33246000  0.24183000
   0.83672599  0.50177322  0.30317114
   0.66902000  0.33317000  0.24123000
   0.33605000  0.66588000  0.24146000
   0.00318000  0.66598000  0.24177000
   0.66918000  0.66674000  0.24131000
   0.50385733  0.83447280  0.30241554
Direct configuration=    20
   0.33587411  0.32721406  0.39281950
   0.99962000  0.33431000  0.00199000
   0.98905240  0.33345061  0.36616204
   0.34277035  0.67648614  0.36362939
   0.66879000  0.99689000  0.12225000
   0.16583624  0.83841430  0.30008539
   0.83337860  0.83261809  0.30219537
   0.33662000  0.99784000  0.24172000
   0.00240000  0.33332000  0.24079000
   0.00127000  0.66476000  0.12046000
   0.33922000  0.33072000  0.00000000
   0.33524000  0.67037000  0.00023000
   0.50272000  0.83391000  0.18098000
   0.83779000  0.49999000  0.06135000
   0.66882000  0.66655000  0.00068000
   0.50222000  0.83318000  0.06077000
   0.16894000  0.83304000  0.06062000
   0.00594863  0.67101871  0.36030689
   0.00239000  0.66441000  0.00051000
   0.67663566  0.33526080  0.36103973
   0.66930000  0.33358000  0.00050000
   0.50215000  0.49992000  0.06086000
   0.83620000  0.83206000  0.06086000
   0.66709342  0.66128655  0.36084442
   0.66948000  0.99883000  0.00053000
   0.66431309  0.00461472  0.36005909
   0.33033198  0.98818303  0.36056788
   0.50343000  0.16520000  0.06105000
   0.16929000  0.16694000  0.06071000
   0.33657000  0.00075000  0.00067000
   0.00271000  0.99869000  0.00034000
   0.00869431  0.99810394  0.36011110
   0.83570000  0.16556000  0.06094000
   0.17061000  0.49746000  0.06032000
   0.50119841  0.16622948  0.30314122
   0.66988000  0.99924000  0.24142000
   0.66965000  0.33304000  0.12103000
   0.83626000  0.49963000  0.18117000
   0.16899000  0.83329000  0.18177000
   0.33582000  0.66689000  0.12095000
   0.66914000  0.66722000  0.12117000
   0.83680000  0.83220000  0.18114000
   0.00172000  0.99944000  0.24151000
   0.16632362  0.16858851  0.30337941
   0.00260000  0.33284000  0.12101000
   0.16994000  0.49925000  0.18104000
   0.50164000  0.16594000  0.18135000
   0.83615000  0.16559000  0.18099000
   0.16980000  0.16587000  0.18099000
   0.33623000  0.99852000  0.12110000
   0.00245000  0.99865000  0.12117000
   0.33651000  0.33287000  0.12086000
   0.50180000  0.49937000  0.18123000
   0.16649521  0.50150923  0.30335843
   0.83523497  0.16488221  0.30295941
   0.50230083  0.49802450  0.30330150
   0.33524000  0.33246000  0.24183000
   0.83676483  0.50159913  0.30314918
   0.66902000  0.33317000  0.24123000
   0.33605000  0.66588000  0.24146000
   0.00318000  0.66598000  0.24177000
   0.66918000  0.66674000  0.24131000
   0.50395286  0.83445625  0.30242542
Direct configuration=    21
   0.33598485  0.32701154  0.39280837
   0.99962000  0.33431000  0.00199000
   0.98908766  0.33339266  0.36617748
   0.34276127  0.67635608  0.36363834
   0.66879000  0.99689000  0.12225000
   0.16584631  0.83841056  0.30008738
   0.83339761  0.83259909  0.30219723
   0.33662000  0.99784000  0.24172000
   0.00240000  0.33332000  0.24079000
   0.00127000  0.66476000  0.12046000
   0.33922000  0.33072000  0.00000000
   0.33524000  0.67037000  0.00023000
   0.50272000  0.83391000  0.18098000
   0.83779000  0.49999000  0.06135000
   0.66882000  0.66655000  0.00068000
   0.50222000  0.83318000  0.06077000
   0.16894000  0.83304000  0.06062000
   0.00597667  0.67099865  0.36029362
   0.00239000  0.66441000  0.00051000
   0.67669477  0.33518081  0.36102801
   0.66930000  0.33358000  0.00050000
   0.50215000  0.49992000  0.06086000
   0.83620000  0.83206000  0.06086000
   0.66716608  0.66120130  0.36083161
   0.66948000  0.99883000  0.00053000
   0.66429908  0.00455719  0.36006126
   0.33038657  0.98802156  0.36056488
   0.50343000  0.16520000  0.06105000
   0.16929000  0.16694000  0.06071000
   0.33657000  0.00075000  0.00067000
   0.00271000  0.99869000  0.00034000
   0.00874883  0.99817525  0.36011182
   0.83570000  0.16556000  0.06094000
   0.17061000  0.49746000  0.06032000
   0.50123521  0.16616184  0.30312558
   0.66988000  0.99924000  0.24142000
   0.66965000  0.33304000  0.12103000
   0.83626000  0.49963000  0.18117000
   0.16899000  0.83329000  0.18177000
   0.33582000  0.66689000  0.12095000
   0.66914000  0.66722000  0.12117000
   0.83680000  0.83220000  0.18114000
   0.00172000  0.99944000  0.24151000
   0.16633864  0.16855997  0.30336747
   0.00260000  0.33284000  0.12101000
   0.16994000  0.49925000  0.18104000
   0.50164000  0.16594000  0.18135000
   0.83615000  0.16559000  0.18099000
   0.16980000  0.16587000  0.18099000
   0.33623000  0.99852000  0.12110000
   0.00245000  0.99865000  0.12117000
   0.33651000  0.33287000  0.12086000
   0.50180000  0.49937000  0.18123000
   0.16649752  0.50143357  0.30337402
   0.83526598  0.16484117  0.30296019
   0.50234061  0.49799294  0.30328963
   0.33524000  0.33246000  0.24183000
   0.83681427  0.50155964  0.30314935
   0.66902000  0.33317000  0.24123000
   0.33605000  0.66588000  0.24146000
   0.00318000  0.66598000  0.24177000
   0.66918000  0.66674000  0.24131000
   0.50397546  0.83437397  0.30243600
Direct configuration=    22
   0.33610336  0.32671488  0.39273788
   0.99962000  0.33431000  0.00199000
   0.98931217  0.33345372  0.36612938
   0.34282004  0.67595287  0.36368800
   0.66879000  0.99689000  0.12225000
   0.16576461  0.83826006  0.30007954
   0.83334135  0.83259863  0.30218863
   0.33662000  0.99784000  0.24172000
   0.00240000  0.33332000  0.24079000
   0.00127000  0.66476000  0.12046000
   0.33922000  0.33072000  0.00000000
   0.33524000  0.67037000  0.00023000
   0.50272000  0.83391000  0.18098000
   0.83779000  0.49999000  0.06135000
   0.66882000  0.66655000  0.00068000
   0.50222000  0.83318000  0.06077000
   0.16894000  0.83304000  0.06062000
   0.00593280  0.67110992  0.36029143
   0.00239000  0.66441000  0.00051000
   0.67681428  0.33516408  0.36101562
   0.66930000  0.33358000  0.00050000
   0.50215000  0.49992000  0.06086000
   0.83620000  0.83206000  0.06086000
   0.66718606  0.66120740  0.36085181
   0.66948000  0.99883000  0.00053000
   0.66432480  0.00453563  0.36005181
   0.33033757  0.98774837  0.36050030
   0.50343000  0.16520000  0.06105000
   0.16929000  0.16694000  0.06071000
   0.33657000  0.00075000  0.00067000
   0.00271000  0.99869000  0.00034000
   0.00882984  0.99807676  0.36013385
   0.83570000  0.16556000  0.06094000
   0.17061000  0.49746000  0.06032000
   0.50129570  0.16609163  0.30309529
   0.66988000  0.99924000  0.24142000
   0.66965000  0.33304000  0.12103000
   0.83626000  0.49963000  0.18117000
   0.16899000  0.83329000  0.18177000
   0.33582000  0.66689000  0.12095000
   0.66914000  0.66722000  0.12117000
   0.83680000  0.83220000  0.18114000
   0.00172000  0.99944000  0.24151000
   0.16630687  0.16843689  0.30331727
   0.00260000  0.33284000  0.12101000
   0.16994000  0.49925000  0.18104000
   0.50164000  0.16594000  0.18135000
   0.83615000  0.16559000  0.18099000
   0.16980000  0.16587000  0.18099000
   0.33623000  0.99852000  0.12110000
   0.00245000  0.99865000  0.12117000
   0.33651000  0.33287000  0.12086000
   0.50180000  0.49937000  0.18123000
   0.16656718  0.50141091  0.30340892
   0.83536149  0.16479034  0.30298082
   0.50252869  0.49795668  0.30323355
   0.33524000  0.33246000  0.24183000
   0.83689894  0.50157689  0.30315882
   0.66902000  0.33317000  0.24123000
   0.33605000  0.66588000  0.24146000
   0.00318000  0.66598000  0.24177000
   0.66918000  0.66674000  0.24131000
   0.50395966  0.83418687  0.30244489
Direct configuration=    23
   0.33613164  0.32665728  0.39272946
   0.99962000  0.33431000  0.00199000
   0.98934019  0.33345238  0.36612636
   0.34282645  0.67589447  0.36369337
   0.66879000  0.99689000  0.12225000
   0.16575840  0.83824018  0.30007916
   0.83333738  0.83259772  0.30218818
   0.33662000  0.99784000  0.24172000
   0.00240000  0.33332000  0.24079000
   0.00127000  0.66476000  0.12046000
   0.33922000  0.33072000  0.00000000
   0.33524000  0.67037000  0.00023000
   0.50272000  0.83391000  0.18098000
   0.83779000  0.49999000  0.06135000
   0.66882000  0.66655000  0.00068000
   0.50222000  0.83318000  0.06077000
   0.16894000  0.83304000  0.06062000
   0.00593016  0.67112038  0.36029048
   0.00239000  0.66441000  0.00051000
   0.67683627  0.33515296  0.36101266
   0.66930000  0.33358000  0.00050000
   0.50215000  0.49992000  0.06086000
   0.83620000  0.83206000  0.06086000
   0.66719811  0.66119661  0.36085260
   0.66948000  0.99883000  0.00053000
   0.66432467  0.00452578  0.36005086
   0.33033800  0.98769602  0.36049356
   0.50343000  0.16520000  0.06105000
   0.16929000  0.16694000  0.06071000
   0.33657000  0.00075000  0.00067000
   0.00271000  0.99869000  0.00034000
   0.00884650  0.99807340  0.36013630
   0.83570000  0.16556000  0.06094000
   0.17061000  0.49746000  0.06032000
   0.50130715  0.16607418  0.30309042
   0.66988000  0.99924000  0.24142000
   0.66965000  0.33304000  0.12103000
   0.83626000  0.49963000  0.18117000
   0.16899000  0.83329000  0.18177000
   0.33582000  0.66689000  0.12095000
   0.66914000  0.66722000  0.12117000
   0.83680000  0.83220000  0.18114000
   0.00172000  0.99944000  0.24151000
   0.16630738  0.16841775  0.30331044
   0.00260000  0.33284000  0.12101000
   0.16994000  0.49925000  0.18104000
   0.50164000  0.16594000  0.18135000
   0.83615000  0.16559000  0.18099000
   0.16980000  0.16587000  0.18099000
   0.33623000  0.99852000  0.12110000
   0.00245000  0.99865000  0.12117000
   0.33651000  0.33287000  0.12086000
   0.50180000  0.49937000  0.18123000
   0.16657638  0.50140174  0.30341331
   0.83537460  0.16478096  0.30298307
   0.50255255  0.49794750  0.30322728
   0.33524000  0.33246000  0.24183000
   0.83691297  0.50157516  0.30315977
   0.66902000  0.33317000  0.24123000
   0.33605000  0.66588000  0.24146000
   0.00318000  0.66598000  0.24177000
   0.66918000  0.66674000  0.24131000
   0.50396006  0.83415758  0.30244684
Direct configuration=    24
   0.33629541  0.32639759  0.39273636
   0.99962000  0.33431000  0.00199000
   0.98933042  0.33336464  0.36615467
   0.34280434  0.67580901  0.36368951
   0.66879000  0.99689000  0.12225000
   0.16579391  0.83825509  0.30007950
   0.83338829  0.83257691  0.30218984
   0.33662000  0.99784000  0.24172000
   0.00240000  0.33332000  0.24079000
   0.00127000  0.66476000  0.12046000
   0.33922000  0.33072000  0.00000000
   0.33524000  0.67037000  0.00023000
   0.50272000  0.83391000  0.18098000
   0.83779000  0.49999000  0.06135000
   0.66882000  0.66655000  0.00068000
   0.50222000  0.83318000  0.06077000
   0.16894000  0.83304000  0.06062000
   0.00597576  0.67105032  0.36028423
   0.00239000  0.66441000  0.00051000
   0.67686373  0.33506504  0.36100658
   0.66930000  0.33358000  0.00050000
   0.50215000  0.49992000  0.06086000
   0.83620000  0.83206000  0.06086000
   0.66728126  0.66108511  0.36083730
   0.66948000  0.99883000  0.00053000
   0.66430200  0.00445582  0.36005987
   0.33041865  0.98759607  0.36052257
   0.50343000  0.16520000  0.06105000
   0.16929000  0.16694000  0.06071000
   0.33657000  0.00075000  0.00067000
   0.00271000  0.99869000  0.00034000
   0.00889431  0.99816713  0.36013479
   0.83570000  0.16556000  0.06094000
   0.17061000  0.49746000  0.06032000
   0.50133093  0.16600369  0.30308147
   0.66988000  0.99924000  0.24142000
   0.66965000  0.33304000  0.12103000
   0.83626000  0.49963000  0.18117000
   0.16899000  0.83329000  0.18177000
   0.33582000  0.66689000  0.12095000
   0.66914000  0.66722000  0.12117000
   0.83680000  0.83220000  0.18114000
   0.00172000  0.99944000  0.24151000
   0.16636142  0.16840663  0.30331196
   0.00260000  0.33284000  0.12101000
   0.16994000  0.49925000  0.18104000
   0.50164000  0.16594000  0.18135000
   0.83615000  0.16559000  0.18099000
   0.16980000  0.16587000  0.18099000
   0.33623000  0.99852000  0.12110000
   0.00245000  0.99865000  0.12117000
   0.33651000  0.33287000  0.12086000
   0.50180000  0.49937000  0.18123000
   0.16658015  0.50131677  0.30341303
   0.83538442  0.16474673  0.30297094
   0.50252330  0.49789459  0.30324141
   0.33524000  0.33246000  0.24183000
   0.83695214  0.50151235  0.30315170
   0.66902000  0.33317000  0.24123000
   0.33605000  0.66588000  0.24146000
   0.00318000  0.66598000  0.24177000
   0.66918000  0.66674000  0.24131000
   0.50399787  0.83410363  0.30244754
Direct configuration=    25
   0.33654529  0.32595904  0.39273320
   0.99962000  0.33431000  0.00199000
   0.98941234  0.33327390  0.36617466
   0.34281436  0.67558039  0.36370342
   0.66879000  0.99689000  0.12225000
   0.16582198  0.83822109  0.30007924
   0.83346225  0.83253853  0.30219110
   0.33662000  0.99784000  0.24172000
   0.00240000  0.33332000  0.24079000
   0.00127000  0.66476000  0.12046000
   0.33922000  0.33072000  0.00000000
   0.33524000  0.67037000  0.00023000
   0.50272000  0.83391000  0.18098000
   0.83779000  0.49999000  0.06135000
   0.66882000  0.66655000  0.00068000
   0.50222000  0.83318000  0.06077000
   0.16894000  0.83304000  0.06062000
   0.00602788  0.67097272  0.36027653
   0.00239000  0.66441000  0.00051000
   0.67694696  0.33492803  0.36099529
   0.66930000  0.33358000  0.00050000
   0.50215000  0.49992000  0.06086000
   0.83620000  0.83206000  0.06086000
   0.66741096  0.66092038  0.36082296
   0.66948000  0.99883000  0.00053000
   0.66427468  0.00434156  0.36006870
   0.33051664  0.98736991  0.36054933
   0.50343000  0.16520000  0.06105000
   0.16929000  0.16694000  0.06071000
   0.33657000  0.00075000  0.00067000
   0.00271000  0.99869000  0.00034000
   0.00898418  0.99826802  0.36013993
   0.83570000  0.16556000  0.06094000
   0.17061000  0.49746000  0.06032000
   0.50137801  0.16587778  0.30306265
   0.66988000  0.99924000  0.24142000
   0.66965000  0.33304000  0.12103000
   0.83626000  0.49963000  0.18117000
   0.16899000  0.83329000  0.18177000
   0.33582000  0.66689000  0.12095000
   0.66914000  0.66722000  0.12117000
   0.83680000  0.83220000  0.18114000
   0.00172000  0.99944000  0.24151000
   0.16644208  0.16835673  0.30330725
   0.00260000  0.33284000  0.12101000
   0.16994000  0.49925000  0.18104000
   0.50164000  0.16594000  0.18135000
   0.83615000  0.16559000  0.18099000
   0.16980000  0.16587000  0.18099000
   0.33623000  0.99852000  0.12110000
   0.00245000  0.99865000  0.12117000
   0.33651000  0.33287000  0.12086000
   0.50180000  0.49937000  0.18123000
   0.16660864  0.50118338  0.30341678
   0.83540969  0.16469239  0.30295872
   0.50251708  0.49779894  0.30325422
   0.33524000  0.33246000  0.24183000
   0.83702199  0.50141815  0.30314282
   0.66902000  0.33317000  0.24123000
   0.33605000  0.66588000  0.24146000
   0.00318000  0.66598000  0.24177000
   0.66918000  0.66674000  0.24131000
   0.50404640  0.83399809  0.30244995
Direct configuration=    26
   0.33663510  0.32581435  0.39275297
   0.99962000  0.33431000  0.00199000
   0.98939548  0.33320679  0.36619734
   0.34279969  0.67555832  0.36369752
   0.66879000  0.99689000  0.12225000
   0.16586871  0.83825944  0.30008069
   0.83351678  0.83251615  0.30219277
   0.33662000  0.99784000  0.24172000
   0.00240000  0.33332000  0.24079000
   0.00127000  0.66476000  0.12046000
   0.33922000  0.33072000  0.00000000
   0.33524000  0.67037000  0.00023000
   0.50272000  0.83391000  0.18098000
   0.83779000  0.49999000  0.06135000
   0.66882000  0.66655000  0.00068000
   0.50222000  0.83318000  0.06077000
   0.16894000  0.83304000  0.06062000
   0.00607129  0.67089588  0.36027386
   0.00239000  0.66441000  0.00051000
   0.67695976  0.33485467  0.36099391
   0.66930000  0.33358000  0.00050000
   0.50215000  0.49992000  0.06086000
   0.83620000  0.83206000  0.06086000
   0.66747734  0.66082764  0.36081133
   0.66948000  0.99883000  0.00053000
   0.66425634  0.00427965  0.36007617
   0.33058415  0.98731556  0.36057911
   0.50343000  0.16520000  0.06105000
   0.16929000  0.16694000  0.06071000
   0.33657000  0.00075000  0.00067000
   0.00271000  0.99869000  0.00034000
   0.00901420  0.99834712  0.36013873
   0.83570000  0.16556000  0.06094000
   0.17061000  0.49746000  0.06032000
   0.50138399  0.16583093  0.30305865
   0.66988000  0.99924000  0.24142000
   0.66965000  0.33304000  0.12103000
   0.83626000  0.49963000  0.18117000
   0.16899000  0.83329000  0.18177000
   0.33582000  0.66689000  0.12095000
   0.66914000  0.66722000  0.12117000
   0.83680000  0.83220000  0.18114000
   0.00172000  0.99944000  0.24151000
   0.16649799  0.16836210  0.30331680
   0.00260000  0.33284000  0.12101000
   0.16994000  0.49925000  0.18104000
   0.50164000  0.16594000  0.18135000
   0.83615000  0.16559000  0.18099000
   0.16980000  0.16587000  0.18099000
   0.33623000  0.99852000  0.12110000
   0.00245000  0.99865000  0.12117000
   0.33651000  0.33287000  0.12086000
   0.50180000  0.49937000  0.18123000
   0.16661066  0.50111169  0.30340905
   0.83540215  0.16467360  0.30294420
   0.50246558  0.49775281  0.30327305
   0.33524000  0.33246000  0.24183000
   0.83704021  0.50135781  0.30313366
   0.66902000  0.33317000  0.24123000
   0.33605000  0.66588000  0.24146000
   0.00318000  0.66598000  0.24177000
   0.66918000  0.66674000  0.24131000
   0.50407446  0.83398329  0.30244701
Direct configuration=    27
   0.33652160  0.32603071  0.39279002
   0.99962000  0.33431000  0.00199000
   0.98928118  0.33319264  0.36620379
   0.34279222  0.67575648  0.36366881
   0.66879000  0.99689000  0.12225000
   0.16592550  0.83836181  0.30008986
   0.83351614  0.83251448  0.30220750
   0.33662000  0.99784000  0.24172000
   0.00240000  0.33332000  0.24079000
   0.00127000  0.66476000  0.12046000
   0.33922000  0.33072000  0.00000000
   0.33524000  0.67037000  0.00023000
   0.50272000  0.83391000  0.18098000
   0.83779000  0.49999000  0.06135000
   0.66882000  0.66655000  0.00068000
   0.50222000  0.83318000  0.06077000
   0.16894000  0.83304000  0.06062000
   0.00609461  0.67084256  0.36027079
   0.00239000  0.66441000  0.00051000
   0.67691932  0.33485776  0.36099664
   0.66930000  0.33358000  0.00050000
   0.50215000  0.49992000  0.06086000
   0.83620000  0.83206000  0.06086000
   0.66746108  0.66083596  0.36079780
   0.66948000  0.99883000  0.00053000
   0.66424929  0.00427950  0.36006503
   0.33059724  0.98741341  0.36058547
   0.50343000  0.16520000  0.06105000
   0.16929000  0.16694000  0.06071000
   0.33657000  0.00075000  0.00067000
   0.00271000  0.99869000  0.00034000
   0.00898668  0.99836445  0.36012855
   0.83570000  0.16556000  0.06094000
   0.17061000  0.49746000  0.06032000
   0.50136014  0.16587618  0.30307657
   0.66988000  0.99924000  0.24142000
   0.66965000  0.33304000  0.12103000
   0.83626000  0.49963000  0.18117000
   0.16899000  0.83329000  0.18177000
   0.33582000  0.66689000  0.12095000
   0.66914000  0.66722000  0.12117000
   0.83680000  0.83220000  0.18114000
   0.00172000  0.99944000  0.24151000
   0.16649266  0.16839186  0.30333942
   0.00260000  0.33284000  0.12101000
   0.16994000  0.49925000  0.18104000
   0.50164000  0.16594000  0.18135000
   0.83615000  0.16559000  0.18099000
   0.16980000  0.16587000  0.18099000
   0.33623000  0.99852000  0.12110000
   0.00245000  0.99865000  0.12117000
   0.33651000  0.33287000  0.12086000
   0.50180000  0.49937000  0.18123000
   0.16659474  0.50114431  0.30339143
   0.83535775  0.16468737  0.30294570
   0.50242069  0.49777529  0.30328929
   0.33524000  0.33246000  0.24183000
   0.83697436  0.50136549  0.30313509
   0.66902000  0.33317000  0.24123000
   0.33605000  0.66588000  0.24146000
   0.00318000  0.66598000  0.24177000
   0.66918000  0.66674000  0.24131000
   0.50406534  0.83408621  0.30244869
Direct configuration=    28
   0.33681647  0.32550382  0.39277314
   0.99962000  0.33431000  0.00199000
   0.98940943  0.33308740  0.36622592
   0.34280091  0.67542732  0.36369255
   0.66879000  0.99689000  0.12225000
   0.16594656  0.83828723  0.30009010
   0.83358302  0.83248097  0.30220501
   0.33662000  0.99784000  0.24172000
   0.00240000  0.33332000  0.24079000
   0.00127000  0.66476000  0.12046000
   0.33922000  0.33072000  0.00000000
   0.33524000  0.67037000  0.00023000
   0.50272000  0.83391000  0.18098000
   0.83779000  0.49999000  0.06135000
   0.66882000  0.66655000  0.00068000
   0.50222000  0.83318000  0.06077000
   0.16894000  0.83304000  0.06062000
   0.00614113  0.67078947  0.36026300
   0.00239000  0.66441000  0.00051000
   0.67704400  0.33470030  0.36097969
   0.66930000  0.33358000  0.00050000
   0.50215000  0.49992000  0.06086000
   0.83620000  0.83206000  0.06086000
   0.66761528  0.66064839  0.36078583
   0.66948000  0.99883000  0.00053000
   0.66422130  0.00414999  0.36007472
   0.33069756  0.98708316  0.36060015
   0.50343000  0.16520000  0.06105000
   0.16929000  0.16694000  0.06071000
   0.33657000  0.00075000  0.00067000
   0.00271000  0.99869000  0.00034000
   0.00910821  0.99846984  0.36013809
   0.83570000  0.16556000  0.06094000
   0.17061000  0.49746000  0.06032000
   0.50142800  0.16571433  0.30304583
   0.66988000  0.99924000  0.24142000
   0.66965000  0.33304000  0.12103000
   0.83626000  0.49963000  0.18117000
   0.16899000  0.83329000  0.18177000
   0.33582000  0.66689000  0.12095000
   0.66914000  0.66722000  0.12117000
   0.83680000  0.83220000  0.18114000
   0.00172000  0.99944000  0.24151000
   0.16658027  0.16831230  0.30332001
   0.00260000  0.33284000  0.12101000
   0.16994000  0.49925000  0.18104000
   0.50164000  0.16594000  0.18135000
   0.83615000  0.16559000  0.18099000
   0.16980000  0.16587000  0.18099000
   0.33623000  0.99852000  0.12110000
   0.00245000  0.99865000  0.12117000
   0.33651000  0.33287000  0.12086000
   0.50180000  0.49937000  0.18123000
   0.16663521  0.50098533  0.30340526
   0.83541070  0.16461718  0.30293495
   0.50245555  0.49766357  0.30328797
   0.33524000  0.33246000  0.24183000
   0.83707988  0.50126322  0.30312714
   0.66902000  0.33317000  0.24123000
   0.33605000  0.66588000  0.24146000
   0.00318000  0.66598000  0.24177000
   0.66918000  0.66674000  0.24131000
   0.50411215  0.83391163  0.30245616
Direct configuration=    29
   0.33700980  0.32513690  0.39276683
   0.99962000  0.33431000  0.00199000
   0.98951738  0.33299404  0.36623424
   0.34283554  0.67514236  0.36370641
   0.66879000  0.99689000  0.12225000
   0.16599126  0.83821857  0.30009356
   0.83361046  0.83245245  0.30221322
   0.33662000  0.99784000  0.24172000
   0.00240000  0.33332000  0.24079000
   0.00127000  0.66476000  0.12046000
   0.33922000  0.33072000  0.00000000
   0.33524000  0.67037000  0.00023000
   0.50272000  0.83391000  0.18098000
   0.83779000  0.49999000  0.06135000
   0.66882000  0.66655000  0.00068000
   0.50222000  0.83318000  0.06077000
   0.16894000  0.83304000  0.06062000
   0.00618002  0.67074827  0.36025796
   0.00239000  0.66441000  0.00051000
   0.67717767  0.33455451  0.36096242
   0.66930000  0.33358000  0.00050000
   0.50215000  0.49992000  0.06086000
   0.83620000  0.83206000  0.06086000
   0.66774446  0.66049616  0.36077767
   0.66948000  0.99883000  0.00053000
   0.66419528  0.00402473  0.36007176
   0.33077088  0.98673759  0.36059028
   0.50343000  0.16520000  0.06105000
   0.16929000  0.16694000  0.06071000
   0.33657000  0.00075000  0.00067000
   0.00271000  0.99869000  0.00034000
   0.00923559  0.99852552  0.36014893
   0.83570000  0.16556000  0.06094000
   0.17061000  0.49746000  0.06032000
   0.50148963  0.16558872  0.30302264
   0.66988000  0.99924000  0.24142000
   0.66965000  0.33304000  0.12103000
   0.83626000  0.49963000  0.18117000
   0.16899000  0.83329000  0.18177000
   0.33582000  0.66689000  0.12095000
   0.66914000  0.66722000  0.12117000
   0.83680000  0.83220000  0.18114000
   0.00172000  0.99944000  0.24151000
   0.16664266  0.16821517  0.30329757
   0.00260000  0.33284000  0.12101000
   0.16994000  0.49925000  0.18104000
   0.50164000  0.16594000  0.18135000
   0.83615000  0.16559000  0.18099000
   0.16980000  0.16587000  0.18099000
   0.33623000  0.99852000  0.12110000
   0.00245000  0.99865000  0.12117000
   0.33651000  0.33287000  0.12086000
   0.50180000  0.49937000  0.18123000
   0.16668630  0.50086860  0.30341657
   0.83547150  0.16454673  0.30293683
   0.50253643  0.49756391  0.30327415
   0.33524000  0.33246000  0.24183000
   0.83716459  0.50119214  0.30312548
   0.66902000  0.33317000  0.24123000
   0.33605000  0.66588000  0.24146000
   0.00318000  0.66598000  0.24177000
   0.66918000  0.66674000  0.24131000
   0.50413667  0.83374214  0.30246718
