  63  63   0   0
  0.2705886E+02  0.8504600E-09  0.8509100E-09  0.2355660E-08  0.5000000E-15
  1.000000000000000E-004
  CAR 
 INCAR-For-OPT                           
      5.41178527    -45.67289751  301      0.97834815      1.00000000
    -45.673  0.0000E+00  0.0000E+00  0.0000E+00  0.0000E+00
    -45.503  0.0000E+00  0.0000E+00  0.0000E+00  0.0000E+00
    -45.332  0.0000E+00  0.0000E+00  0.0000E+00  0.0000E+00
    -45.162  0.0000E+00  0.0000E+00  0.0000E+00  0.0000E+00
    -44.992  0.0000E+00  0.0000E+00  0.0000E+00  0.0000E+00
    -44.821  0.0000E+00  0.0000E+00  0.0000E+00  0.0000E+00
    -44.651  0.0000E+00 -0.1311E-33  0.0000E+00 -0.2232E-34
    -44.481  0.0000E+00 -0.1173E-25  0.0000E+00 -0.1998E-26
    -44.311  0.0000E+00 -0.7965E-19  0.0000E+00 -0.1356E-19
    -44.140 -0.3542E-33 -0.3965E-13 -0.6032E-34 -0.6751E-14
    -43.970 -0.2612E-25 -0.1526E-08 -0.4448E-26 -0.2599E-09
    -43.800 -0.1448E-18 -0.4398E-05 -0.2465E-19 -0.7492E-06
    -43.630 -0.5823E-13 -0.8981E-03 -0.9916E-14 -0.1537E-03
    -43.459 -0.1798E-08 -0.5667E-02 -0.3063E-09 -0.1119E-02
    -43.289 -0.4127E-05  0.1185E+00 -0.7031E-06  0.1906E-01
    -43.119 -0.6492E-03  0.2294E+00 -0.1112E-03  0.5812E-01
    -42.948 -0.8780E-03  0.7891E-01 -0.2607E-03  0.7156E-01
    -42.778  0.6760E-01  0.4405E-01  0.1125E-01  0.7906E-01
    -42.608  0.5441E-01  0.7137E-01  0.2052E-01  0.9121E-01
    -42.438 -0.3515E-02  0.5947E-01  0.1992E-01  0.1013E+00
    -42.267  0.2437E-02  0.2964E-01  0.2033E-01  0.1064E+00
    -42.097  0.5114E-01  0.3716E-01  0.2904E-01  0.1127E+00
    -41.927  0.9698E-01  0.2310E-01  0.4556E-01  0.1166E+00
    -41.756  0.1250E+00  0.1714E-01  0.6683E-01  0.1196E+00
    -41.586  0.7990E-01  0.3019E-02  0.8044E-01  0.1201E+00
    -41.416  0.3826E-01 -0.4502E-03  0.8695E-01  0.1200E+00
    -41.246  0.1760E-01 -0.7494E-05  0.8995E-01  0.1200E+00
    -41.075  0.2281E-01 -0.6311E-08  0.9384E-01  0.1200E+00
    -40.905  0.3724E-01 -0.3541E-12  0.1002E+00  0.1200E+00
    -40.735 -0.7052E-03 -0.1624E-13  0.1001E+00  0.1200E+00
    -40.564 -0.3851E-03 -0.6027E-09  0.9999E-01  0.1200E+00
    -40.394 -0.2429E-02 -0.1586E-05  0.9958E-01  0.1200E+00
    -40.224  0.1262E-01 -0.2749E-03  0.1017E+00  0.1200E+00
    -40.054  0.1414E+00 -0.1013E-02  0.1258E+00  0.1198E+00
    -39.883  0.8742E-01  0.3039E-01  0.1407E+00  0.1250E+00
    -39.713 -0.3371E-02  0.6181E-01  0.1401E+00  0.1355E+00
    -39.543 -0.7042E-03  0.2742E-01  0.1400E+00  0.1402E+00
    -39.372 -0.3738E-05 -0.5988E-03  0.1400E+00  0.1400E+00
    -39.202 -0.1377E-08 -0.2827E-03  0.1400E+00  0.1400E+00
    -39.032 -0.3764E-13 -0.1908E-05  0.1400E+00  0.1400E+00
    -38.862  0.0000E+00 -0.8162E-09  0.1400E+00  0.1400E+00
    -38.691  0.0000E+00 -0.2434E-13  0.1400E+00  0.1400E+00
    -38.521  0.0000E+00  0.0000E+00  0.1400E+00  0.1400E+00
    -38.351  0.0000E+00  0.0000E+00  0.1400E+00  0.1400E+00
    -38.180  0.0000E+00  0.0000E+00  0.1400E+00  0.1400E+00
    -38.010  0.0000E+00  0.0000E+00  0.1400E+00  0.1400E+00
    -37.840  0.0000E+00  0.0000E+00  0.1400E+00  0.1400E+00
    -37.670  0.0000E+00  0.0000E+00  0.1400E+00  0.1400E+00
    -37.499  0.0000E+00  0.0000E+00  0.1400E+00  0.1400E+00
    -37.329  0.0000E+00  0.0000E+00  0.1400E+00  0.1400E+00
    -37.159  0.0000E+00  0.0000E+00  0.1400E+00  0.1400E+00
    -36.989  0.0000E+00  0.0000E+00  0.1400E+00  0.1400E+00
    -36.818  0.0000E+00  0.0000E+00  0.1400E+00  0.1400E+00
    -36.648  0.0000E+00  0.0000E+00  0.1400E+00  0.1400E+00
    -36.478  0.0000E+00  0.0000E+00  0.1400E+00  0.1400E+00
    -36.307  0.0000E+00  0.0000E+00  0.1400E+00  0.1400E+00
    -36.137  0.0000E+00  0.0000E+00  0.1400E+00  0.1400E+00
    -35.967  0.0000E+00  0.0000E+00  0.1400E+00  0.1400E+00
    -35.797  0.0000E+00  0.0000E+00  0.1400E+00  0.1400E+00
    -35.626  0.0000E+00  0.0000E+00  0.1400E+00  0.1400E+00
    -35.456  0.0000E+00  0.0000E+00  0.1400E+00  0.1400E+00
    -35.286  0.0000E+00  0.0000E+00  0.1400E+00  0.1400E+00
    -35.115  0.0000E+00  0.0000E+00  0.1400E+00  0.1400E+00
    -34.945  0.0000E+00  0.0000E+00  0.1400E+00  0.1400E+00
    -34.775  0.0000E+00  0.0000E+00  0.1400E+00  0.1400E+00
    -34.605  0.0000E+00  0.0000E+00  0.1400E+00  0.1400E+00
    -34.434  0.0000E+00  0.0000E+00  0.1400E+00  0.1400E+00
    -34.264  0.0000E+00  0.0000E+00  0.1400E+00  0.1400E+00
    -34.094  0.0000E+00  0.0000E+00  0.1400E+00  0.1400E+00
    -33.923  0.0000E+00  0.0000E+00  0.1400E+00  0.1400E+00
    -33.753  0.0000E+00  0.0000E+00  0.1400E+00  0.1400E+00
    -33.583  0.0000E+00  0.0000E+00  0.1400E+00  0.1400E+00
    -33.413  0.0000E+00  0.0000E+00  0.1400E+00  0.1400E+00
    -33.242  0.0000E+00  0.0000E+00  0.1400E+00  0.1400E+00
    -33.072  0.0000E+00  0.0000E+00  0.1400E+00  0.1400E+00
    -32.902  0.0000E+00  0.0000E+00  0.1400E+00  0.1400E+00
    -32.731  0.0000E+00  0.0000E+00  0.1400E+00  0.1400E+00
    -32.561  0.0000E+00  0.0000E+00  0.1400E+00  0.1400E+00
    -32.391  0.0000E+00  0.0000E+00  0.1400E+00  0.1400E+00
    -32.221  0.0000E+00  0.0000E+00  0.1400E+00  0.1400E+00
    -32.050  0.0000E+00  0.0000E+00  0.1400E+00  0.1400E+00
    -31.880  0.0000E+00  0.0000E+00  0.1400E+00  0.1400E+00
    -31.710  0.0000E+00  0.0000E+00  0.1400E+00  0.1400E+00
    -31.539  0.0000E+00  0.0000E+00  0.1400E+00  0.1400E+00
    -31.369  0.0000E+00  0.0000E+00  0.1400E+00  0.1400E+00
    -31.199  0.0000E+00  0.0000E+00  0.1400E+00  0.1400E+00
    -31.029  0.0000E+00  0.0000E+00  0.1400E+00  0.1400E+00
    -30.858  0.0000E+00  0.0000E+00  0.1400E+00  0.1400E+00
    -30.688  0.0000E+00  0.0000E+00  0.1400E+00  0.1400E+00
    -30.518  0.0000E+00  0.0000E+00  0.1400E+00  0.1400E+00
    -30.347  0.0000E+00  0.0000E+00  0.1400E+00  0.1400E+00
    -30.177  0.0000E+00  0.0000E+00  0.1400E+00  0.1400E+00
    -30.007  0.0000E+00  0.0000E+00  0.1400E+00  0.1400E+00
    -29.837  0.0000E+00  0.0000E+00  0.1400E+00  0.1400E+00
    -29.666  0.0000E+00  0.0000E+00  0.1400E+00  0.1400E+00
    -29.496  0.0000E+00  0.0000E+00  0.1400E+00  0.1400E+00
    -29.326  0.0000E+00  0.0000E+00  0.1400E+00  0.1400E+00
    -29.156  0.0000E+00  0.0000E+00  0.1400E+00  0.1400E+00
    -28.985  0.0000E+00  0.0000E+00  0.1400E+00  0.1400E+00
    -28.815  0.0000E+00  0.0000E+00  0.1400E+00  0.1400E+00
    -28.645  0.0000E+00  0.0000E+00  0.1400E+00  0.1400E+00
    -28.474  0.0000E+00  0.0000E+00  0.1400E+00  0.1400E+00
    -28.304  0.0000E+00  0.0000E+00  0.1400E+00  0.1400E+00
    -28.134  0.0000E+00  0.0000E+00  0.1400E+00  0.1400E+00
    -27.964  0.0000E+00  0.0000E+00  0.1400E+00  0.1400E+00
    -27.793  0.0000E+00  0.0000E+00  0.1400E+00  0.1400E+00
    -27.623  0.0000E+00  0.0000E+00  0.1400E+00  0.1400E+00
    -27.453  0.0000E+00  0.0000E+00  0.1400E+00  0.1400E+00
    -27.282  0.0000E+00  0.0000E+00  0.1400E+00  0.1400E+00
    -27.112  0.0000E+00  0.0000E+00  0.1400E+00  0.1400E+00
    -26.942  0.0000E+00  0.0000E+00  0.1400E+00  0.1400E+00
    -26.772  0.0000E+00  0.0000E+00  0.1400E+00  0.1400E+00
    -26.601  0.0000E+00  0.0000E+00  0.1400E+00  0.1400E+00
    -26.431  0.0000E+00  0.0000E+00  0.1400E+00  0.1400E+00
    -26.261  0.0000E+00  0.0000E+00  0.1400E+00  0.1400E+00
    -26.090  0.0000E+00  0.0000E+00  0.1400E+00  0.1400E+00
    -25.920  0.0000E+00  0.0000E+00  0.1400E+00  0.1400E+00
    -25.750  0.0000E+00  0.0000E+00  0.1400E+00  0.1400E+00
    -25.580  0.0000E+00  0.0000E+00  0.1400E+00  0.1400E+00
    -25.409  0.0000E+00  0.0000E+00  0.1400E+00  0.1400E+00
    -25.239  0.0000E+00  0.0000E+00  0.1400E+00  0.1400E+00
    -25.069  0.0000E+00  0.0000E+00  0.1400E+00  0.1400E+00
    -24.898  0.0000E+00  0.0000E+00  0.1400E+00  0.1400E+00
    -24.728  0.0000E+00  0.0000E+00  0.1400E+00  0.1400E+00
    -24.558  0.0000E+00  0.0000E+00  0.1400E+00  0.1400E+00
    -24.388  0.0000E+00  0.0000E+00  0.1400E+00  0.1400E+00
    -24.217  0.0000E+00  0.0000E+00  0.1400E+00  0.1400E+00
    -24.047  0.0000E+00  0.0000E+00  0.1400E+00  0.1400E+00
    -23.877  0.0000E+00  0.0000E+00  0.1400E+00  0.1400E+00
    -23.706  0.0000E+00  0.0000E+00  0.1400E+00  0.1400E+00
    -23.536  0.0000E+00  0.0000E+00  0.1400E+00  0.1400E+00
    -23.366  0.0000E+00  0.0000E+00  0.1400E+00  0.1400E+00
    -23.196  0.0000E+00  0.0000E+00  0.1400E+00  0.1400E+00
    -23.025  0.0000E+00  0.0000E+00  0.1400E+00  0.1400E+00
    -22.855  0.0000E+00  0.0000E+00  0.1400E+00  0.1400E+00
    -22.685  0.0000E+00  0.0000E+00  0.1400E+00  0.1400E+00
    -22.515  0.0000E+00  0.0000E+00  0.1400E+00  0.1400E+00
    -22.344  0.0000E+00  0.0000E+00  0.1400E+00  0.1400E+00
    -22.174  0.0000E+00  0.0000E+00  0.1400E+00  0.1400E+00
    -22.004  0.0000E+00  0.0000E+00  0.1400E+00  0.1400E+00
    -21.833  0.0000E+00  0.0000E+00  0.1400E+00  0.1400E+00
    -21.663  0.0000E+00  0.0000E+00  0.1400E+00  0.1400E+00
    -21.493  0.0000E+00  0.0000E+00  0.1400E+00  0.1400E+00
    -21.323  0.0000E+00  0.0000E+00  0.1400E+00  0.1400E+00
    -21.152  0.0000E+00  0.0000E+00  0.1400E+00  0.1400E+00
    -20.982  0.0000E+00  0.0000E+00  0.1400E+00  0.1400E+00
    -20.812  0.0000E+00  0.0000E+00  0.1400E+00  0.1400E+00
    -20.641  0.0000E+00  0.0000E+00  0.1400E+00  0.1400E+00
    -20.471  0.0000E+00  0.0000E+00  0.1400E+00  0.1400E+00
    -20.301  0.0000E+00  0.0000E+00  0.1400E+00  0.1400E+00
    -20.131  0.0000E+00  0.0000E+00  0.1400E+00  0.1400E+00
    -19.960  0.0000E+00  0.0000E+00  0.1400E+00  0.1400E+00
    -19.790  0.0000E+00  0.0000E+00  0.1400E+00  0.1400E+00
    -19.620  0.0000E+00  0.0000E+00  0.1400E+00  0.1400E+00
    -19.449  0.0000E+00  0.0000E+00  0.1400E+00  0.1400E+00
    -19.279  0.0000E+00  0.0000E+00  0.1400E+00  0.1400E+00
    -19.109  0.0000E+00  0.0000E+00  0.1400E+00  0.1400E+00
    -18.939  0.0000E+00  0.0000E+00  0.1400E+00  0.1400E+00
    -18.768  0.0000E+00  0.0000E+00  0.1400E+00  0.1400E+00
    -18.598  0.0000E+00  0.0000E+00  0.1400E+00  0.1400E+00
    -18.428  0.0000E+00  0.0000E+00  0.1400E+00  0.1400E+00
    -18.257  0.0000E+00  0.0000E+00  0.1400E+00  0.1400E+00
    -18.087  0.0000E+00  0.0000E+00  0.1400E+00  0.1400E+00
    -17.917  0.0000E+00  0.0000E+00  0.1400E+00  0.1400E+00
    -17.747  0.0000E+00  0.0000E+00  0.1400E+00  0.1400E+00
    -17.576  0.0000E+00  0.0000E+00  0.1400E+00  0.1400E+00
    -17.406  0.0000E+00  0.0000E+00  0.1400E+00  0.1400E+00
    -17.236  0.0000E+00  0.0000E+00  0.1400E+00  0.1400E+00
    -17.065  0.0000E+00  0.0000E+00  0.1400E+00  0.1400E+00
    -16.895 -0.1692E-36 -0.4392E-36  0.1400E+00  0.1400E+00
    -16.725 -0.4510E-28 -0.8768E-28  0.1400E+00  0.1400E+00
    -16.555 -0.7175E-21 -0.1317E-20  0.1400E+00  0.1400E+00
    -16.384 -0.8343E-15 -0.1433E-14  0.1400E+00  0.1400E+00
    -16.214 -0.7378E-10 -0.1172E-09  0.1400E+00  0.1400E+00
    -16.044 -0.4704E-06 -0.6804E-06  0.1400E+00  0.1400E+00
    -15.873 -0.1980E-03 -0.2548E-03  0.1400E+00  0.1400E+00
    -15.703 -0.2961E-02 -0.2935E-02  0.1395E+00  0.1395E+00
    -15.533  0.4116E-01  0.4690E-01  0.1465E+00  0.1474E+00
    -15.363  0.6128E-01  0.5657E-01  0.1569E+00  0.1571E+00
    -15.192 -0.8186E-03 -0.1969E-02  0.1568E+00  0.1567E+00
    -15.022 -0.5804E-03 -0.4337E-03  0.1567E+00  0.1567E+00
    -14.852 -0.3454E-05 -0.1934E-05  0.1567E+00  0.1567E+00
    -14.682 -0.1424E-08 -0.6000E-09  0.1567E+00  0.1567E+00
    -14.511 -0.4409E-13 -0.1404E-13  0.1567E+00  0.1567E+00
    -14.341  0.0000E+00  0.0000E+00  0.1567E+00  0.1567E+00
    -14.171  0.0000E+00  0.0000E+00  0.1567E+00  0.1567E+00
    -14.000  0.0000E+00  0.0000E+00  0.1567E+00  0.1567E+00
    -13.830  0.0000E+00  0.0000E+00  0.1567E+00  0.1567E+00
    -13.660  0.0000E+00  0.0000E+00  0.1567E+00  0.1567E+00
    -13.490  0.0000E+00  0.0000E+00  0.1567E+00  0.1567E+00
    -13.319  0.0000E+00  0.0000E+00  0.1567E+00  0.1567E+00
    -13.149  0.0000E+00  0.0000E+00  0.1567E+00  0.1567E+00
    -12.979  0.0000E+00  0.0000E+00  0.1567E+00  0.1567E+00
    -12.808  0.0000E+00  0.0000E+00  0.1567E+00  0.1567E+00
    -12.638  0.0000E+00  0.0000E+00  0.1567E+00  0.1567E+00
    -12.468  0.0000E+00  0.0000E+00  0.1567E+00  0.1567E+00
    -12.298  0.0000E+00  0.0000E+00  0.1567E+00  0.1567E+00
    -12.127  0.0000E+00  0.0000E+00  0.1567E+00  0.1567E+00
    -11.957  0.0000E+00  0.0000E+00  0.1567E+00  0.1567E+00
    -11.787  0.0000E+00  0.0000E+00  0.1567E+00  0.1567E+00
    -11.616  0.0000E+00  0.0000E+00  0.1567E+00  0.1567E+00
    -11.446  0.0000E+00  0.0000E+00  0.1567E+00  0.1567E+00
    -11.276  0.0000E+00  0.0000E+00  0.1567E+00  0.1567E+00
    -11.106  0.0000E+00  0.0000E+00  0.1567E+00  0.1567E+00
    -10.935  0.0000E+00  0.0000E+00  0.1567E+00  0.1567E+00
    -10.765  0.0000E+00  0.0000E+00  0.1567E+00  0.1567E+00
    -10.595  0.0000E+00  0.0000E+00  0.1567E+00  0.1567E+00
    -10.424  0.0000E+00  0.0000E+00  0.1567E+00  0.1567E+00
    -10.254  0.0000E+00  0.0000E+00  0.1567E+00  0.1567E+00
    -10.084  0.0000E+00  0.0000E+00  0.1567E+00  0.1567E+00
     -9.914  0.0000E+00  0.0000E+00  0.1567E+00  0.1567E+00
     -9.743  0.0000E+00  0.0000E+00  0.1567E+00  0.1567E+00
     -9.573  0.0000E+00  0.0000E+00  0.1567E+00  0.1567E+00
     -9.403  0.0000E+00  0.0000E+00  0.1567E+00  0.1567E+00
     -9.232 -0.5385E-37 -0.5560E-38  0.1567E+00  0.1567E+00
     -9.062 -0.9728E-29 -0.1853E-29  0.1567E+00  0.1567E+00
     -8.892 -0.1338E-21 -0.3429E-22  0.1567E+00  0.1567E+00
     -8.722 -0.1389E-15 -0.4768E-16  0.1567E+00  0.1567E+00
     -8.551 -0.1144E-10 -0.5202E-11  0.1567E+00  0.1567E+00
     -8.381 -0.7218E-07 -0.4254E-07  0.1567E+00  0.1567E+00
     -8.211 -0.3226E-04 -0.2411E-04  0.1567E+00  0.1567E+00
     -8.041 -0.5928E-03 -0.5940E-03  0.1566E+00  0.1566E+00
     -7.870  0.7462E-02  0.6612E-02  0.1578E+00  0.1577E+00
     -7.700  0.1297E-01  0.1369E-01  0.1600E+00  0.1600E+00
     -7.530 -0.1059E-03  0.4099E-04  0.1600E+00  0.1600E+00
     -7.359 -0.1588E-03 -0.1522E-03  0.1600E+00  0.1600E+00
     -7.189 -0.1685E-04 -0.7925E-04  0.1600E+00  0.1600E+00
     -7.019  0.2600E-02  0.5537E-03  0.1604E+00  0.1601E+00
     -6.849  0.6305E-02  0.4673E-02  0.1615E+00  0.1609E+00
     -6.678  0.3151E-02  0.5324E-02  0.1620E+00  0.1618E+00
     -6.508  0.6823E-02  0.2997E-02  0.1632E+00  0.1623E+00
     -6.338  0.6537E-02  0.8752E-02  0.1643E+00  0.1638E+00
     -6.167  0.1412E-02  0.3470E-02  0.1646E+00  0.1644E+00
     -5.997  0.8891E-02  0.2976E-02  0.1661E+00  0.1649E+00
     -5.827  0.1555E-01  0.1203E-01  0.1687E+00  0.1669E+00
     -5.657  0.9503E-02  0.1365E-01  0.1703E+00  0.1693E+00
     -5.486  0.1116E-01  0.8589E-02  0.1722E+00  0.1707E+00
     -5.316  0.8925E-02  0.1184E-01  0.1738E+00  0.1727E+00
     -5.146  0.1076E-01  0.6991E-02  0.1756E+00  0.1739E+00
     -4.975  0.2084E-01  0.9995E-02  0.1791E+00  0.1756E+00
     -4.805  0.1230E-01  0.2111E-01  0.1812E+00  0.1792E+00
     -4.635  0.1743E-01  0.1000E-01  0.1842E+00  0.1809E+00
     -4.465  0.2005E-01  0.1770E-01  0.1876E+00  0.1839E+00
     -4.294  0.2661E-01  0.1352E-01  0.1921E+00  0.1862E+00
     -4.124  0.3090E-01  0.1825E-01  0.1974E+00  0.1893E+00
     -3.954  0.4897E-01  0.2838E-01  0.2057E+00  0.1942E+00
     -3.783  0.7183E-01  0.2333E-01  0.2180E+00  0.1981E+00
     -3.613  0.1076E+00  0.2200E-01  0.2363E+00  0.2019E+00
     -3.443  0.1236E+00  0.2448E-01  0.2574E+00  0.2061E+00
     -3.273  0.1303E+00  0.3519E-01  0.2795E+00  0.2121E+00
     -3.102  0.1712E+00  0.4503E-01  0.3087E+00  0.2197E+00
     -2.932  0.1568E+00  0.6304E-01  0.3354E+00  0.2305E+00
     -2.762  0.1434E+00  0.7139E-01  0.3598E+00  0.2426E+00
     -2.591  0.1659E+00  0.7109E-01  0.3881E+00  0.2547E+00
     -2.421  0.2477E+00  0.7515E-01  0.4302E+00  0.2675E+00
     -2.251  0.2436E+00  0.1041E+00  0.4717E+00  0.2852E+00
     -2.081  0.2295E+00  0.1179E+00  0.5108E+00  0.3053E+00
     -1.910  0.2419E+00  0.1273E+00  0.5520E+00  0.3270E+00
     -1.740  0.2320E+00  0.1241E+00  0.5915E+00  0.3481E+00
     -1.570  0.2184E+00  0.1179E+00  0.6287E+00  0.3682E+00
     -1.400  0.2070E+00  0.1339E+00  0.6640E+00  0.3910E+00
     -1.229  0.1785E+00  0.1538E+00  0.6943E+00  0.4172E+00
     -1.059  0.1608E+00  0.1822E+00  0.7217E+00  0.4483E+00
     -0.889  0.1585E+00  0.1879E+00  0.7487E+00  0.4803E+00
     -0.718  0.1822E+00  0.1837E+00  0.7797E+00  0.5115E+00
     -0.548  0.2305E+00  0.2008E+00  0.8190E+00  0.5457E+00
     -0.378  0.2930E+00  0.2021E+00  0.8689E+00  0.5801E+00
     -0.208  0.3185E+00  0.2040E+00  0.9231E+00  0.6149E+00
     -0.037  0.2630E+00  0.1918E+00  0.9679E+00  0.6475E+00
      0.133  0.1933E+00  0.1673E+00  0.1001E+01  0.6760E+00
      0.303  0.1479E+00  0.1520E+00  0.1026E+01  0.7019E+00
      0.474  0.1343E+00  0.1355E+00  0.1049E+01  0.7250E+00
      0.644  0.1235E+00  0.1356E+00  0.1070E+01  0.7481E+00
      0.814  0.1042E+00  0.1149E+00  0.1088E+01  0.7676E+00
      0.984  0.8990E-01  0.1013E+00  0.1103E+01  0.7849E+00
      1.155  0.9235E-01  0.1197E+00  0.1119E+01  0.8053E+00
      1.325  0.9234E-01  0.1487E+00  0.1134E+01  0.8306E+00
      1.495  0.8884E-01  0.1648E+00  0.1150E+01  0.8587E+00
      1.666  0.9220E-01  0.1851E+00  0.1165E+01  0.8902E+00
      1.836  0.9359E-01  0.2209E+00  0.1181E+01  0.9278E+00
      2.006  0.1053E+00  0.2527E+00  0.1199E+01  0.9708E+00
      2.176  0.1044E+00  0.2877E+00  0.1217E+01  0.1020E+01
      2.347  0.9838E-01  0.2974E+00  0.1234E+01  0.1070E+01
      2.517  0.3960E-01  0.3182E+00  0.1240E+01  0.1125E+01
      2.687 -0.1835E-02  0.3186E+00  0.1240E+01  0.1179E+01
      2.858 -0.3357E-03  0.2139E+00  0.1240E+01  0.1215E+01
      3.028 -0.1866E-05  0.1271E+00  0.1240E+01  0.1237E+01
      3.198 -0.7381E-09  0.2037E-01  0.1240E+01  0.1240E+01
      3.368 -0.2230E-13 -0.2479E-02  0.1240E+01  0.1240E+01
      3.539  0.0000E+00 -0.1262E-03  0.1240E+01  0.1240E+01
      3.709  0.0000E+00 -0.4061E-06  0.1240E+01  0.1240E+01
      3.879  0.0000E+00 -0.1107E-09  0.1240E+01  0.1240E+01
      4.050  0.0000E+00 -0.2552E-14  0.1240E+01  0.1240E+01
      4.220  0.0000E+00  0.0000E+00  0.1240E+01  0.1240E+01
      4.390  0.0000E+00  0.0000E+00  0.1240E+01  0.1240E+01
      4.560  0.0000E+00  0.0000E+00  0.1240E+01  0.1240E+01
      4.731  0.0000E+00  0.0000E+00  0.1240E+01  0.1240E+01
      4.901  0.0000E+00  0.0000E+00  0.1240E+01  0.1240E+01
      5.071  0.0000E+00  0.0000E+00  0.1240E+01  0.1240E+01
      5.242  0.0000E+00  0.0000E+00  0.1240E+01  0.1240E+01
      5.412  0.0000E+00  0.0000E+00  0.1240E+01  0.1240E+01
