INCAR-For-OPT                           
           1
     8.504600    0.000000    0.000000
    -0.001099    8.509100    0.000000
     0.000000    0.000000   23.556600
   Fe   Cr   Pb
    48    14     1
Direct configuration=     1
   0.99950000  0.00032000  0.00103000
   0.99732000  0.00050000  0.36100000
   0.16670000  0.16592000  0.06160000
   0.99930000  0.00013000  0.12183000
   0.16670000  0.16692000  0.18170000
   0.16254000  0.16576000  0.30301000
   0.33368000  0.99986000  0.00108000
   0.32426000  0.01350000  0.36256000
   0.50008000  0.16606000  0.06164000
   0.33365000  0.99945000  0.12194000
   0.50013000  0.16657000  0.18176000
   0.33374000  0.99994000  0.24252000
   0.49994000  0.16800000  0.30354000
   0.83412000  0.16807000  0.06130000
   0.66767000  0.99972000  0.12168000
   0.66792000  0.00032000  0.24233000
   0.83120000  0.16606000  0.30415000
   0.00033000  0.33346000  0.00076000
   0.00940000  0.32888000  0.36363000
   0.16704000  0.50116000  0.06077000
   0.16627000  0.49940000  0.18238000
   0.00000000  0.33319000  0.24260000
   0.16775000  0.50137000  0.30366000
   0.49811000  0.50186000  0.06112000
   0.33328000  0.33434000  0.12148000
   0.50051000  0.50053000  0.18145000
   0.33392000  0.33269000  0.24229000
   0.50698000  0.49926000  0.30096000
   0.66687000  0.33418000  0.00129000
   0.66417000  0.32966000  0.36104000
   0.66670000  0.33332000  0.12177000
   0.83466000  0.49916000  0.18181000
   0.66748000  0.33291000  0.24234000
   0.99949000  0.66581000  0.00112000
   0.00377000  0.66376000  0.35990000
   0.16773000  0.83295000  0.06141000
   0.00149000  0.66672000  0.12196000
   0.16592000  0.83389000  0.18235000
   0.99950000  0.66635000  0.24245000
   0.16454000  0.83469000  0.30318000
   0.49825000  0.83185000  0.06189000
   0.50064000  0.83335000  0.18189000
   0.33424000  0.66627000  0.24239000
   0.66521000  0.66629000  0.00100000
   0.83382000  0.83268000  0.06128000
   0.83390000  0.83311000  0.18191000
   0.66721000  0.66675000  0.24221000
   0.83371000  0.82928000  0.30276000
   0.99760000  0.00330000  0.24221000
   0.66561000  0.99834000  0.00060000
   0.65172000  0.98477000  0.36817000
   0.83467000  0.16589000  0.18209000
   0.99866000  0.33404000  0.12198000
   0.33421000  0.33147000  0.00101000
   0.33355000  0.33596000  0.36402000
   0.83220000  0.50025000  0.06275000
   0.83259000  0.49876000  0.30387000
   0.33512000  0.67037000  0.00000000
   0.35043000  0.67723000  0.36895000
   0.33145000  0.66488000  0.12292000
   0.49920000  0.83381000  0.30439000
   0.67111000  0.66550000  0.12148000
   0.67023000  0.67524000  0.42812000
Direct configuration=     2
   0.99950000  0.00032000  0.00103000
   0.99710323  0.00051888  0.36101961
   0.16670000  0.16592000  0.06160000
   0.99930000  0.00013000  0.12183000
   0.16670000  0.16692000  0.18170000
   0.16273797  0.16594657  0.30312306
   0.33368000  0.99986000  0.00108000
   0.32402639  0.01373196  0.36261459
   0.50008000  0.16606000  0.06164000
   0.33365000  0.99945000  0.12194000
   0.50013000  0.16657000  0.18176000
   0.33374000  0.99994000  0.24252000
   0.49986452  0.16777940  0.30355873
   0.83412000  0.16807000  0.06130000
   0.66767000  0.99972000  0.12168000
   0.66792000  0.00032000  0.24233000
   0.83118649  0.16586079  0.30418698
   0.00033000  0.33346000  0.00076000
   0.00929741  0.32898433  0.36366307
   0.16704000  0.50116000  0.06077000
   0.16627000  0.49940000  0.18238000
   0.00000000  0.33319000  0.24260000
   0.16802125  0.50154594  0.30368468
   0.49811000  0.50186000  0.06112000
   0.33328000  0.33434000  0.12148000
   0.50051000  0.50053000  0.18145000
   0.33392000  0.33269000  0.24229000
   0.50753884  0.49995758  0.30142713
   0.66687000  0.33418000  0.00129000
   0.66424367  0.33068420  0.36129558
   0.66670000  0.33332000  0.12177000
   0.83466000  0.49916000  0.18181000
   0.66748000  0.33291000  0.24234000
   0.99949000  0.66581000  0.00112000
   0.00285099  0.66361586  0.36014946
   0.16773000  0.83295000  0.06141000
   0.00149000  0.66672000  0.12196000
   0.16592000  0.83389000  0.18235000
   0.99950000  0.66635000  0.24245000
   0.16493485  0.83464540  0.30316578
   0.49825000  0.83185000  0.06189000
   0.50064000  0.83335000  0.18189000
   0.33424000  0.66627000  0.24239000
   0.66521000  0.66629000  0.00100000
   0.83382000  0.83268000  0.06128000
   0.83390000  0.83311000  0.18191000
   0.66721000  0.66675000  0.24221000
   0.83293716  0.82856345  0.30331609
   0.99760000  0.00330000  0.24221000
   0.66561000  0.99834000  0.00060000
   0.65226996  0.98574046  0.36814417
   0.83467000  0.16589000  0.18209000
   0.99866000  0.33404000  0.12198000
   0.33421000  0.33147000  0.00101000
   0.33355496  0.33593330  0.36414139
   0.83220000  0.50025000  0.06275000
   0.83194816  0.49946547  0.30424858
   0.33512000  0.67037000  0.00000000
   0.34988329  0.67669836  0.36895229
   0.33145000  0.66488000  0.12292000
   0.50050849  0.83250317  0.30505468
   0.67111000  0.66550000  0.12148000
   0.67068934  0.67417940  0.42521094
Direct configuration=     3
   0.99950000  0.00032000  0.00103000
   0.99645292  0.00057552  0.36107842
   0.16670000  0.16592000  0.06160000
   0.99930000  0.00013000  0.12183000
   0.16670000  0.16692000  0.18170000
   0.16333187  0.16650626  0.30346224
   0.33368000  0.99986000  0.00108000
   0.32332557  0.01442783  0.36277834
   0.50008000  0.16606000  0.06164000
   0.33365000  0.99945000  0.12194000
   0.50013000  0.16657000  0.18176000
   0.33374000  0.99994000  0.24252000
   0.49963809  0.16711760  0.30361491
   0.83412000  0.16807000  0.06130000
   0.66767000  0.99972000  0.12168000
   0.66792000  0.00032000  0.24233000
   0.83114598  0.16526315  0.30429793
   0.00033000  0.33346000  0.00076000
   0.00898963  0.32929734  0.36376227
   0.16704000  0.50116000  0.06077000
   0.16627000  0.49940000  0.18238000
   0.00000000  0.33319000  0.24260000
   0.16883501  0.50207375  0.30375873
   0.49811000  0.50186000  0.06112000
   0.33328000  0.33434000  0.12148000
   0.50051000  0.50053000  0.18145000
   0.33392000  0.33269000  0.24229000
   0.50921536  0.50205034  0.30282852
   0.66687000  0.33418000  0.00129000
   0.66446468  0.33375680  0.36206234
   0.66670000  0.33332000  0.12177000
   0.83466000  0.49916000  0.18181000
   0.66748000  0.33291000  0.24234000
   0.99949000  0.66581000  0.00112000
   0.00009397  0.66318344  0.36089783
   0.16773000  0.83295000  0.06141000
   0.00149000  0.66672000  0.12196000
   0.16592000  0.83389000  0.18235000
   0.99950000  0.66635000  0.24245000
   0.16611942  0.83451161  0.30312314
   0.49825000  0.83185000  0.06189000
   0.50064000  0.83335000  0.18189000
   0.33424000  0.66627000  0.24239000
   0.66521000  0.66629000  0.00100000
   0.83382000  0.83268000  0.06128000
   0.83390000  0.83311000  0.18191000
   0.66721000  0.66675000  0.24221000
   0.83061864  0.82641379  0.30498437
   0.99760000  0.00330000  0.24221000
   0.66561000  0.99834000  0.00060000
   0.65391983  0.98865183  0.36806668
   0.83467000  0.16589000  0.18209000
   0.99866000  0.33404000  0.12198000
   0.33421000  0.33147000  0.00101000
   0.33356986  0.33585319  0.36450555
   0.83220000  0.50025000  0.06275000
   0.83002262  0.50158186  0.30538433
   0.33512000  0.67037000  0.00000000
   0.34824316  0.67510344  0.36895914
   0.33145000  0.66488000  0.12292000
   0.50443395  0.82858269  0.30704873
   0.67111000  0.66550000  0.12148000
   0.67206736  0.67099761  0.41648376
Direct configuration=     4
   0.99950000  0.00032000  0.00103000
   0.99515229  0.00068880  0.36119605
   0.16670000  0.16592000  0.06160000
   0.99930000  0.00013000  0.12183000
   0.16670000  0.16692000  0.18170000
   0.16451966  0.16762566  0.30414059
   0.33368000  0.99986000  0.00108000
   0.32192392  0.01581958  0.36310586
   0.50008000  0.16606000  0.06164000
   0.33365000  0.99945000  0.12194000
   0.50013000  0.16657000  0.18176000
   0.33374000  0.99994000  0.24252000
   0.49918522  0.16579401  0.30372729
   0.83412000  0.16807000  0.06130000
   0.66767000  0.99972000  0.12168000
   0.66792000  0.00032000  0.24233000
   0.83106495  0.16406787  0.30451981
   0.00033000  0.33346000  0.00076000
   0.00837409  0.32992334  0.36396068
   0.16704000  0.50116000  0.06077000
   0.16627000  0.49940000  0.18238000
   0.00000000  0.33319000  0.24260000
   0.17046251  0.50312938  0.30390683
   0.49811000  0.50186000  0.06112000
   0.33328000  0.33434000  0.12148000
   0.50051000  0.50053000  0.18145000
   0.33392000  0.33269000  0.24229000
   0.51256841  0.50623584  0.30563130
   0.66687000  0.33418000  0.00129000
   0.66490669  0.33990199  0.36359584
   0.66670000  0.33332000  0.12177000
   0.83466000  0.49916000  0.18181000
   0.66748000  0.33291000  0.24234000
   0.99949000  0.66581000  0.00112000
   0.99457992  0.66231859  0.36239458
   0.16773000  0.83295000  0.06141000
   0.00149000  0.66672000  0.12196000
   0.16592000  0.83389000  0.18235000
   0.99950000  0.66635000  0.24245000
   0.16848855  0.83424403  0.30303784
   0.49825000  0.83185000  0.06189000
   0.50064000  0.83335000  0.18189000
   0.33424000  0.66627000  0.24239000
   0.66521000  0.66629000  0.00100000
   0.83382000  0.83268000  0.06128000
   0.83390000  0.83311000  0.18191000
   0.66721000  0.66675000  0.24221000
   0.82598160  0.82211447  0.30832092
   0.99760000  0.00330000  0.24221000
   0.66561000  0.99834000  0.00060000
   0.65721958  0.99447457  0.36791171
   0.83467000  0.16589000  0.18209000
   0.99866000  0.33404000  0.12198000
   0.33421000  0.33147000  0.00101000
   0.33359964  0.33569297  0.36523387
   0.83220000  0.50025000  0.06275000
   0.82617156  0.50581465  0.30765582
   0.33512000  0.67037000  0.00000000
   0.34496290  0.67191361  0.36897285
   0.33145000  0.66488000  0.12292000
   0.51228489  0.82074172  0.31103681
   0.67111000  0.66550000  0.12148000
   0.67482339  0.66463402  0.39902940
Direct configuration=     5
   0.99950000  0.00032000  0.00103000
   0.99610319  0.00060598  0.36111005
   0.16670000  0.16592000  0.06160000
   0.99930000  0.00013000  0.12183000
   0.16670000  0.16692000  0.18170000
   0.16365126  0.16680726  0.30364464
   0.33368000  0.99986000  0.00108000
   0.32294868  0.01480206  0.36286641
   0.50008000  0.16606000  0.06164000
   0.33365000  0.99945000  0.12194000
   0.50013000  0.16657000  0.18176000
   0.33374000  0.99994000  0.24252000
   0.49951631  0.16676170  0.30364513
   0.83412000  0.16807000  0.06130000
   0.66767000  0.99972000  0.12168000
   0.66792000  0.00032000  0.24233000
   0.83112419  0.16494175  0.30435759
   0.00033000  0.33346000  0.00076000
   0.00882412  0.32946567  0.36381562
   0.16704000  0.50116000  0.06077000
   0.16627000  0.49940000  0.18238000
   0.00000000  0.33319000  0.24260000
   0.16927263  0.50235760  0.30379856
   0.49811000  0.50186000  0.06112000
   0.33328000  0.33434000  0.12148000
   0.50051000  0.50053000  0.18145000
   0.33392000  0.33269000  0.24229000
   0.51011697  0.50317579  0.30358217
   0.66687000  0.33418000  0.00129000
   0.66458353  0.33540920  0.36247469
   0.66670000  0.33332000  0.12177000
   0.83466000  0.49916000  0.18181000
   0.66748000  0.33291000  0.24234000
   0.99949000  0.66581000  0.00112000
   0.99861128  0.66295089  0.36130030
   0.16773000  0.83295000  0.06141000
   0.00149000  0.66672000  0.12196000
   0.16592000  0.83389000  0.18235000
   0.99950000  0.66635000  0.24245000
   0.16675646  0.83443966  0.30310020
   0.49825000  0.83185000  0.06189000
   0.50064000  0.83335000  0.18189000
   0.33424000  0.66627000  0.24239000
   0.66521000  0.66629000  0.00100000
   0.83382000  0.83268000  0.06128000
   0.83390000  0.83311000  0.18191000
   0.66721000  0.66675000  0.24221000
   0.82937177  0.82525773  0.30588155
   0.99760000  0.00330000  0.24221000
   0.66561000  0.99834000  0.00060000
   0.65480711  0.99021752  0.36802501
   0.83467000  0.16589000  0.18209000
   0.99866000  0.33404000  0.12198000
   0.33421000  0.33147000  0.00101000
   0.33357787  0.33581011  0.36470139
   0.83220000  0.50025000  0.06275000
   0.82898710  0.50272003  0.30599512
   0.33512000  0.67037000  0.00000000
   0.34736112  0.67424572  0.36896283
   0.33145000  0.66488000  0.12292000
   0.50654502  0.82647431  0.30812109
   0.67111000  0.66550000  0.12148000
   0.67280844  0.66928649  0.41179040
Direct configuration=     6
   0.99950000  0.00032000  0.00103000
   0.99594114  0.00062009  0.36112471
   0.16670000  0.16592000  0.06160000
   0.99930000  0.00013000  0.12183000
   0.16670000  0.16692000  0.18170000
   0.16379924  0.16694673  0.30372916
   0.33368000  0.99986000  0.00108000
   0.32277404  0.01497546  0.36290721
   0.50008000  0.16606000  0.06164000
   0.33365000  0.99945000  0.12194000
   0.50013000  0.16657000  0.18176000
   0.33374000  0.99994000  0.24252000
   0.49945989  0.16659679  0.30365913
   0.83412000  0.16807000  0.06130000
   0.66767000  0.99972000  0.12168000
   0.66792000  0.00032000  0.24233000
   0.83111410  0.16479283  0.30438523
   0.00033000  0.33346000  0.00076000
   0.00874743  0.32954366  0.36384034
   0.16704000  0.50116000  0.06077000
   0.16627000  0.49940000  0.18238000
   0.00000000  0.33319000  0.24260000
   0.16947540  0.50248912  0.30381701
   0.49811000  0.50186000  0.06112000
   0.33328000  0.33434000  0.12148000
   0.50051000  0.50053000  0.18145000
   0.33392000  0.33269000  0.24229000
   0.51053473  0.50369726  0.30393137
   0.66687000  0.33418000  0.00129000
   0.66463860  0.33617483  0.36266575
   0.66670000  0.33332000  0.12177000
   0.83466000  0.49916000  0.18181000
   0.66748000  0.33291000  0.24234000
   0.99949000  0.66581000  0.00112000
   0.99792428  0.66284314  0.36148678
   0.16773000  0.83295000  0.06141000
   0.00149000  0.66672000  0.12196000
   0.16592000  0.83389000  0.18235000
   0.99950000  0.66635000  0.24245000
   0.16705163  0.83440632  0.30308957
   0.49825000  0.83185000  0.06189000
   0.50064000  0.83335000  0.18189000
   0.33424000  0.66627000  0.24239000
   0.66521000  0.66629000  0.00100000
   0.83382000  0.83268000  0.06128000
   0.83390000  0.83311000  0.18191000
   0.66721000  0.66675000  0.24221000
   0.82879404  0.82472208  0.30629725
   0.99760000  0.00330000  0.24221000
   0.66561000  0.99834000  0.00060000
   0.65521823  0.99094298  0.36800570
   0.83467000  0.16589000  0.18209000
   0.99866000  0.33404000  0.12198000
   0.33421000  0.33147000  0.00101000
   0.33358158  0.33579015  0.36479213
   0.83220000  0.50025000  0.06275000
   0.82850729  0.50324739  0.30627812
   0.33512000  0.67037000  0.00000000
   0.34695243  0.67384829  0.36896454
   0.33145000  0.66488000  0.12292000
   0.50752317  0.82549740  0.30861797
   0.67111000  0.66550000  0.12148000
   0.67315181  0.66849364  0.40961576
Direct configuration=     7
   0.99950000  0.00032000  0.00103000
   0.99679249  0.00039913  0.36092476
   0.16670000  0.16592000  0.06160000
   0.99930000  0.00013000  0.12183000
   0.16670000  0.16692000  0.18170000
   0.16287349  0.16737021  0.30354536
   0.33368000  0.99986000  0.00108000
   0.32323778  0.01427789  0.36300517
   0.50008000  0.16606000  0.06164000
   0.33365000  0.99945000  0.12194000
   0.50013000  0.16657000  0.18176000
   0.33374000  0.99994000  0.24252000
   0.50022266  0.16821471  0.30404336
   0.83412000  0.16807000  0.06130000
   0.66767000  0.99972000  0.12168000
   0.66792000  0.00032000  0.24233000
   0.83134858  0.16696091  0.30437059
   0.00033000  0.33346000  0.00076000
   0.00929981  0.32929092  0.36361290
   0.16704000  0.50116000  0.06077000
   0.16627000  0.49940000  0.18238000
   0.00000000  0.33319000  0.24260000
   0.16743309  0.50239750  0.30396043
   0.49811000  0.50186000  0.06112000
   0.33328000  0.33434000  0.12148000
   0.50051000  0.50053000  0.18145000
   0.33392000  0.33269000  0.24229000
   0.51030721  0.50171002  0.30353973
   0.66687000  0.33418000  0.00129000
   0.66443872  0.33518969  0.36269143
   0.66670000  0.33332000  0.12177000
   0.83466000  0.49916000  0.18181000
   0.66748000  0.33291000  0.24234000
   0.99949000  0.66581000  0.00112000
   0.99975644  0.66215134  0.36156102
   0.16773000  0.83295000  0.06141000
   0.00149000  0.66672000  0.12196000
   0.16592000  0.83389000  0.18235000
   0.99950000  0.66635000  0.24245000
   0.16537894  0.83418036  0.30351719
   0.49825000  0.83185000  0.06189000
   0.50064000  0.83335000  0.18189000
   0.33424000  0.66627000  0.24239000
   0.66521000  0.66629000  0.00100000
   0.83382000  0.83268000  0.06128000
   0.83390000  0.83311000  0.18191000
   0.66721000  0.66675000  0.24221000
   0.83115172  0.82546249  0.30555276
   0.99760000  0.00330000  0.24221000
   0.66561000  0.99834000  0.00060000
   0.65501471  0.99432358  0.36846136
   0.83467000  0.16589000  0.18209000
   0.99866000  0.33404000  0.12198000
   0.33421000  0.33147000  0.00101000
   0.33345304  0.33509947  0.36484982
   0.83220000  0.50025000  0.06275000
   0.83038249  0.50130636  0.30578409
   0.33512000  0.67037000  0.00000000
   0.34382916  0.67367273  0.36934325
   0.33145000  0.66488000  0.12292000
   0.50451544  0.82878103  0.30834291
   0.67111000  0.66550000  0.12148000
   0.67444624  0.66476133  0.40386752
Direct configuration=     8
   0.99950000  0.00032000  0.00103000
   0.99740474  0.00024023  0.36078097
   0.16670000  0.16592000  0.06160000
   0.99930000  0.00013000  0.12183000
   0.16670000  0.16692000  0.18170000
   0.16220772  0.16767476  0.30341317
   0.33368000  0.99986000  0.00108000
   0.32357128  0.01377623  0.36307562
   0.50008000  0.16606000  0.06164000
   0.33365000  0.99945000  0.12194000
   0.50013000  0.16657000  0.18176000
   0.33374000  0.99994000  0.24252000
   0.50077121  0.16937825  0.30431969
   0.83412000  0.16807000  0.06130000
   0.66767000  0.99972000  0.12168000
   0.66792000  0.00032000  0.24233000
   0.83151721  0.16852010  0.30436006
   0.00033000  0.33346000  0.00076000
   0.00969706  0.32910916  0.36344933
   0.16704000  0.50116000  0.06077000
   0.16627000  0.49940000  0.18238000
   0.00000000  0.33319000  0.24260000
   0.16596434  0.50233161  0.30406358
   0.49811000  0.50186000  0.06112000
   0.33328000  0.33434000  0.12148000
   0.50051000  0.50053000  0.18145000
   0.33392000  0.33269000  0.24229000
   0.51014358  0.50028087  0.30325808
   0.66687000  0.33418000  0.00129000
   0.66429498  0.33448122  0.36270990
   0.66670000  0.33332000  0.12177000
   0.83466000  0.49916000  0.18181000
   0.66748000  0.33291000  0.24234000
   0.99949000  0.66581000  0.00112000
   0.00107406  0.66165383  0.36161441
   0.16773000  0.83295000  0.06141000
   0.00149000  0.66672000  0.12196000
   0.16592000  0.83389000  0.18235000
   0.99950000  0.66635000  0.24245000
   0.16417601  0.83401786  0.30382472
   0.49825000  0.83185000  0.06189000
   0.50064000  0.83335000  0.18189000
   0.33424000  0.66627000  0.24239000
   0.66521000  0.66629000  0.00100000
   0.83382000  0.83268000  0.06128000
   0.83390000  0.83311000  0.18191000
   0.66721000  0.66675000  0.24221000
   0.83284726  0.82599497  0.30501736
   0.99760000  0.00330000  0.24221000
   0.66561000  0.99834000  0.00060000
   0.65486834  0.99675476  0.36878905
   0.83467000  0.16589000  0.18209000
   0.99866000  0.33404000  0.12198000
   0.33421000  0.33147000  0.00101000
   0.33336060  0.33460277  0.36489131
   0.83220000  0.50025000  0.06275000
   0.83173105  0.49991045  0.30542880
   0.33512000  0.67037000  0.00000000
   0.34158302  0.67354646  0.36961561
   0.33145000  0.66488000  0.12292000
   0.50235241  0.83114248  0.30814510
   0.67111000  0.66550000  0.12148000
   0.67537714  0.66207721  0.39973362
Direct configuration=     9
   0.99950000  0.00032000  0.00103000
   0.99758604  0.00072964  0.36085690
   0.16670000  0.16592000  0.06160000
   0.99930000  0.00013000  0.12183000
   0.16670000  0.16692000  0.18170000
   0.16351353  0.16642609  0.30316216
   0.33368000  0.99986000  0.00108000
   0.32343364  0.01391680  0.36281235
   0.50008000  0.16606000  0.06164000
   0.33365000  0.99945000  0.12194000
   0.50013000  0.16657000  0.18176000
   0.33374000  0.99994000  0.24252000
   0.49970706  0.16982371  0.30382345
   0.83412000  0.16807000  0.06130000
   0.66767000  0.99972000  0.12168000
   0.66792000  0.00032000  0.24233000
   0.83168500  0.16758171  0.30413955
   0.00033000  0.33346000  0.00076000
   0.00985653  0.32908546  0.36382755
   0.16704000  0.50116000  0.06077000
   0.16627000  0.49940000  0.18238000
   0.00000000  0.33319000  0.24260000
   0.16692427  0.50141014  0.30363792
   0.49811000  0.50186000  0.06112000
   0.33328000  0.33434000  0.12148000
   0.50051000  0.50053000  0.18145000
   0.33392000  0.33269000  0.24229000
   0.50725132  0.50036780  0.30234628
   0.66687000  0.33418000  0.00129000
   0.66402807  0.33204467  0.36255390
   0.66670000  0.33332000  0.12177000
   0.83466000  0.49916000  0.18181000
   0.66748000  0.33291000  0.24234000
   0.99949000  0.66581000  0.00112000
   0.00328161  0.66216841  0.36143459
   0.16773000  0.83295000  0.06141000
   0.00149000  0.66672000  0.12196000
   0.16592000  0.83389000  0.18235000
   0.99950000  0.66635000  0.24245000
   0.16434378  0.83455311  0.30345545
   0.49825000  0.83185000  0.06189000
   0.50064000  0.83335000  0.18189000
   0.33424000  0.66627000  0.24239000
   0.66521000  0.66629000  0.00100000
   0.83382000  0.83268000  0.06128000
   0.83390000  0.83311000  0.18191000
   0.66721000  0.66675000  0.24221000
   0.83296031  0.82909470  0.30387978
   0.99760000  0.00330000  0.24221000
   0.66561000  0.99834000  0.00060000
   0.65569730  0.99607329  0.36903327
   0.83467000  0.16589000  0.18209000
   0.99866000  0.33404000  0.12198000
   0.33421000  0.33147000  0.00101000
   0.33258563  0.33425850  0.36475188
   0.83220000  0.50025000  0.06275000
   0.83477032  0.49720347  0.30366979
   0.33512000  0.67037000  0.00000000
   0.34092612  0.67315780  0.36970329
   0.33145000  0.66488000  0.12292000
   0.49921498  0.83408039  0.30656937
   0.67111000  0.66550000  0.12148000
   0.67472427  0.66140412  0.39922234
Direct configuration=    10
   0.99950000  0.00032000  0.00103000
   0.99760252  0.00077413  0.36086381
   0.16670000  0.16592000  0.06160000
   0.99930000  0.00013000  0.12183000
   0.16670000  0.16692000  0.18170000
   0.16363224  0.16631257  0.30313934
   0.33368000  0.99986000  0.00108000
   0.32342113  0.01392958  0.36278841
   0.50008000  0.16606000  0.06164000
   0.33365000  0.99945000  0.12194000
   0.50013000  0.16657000  0.18176000
   0.33374000  0.99994000  0.24252000
   0.49961031  0.16986420  0.30377833
   0.83412000  0.16807000  0.06130000
   0.66767000  0.99972000  0.12168000
   0.66792000  0.00032000  0.24233000
   0.83170026  0.16749639  0.30411951
   0.00033000  0.33346000  0.00076000
   0.00987103  0.32908330  0.36386193
   0.16704000  0.50116000  0.06077000
   0.16627000  0.49940000  0.18238000
   0.00000000  0.33319000  0.24260000
   0.16701154  0.50132637  0.30359922
   0.49811000  0.50186000  0.06112000
   0.33328000  0.33434000  0.12148000
   0.50051000  0.50053000  0.18145000
   0.33392000  0.33269000  0.24229000
   0.50698838  0.50037570  0.30226338
   0.66687000  0.33418000  0.00129000
   0.66400381  0.33182316  0.36253971
   0.66670000  0.33332000  0.12177000
   0.83466000  0.49916000  0.18181000
   0.66748000  0.33291000  0.24234000
   0.99949000  0.66581000  0.00112000
   0.00348230  0.66221520  0.36141824
   0.16773000  0.83295000  0.06141000
   0.00149000  0.66672000  0.12196000
   0.16592000  0.83389000  0.18235000
   0.99950000  0.66635000  0.24245000
   0.16435904  0.83460177  0.30342188
   0.49825000  0.83185000  0.06189000
   0.50064000  0.83335000  0.18189000
   0.33424000  0.66627000  0.24239000
   0.66521000  0.66629000  0.00100000
   0.83382000  0.83268000  0.06128000
   0.83390000  0.83311000  0.18191000
   0.66721000  0.66675000  0.24221000
   0.83297058  0.82937650  0.30377636
   0.99760000  0.00330000  0.24221000
   0.66561000  0.99834000  0.00060000
   0.65577266  0.99601134  0.36905547
   0.83467000  0.16589000  0.18209000
   0.99866000  0.33404000  0.12198000
   0.33421000  0.33147000  0.00101000
   0.33251517  0.33422720  0.36473921
   0.83220000  0.50025000  0.06275000
   0.83504663  0.49695737  0.30350988
   0.33512000  0.67037000  0.00000000
   0.34086640  0.67312247  0.36971126
   0.33145000  0.66488000  0.12292000
   0.49892976  0.83434748  0.30642612
   0.67111000  0.66550000  0.12148000
   0.67466492  0.66134293  0.39917586
Direct configuration=    11
   0.99950000  0.00032000  0.00103000
   0.99763548  0.00086312  0.36087761
   0.16670000  0.16592000  0.06160000
   0.99930000  0.00013000  0.12183000
   0.16670000  0.16692000  0.18170000
   0.16386967  0.16608553  0.30309370
   0.33368000  0.99986000  0.00108000
   0.32339610  0.01395514  0.36274054
   0.50008000  0.16606000  0.06164000
   0.33365000  0.99945000  0.12194000
   0.50013000  0.16657000  0.18176000
   0.33374000  0.99994000  0.24252000
   0.49941682  0.16994520  0.30368810
   0.83412000  0.16807000  0.06130000
   0.66767000  0.99972000  0.12168000
   0.66792000  0.00032000  0.24233000
   0.83173077  0.16732577  0.30407941
   0.00033000  0.33346000  0.00076000
   0.00990002  0.32907899  0.36393070
   0.16704000  0.50116000  0.06077000
   0.16627000  0.49940000  0.18238000
   0.00000000  0.33319000  0.24260000
   0.16718607  0.50115882  0.30352183
   0.49811000  0.50186000  0.06112000
   0.33328000  0.33434000  0.12148000
   0.50051000  0.50053000  0.18145000
   0.33392000  0.33269000  0.24229000
   0.50646250  0.50039150  0.30209759
   0.66687000  0.33418000  0.00129000
   0.66395528  0.33138014  0.36251135
   0.66670000  0.33332000  0.12177000
   0.83466000  0.49916000  0.18181000
   0.66748000  0.33291000  0.24234000
   0.99949000  0.66581000  0.00112000
   0.00388369  0.66230876  0.36138554
   0.16773000  0.83295000  0.06141000
   0.00149000  0.66672000  0.12196000
   0.16592000  0.83389000  0.18235000
   0.99950000  0.66635000  0.24245000
   0.16438954  0.83469909  0.30335474
   0.49825000  0.83185000  0.06189000
   0.50064000  0.83335000  0.18189000
   0.33424000  0.66627000  0.24239000
   0.66521000  0.66629000  0.00100000
   0.83382000  0.83268000  0.06128000
   0.83390000  0.83311000  0.18191000
   0.66721000  0.66675000  0.24221000
   0.83299114  0.82994011  0.30356952
   0.99760000  0.00330000  0.24221000
   0.66561000  0.99834000  0.00060000
   0.65592338  0.99588743  0.36909988
   0.83467000  0.16589000  0.18209000
   0.99866000  0.33404000  0.12198000
   0.33421000  0.33147000  0.00101000
   0.33237426  0.33416461  0.36471386
   0.83220000  0.50025000  0.06275000
   0.83559924  0.49646518  0.30319005
   0.33512000  0.67037000  0.00000000
   0.34074696  0.67305180  0.36972720
   0.33145000  0.66488000  0.12292000
   0.49835930  0.83488166  0.30613961
   0.67111000  0.66550000  0.12148000
   0.67454621  0.66122055  0.39908290
Direct configuration=    12
   0.99950000  0.00032000  0.00103000
   0.99760834  0.00078985  0.36086624
   0.16670000  0.16592000  0.06160000
   0.99930000  0.00013000  0.12183000
   0.16670000  0.16692000  0.18170000
   0.16367418  0.16627247  0.30313128
   0.33368000  0.99986000  0.00108000
   0.32341671  0.01393410  0.36277996
   0.50008000  0.16606000  0.06164000
   0.33365000  0.99945000  0.12194000
   0.50013000  0.16657000  0.18176000
   0.33374000  0.99994000  0.24252000
   0.49957613  0.16987851  0.30376239
   0.83412000  0.16807000  0.06130000
   0.66767000  0.99972000  0.12168000
   0.66792000  0.00032000  0.24233000
   0.83170565  0.16746626  0.30411242
   0.00033000  0.33346000  0.00076000
   0.00987615  0.32908254  0.36387408
   0.16704000  0.50116000  0.06077000
   0.16627000  0.49940000  0.18238000
   0.00000000  0.33319000  0.24260000
   0.16704237  0.50129677  0.30358555
   0.49811000  0.50186000  0.06112000
   0.33328000  0.33434000  0.12148000
   0.50051000  0.50053000  0.18145000
   0.33392000  0.33269000  0.24229000
   0.50689549  0.50037849  0.30223410
   0.66687000  0.33418000  0.00129000
   0.66399524  0.33174490  0.36253470
   0.66670000  0.33332000  0.12177000
   0.83466000  0.49916000  0.18181000
   0.66748000  0.33291000  0.24234000
   0.99949000  0.66581000  0.00112000
   0.00355320  0.66223172  0.36141247
   0.16773000  0.83295000  0.06141000
   0.00149000  0.66672000  0.12196000
   0.16592000  0.83389000  0.18235000
   0.99950000  0.66635000  0.24245000
   0.16436442  0.83461896  0.30341002
   0.49825000  0.83185000  0.06189000
   0.50064000  0.83335000  0.18189000
   0.33424000  0.66627000  0.24239000
   0.66521000  0.66629000  0.00100000
   0.83382000  0.83268000  0.06128000
   0.83390000  0.83311000  0.18191000
   0.66721000  0.66675000  0.24221000
   0.83297421  0.82947606  0.30373982
   0.99760000  0.00330000  0.24221000
   0.66561000  0.99834000  0.00060000
   0.65579928  0.99598945  0.36906332
   0.83467000  0.16589000  0.18209000
   0.99866000  0.33404000  0.12198000
   0.33421000  0.33147000  0.00101000
   0.33249028  0.33421615  0.36473473
   0.83220000  0.50025000  0.06275000
   0.83514424  0.49687043  0.30345339
   0.33512000  0.67037000  0.00000000
   0.34084531  0.67310999  0.36971408
   0.33145000  0.66488000  0.12292000
   0.49882899  0.83444184  0.30637551
   0.67111000  0.66550000  0.12148000
   0.67464395  0.66132132  0.39915944
Direct configuration=    13
   0.99950000  0.00032000  0.00103000
   0.99760209  0.00128556  0.36091631
   0.16670000  0.16592000  0.06160000
   0.99930000  0.00013000  0.12183000
   0.16670000  0.16692000  0.18170000
   0.16312099  0.16652479  0.30307727
   0.33368000  0.99986000  0.00108000
   0.32368772  0.01387165  0.36283662
   0.50008000  0.16606000  0.06164000
   0.33365000  0.99945000  0.12194000
   0.50013000  0.16657000  0.18176000
   0.33374000  0.99994000  0.24252000
   0.49989064  0.16952961  0.30365207
   0.83412000  0.16807000  0.06130000
   0.66767000  0.99972000  0.12168000
   0.66792000  0.00032000  0.24233000
   0.83197962  0.16696211  0.30411120
   0.00033000  0.33346000  0.00076000
   0.01045523  0.32887489  0.36383241
   0.16704000  0.50116000  0.06077000
   0.16627000  0.49940000  0.18238000
   0.00000000  0.33319000  0.24260000
   0.16734170  0.50116095  0.30355891
   0.49811000  0.50186000  0.06112000
   0.33328000  0.33434000  0.12148000
   0.50051000  0.50053000  0.18145000
   0.33392000  0.33269000  0.24229000
   0.50689099  0.50031306  0.30214452
   0.66687000  0.33418000  0.00129000
   0.66328908  0.33072587  0.36180934
   0.66670000  0.33332000  0.12177000
   0.83466000  0.49916000  0.18181000
   0.66748000  0.33291000  0.24234000
   0.99949000  0.66581000  0.00112000
   0.00452590  0.66297216  0.36060512
   0.16773000  0.83295000  0.06141000
   0.00149000  0.66672000  0.12196000
   0.16592000  0.83389000  0.18235000
   0.99950000  0.66635000  0.24245000
   0.16414751  0.83432327  0.30325367
   0.49825000  0.83185000  0.06189000
   0.50064000  0.83335000  0.18189000
   0.33424000  0.66627000  0.24239000
   0.66521000  0.66629000  0.00100000
   0.83382000  0.83268000  0.06128000
   0.83390000  0.83311000  0.18191000
   0.66721000  0.66675000  0.24221000
   0.83312687  0.82933481  0.30356140
   0.99760000  0.00330000  0.24221000
   0.66561000  0.99834000  0.00060000
   0.65555022  0.99520040  0.36885417
   0.83467000  0.16589000  0.18209000
   0.99866000  0.33404000  0.12198000
   0.33421000  0.33147000  0.00101000
   0.33208021  0.33419021  0.36469523
   0.83220000  0.50025000  0.06275000
   0.83524331  0.49684852  0.30302909
   0.33512000  0.67037000  0.00000000
   0.34076258  0.67323259  0.36947519
   0.33145000  0.66488000  0.12292000
   0.49881099  0.83440823  0.30591174
   0.67111000  0.66550000  0.12148000
   0.67435271  0.66076398  0.39852446
Direct configuration=    14
   0.99950000  0.00032000  0.00103000
   0.99759961  0.00148255  0.36093620
   0.16670000  0.16592000  0.06160000
   0.99930000  0.00013000  0.12183000
   0.16670000  0.16692000  0.18170000
   0.16290115  0.16662506  0.30305581
   0.33368000  0.99986000  0.00108000
   0.32379541  0.01384684  0.36285914
   0.50008000  0.16606000  0.06164000
   0.33365000  0.99945000  0.12194000
   0.50013000  0.16657000  0.18176000
   0.33374000  0.99994000  0.24252000
   0.50001563  0.16939096  0.30360823
   0.83412000  0.16807000  0.06130000
   0.66767000  0.99972000  0.12168000
   0.66792000  0.00032000  0.24233000
   0.83208850  0.16676176  0.30411071
   0.00033000  0.33346000  0.00076000
   0.01068535  0.32879236  0.36381585
   0.16704000  0.50116000  0.06077000
   0.16627000  0.49940000  0.18238000
   0.00000000  0.33319000  0.24260000
   0.16746066  0.50110698  0.30354832
   0.49811000  0.50186000  0.06112000
   0.33328000  0.33434000  0.12148000
   0.50051000  0.50053000  0.18145000
   0.33392000  0.33269000  0.24229000
   0.50688920  0.50028706  0.30210892
   0.66687000  0.33418000  0.00129000
   0.66300846  0.33032091  0.36152109
   0.66670000  0.33332000  0.12177000
   0.83466000  0.49916000  0.18181000
   0.66748000  0.33291000  0.24234000
   0.99949000  0.66581000  0.00112000
   0.00491245  0.66326641  0.36028429
   0.16773000  0.83295000  0.06141000
   0.00149000  0.66672000  0.12196000
   0.16592000  0.83389000  0.18235000
   0.99950000  0.66635000  0.24245000
   0.16406130  0.83420577  0.30319154
   0.49825000  0.83185000  0.06189000
   0.50064000  0.83335000  0.18189000
   0.33424000  0.66627000  0.24239000
   0.66521000  0.66629000  0.00100000
   0.83382000  0.83268000  0.06128000
   0.83390000  0.83311000  0.18191000
   0.66721000  0.66675000  0.24221000
   0.83318753  0.82927867  0.30349050
   0.99760000  0.00330000  0.24221000
   0.66561000  0.99834000  0.00060000
   0.65545125  0.99488684  0.36877105
   0.83467000  0.16589000  0.18209000
   0.99866000  0.33404000  0.12198000
   0.33421000  0.33147000  0.00101000
   0.33191725  0.33417990  0.36467954
   0.83220000  0.50025000  0.06275000
   0.83528268  0.49683981  0.30286048
   0.33512000  0.67037000  0.00000000
   0.34072971  0.67328131  0.36938026
   0.33145000  0.66488000  0.12292000
   0.49880383  0.83439487  0.30572745
   0.67111000  0.66550000  0.12148000
   0.67423698  0.66054249  0.39827212
Direct configuration=    15
   0.99950000  0.00032000  0.00103000
   0.99759464  0.00187653  0.36097599
   0.16670000  0.16592000  0.06160000
   0.99930000  0.00013000  0.12183000
   0.16670000  0.16692000  0.18170000
   0.16246149  0.16682560  0.30301289
   0.33368000  0.99986000  0.00108000
   0.32401080  0.01379721  0.36290417
   0.50008000  0.16606000  0.06164000
   0.33365000  0.99945000  0.12194000
   0.50013000  0.16657000  0.18176000
   0.33374000  0.99994000  0.24252000
   0.50026560  0.16911367  0.30352055
   0.83412000  0.16807000  0.06130000
   0.66767000  0.99972000  0.12168000
   0.66792000  0.00032000  0.24233000
   0.83230625  0.16636107  0.30410973
   0.00033000  0.33346000  0.00076000
   0.01114559  0.32862732  0.36378274
   0.16704000  0.50116000  0.06077000
   0.16627000  0.49940000  0.18238000
   0.00000000  0.33319000  0.24260000
   0.16769857  0.50099903  0.30352715
   0.49811000  0.50186000  0.06112000
   0.33328000  0.33434000  0.12148000
   0.50051000  0.50053000  0.18145000
   0.33392000  0.33269000  0.24229000
   0.50688562  0.50023506  0.30203773
   0.66687000  0.33418000  0.00129000
   0.66244721  0.32951099  0.36094459
   0.66670000  0.33332000  0.12177000
   0.83466000  0.49916000  0.18181000
   0.66748000  0.33291000  0.24234000
   0.99949000  0.66581000  0.00112000
   0.00568554  0.66385490  0.35964262
   0.16773000  0.83295000  0.06141000
   0.00149000  0.66672000  0.12196000
   0.16592000  0.83389000  0.18235000
   0.99950000  0.66635000  0.24245000
   0.16388890  0.83397075  0.30306727
   0.49825000  0.83185000  0.06189000
   0.50064000  0.83335000  0.18189000
   0.33424000  0.66627000  0.24239000
   0.66521000  0.66629000  0.00100000
   0.83382000  0.83268000  0.06128000
   0.83390000  0.83311000  0.18191000
   0.66721000  0.66675000  0.24221000
   0.83330886  0.82916641  0.30334869
   0.99760000  0.00330000  0.24221000
   0.66561000  0.99834000  0.00060000
   0.65525329  0.99425972  0.36860482
   0.83467000  0.16589000  0.18209000
   0.99866000  0.33404000  0.12198000
   0.33421000  0.33147000  0.00101000
   0.33159133  0.33415928  0.36464815
   0.83220000  0.50025000  0.06275000
   0.83536143  0.49682239  0.30252325
   0.33512000  0.67037000  0.00000000
   0.34066396  0.67337875  0.36919040
   0.33145000  0.66488000  0.12292000
   0.49878952  0.83436816  0.30535885
   0.67111000  0.66550000  0.12148000
   0.67400551  0.66009953  0.39776745
Direct configuration=    16
   0.99950000  0.00032000  0.00103000
   0.99759872  0.00155316  0.36094333
   0.16670000  0.16592000  0.06160000
   0.99930000  0.00013000  0.12183000
   0.16670000  0.16692000  0.18170000
   0.16282236  0.16666100  0.30304812
   0.33368000  0.99986000  0.00108000
   0.32383401  0.01383794  0.36286721
   0.50008000  0.16606000  0.06164000
   0.33365000  0.99945000  0.12194000
   0.50013000  0.16657000  0.18176000
   0.33374000  0.99994000  0.24252000
   0.50006043  0.16934127  0.30359252
   0.83412000  0.16807000  0.06130000
   0.66767000  0.99972000  0.12168000
   0.66792000  0.00032000  0.24233000
   0.83212752  0.16668995  0.30411053
   0.00033000  0.33346000  0.00076000
   0.01076783  0.32876279  0.36380992
   0.16704000  0.50116000  0.06077000
   0.16627000  0.49940000  0.18238000
   0.00000000  0.33319000  0.24260000
   0.16750330  0.50108764  0.30354453
   0.49811000  0.50186000  0.06112000
   0.33328000  0.33434000  0.12148000
   0.50051000  0.50053000  0.18145000
   0.33392000  0.33269000  0.24229000
   0.50688856  0.50027774  0.30209616
   0.66687000  0.33418000  0.00129000
   0.66290787  0.33017576  0.36141777
   0.66670000  0.33332000  0.12177000
   0.83466000  0.49916000  0.18181000
   0.66748000  0.33291000  0.24234000
   0.99949000  0.66581000  0.00112000
   0.00505100  0.66337187  0.36016929
   0.16773000  0.83295000  0.06141000
   0.00149000  0.66672000  0.12196000
   0.16592000  0.83389000  0.18235000
   0.99950000  0.66635000  0.24245000
   0.16403040  0.83416365  0.30316927
   0.49825000  0.83185000  0.06189000
   0.50064000  0.83335000  0.18189000
   0.33424000  0.66627000  0.24239000
   0.66521000  0.66629000  0.00100000
   0.83382000  0.83268000  0.06128000
   0.83390000  0.83311000  0.18191000
   0.66721000  0.66675000  0.24221000
   0.83320928  0.82925855  0.30346508
   0.99760000  0.00330000  0.24221000
   0.66561000  0.99834000  0.00060000
   0.65541577  0.99477445  0.36874126
   0.83467000  0.16589000  0.18209000
   0.99866000  0.33404000  0.12198000
   0.33421000  0.33147000  0.00101000
   0.33185884  0.33417620  0.36467391
   0.83220000  0.50025000  0.06275000
   0.83529680  0.49683669  0.30280004
   0.33512000  0.67037000  0.00000000
   0.34071792  0.67329877  0.36934623
   0.33145000  0.66488000  0.12292000
   0.49880127  0.83439009  0.30566139
   0.67111000  0.66550000  0.12148000
   0.67419549  0.66046311  0.39818168
Direct configuration=    17
   0.99950000  0.00032000  0.00103000
   0.99754646  0.00185269  0.36099840
   0.16670000  0.16592000  0.06160000
   0.99930000  0.00013000  0.12183000
   0.16670000  0.16692000  0.18170000
   0.16321194  0.16622264  0.30303998
   0.33368000  0.99986000  0.00108000
   0.32383997  0.01397685  0.36272313
   0.50008000  0.16606000  0.06164000
   0.33365000  0.99945000  0.12194000
   0.50013000  0.16657000  0.18176000
   0.33374000  0.99994000  0.24252000
   0.49938835  0.16849489  0.30345282
   0.83412000  0.16807000  0.06130000
   0.66767000  0.99972000  0.12168000
   0.66792000  0.00032000  0.24233000
   0.83215470  0.16645019  0.30396256
   0.00033000  0.33346000  0.00076000
   0.01073673  0.32882887  0.36377746
   0.16704000  0.50116000  0.06077000
   0.16627000  0.49940000  0.18238000
   0.00000000  0.33319000  0.24260000
   0.16793847  0.50080809  0.30332914
   0.49811000  0.50186000  0.06112000
   0.33328000  0.33434000  0.12148000
   0.50051000  0.50053000  0.18145000
   0.33392000  0.33269000  0.24229000
   0.50681027  0.50017006  0.30200544
   0.66687000  0.33418000  0.00129000
   0.66281954  0.32987331  0.36113851
   0.66670000  0.33332000  0.12177000
   0.83466000  0.49916000  0.18181000
   0.66748000  0.33291000  0.24234000
   0.99949000  0.66581000  0.00112000
   0.00490581  0.66376349  0.35983357
   0.16773000  0.83295000  0.06141000
   0.00149000  0.66672000  0.12196000
   0.16592000  0.83389000  0.18235000
   0.99950000  0.66635000  0.24245000
   0.16476090  0.83516466  0.30296724
   0.49825000  0.83185000  0.06189000
   0.50064000  0.83335000  0.18189000
   0.33424000  0.66627000  0.24239000
   0.66521000  0.66629000  0.00100000
   0.83382000  0.83268000  0.06128000
   0.83390000  0.83311000  0.18191000
   0.66721000  0.66675000  0.24221000
   0.83313206  0.82919395  0.30342201
   0.99760000  0.00330000  0.24221000
   0.66561000  0.99834000  0.00060000
   0.65497116  0.99382361  0.36838486
   0.83467000  0.16589000  0.18209000
   0.99866000  0.33404000  0.12198000
   0.33421000  0.33147000  0.00101000
   0.33187634  0.33393903  0.36455856
   0.83220000  0.50025000  0.06275000
   0.83500816  0.49695914  0.30278051
   0.33512000  0.67037000  0.00000000
   0.34088769  0.67362806  0.36898007
   0.33145000  0.66488000  0.12292000
   0.49920880  0.83373017  0.30562417
   0.67111000  0.66550000  0.12148000
   0.67438599  0.65946662  0.39742013
Direct configuration=    18
   0.99950000  0.00032000  0.00103000
   0.99754154  0.00188087  0.36100358
   0.16670000  0.16592000  0.06160000
   0.99930000  0.00013000  0.12183000
   0.16670000  0.16692000  0.18170000
   0.16324860  0.16618140  0.30303922
   0.33368000  0.99986000  0.00108000
   0.32384053  0.01398992  0.36270957
   0.50008000  0.16606000  0.06164000
   0.33365000  0.99945000  0.12194000
   0.50013000  0.16657000  0.18176000
   0.33374000  0.99994000  0.24252000
   0.49932512  0.16841526  0.30343968
   0.83412000  0.16807000  0.06130000
   0.66767000  0.99972000  0.12168000
   0.66792000  0.00032000  0.24233000
   0.83215726  0.16642764  0.30394863
   0.00033000  0.33346000  0.00076000
   0.01073380  0.32883509  0.36377441
   0.16704000  0.50116000  0.06077000
   0.16627000  0.49940000  0.18238000
   0.00000000  0.33319000  0.24260000
   0.16797941  0.50078178  0.30330887
   0.49811000  0.50186000  0.06112000
   0.33328000  0.33434000  0.12148000
   0.50051000  0.50053000  0.18145000
   0.33392000  0.33269000  0.24229000
   0.50680291  0.50015993  0.30199690
   0.66687000  0.33418000  0.00129000
   0.66281123  0.32984486  0.36111224
   0.66670000  0.33332000  0.12177000
   0.83466000  0.49916000  0.18181000
   0.66748000  0.33291000  0.24234000
   0.99949000  0.66581000  0.00112000
   0.00489215  0.66380033  0.35980198
   0.16773000  0.83295000  0.06141000
   0.00149000  0.66672000  0.12196000
   0.16592000  0.83389000  0.18235000
   0.99950000  0.66635000  0.24245000
   0.16482962  0.83525884  0.30294823
   0.49825000  0.83185000  0.06189000
   0.50064000  0.83335000  0.18189000
   0.33424000  0.66627000  0.24239000
   0.66521000  0.66629000  0.00100000
   0.83382000  0.83268000  0.06128000
   0.83390000  0.83311000  0.18191000
   0.66721000  0.66675000  0.24221000
   0.83312480  0.82918788  0.30341795
   0.99760000  0.00330000  0.24221000
   0.66561000  0.99834000  0.00060000
   0.65492933  0.99373415  0.36835133
   0.83467000  0.16589000  0.18209000
   0.99866000  0.33404000  0.12198000
   0.33421000  0.33147000  0.00101000
   0.33187798  0.33391672  0.36454771
   0.83220000  0.50025000  0.06275000
   0.83498100  0.49697066  0.30277867
   0.33512000  0.67037000  0.00000000
   0.34090366  0.67365904  0.36894562
   0.33145000  0.66488000  0.12292000
   0.49924715  0.83366808  0.30562067
   0.67111000  0.66550000  0.12148000
   0.67440391  0.65937287  0.39734849
Direct configuration=    19
   0.99950000  0.00032000  0.00103000
   0.99757057  0.00194469  0.36097038
   0.16670000  0.16592000  0.06160000
   0.99930000  0.00013000  0.12183000
   0.16670000  0.16692000  0.18170000
   0.16313666  0.16638439  0.30301689
   0.33368000  0.99986000  0.00108000
   0.32378842  0.01398419  0.36277291
   0.50008000  0.16606000  0.06164000
   0.33365000  0.99945000  0.12194000
   0.50013000  0.16657000  0.18176000
   0.33374000  0.99994000  0.24252000
   0.49930545  0.16842584  0.30338627
   0.83412000  0.16807000  0.06130000
   0.66767000  0.99972000  0.12168000
   0.66792000  0.00032000  0.24233000
   0.83202185  0.16651850  0.30391468
   0.00033000  0.33346000  0.00076000
   0.01057105  0.32892471  0.36362273
   0.16704000  0.50116000  0.06077000
   0.16627000  0.49940000  0.18238000
   0.00000000  0.33319000  0.24260000
   0.16772372  0.50092615  0.30329375
   0.49811000  0.50186000  0.06112000
   0.33328000  0.33434000  0.12148000
   0.50051000  0.50053000  0.18145000
   0.33392000  0.33269000  0.24229000
   0.50660888  0.49982110  0.30189584
   0.66687000  0.33418000  0.00129000
   0.66295606  0.32958460  0.36122456
   0.66670000  0.33332000  0.12177000
   0.83466000  0.49916000  0.18181000
   0.66748000  0.33291000  0.24234000
   0.99949000  0.66581000  0.00112000
   0.00475722  0.66374471  0.35983635
   0.16773000  0.83295000  0.06141000
   0.00149000  0.66672000  0.12196000
   0.16592000  0.83389000  0.18235000
   0.99950000  0.66635000  0.24245000
   0.16471810  0.83531221  0.30292708
   0.49825000  0.83185000  0.06189000
   0.50064000  0.83335000  0.18189000
   0.33424000  0.66627000  0.24239000
   0.66521000  0.66629000  0.00100000
   0.83382000  0.83268000  0.06128000
   0.83390000  0.83311000  0.18191000
   0.66721000  0.66675000  0.24221000
   0.83339996  0.82939796  0.30335801
   0.99760000  0.00330000  0.24221000
   0.66561000  0.99834000  0.00060000
   0.65468730  0.99337893  0.36814886
   0.83467000  0.16589000  0.18209000
   0.99866000  0.33404000  0.12198000
   0.33421000  0.33147000  0.00101000
   0.33208063  0.33379667  0.36446843
   0.83220000  0.50025000  0.06275000
   0.83525933  0.49663548  0.30280707
   0.33512000  0.67037000  0.00000000
   0.34100959  0.67386602  0.36873058
   0.33145000  0.66488000  0.12292000
   0.49930533  0.83346294  0.30562462
   0.67111000  0.66550000  0.12148000
   0.67460843  0.65879028  0.39722971
Direct configuration=    20
   0.99950000  0.00032000  0.00103000
   0.99759115  0.00198995  0.36094684
   0.16670000  0.16592000  0.06160000
   0.99930000  0.00013000  0.12183000
   0.16670000  0.16692000  0.18170000
   0.16305729  0.16652833  0.30300106
   0.33368000  0.99986000  0.00108000
   0.32375147  0.01398013  0.36281782
   0.50008000  0.16606000  0.06164000
   0.33365000  0.99945000  0.12194000
   0.50013000  0.16657000  0.18176000
   0.33374000  0.99994000  0.24252000
   0.49929150  0.16843334  0.30334840
   0.83412000  0.16807000  0.06130000
   0.66767000  0.99972000  0.12168000
   0.66792000  0.00032000  0.24233000
   0.83192583  0.16658293  0.30389060
   0.00033000  0.33346000  0.00076000
   0.01045565  0.32898826  0.36351518
   0.16704000  0.50116000  0.06077000
   0.16627000  0.49940000  0.18238000
   0.00000000  0.33319000  0.24260000
   0.16754241  0.50102852  0.30328303
   0.49811000  0.50186000  0.06112000
   0.33328000  0.33434000  0.12148000
   0.50051000  0.50053000  0.18145000
   0.33392000  0.33269000  0.24229000
   0.50647129  0.49958084  0.30182418
   0.66687000  0.33418000  0.00129000
   0.66305876  0.32940005  0.36130420
   0.66670000  0.33332000  0.12177000
   0.83466000  0.49916000  0.18181000
   0.66748000  0.33291000  0.24234000
   0.99949000  0.66581000  0.00112000
   0.00466153  0.66370528  0.35986072
   0.16773000  0.83295000  0.06141000
   0.00149000  0.66672000  0.12196000
   0.16592000  0.83389000  0.18235000
   0.99950000  0.66635000  0.24245000
   0.16463901  0.83535005  0.30291208
   0.49825000  0.83185000  0.06189000
   0.50064000  0.83335000  0.18189000
   0.33424000  0.66627000  0.24239000
   0.66521000  0.66629000  0.00100000
   0.83382000  0.83268000  0.06128000
   0.83390000  0.83311000  0.18191000
   0.66721000  0.66675000  0.24221000
   0.83359508  0.82954693  0.30331551
   0.99760000  0.00330000  0.24221000
   0.66561000  0.99834000  0.00060000
   0.65451567  0.99312706  0.36800529
   0.83467000  0.16589000  0.18209000
   0.99866000  0.33404000  0.12198000
   0.33421000  0.33147000  0.00101000
   0.33222432  0.33371155  0.36441222
   0.83220000  0.50025000  0.06275000
   0.83545668  0.49639781  0.30282721
   0.33512000  0.67037000  0.00000000
   0.34108470  0.67401279  0.36857811
   0.33145000  0.66488000  0.12292000
   0.49934658  0.83331748  0.30562742
   0.67111000  0.66550000  0.12148000
   0.67475345  0.65837719  0.39714548
Direct configuration=    21
   0.99950000  0.00032000  0.00103000
   0.99769208  0.00213281  0.36091555
   0.16670000  0.16592000  0.06160000
   0.99930000  0.00013000  0.12183000
   0.16670000  0.16692000  0.18170000
   0.16314387  0.16648103  0.30300047
   0.33368000  0.99986000  0.00108000
   0.32347990  0.01416141  0.36280041
   0.50008000  0.16606000  0.06164000
   0.33365000  0.99945000  0.12194000
   0.50013000  0.16657000  0.18176000
   0.33374000  0.99994000  0.24252000
   0.49947340  0.16838441  0.30340831
   0.83412000  0.16807000  0.06130000
   0.66767000  0.99972000  0.12168000
   0.66792000  0.00032000  0.24233000
   0.83176253  0.16647645  0.30390632
   0.00033000  0.33346000  0.00076000
   0.01023763  0.32921115  0.36347934
   0.16704000  0.50116000  0.06077000
   0.16627000  0.49940000  0.18238000
   0.00000000  0.33319000  0.24260000
   0.16761889  0.50117806  0.30332247
   0.49811000  0.50186000  0.06112000
   0.33328000  0.33434000  0.12148000
   0.50051000  0.50053000  0.18145000
   0.33392000  0.33269000  0.24229000
   0.50670691  0.49936345  0.30185107
   0.66687000  0.33418000  0.00129000
   0.66298722  0.32888293  0.36136701
   0.66670000  0.33332000  0.12177000
   0.83466000  0.49916000  0.18181000
   0.66748000  0.33291000  0.24234000
   0.99949000  0.66581000  0.00112000
   0.00464458  0.66375225  0.35998115
   0.16773000  0.83295000  0.06141000
   0.00149000  0.66672000  0.12196000
   0.16592000  0.83389000  0.18235000
   0.99950000  0.66635000  0.24245000
   0.16449123  0.83526853  0.30295432
   0.49825000  0.83185000  0.06189000
   0.50064000  0.83335000  0.18189000
   0.33424000  0.66627000  0.24239000
   0.66521000  0.66629000  0.00100000
   0.83382000  0.83268000  0.06128000
   0.83390000  0.83311000  0.18191000
   0.66721000  0.66675000  0.24221000
   0.83361286  0.82943045  0.30327117
   0.99760000  0.00330000  0.24221000
   0.66561000  0.99834000  0.00060000
   0.65437354  0.99273191  0.36783198
   0.83467000  0.16589000  0.18209000
   0.99866000  0.33404000  0.12198000
   0.33421000  0.33147000  0.00101000
   0.33234621  0.33361097  0.36433890
   0.83220000  0.50025000  0.06275000
   0.83545502  0.49618589  0.30276236
   0.33512000  0.67037000  0.00000000
   0.34124386  0.67409889  0.36839863
   0.33145000  0.66488000  0.12292000
   0.49921906  0.83325839  0.30550469
   0.67111000  0.66550000  0.12148000
   0.67475466  0.65799766  0.39712249
Direct configuration=    22
   0.99950000  0.00032000  0.00103000
   0.99772256  0.00217596  0.36090609
   0.16670000  0.16592000  0.06160000
   0.99930000  0.00013000  0.12183000
   0.16670000  0.16692000  0.18170000
   0.16317002  0.16646674  0.30300030
   0.33368000  0.99986000  0.00108000
   0.32339788  0.01421616  0.36279515
   0.50008000  0.16606000  0.06164000
   0.33365000  0.99945000  0.12194000
   0.50013000  0.16657000  0.18176000
   0.33374000  0.99994000  0.24252000
   0.49952834  0.16836964  0.30342640
   0.83412000  0.16807000  0.06130000
   0.66767000  0.99972000  0.12168000
   0.66792000  0.00032000  0.24233000
   0.83171321  0.16644429  0.30391107
   0.00033000  0.33346000  0.00076000
   0.01017179  0.32927847  0.36346851
   0.16704000  0.50116000  0.06077000
   0.16627000  0.49940000  0.18238000
   0.00000000  0.33319000  0.24260000
   0.16764200  0.50122323  0.30333439
   0.49811000  0.50186000  0.06112000
   0.33328000  0.33434000  0.12148000
   0.50051000  0.50053000  0.18145000
   0.33392000  0.33269000  0.24229000
   0.50677807  0.49929779  0.30185919
   0.66687000  0.33418000  0.00129000
   0.66296562  0.32872674  0.36138597
   0.66670000  0.33332000  0.12177000
   0.83466000  0.49916000  0.18181000
   0.66748000  0.33291000  0.24234000
   0.99949000  0.66581000  0.00112000
   0.00463946  0.66376644  0.36001753
   0.16773000  0.83295000  0.06141000
   0.00149000  0.66672000  0.12196000
   0.16592000  0.83389000  0.18235000
   0.99950000  0.66635000  0.24245000
   0.16444659  0.83524391  0.30296708
   0.49825000  0.83185000  0.06189000
   0.50064000  0.83335000  0.18189000
   0.33424000  0.66627000  0.24239000
   0.66521000  0.66629000  0.00100000
   0.83382000  0.83268000  0.06128000
   0.83390000  0.83311000  0.18191000
   0.66721000  0.66675000  0.24221000
   0.83361823  0.82939527  0.30325778
   0.99760000  0.00330000  0.24221000
   0.66561000  0.99834000  0.00060000
   0.65433061  0.99261256  0.36777963
   0.83467000  0.16589000  0.18209000
   0.99866000  0.33404000  0.12198000
   0.33421000  0.33147000  0.00101000
   0.33238302  0.33358059  0.36431675
   0.83220000  0.50025000  0.06275000
   0.83545452  0.49612188  0.30274277
   0.33512000  0.67037000  0.00000000
   0.34129194  0.67412490  0.36834442
   0.33145000  0.66488000  0.12292000
   0.49918054  0.83324054  0.30546762
   0.67111000  0.66550000  0.12148000
   0.67475502  0.65788303  0.39711554
Direct configuration=    23
   0.99950000  0.00032000  0.00103000
   0.99770995  0.00221688  0.36092135
   0.16670000  0.16592000  0.06160000
   0.99930000  0.00013000  0.12183000
   0.16670000  0.16692000  0.18170000
   0.16307770  0.16651636  0.30296282
   0.33368000  0.99986000  0.00108000
   0.32327130  0.01429275  0.36279102
   0.50008000  0.16606000  0.06164000
   0.33365000  0.99945000  0.12194000
   0.50013000  0.16657000  0.18176000
   0.33374000  0.99994000  0.24252000
   0.49943866  0.16813410  0.30341968
   0.83412000  0.16807000  0.06130000
   0.66767000  0.99972000  0.12168000
   0.66792000  0.00032000  0.24233000
   0.83191689  0.16622959  0.30390733
   0.00033000  0.33346000  0.00076000
   0.01006783  0.32953397  0.36350166
   0.16704000  0.50116000  0.06077000
   0.16627000  0.49940000  0.18238000
   0.00000000  0.33319000  0.24260000
   0.16779796  0.50115264  0.30337417
   0.49811000  0.50186000  0.06112000
   0.33328000  0.33434000  0.12148000
   0.50051000  0.50053000  0.18145000
   0.33392000  0.33269000  0.24229000
   0.50706586  0.49941875  0.30195029
   0.66687000  0.33418000  0.00129000
   0.66282760  0.32830627  0.36143386
   0.66670000  0.33332000  0.12177000
   0.83466000  0.49916000  0.18181000
   0.66748000  0.33291000  0.24234000
   0.99949000  0.66581000  0.00112000
   0.00473744  0.66381459  0.36006143
   0.16773000  0.83295000  0.06141000
   0.00149000  0.66672000  0.12196000
   0.16592000  0.83389000  0.18235000
   0.99950000  0.66635000  0.24245000
   0.16445438  0.83518519  0.30297450
   0.49825000  0.83185000  0.06189000
   0.50064000  0.83335000  0.18189000
   0.33424000  0.66627000  0.24239000
   0.66521000  0.66629000  0.00100000
   0.83382000  0.83268000  0.06128000
   0.83390000  0.83311000  0.18191000
   0.66721000  0.66675000  0.24221000
   0.83340282  0.82903587  0.30330058
   0.99760000  0.00330000  0.24221000
   0.66561000  0.99834000  0.00060000
   0.65427819  0.99219022  0.36772942
   0.83467000  0.16589000  0.18209000
   0.99866000  0.33404000  0.12198000
   0.33421000  0.33147000  0.00101000
   0.33224889  0.33362843  0.36432687
   0.83220000  0.50025000  0.06275000
   0.83529572  0.49635348  0.30270019
   0.33512000  0.67037000  0.00000000
   0.34155484  0.67415261  0.36831336
   0.33145000  0.66488000  0.12292000
   0.49914333  0.83328065  0.30537954
   0.67111000  0.66550000  0.12148000
   0.67458207  0.65781932  0.39710853
