   63   63  300    2
  0.2711232E+02  0.8526200E-09  0.8504600E-09  0.2355580E-08  0.5000000E-15
  1.000000000000000E-004
  CAR 
 ni3al                                   
    562      8    369
 
  0.1250000E+00  0.1250000E+00  0.0000000E+00  0.1250000E+00
      1        -42.295900      -43.492619   1.000000   1.000000
      2        -42.260171      -43.460172   1.000000   1.000000
      3        -42.229001      -43.442596   1.000000   1.000000
      4        -42.193992      -43.439320   1.000000   1.000000
      5        -42.166661      -43.438965   1.000000   1.000000
      6        -42.125290      -43.432227   1.000000   1.000000
      7        -42.098540      -43.416441   1.000000   1.000000
      8        -42.097039      -43.401383   1.000000   1.000000
      9        -42.073173      -43.377536   1.000000   1.000000
     10        -42.041741      -43.373142   1.000000   1.000000
     11        -41.952291      -43.358139   1.000000   1.000000
     12        -41.939339      -43.352201   1.000000   1.000000
     13        -41.936793      -43.325267   1.000000   1.000000
     14        -41.886259      -43.282740   1.000000   1.000000
     15        -41.876645      -43.259407   1.000000   1.000000
     16        -41.859498      -43.230617   1.000000   1.000000
     17        -41.845275      -43.213938   1.000000   1.000000
     18        -41.773583      -43.187488   1.000000   1.000000
     19        -41.773040      -43.173280   1.000000   1.000000
     20        -41.720587      -43.150665   1.000000   1.000000
     21        -41.716847      -43.120110   1.000000   1.000000
     22        -41.713189      -43.100255   1.000000   1.000000
     23        -41.694192      -43.022722   1.000000   1.000000
     24        -41.685042      -42.980749   1.000000   1.000000
     25        -40.400335      -42.934626   1.000000   1.000000
     26        -40.364627      -42.857030   1.000000   1.000000
     27        -40.361529      -42.794442   1.000000   1.000000
     28        -40.324430      -42.668255   1.000000   1.000000
     29        -40.301289      -42.593857   1.000000   1.000000
     30        -40.299159      -42.542148   1.000000   1.000000
     31        -40.264949      -42.511461   1.000000   1.000000
     32        -40.262638      -42.394888   1.000000   1.000000
     33        -40.246321      -42.374454   1.000000   1.000000
     34        -40.241943      -42.197939   1.000000   1.000000
     35        -40.215908      -42.153876   1.000000   1.000000
     36        -40.212864      -42.040542   1.000000   1.000000
     37        -40.169047      -42.024171   1.000000   1.000000
     38        -40.160116      -41.945983   1.000000   1.000000
     39        -40.137835      -41.729296   1.000000   1.000000
     40        -15.492961      -15.508483   1.000000   1.000000
     41        -15.485296      -15.486569   1.000000   1.000000
     42        -15.483953      -15.484192   1.000000   1.000000
     43        -15.445499      -15.467450   1.000000   1.000000
     44        -15.443856      -15.449194   1.000000   1.000000
     45         -7.634403       -7.612402   1.000000   1.000000
     46         -7.156485       -7.052327   1.000000   1.000000
     47         -6.144639       -6.053159   1.000000   1.000000
     48         -5.679663       -5.513605   1.000000   1.000000
     49         -5.628519       -5.487562   1.000000   1.000000
     50         -4.942399       -4.724925   1.000000   1.000000
     51         -4.904069       -4.683579   1.000000   1.000000
     52         -4.845159       -4.637483   1.000000   1.000000
     53         -4.802734       -4.596865   1.000000   1.000000
     54         -4.735162       -4.567377   1.000000   1.000000
     55         -4.519808       -4.226097   1.000000   1.000000
     56         -4.369657       -3.991036   1.000000   1.000000
     57         -4.356935       -3.940172   1.000000   1.000000
     58         -4.153919       -3.697514   1.000000   1.000000
     59         -4.126569       -3.649902   1.000000   1.000000
     60         -4.098007       -3.610477   1.000000   1.000000
     61         -4.055468       -3.575487   1.000000   1.000000
     62         -4.026535       -3.424016   1.000000   1.000000
     63         -3.987729       -3.341616   1.000000   1.000000
     64         -3.926884       -3.324904   1.000000   1.000000
     65         -3.880209       -3.282602   1.000000   1.000000
     66         -3.857776       -3.174095   1.000000   1.000000
     67         -3.768455       -2.916938   1.000000   1.000000
     68         -3.730760       -2.888385   1.000000   1.000000
     69         -3.697897       -2.852730   1.000000   1.000000
     70         -3.671040       -2.843552   1.000000   1.000000
     71         -3.627427       -2.820248   1.000000   1.000000
     72         -3.595964       -2.779721   1.000000   1.000000
     73         -3.581279       -2.626675   1.000000   1.000000
     74         -3.478001       -2.597690   1.000000   1.000000
     75         -3.457362       -2.546876   1.000000   1.000000
     76         -3.441278       -2.525031   1.000000   1.000000
     77         -3.425436       -2.495869   1.000000   1.000000
     78         -3.408848       -2.477249   1.000000   1.000000
     79         -3.396393       -2.449953   1.000000   1.000000
     80         -3.373080       -2.419072   1.000000   1.000000
     81         -3.363677       -2.382271   1.000000   1.000000
     82         -3.349672       -2.330443   1.000000   1.000000
     83         -3.337028       -2.316570   1.000000   1.000000
     84         -3.296148       -2.297779   1.000000   1.000000
     85         -3.281511       -2.250098   1.000000   1.000000
     86         -3.257959       -2.229642   1.000000   1.000000
     87         -3.242872       -2.225158   1.000000   1.000000
     88         -3.215946       -2.187155   1.000000   1.000000
     89         -3.184602       -2.174235   1.000000   1.000000
     90         -3.174391       -2.148271   1.000000   1.000000
     91         -3.150715       -2.131905   1.000000   1.000000
     92         -3.103651       -2.070212   1.000000   1.000000
     93         -3.076083       -2.067325   1.000000   1.000000
     94         -3.053060       -2.029109   1.000000   1.000000
     95         -3.039078       -2.010719   1.000000   1.000000
     96         -3.030531       -1.963136   1.000000   1.000000
     97         -3.009741       -1.924074   1.000000   1.000000
     98         -2.994556       -1.897750   1.000000   1.000000
     99         -2.976339       -1.885491   1.000000   1.000000
    100         -2.934866       -1.870209   1.000000   1.000000
    101         -2.910854       -1.847073   1.000000   1.000000
    102         -2.879522       -1.806224   1.000000   1.000000
    103         -2.866031       -1.772314   1.000000   1.000000
    104         -2.850842       -1.699841   1.000000   1.000000
    105         -2.834772       -1.660019   1.000000   1.000000
    106         -2.790705       -1.647522   1.000000   1.000000
    107         -2.757298       -1.611045   1.000000   1.000000
    108         -2.746276       -1.587322   1.000000   1.000000
    109         -2.726558       -1.568466   1.000000   1.000000
    110         -2.703815       -1.546669   1.000000   1.000000
    111         -2.695258       -1.539782   1.000000   1.000000
    112         -2.672661       -1.523967   1.000000   1.000000
    113         -2.657300       -1.502094   1.000000   1.000000
    114         -2.643932       -1.483334   1.000000   1.000000
    115         -2.626053       -1.460907   1.000000   1.000000
    116         -2.617224       -1.441547   1.000000   1.000000
    117         -2.598870       -1.427971   1.000000   1.000000
    118         -2.586924       -1.407148   1.000000   1.000000
    119         -2.571865       -1.397950   1.000000   1.000000
    120         -2.563788       -1.354482   1.000000   1.000000
    121         -2.555085       -1.333331   1.000000   1.000000
    122         -2.545888       -1.302420   1.000000   1.000000
    123         -2.531869       -1.293548   1.000000   1.000000
    124         -2.523022       -1.271414   1.000000   1.000000
    125         -2.514161       -1.241283   1.000000   1.000000
    126         -2.501436       -1.233830   1.000000   1.000000
    127         -2.489931       -1.208965   1.000000   1.000000
    128         -2.481257       -1.196121   1.000000   1.000000
    129         -2.470128       -1.181913   1.000000   1.000000
    130         -2.451198       -1.176684   1.000000   1.000000
    131         -2.442482       -1.167346   1.000000   1.000000
    132         -2.434718       -1.137580   1.000000   1.000000
    133         -2.411316       -1.122342   1.000000   1.000000
    134         -2.403947       -1.114657   1.000000   1.000000
    135         -2.395362       -1.099428   1.000000   1.000000
    136         -2.387799       -1.079704   1.000000   1.000000
    137         -2.372946       -1.069532   1.000000   1.000000
    138         -2.364422       -1.057149   1.000000   1.000000
    139         -2.351733       -1.037103   1.000000   1.000000
    140         -2.330749       -1.025133   1.000000   1.000000
    141         -2.317939       -1.010704   1.000000   1.000000
    142         -2.297850       -0.998064   1.000000   1.000000
    143         -2.284490       -0.981251   1.000000   1.000000
    144         -2.269211       -0.963575   1.000000   1.000000
    145         -2.262303       -0.953303   1.000000   1.000000
    146         -2.249746       -0.937868   1.000000   1.000000
    147         -2.238902       -0.918948   1.000000   1.000000
    148         -2.219687       -0.901523   1.000000   1.000000
    149         -2.213643       -0.881753   1.000000   1.000000
    150         -2.197748       -0.872554   1.000000   1.000000
    151         -2.190067       -0.860789   1.000000   1.000000
    152         -2.171463       -0.828661   1.000000   1.000000
    153         -2.162089       -0.814158   1.000000   1.000000
    154         -2.153696       -0.799977   1.000000   1.000000
    155         -2.138730       -0.790694   1.000000   1.000000
    156         -2.130280       -0.780726   1.000000   1.000000
    157         -2.118241       -0.765908   1.000000   1.000000
    158         -2.092816       -0.756133   1.000000   1.000000
    159         -2.080212       -0.750341   1.000000   1.000000
    160         -2.068049       -0.722729   1.000000   1.000000
    161         -2.045013       -0.695239   1.000000   1.000000
    162         -2.039486       -0.678253   1.000000   1.000000
    163         -2.014034       -0.660891   1.000000   1.000000
    164         -2.006863       -0.649682   1.000000   1.000000
    165         -1.988638       -0.643142   1.000000   1.000000
    166         -1.977305       -0.630248   1.000000   1.000000
    167         -1.958405       -0.612135   1.000000   1.000000
    168         -1.949121       -0.600626   1.000000   1.000000
    169         -1.935605       -0.592979   1.000000   1.000000
    170         -1.922404       -0.559545   1.000000   1.000000
    171         -1.905445       -0.544326   1.000000   1.000000
    172         -1.893732       -0.512455   1.000000   1.000000
    173         -1.872379       -0.504990   1.000000   1.000000
    174         -1.854444       -0.480721   1.000000   1.000000
    175         -1.839741       -0.473583   1.000000   1.000000
    176         -1.822576       -0.447440   1.000000   1.000000
    177         -1.806020       -0.419778   1.000000   1.000000
    178         -1.791149       -0.398141   1.000000   1.000000
    179         -1.774934       -0.372978   1.000000   1.000000
    180         -1.753739       -0.356951   1.000000   1.000000
    181         -1.742822       -0.346670   1.000000   1.000000
    182         -1.722706       -0.324480   1.000000   1.000000
    183         -1.703725       -0.301374   1.000000   1.000000
    184         -1.681771       -0.285475   1.000000   1.000000
    185         -1.674487       -0.256797   1.000000   1.000000
    186         -1.663427       -0.235104   1.000000   1.000000
    187         -1.648536       -0.223821   1.000000   1.000000
    188         -1.629467       -0.193666   1.000000   1.000000
    189         -1.600998       -0.178753   1.000000   1.000000
    190         -1.576687       -0.163098   1.000000   1.000000
    191         -1.564690       -0.147179   1.000000   1.000000
    192         -1.555925       -0.137756   1.000000   1.000000
    193         -1.542564       -0.112121   1.000000   1.000000
    194         -1.532976       -0.096371   1.000000   1.000000
    195         -1.517073       -0.062117   1.000000   1.000000
    196         -1.510904       -0.044081   1.000000   1.000000
    197         -1.489505       -0.034604   1.000000   1.000000
    198         -1.470527       -0.021616   1.000000   1.000000
    199         -1.459891       -0.006021   1.000000   1.000000
    200         -1.445245        0.011103   1.000000   1.000000
    201         -1.429442        0.046138   1.000000   1.000000
    202         -1.412069        0.075919   1.000000   1.000000
    203         -1.385827        0.103065   1.000000   1.000000
    204         -1.378227        0.118210   1.000000   1.000000
    205         -1.361553        0.129210   1.000000   1.000000
    206         -1.348095        0.142265   1.000000   1.000000
    207         -1.334736        0.166687   1.000000   1.000000
    208         -1.325907        0.178051   1.000000   1.000000
    209         -1.293635        0.186232   1.000000   1.000000
    210         -1.277569        0.208211   1.000000   1.000000
    211         -1.258822        0.231164   1.000000   1.000000
    212         -1.234531        0.253920   1.000000   1.000000
    213         -1.217003        0.279942   1.000000   1.000000
    214         -1.186536        0.290153   1.000000   1.000000
    215         -1.176999        0.318728   1.000000   1.000001
    216         -1.157278        0.330527   1.000000   1.000001
    217         -1.109690        0.366890   1.000000   1.000005
    218         -1.098999        0.388627   1.000000   1.000014
    219         -1.073966        0.426003   1.000000   1.000062
    220         -1.064870        0.449657   1.000000   1.000150
    221         -1.056767        0.479278   1.000000   1.000418
    222         -1.025899        0.488692   1.000000   1.000569
    223         -1.006056        0.499260   1.000000   1.000794
    224         -0.983013        0.543086   1.000000   1.002804
    225         -0.966813        0.568962   1.000000   1.005361
    226         -0.945679        0.586013   1.000000   1.007884
    227         -0.931775        0.599137   1.000000   1.010363
    228         -0.921532        0.631652   1.000000   1.018546
    229         -0.905485        0.655627   1.000000   1.025829
    230         -0.889804        0.701856   1.000000   1.035450
    231         -0.876845        0.738238   1.000000   1.023998
    232         -0.856638        0.765582   1.000000   0.991857
    233         -0.840544        0.814764   1.000000   0.858505
    234         -0.825091        0.829018   1.000000   0.800096
    235         -0.816443        0.868358   1.000000   0.602389
    236         -0.781966        0.885260   1.000000   0.507875
    237         -0.765499        0.927357   1.000000   0.279479
    238         -0.759865        0.946001   1.000000   0.192472
    239         -0.743403        0.964473   1.000000   0.119762
    240         -0.730328        1.006804   1.000000   0.009701
    241         -0.712438        1.013139   1.000000  -0.000293
    242         -0.703740        1.040297   1.000000  -0.027466
    243         -0.682737        1.056562   1.000000  -0.033983
    244         -0.659675        1.068465   1.000000  -0.035433
    245         -0.645880        1.089396   1.000000  -0.033384
    246         -0.636591        1.115682   1.000000  -0.026440
    247         -0.619051        1.126877   1.000000  -0.022998
    248         -0.604798        1.142873   1.000000  -0.018195
    249         -0.598804        1.181032   1.000000  -0.009007
    250         -0.580957        1.194788   1.000000  -0.006684
    251         -0.570949        1.203637   1.000000  -0.005452
    252         -0.560482        1.226192   1.000000  -0.003117
    253         -0.545179        1.234799   1.000000  -0.002482
    254         -0.534500        1.269204   1.000000  -0.000922
    255         -0.526736        1.281762   1.000000  -0.000623
    256         -0.518747        1.292690   1.000000  -0.000437
    257         -0.503018        1.315229   1.000000  -0.000203
    258         -0.494884        1.347583   1.000000  -0.000062
    259         -0.489636        1.359045   1.000000  -0.000040
    260         -0.467768        1.386717   1.000000  -0.000013
    261         -0.464210        1.403885   1.000000  -0.000006
    262         -0.457122        1.415257   1.000000  -0.000004
    263         -0.438909        1.426229   1.000000  -0.000002
    264         -0.429755        1.459259   1.000000  -0.000000
    265         -0.422521        1.473260   1.000000  -0.000000
    266         -0.407429        1.488398   1.000000  -0.000000
    267         -0.400101        1.509626   1.000000  -0.000000
    268         -0.398666        1.513402   1.000000  -0.000000
    269         -0.391290        1.530916   1.000000  -0.000000
    270         -0.386141        1.545606   1.000000  -0.000000
    271         -0.374883        1.573279   1.000000  -0.000000
    272         -0.357931        1.579612   1.000000  -0.000000
    273         -0.342567        1.582740   1.000000  -0.000000
    274         -0.329866        1.621619   1.000000  -0.000000
    275         -0.321445        1.631579   1.000000  -0.000000
    276         -0.315713        1.650992   1.000000  -0.000000
    277         -0.308444        1.658898   1.000000  -0.000000
    278         -0.295835        1.688367   1.000000  -0.000000
    279         -0.282259        1.699010   1.000000  -0.000000
    280         -0.276741        1.704872   1.000000  -0.000000
    281         -0.270019        1.720490   1.000000  -0.000000
    282         -0.265187        1.747198   1.000000  -0.000000
    283         -0.256088        1.758311   1.000000  -0.000000
    284         -0.243890        1.765566   1.000000  -0.000000
    285         -0.231328        1.783078   1.000000  -0.000000
    286         -0.217246        1.804634   1.000000  -0.000000
    287         -0.214279        1.824347   1.000000  -0.000000
    288         -0.205490        1.834100   1.000000  -0.000000
    289         -0.195290        1.846648   1.000000  -0.000000
    290         -0.184192        1.862749   1.000000  -0.000000
    291         -0.160511        1.888418   1.000000  -0.000000
    292         -0.139291        1.893104   1.000000  -0.000000
    293         -0.131352        1.912063   1.000000  -0.000000
    294         -0.109247        1.919096   1.000000  -0.000000
    295         -0.091492        1.930478   1.000000  -0.000000
    296         -0.084206        1.941741   1.000000  -0.000000
    297         -0.057533        1.957517   1.000000  -0.000000
    298         -0.046831        1.967746   1.000000  -0.000000
    299         -0.026698        1.983189   1.000000  -0.000000
    300         -0.018456        2.005898   1.000000  -0.000000
    301          0.014985        2.020964   1.000000  -0.000000
    302          0.057412        2.023427   1.000000  -0.000000
    303          0.080138        2.046049   1.000000  -0.000000
    304          0.119315        2.054962   1.000000  -0.000000
    305          0.150727        2.069755   1.000000  -0.000000
    306          0.172501        2.077306   1.000000  -0.000000
    307          0.203630        2.086712   1.000000  -0.000000
    308          0.242091        2.099711   1.000000  -0.000000
    309          0.270699        2.102115   1.000000  -0.000000
    310          0.315100        2.118110   1.000000  -0.000000
    311          0.335309        2.120955   1.000001  -0.000000
    312          0.377547        2.138651   1.000009  -0.000000
    313          0.403341        2.150704   1.000026  -0.000000
    314          0.443466        2.160504   1.000120  -0.000000
    315          0.450611        2.174146   1.000156  -0.000000
    316          0.479639        2.179261   1.000423  -0.000000
    317          0.525504        2.199403   1.001732  -0.000000
    318          0.540222        2.201859   1.002598  -0.000000
    319          0.567741        2.215104   1.005209  -0.000000
    320          0.589150        2.221818   1.008433  -0.000000
    321          0.612947        2.235475   1.013499  -0.000000
    322          0.654418        2.240896   1.025459  -0.000000
    323          0.710571        2.255916   1.035031  -0.000000
    324          0.742138        2.269825   1.020907  -0.000000
    325          0.764254        2.280433   0.994032  -0.000000
    326          0.782611        2.285192   0.957631  -0.000000
    327          0.821172        2.294417   0.833294  -0.000000
    328          0.863326        2.322273   0.629877  -0.000000
    329          0.957428        2.331768   0.145775  -0.000000
    330          1.001352        2.335742   0.019560  -0.000000
    331          1.015763        2.345903  -0.003991  -0.000000
    332          1.055193        2.358227  -0.033655  -0.000000
    333          1.100177        2.374252  -0.030883  -0.000000
    334          1.140747        2.379821  -0.018812  -0.000000
    335          1.167803        2.386541  -0.011743  -0.000000
    336          1.211803        2.393673  -0.004482  -0.000000
    337          1.239608        2.398243  -0.002177  -0.000000
    338          1.294764        2.409985  -0.000408  -0.000000
    339          1.317334        2.425674  -0.000188  -0.000000
    340          1.374414        2.431199  -0.000021  -0.000000
    341          1.434561        2.437860  -0.000002  -0.000000
    342          1.475638        2.446818  -0.000000  -0.000000
    343          1.487104        2.456461  -0.000000  -0.000000
    344          1.511640        2.466303  -0.000000  -0.000000
    345          1.567883        2.473747  -0.000000  -0.000000
    346          1.609755        2.482857  -0.000000  -0.000000
    347          1.654353        2.494918  -0.000000  -0.000000
    348          1.693758        2.502288  -0.000000  -0.000000
    349          1.701133        2.508568  -0.000000  -0.000000
    350          1.705974        2.517544  -0.000000  -0.000000
    351          1.773846        2.530982  -0.000000  -0.000000
    352          1.780559        2.542551  -0.000000  -0.000000
    353          1.809451        2.552331  -0.000000  -0.000000
    354          1.856622        2.557810  -0.000000  -0.000000
    355          1.889433        2.582778  -0.000000  -0.000000
    356          1.920521        2.592427  -0.000000  -0.000000
    357          1.941172        2.600186  -0.000000  -0.000000
    358          1.964903        2.622327  -0.000000  -0.000000
    359          2.000225        2.642098  -0.000000  -0.000000
    360          2.017881        2.665665  -0.000000  -0.000000
    361          2.050873        2.678428  -0.000000  -0.000000
    362          2.122766        2.688207  -0.000000  -0.000000
    363          2.165170        2.700065  -0.000000  -0.000000
    364          2.189523        2.708430  -0.000000  -0.000000
    365          2.231501        2.730961  -0.000000  -0.000000
    366          2.280526        2.767623  -0.000000  -0.000000
    367          2.309106        2.790539  -0.000000  -0.000000
    368          2.333677        2.828164  -0.000000  -0.000000
    369          2.372190        2.839822  -0.000000  -0.000000
 
  0.3750000E+00  0.1250000E+00  0.0000000E+00  0.1250000E+00
      1        -42.295910      -43.492613   1.000000   1.000000
      2        -42.260165      -43.460173   1.000000   1.000000
      3        -42.229000      -43.442572   1.000000   1.000000
      4        -42.193998      -43.439316   1.000000   1.000000
      5        -42.166656      -43.438958   1.000000   1.000000
      6        -42.125263      -43.432219   1.000000   1.000000
      7        -42.098537      -43.416437   1.000000   1.000000
      8        -42.097055      -43.401381   1.000000   1.000000
      9        -42.073182      -43.377541   1.000000   1.000000
     10        -42.041733      -43.373142   1.000000   1.000000
     11        -41.952286      -43.358137   1.000000   1.000000
     12        -41.939341      -43.352202   1.000000   1.000000
     13        -41.936791      -43.325262   1.000000   1.000000
     14        -41.886249      -43.282757   1.000000   1.000000
     15        -41.876643      -43.259406   1.000000   1.000000
     16        -41.859492      -43.230632   1.000000   1.000000
     17        -41.845270      -43.213938   1.000000   1.000000
     18        -41.773566      -43.187483   1.000000   1.000000
     19        -41.773046      -43.173283   1.000000   1.000000
     20        -41.720587      -43.150659   1.000000   1.000000
     21        -41.716848      -43.120103   1.000000   1.000000
     22        -41.713198      -43.100250   1.000000   1.000000
     23        -41.694199      -43.022726   1.000000   1.000000
     24        -41.685037      -42.980746   1.000000   1.000000
     25        -40.400282      -42.934629   1.000000   1.000000
     26        -40.364625      -42.857028   1.000000   1.000000
     27        -40.361526      -42.794439   1.000000   1.000000
     28        -40.324432      -42.668251   1.000000   1.000000
     29        -40.301281      -42.593868   1.000000   1.000000
     30        -40.299169      -42.542156   1.000000   1.000000
     31        -40.264999      -42.511455   1.000000   1.000000
     32        -40.262640      -42.394885   1.000000   1.000000
     33        -40.246314      -42.374451   1.000000   1.000000
     34        -40.241942      -42.197934   1.000000   1.000000
     35        -40.215902      -42.153876   1.000000   1.000000
     36        -40.212867      -42.040540   1.000000   1.000000
     37        -40.169039      -42.024167   1.000000   1.000000
     38        -40.160108      -41.945980   1.000000   1.000000
     39        -40.137829      -41.729293   1.000000   1.000000
     40        -15.492963      -15.508484   1.000000   1.000000
     41        -15.485299      -15.486572   1.000000   1.000000
     42        -15.483951      -15.484191   1.000000   1.000000
     43        -15.445498      -15.467449   1.000000   1.000000
     44        -15.443856      -15.449194   1.000000   1.000000
     45         -7.606932       -7.590456   1.000000   1.000000
     46         -6.902058       -6.789948   1.000000   1.000000
     47         -6.386107       -6.261680   1.000000   1.000000
     48         -5.914165       -5.810872   1.000000   1.000000
     49         -5.483703       -5.348431   1.000000   1.000000
     50         -5.403764       -5.249947   1.000000   1.000000
     51         -5.016471       -4.817598   1.000000   1.000000
     52         -4.717059       -4.466442   1.000000   1.000000
     53         -4.631557       -4.447093   1.000000   1.000000
     54         -4.589966       -4.374148   1.000000   1.000000
     55         -4.373788       -4.090136   1.000000   1.000000
     56         -4.331624       -4.046979   1.000000   1.000000
     57         -4.213662       -3.965575   1.000000   1.000000
     58         -4.109802       -3.723619   1.000000   1.000000
     59         -4.078120       -3.659346   1.000000   1.000000
     60         -4.034351       -3.452489   1.000000   1.000000
     61         -4.006442       -3.327370   1.000000   1.000000
     62         -3.910207       -3.301587   1.000000   1.000000
     63         -3.861894       -3.197634   1.000000   1.000000
     64         -3.820829       -3.155986   1.000000   1.000000
     65         -3.794263       -3.111287   1.000000   1.000000
     66         -3.784880       -3.087718   1.000000   1.000000
     67         -3.766976       -3.005926   1.000000   1.000000
     68         -3.747895       -2.955433   1.000000   1.000000
     69         -3.733754       -2.939824   1.000000   1.000000
     70         -3.709378       -2.903970   1.000000   1.000000
     71         -3.632078       -2.878621   1.000000   1.000000
     72         -3.596697       -2.779542   1.000000   1.000000
     73         -3.577097       -2.723597   1.000000   1.000000
     74         -3.568106       -2.668016   1.000000   1.000000
     75         -3.546755       -2.633782   1.000000   1.000000
     76         -3.515593       -2.567627   1.000000   1.000000
     77         -3.497108       -2.510102   1.000000   1.000000
     78         -3.492391       -2.491064   1.000000   1.000000
     79         -3.440200       -2.455371   1.000000   1.000000
     80         -3.417851       -2.426794   1.000000   1.000000
     81         -3.403056       -2.390679   1.000000   1.000000
     82         -3.328642       -2.347405   1.000000   1.000000
     83         -3.309890       -2.314023   1.000000   1.000000
     84         -3.280716       -2.283060   1.000000   1.000000
     85         -3.269326       -2.265815   1.000000   1.000000
     86         -3.251421       -2.256047   1.000000   1.000000
     87         -3.226829       -2.239332   1.000000   1.000000
     88         -3.215110       -2.205024   1.000000   1.000000
     89         -3.201599       -2.181187   1.000000   1.000000
     90         -3.183728       -2.154516   1.000000   1.000000
     91         -3.163077       -2.125654   1.000000   1.000000
     92         -3.144584       -2.096698   1.000000   1.000000
     93         -3.119122       -2.082929   1.000000   1.000000
     94         -3.107838       -2.067599   1.000000   1.000000
     95         -3.085489       -2.045231   1.000000   1.000000
     96         -3.071859       -2.009516   1.000000   1.000000
     97         -3.051528       -1.974795   1.000000   1.000000
     98         -3.047576       -1.940473   1.000000   1.000000
     99         -3.026665       -1.921493   1.000000   1.000000
    100         -2.993258       -1.899588   1.000000   1.000000
    101         -2.967765       -1.848614   1.000000   1.000000
    102         -2.933543       -1.818416   1.000000   1.000000
    103         -2.901758       -1.789555   1.000000   1.000000
    104         -2.879728       -1.754832   1.000000   1.000000
    105         -2.866492       -1.733391   1.000000   1.000000
    106         -2.849014       -1.699712   1.000000   1.000000
    107         -2.829845       -1.682760   1.000000   1.000000
    108         -2.800607       -1.656892   1.000000   1.000000
    109         -2.776213       -1.638700   1.000000   1.000000
    110         -2.757541       -1.609033   1.000000   1.000000
    111         -2.740492       -1.578184   1.000000   1.000000
    112         -2.716920       -1.553528   1.000000   1.000000
    113         -2.697870       -1.535194   1.000000   1.000000
    114         -2.690669       -1.510481   1.000000   1.000000
    115         -2.671094       -1.491398   1.000000   1.000000
    116         -2.639388       -1.447271   1.000000   1.000000
    117         -2.634867       -1.437974   1.000000   1.000000
    118         -2.621257       -1.432432   1.000000   1.000000
    119         -2.605393       -1.407249   1.000000   1.000000
    120         -2.595545       -1.397368   1.000000   1.000000
    121         -2.590764       -1.348876   1.000000   1.000000
    122         -2.575025       -1.334366   1.000000   1.000000
    123         -2.570338       -1.303628   1.000000   1.000000
    124         -2.549118       -1.274700   1.000000   1.000000
    125         -2.534956       -1.264383   1.000000   1.000000
    126         -2.517047       -1.251501   1.000000   1.000000
    127         -2.510707       -1.236185   1.000000   1.000000
    128         -2.499214       -1.220967   1.000000   1.000000
    129         -2.493572       -1.198333   1.000000   1.000000
    130         -2.462937       -1.169473   1.000000   1.000000
    131         -2.457240       -1.143434   1.000000   1.000000
    132         -2.448740       -1.136707   1.000000   1.000000
    133         -2.433952       -1.123684   1.000000   1.000000
    134         -2.422985       -1.111664   1.000000   1.000000
    135         -2.410011       -1.097784   1.000000   1.000000
    136         -2.392173       -1.087963   1.000000   1.000000
    137         -2.383795       -1.061029   1.000000   1.000000
    138         -2.372679       -1.045710   1.000000   1.000000
    139         -2.352971       -1.032714   1.000000   1.000000
    140         -2.331131       -1.009724   1.000000   1.000000
    141         -2.315970       -0.995392   1.000000   1.000000
    142         -2.298063       -0.979277   1.000000   1.000000
    143         -2.284951       -0.956053   1.000000   1.000000
    144         -2.267189       -0.948823   1.000000   1.000000
    145         -2.249152       -0.926205   1.000000   1.000000
    146         -2.235011       -0.900052   1.000000   1.000000
    147         -2.214547       -0.891830   1.000000   1.000000
    148         -2.210469       -0.871021   1.000000   1.000000
    149         -2.198250       -0.858233   1.000000   1.000000
    150         -2.179491       -0.838479   1.000000   1.000000
    151         -2.161546       -0.811794   1.000000   1.000000
    152         -2.153350       -0.808575   1.000000   1.000000
    153         -2.139719       -0.798164   1.000000   1.000000
    154         -2.127041       -0.766064   1.000000   1.000000
    155         -2.110790       -0.743920   1.000000   1.000000
    156         -2.098047       -0.730722   1.000000   1.000000
    157         -2.065598       -0.721012   1.000000   1.000000
    158         -2.059287       -0.703919   1.000000   1.000000
    159         -2.043541       -0.683983   1.000000   1.000000
    160         -2.029241       -0.681807   1.000000   1.000000
    161         -2.022885       -0.670667   1.000000   1.000000
    162         -2.009740       -0.646611   1.000000   1.000000
    163         -1.993622       -0.623152   1.000000   1.000000
    164         -1.982638       -0.597639   1.000000   1.000000
    165         -1.972267       -0.586084   1.000000   1.000000
    166         -1.953416       -0.575190   1.000000   1.000000
    167         -1.948095       -0.560166   1.000000   1.000000
    168         -1.930793       -0.544305   1.000000   1.000000
    169         -1.914789       -0.532388   1.000000   1.000000
    170         -1.907344       -0.509812   1.000000   1.000000
    171         -1.883573       -0.492170   1.000000   1.000000
    172         -1.877583       -0.486144   1.000000   1.000000
    173         -1.868838       -0.471391   1.000000   1.000000
    174         -1.844639       -0.461137   1.000000   1.000000
    175         -1.824107       -0.439196   1.000000   1.000000
    176         -1.813044       -0.417424   1.000000   1.000000
    177         -1.792741       -0.406714   1.000000   1.000000
    178         -1.770859       -0.385039   1.000000   1.000000
    179         -1.766130       -0.369964   1.000000   1.000000
    180         -1.745366       -0.355805   1.000000   1.000000
    181         -1.743155       -0.335592   1.000000   1.000000
    182         -1.721306       -0.318263   1.000000   1.000000
    183         -1.711799       -0.310126   1.000000   1.000000
    184         -1.683065       -0.290978   1.000000   1.000000
    185         -1.674527       -0.280697   1.000000   1.000000
    186         -1.661507       -0.270164   1.000000   1.000000
    187         -1.653432       -0.246511   1.000000   1.000000
    188         -1.631852       -0.228273   1.000000   1.000000
    189         -1.617923       -0.212810   1.000000   1.000000
    190         -1.605906       -0.200037   1.000000   1.000000
    191         -1.591346       -0.171304   1.000000   1.000000
    192         -1.576121       -0.160572   1.000000   1.000000
    193         -1.562480       -0.144727   1.000000   1.000000
    194         -1.558776       -0.130237   1.000000   1.000000
    195         -1.531387       -0.110450   1.000000   1.000000
    196         -1.520162       -0.097494   1.000000   1.000000
    197         -1.501877       -0.084265   1.000000   1.000000
    198         -1.488438       -0.045940   1.000000   1.000000
    199         -1.481582       -0.033370   1.000000   1.000000
    200         -1.467627       -0.012723   1.000000   1.000000
    201         -1.461549       -0.006649   1.000000   1.000000
    202         -1.439595        0.024893   1.000000   1.000000
    203         -1.417869        0.046222   1.000000   1.000000
    204         -1.393995        0.059485   1.000000   1.000000
    205         -1.378335        0.082394   1.000000   1.000000
    206         -1.364522        0.093092   1.000000   1.000000
    207         -1.326851        0.101943   1.000000   1.000000
    208         -1.316929        0.120646   1.000000   1.000000
    209         -1.302306        0.158229   1.000000   1.000000
    210         -1.274945        0.179525   1.000000   1.000000
    211         -1.255597        0.227114   1.000000   1.000000
    212         -1.238997        0.244154   1.000000   1.000000
    213         -1.218115        0.265368   1.000000   1.000000
    214         -1.198786        0.280619   1.000000   1.000000
    215         -1.188397        0.298139   1.000000   1.000000
    216         -1.156757        0.319372   1.000000   1.000001
    217         -1.128890        0.340845   1.000000   1.000002
    218         -1.103526        0.394091   1.000000   1.000018
    219         -1.087414        0.414563   1.000000   1.000040
    220         -1.076437        0.452760   1.000000   1.000168
    221         -1.053991        0.470304   1.000000   1.000310
    222         -1.019232        0.493864   1.000000   1.000671
    223         -0.998006        0.501611   1.000000   1.000854
    224         -0.972840        0.540898   1.000000   1.002646
    225         -0.959182        0.586379   1.000000   1.007947
    226         -0.933291        0.610979   1.000000   1.013020
    227         -0.916434        0.641923   1.000000   1.021613
    228         -0.894682        0.664671   1.000000   1.028538
    229         -0.886834        0.705489   1.000000   1.035413
    230         -0.876672        0.708324   1.000000   1.035250
    231         -0.840863        0.747267   1.000000   1.016143
    232         -0.827676        0.790982   1.000000   0.936268
    233         -0.816417        0.802510   1.000000   0.901734
    234         -0.800648        0.831637   1.000000   0.788472
    235         -0.784925        0.847695   1.000000   0.711805
    236         -0.782346        0.895302   1.000000   0.451311
    237         -0.763254        0.924349   1.000000   0.294605
    238         -0.743931        0.957786   1.000000   0.144401
    239         -0.721577        0.983464   1.000000   0.060659
    240         -0.715366        0.995173   1.000000   0.032208
    241         -0.701086        1.027525   1.000000  -0.017602
    242         -0.697724        1.057479   1.000000  -0.034182
    243         -0.666970        1.075937   1.000000  -0.035256
    244         -0.660688        1.100336   1.000000  -0.030841
    245         -0.650712        1.110444   1.000000  -0.028010
    246         -0.633154        1.144492   1.000000  -0.017731
    247         -0.623199        1.157987   1.000000  -0.014093
    248         -0.600683        1.190374   1.000000  -0.007373
    249         -0.590512        1.210805   1.000000  -0.004593
    250         -0.583185        1.220886   1.000000  -0.003574
    251         -0.577674        1.251395   1.000000  -0.001563
    252         -0.558253        1.275403   1.000000  -0.000761
    253         -0.551176        1.290313   1.000000  -0.000473
    254         -0.528913        1.310506   1.000000  -0.000239
    255         -0.519760        1.340218   1.000000  -0.000082
    256         -0.514225        1.354845   1.000000  -0.000047
    257         -0.503531        1.390485   1.000000  -0.000011
    258         -0.496485        1.406928   1.000000  -0.000005
    259         -0.474920        1.422273   1.000000  -0.000003
    260         -0.469313        1.443864   1.000000  -0.000001
    261         -0.457854        1.465019   1.000000  -0.000000
    262         -0.445897        1.481539   1.000000  -0.000000
    263         -0.433331        1.501330   1.000000  -0.000000
    264         -0.428530        1.530505   1.000000  -0.000000
    265         -0.422864        1.541177   1.000000  -0.000000
    266         -0.407282        1.557367   1.000000  -0.000000
    267         -0.390387        1.581505   1.000000  -0.000000
    268         -0.380507        1.593988   1.000000  -0.000000
    269         -0.374734        1.600587   1.000000  -0.000000
    270         -0.366020        1.627094   1.000000  -0.000000
    271         -0.357137        1.635011   1.000000  -0.000000
    272         -0.333863        1.649911   1.000000  -0.000000
    273         -0.329831        1.660583   1.000000  -0.000000
    274         -0.323048        1.665806   1.000000  -0.000000
    275         -0.308491        1.691543   1.000000  -0.000000
    276         -0.294141        1.698558   1.000000  -0.000000
    277         -0.279964        1.717403   1.000000  -0.000000
    278         -0.278203        1.741755   1.000000  -0.000000
    279         -0.260034        1.754481   1.000000  -0.000000
    280         -0.256066        1.766970   1.000000  -0.000000
    281         -0.249882        1.773404   1.000000  -0.000000
    282         -0.241600        1.785010   1.000000  -0.000000
    283         -0.230490        1.803071   1.000000  -0.000000
    284         -0.220762        1.813537   1.000000  -0.000000
    285         -0.193495        1.819392   1.000000  -0.000000
    286         -0.186000        1.830752   1.000000  -0.000000
    287         -0.168671        1.837856   1.000000  -0.000000
    288         -0.162724        1.853497   1.000000  -0.000000
    289         -0.139713        1.868621   1.000000  -0.000000
    290         -0.118921        1.881252   1.000000  -0.000000
    291         -0.101353        1.886657   1.000000  -0.000000
    292         -0.086106        1.912567   1.000000  -0.000000
    293         -0.068551        1.915960   1.000000  -0.000000
    294         -0.042948        1.925562   1.000000  -0.000000
    295         -0.024961        1.945960   1.000000  -0.000000
    296         -0.006975        1.951042   1.000000  -0.000000
    297          0.021953        1.962268   1.000000  -0.000000
    298          0.045995        1.969320   1.000000  -0.000000
    299          0.060665        1.976662   1.000000  -0.000000
    300          0.072738        1.994603   1.000000  -0.000000
    301          0.116744        2.005322   1.000000  -0.000000
    302          0.149124        2.020735   1.000000  -0.000000
    303          0.166593        2.032289   1.000000  -0.000000
    304          0.177117        2.044280   1.000000  -0.000000
    305          0.217342        2.052357   1.000000  -0.000000
    306          0.251497        2.056075   1.000000  -0.000000
    307          0.271578        2.065885   1.000000  -0.000000
    308          0.299754        2.080993   1.000000  -0.000000
    309          0.319521        2.090896   1.000001  -0.000000
    310          0.342686        2.102890   1.000002  -0.000000
    311          0.378493        2.113832   1.000009  -0.000000
    312          0.395588        2.120969   1.000019  -0.000000
    313          0.416324        2.138655   1.000043  -0.000000
    314          0.435341        2.148085   1.000089  -0.000000
    315          0.463100        2.152942   1.000242  -0.000000
    316          0.500093        2.165386   1.000815  -0.000000
    317          0.519190        2.179933   1.001445  -0.000000
    318          0.558564        2.199512   1.004169  -0.000000
    319          0.596988        2.219703   1.009923  -0.000000
    320          0.645594        2.226991   1.022739  -0.000000
    321          0.663584        2.239136   1.028221  -0.000000
    322          0.702475        2.257151   1.035456  -0.000000
    323          0.718974        2.259407   1.033432  -0.000000
    324          0.752831        2.271601   1.010017  -0.000000
    325          0.791893        2.279986   0.933755  -0.000000
    326          0.830170        2.296022   0.795013  -0.000000
    327          0.886081        2.314368   0.503244  -0.000000
    328          0.924362        2.322793   0.294542  -0.000000
    329          0.979398        2.338881   0.071953  -0.000000
    330          0.995113        2.353478   0.032337  -0.000000
    331          1.041208        2.361414  -0.027997  -0.000000
    332          1.095468        2.366367  -0.032058  -0.000000
    333          1.131679        2.385031  -0.021525  -0.000000
    334          1.162251        2.392802  -0.013039  -0.000000
    335          1.182446        2.401765  -0.008744  -0.000000
    336          1.210605        2.408092  -0.004615  -0.000000
    337          1.270363        2.421290  -0.000890  -0.000000
    338          1.310189        2.427835  -0.000242  -0.000000
    339          1.339760        2.437024  -0.000083  -0.000000
    340          1.359116        2.444606  -0.000039  -0.000000
    341          1.400176        2.452039  -0.000007  -0.000000
    342          1.469013        2.466640  -0.000000  -0.000000
    343          1.501614        2.473204  -0.000000  -0.000000
    344          1.525980        2.479170  -0.000000  -0.000000
    345          1.544462        2.493408  -0.000000  -0.000000
    346          1.595192        2.502964  -0.000000  -0.000000
    347          1.641285        2.504132  -0.000000  -0.000000
    348          1.657104        2.517320  -0.000000  -0.000000
    349          1.695356        2.522940  -0.000000  -0.000000
    350          1.711314        2.533726  -0.000000  -0.000000
    351          1.733064        2.538991  -0.000000  -0.000000
    352          1.770179        2.550533  -0.000000  -0.000000
    353          1.795741        2.561862  -0.000000  -0.000000
    354          1.831598        2.570016  -0.000000  -0.000000
    355          1.861386        2.589640  -0.000000  -0.000000
    356          1.882765        2.615315  -0.000000  -0.000000
    357          1.909331        2.624922  -0.000000  -0.000000
    358          1.955785        2.634299  -0.000000  -0.000000
    359          1.975158        2.639947  -0.000000  -0.000000
    360          2.022839        2.656548  -0.000000  -0.000000
    361          2.055874        2.683966  -0.000000  -0.000000
    362          2.093792        2.688902  -0.000000  -0.000000
    363          2.111651        2.705515  -0.000000  -0.000000
    364          2.157646        2.725107  -0.000000  -0.000000
    365          2.219100        2.734430  -0.000000  -0.000000
    366          2.241943        2.746597  -0.000000  -0.000000
    367          2.275292        2.766383  -0.000000  -0.000000
    368          2.297811        2.776472  -0.000000  -0.000000
    369          2.332848        2.808238  -0.000000  -0.000000
 
 -0.3750000E+00  0.1250000E+00  0.0000000E+00  0.1250000E+00
      1        -42.295909      -43.492614   1.000000   1.000000
      2        -42.260158      -43.460179   1.000000   1.000000
      3        -42.228992      -43.442568   1.000000   1.000000
      4        -42.194004      -43.439311   1.000000   1.000000
      5        -42.166659      -43.438963   1.000000   1.000000
      6        -42.125267      -43.432220   1.000000   1.000000
      7        -42.098540      -43.416437   1.000000   1.000000
      8        -42.097063      -43.401383   1.000000   1.000000
      9        -42.073173      -43.377545   1.000000   1.000000
     10        -42.041739      -43.373143   1.000000   1.000000
     11        -41.952284      -43.358140   1.000000   1.000000
     12        -41.939339      -43.352201   1.000000   1.000000
     13        -41.936795      -43.325262   1.000000   1.000000
     14        -41.886254      -43.282757   1.000000   1.000000
     15        -41.876641      -43.259405   1.000000   1.000000
     16        -41.859495      -43.230637   1.000000   1.000000
     17        -41.845275      -43.213939   1.000000   1.000000
     18        -41.773569      -43.187483   1.000000   1.000000
     19        -41.773048      -43.173286   1.000000   1.000000
     20        -41.720588      -43.150660   1.000000   1.000000
     21        -41.716850      -43.120104   1.000000   1.000000
     22        -41.713201      -43.100251   1.000000   1.000000
     23        -41.694199      -43.022730   1.000000   1.000000
     24        -41.685038      -42.980746   1.000000   1.000000
     25        -40.400284      -42.934633   1.000000   1.000000
     26        -40.364625      -42.857022   1.000000   1.000000
     27        -40.361525      -42.794436   1.000000   1.000000
     28        -40.324435      -42.668252   1.000000   1.000000
     29        -40.301281      -42.593876   1.000000   1.000000
     30        -40.299172      -42.542152   1.000000   1.000000
     31        -40.265000      -42.511457   1.000000   1.000000
     32        -40.262642      -42.394885   1.000000   1.000000
     33        -40.246314      -42.374452   1.000000   1.000000
     34        -40.241943      -42.197933   1.000000   1.000000
     35        -40.215906      -42.153879   1.000000   1.000000
     36        -40.212864      -42.040541   1.000000   1.000000
     37        -40.169039      -42.024169   1.000000   1.000000
     38        -40.160109      -41.945981   1.000000   1.000000
     39        -40.137829      -41.729294   1.000000   1.000000
     40        -15.492963      -15.508484   1.000000   1.000000
     41        -15.485299      -15.486572   1.000000   1.000000
     42        -15.483951      -15.484191   1.000000   1.000000
     43        -15.445498      -15.467449   1.000000   1.000000
     44        -15.443856      -15.449194   1.000000   1.000000
     45         -7.606957       -7.590474   1.000000   1.000000
     46         -6.901978       -6.789894   1.000000   1.000000
     47         -6.386402       -6.261772   1.000000   1.000000
     48         -5.914191       -5.810652   1.000000   1.000000
     49         -5.468686       -5.347400   1.000000   1.000000
     50         -5.418406       -5.251145   1.000000   1.000000
     51         -5.019959       -4.819142   1.000000   1.000000
     52         -4.719770       -4.463432   1.000000   1.000000
     53         -4.627566       -4.447836   1.000000   1.000000
     54         -4.590300       -4.376474   1.000000   1.000000
     55         -4.379896       -4.086699   1.000000   1.000000
     56         -4.314752       -4.035637   1.000000   1.000000
     57         -4.212977       -3.977795   1.000000   1.000000
     58         -4.131260       -3.723920   1.000000   1.000000
     59         -4.061004       -3.662862   1.000000   1.000000
     60         -4.040875       -3.428399   1.000000   1.000000
     61         -3.996822       -3.349838   1.000000   1.000000
     62         -3.909848       -3.311587   1.000000   1.000000
     63         -3.864146       -3.184596   1.000000   1.000000
     64         -3.826981       -3.145942   1.000000   1.000000
     65         -3.800662       -3.125486   1.000000   1.000000
     66         -3.778438       -3.080581   1.000000   1.000000
     67         -3.769964       -3.015695   1.000000   1.000000
     68         -3.749044       -2.970358   1.000000   1.000000
     69         -3.729769       -2.928153   1.000000   1.000000
     70         -3.710098       -2.910349   1.000000   1.000000
     71         -3.629664       -2.885650   1.000000   1.000000
     72         -3.594703       -2.786163   1.000000   1.000000
     73         -3.578733       -2.688016   1.000000   1.000000
     74         -3.560217       -2.646760   1.000000   1.000000
     75         -3.546302       -2.634606   1.000000   1.000000
     76         -3.535154       -2.582630   1.000000   1.000000
     77         -3.496580       -2.502528   1.000000   1.000000
     78         -3.486880       -2.479324   1.000000   1.000000
     79         -3.443399       -2.447959   1.000000   1.000000
     80         -3.417394       -2.422658   1.000000   1.000000
     81         -3.399472       -2.400825   1.000000   1.000000
     82         -3.331334       -2.361592   1.000000   1.000000
     83         -3.299588       -2.340311   1.000000   1.000000
     84         -3.279495       -2.295324   1.000000   1.000000
     85         -3.263224       -2.288700   1.000000   1.000000
     86         -3.234260       -2.251167   1.000000   1.000000
     87         -3.230565       -2.227793   1.000000   1.000000
     88         -3.218104       -2.202669   1.000000   1.000000
     89         -3.199992       -2.176718   1.000000   1.000000
     90         -3.189629       -2.158723   1.000000   1.000000
     91         -3.180163       -2.132721   1.000000   1.000000
     92         -3.150636       -2.103021   1.000000   1.000000
     93         -3.121012       -2.083339   1.000000   1.000000
     94         -3.109189       -2.059439   1.000000   1.000000
     95         -3.089507       -2.032661   1.000000   1.000000
     96         -3.076715       -2.016154   1.000000   1.000000
     97         -3.058762       -1.977817   1.000000   1.000000
     98         -3.041135       -1.932568   1.000000   1.000000
     99         -3.019255       -1.909580   1.000000   1.000000
    100         -2.991698       -1.878304   1.000000   1.000000
    101         -2.960156       -1.852419   1.000000   1.000000
    102         -2.941580       -1.812599   1.000000   1.000000
    103         -2.891370       -1.793364   1.000000   1.000000
    104         -2.880162       -1.767436   1.000000   1.000000
    105         -2.864014       -1.730995   1.000000   1.000000
    106         -2.844508       -1.709947   1.000000   1.000000
    107         -2.827911       -1.677295   1.000000   1.000000
    108         -2.812604       -1.657093   1.000000   1.000000
    109         -2.777711       -1.619392   1.000000   1.000000
    110         -2.762235       -1.596778   1.000000   1.000000
    111         -2.725620       -1.573569   1.000000   1.000000
    112         -2.716085       -1.560886   1.000000   1.000000
    113         -2.693567       -1.543486   1.000000   1.000000
    114         -2.686581       -1.509625   1.000000   1.000000
    115         -2.665432       -1.491877   1.000000   1.000000
    116         -2.656525       -1.466779   1.000000   1.000000
    117         -2.637437       -1.440546   1.000000   1.000000
    118         -2.623299       -1.422931   1.000000   1.000000
    119         -2.612715       -1.402230   1.000000   1.000000
    120         -2.604047       -1.381473   1.000000   1.000000
    121         -2.576513       -1.365039   1.000000   1.000000
    122         -2.571380       -1.324960   1.000000   1.000000
    123         -2.564918       -1.305857   1.000000   1.000000
    124         -2.545209       -1.276388   1.000000   1.000000
    125         -2.532277       -1.270602   1.000000   1.000000
    126         -2.521913       -1.259087   1.000000   1.000000
    127         -2.510622       -1.225330   1.000000   1.000000
    128         -2.504973       -1.212485   1.000000   1.000000
    129         -2.484350       -1.189614   1.000000   1.000000
    130         -2.468176       -1.182003   1.000000   1.000000
    131         -2.453637       -1.152209   1.000000   1.000000
    132         -2.445433       -1.131111   1.000000   1.000000
    133         -2.432454       -1.130247   1.000000   1.000000
    134         -2.423533       -1.122397   1.000000   1.000000
    135         -2.412727       -1.103819   1.000000   1.000000
    136         -2.395137       -1.085551   1.000000   1.000000
    137         -2.384504       -1.061014   1.000000   1.000000
    138         -2.366693       -1.046084   1.000000   1.000000
    139         -2.357768       -1.027120   1.000000   1.000000
    140         -2.340001       -1.016564   1.000000   1.000000
    141         -2.323545       -1.004791   1.000000   1.000000
    142         -2.292413       -0.986891   1.000000   1.000000
    143         -2.277837       -0.958471   1.000000   1.000000
    144         -2.271290       -0.953915   1.000000   1.000000
    145         -2.243955       -0.925731   1.000000   1.000000
    146         -2.234810       -0.912601   1.000000   1.000000
    147         -2.220064       -0.883875   1.000000   1.000000
    148         -2.206414       -0.861217   1.000000   1.000000
    149         -2.191676       -0.841851   1.000000   1.000000
    150         -2.180764       -0.833068   1.000000   1.000000
    151         -2.164550       -0.814944   1.000000   1.000000
    152         -2.146406       -0.798212   1.000000   1.000000
    153         -2.140392       -0.781054   1.000000   1.000000
    154         -2.129476       -0.777835   1.000000   1.000000
    155         -2.115710       -0.749209   1.000000   1.000000
    156         -2.097295       -0.739374   1.000000   1.000000
    157         -2.073913       -0.711825   1.000000   1.000000
    158         -2.063813       -0.692119   1.000000   1.000000
    159         -2.052706       -0.687034   1.000000   1.000000
    160         -2.042521       -0.676835   1.000000   1.000000
    161         -2.025358       -0.654419   1.000000   1.000000
    162         -2.011678       -0.645171   1.000000   1.000000
    163         -1.999091       -0.633122   1.000000   1.000000
    164         -1.985433       -0.608935   1.000000   1.000000
    165         -1.969932       -0.594162   1.000000   1.000000
    166         -1.961085       -0.579780   1.000000   1.000000
    167         -1.945385       -0.573393   1.000000   1.000000
    168         -1.929174       -0.558637   1.000000   1.000000
    169         -1.911424       -0.527416   1.000000   1.000000
    170         -1.900319       -0.515257   1.000000   1.000000
    171         -1.887116       -0.488442   1.000000   1.000000
    172         -1.867191       -0.484512   1.000000   1.000000
    173         -1.849445       -0.465618   1.000000   1.000000
    174         -1.833848       -0.439751   1.000000   1.000000
    175         -1.832297       -0.434723   1.000000   1.000000
    176         -1.809234       -0.425365   1.000000   1.000000
    177         -1.801185       -0.397894   1.000000   1.000000
    178         -1.782796       -0.390944   1.000000   1.000000
    179         -1.767726       -0.371605   1.000000   1.000000
    180         -1.756189       -0.357849   1.000000   1.000000
    181         -1.736617       -0.341862   1.000000   1.000000
    182         -1.721261       -0.322021   1.000000   1.000000
    183         -1.701440       -0.302321   1.000000   1.000000
    184         -1.695177       -0.298509   1.000000   1.000000
    185         -1.678831       -0.276741   1.000000   1.000000
    186         -1.670378       -0.264725   1.000000   1.000000
    187         -1.648675       -0.243241   1.000000   1.000000
    188         -1.628829       -0.241333   1.000000   1.000000
    189         -1.609329       -0.223421   1.000000   1.000000
    190         -1.596859       -0.200467   1.000000   1.000000
    191         -1.582178       -0.179957   1.000000   1.000000
    192         -1.570310       -0.168058   1.000000   1.000000
    193         -1.563836       -0.145196   1.000000   1.000000
    194         -1.552713       -0.123838   1.000000   1.000000
    195         -1.528863       -0.102945   1.000000   1.000000
    196         -1.515871       -0.093978   1.000000   1.000000
    197         -1.505687       -0.074592   1.000000   1.000000
    198         -1.487406       -0.042093   1.000000   1.000000
    199         -1.471335       -0.039630   1.000000   1.000000
    200         -1.458433       -0.020915   1.000000   1.000000
    201         -1.452043        0.005816   1.000000   1.000000
    202         -1.434532        0.029804   1.000000   1.000000
    203         -1.421299        0.048198   1.000000   1.000000
    204         -1.406688        0.052478   1.000000   1.000000
    205         -1.365462        0.073432   1.000000   1.000000
    206         -1.356977        0.111898   1.000000   1.000000
    207         -1.349033        0.118059   1.000000   1.000000
    208         -1.322840        0.135820   1.000000   1.000000
    209         -1.311991        0.152869   1.000000   1.000000
    210         -1.296391        0.176952   1.000000   1.000000
    211         -1.262916        0.204161   1.000000   1.000000
    212         -1.238569        0.227507   1.000000   1.000000
    213         -1.216084        0.257269   1.000000   1.000000
    214         -1.199002        0.280888   1.000000   1.000000
    215         -1.167617        0.316075   1.000000   1.000001
    216         -1.151814        0.322348   1.000000   1.000001
    217         -1.128136        0.353756   1.000000   1.000003
    218         -1.114284        0.368330   1.000000   1.000006
    219         -1.090780        0.425285   1.000000   1.000061
    220         -1.067286        0.443880   1.000000   1.000122
    221         -1.044920        0.487030   1.000000   1.000539
    222         -1.011731        0.499334   1.000000   1.000796
    223         -0.998940        0.517808   1.000000   1.001388
    224         -0.982815        0.542292   1.000000   1.002746
    225         -0.960333        0.568907   1.000000   1.005354
    226         -0.931570        0.609226   1.000000   1.012601
    227         -0.922525        0.630213   1.000000   1.018130
    228         -0.909970        0.676678   1.000000   1.031777
    229         -0.887791        0.702862   1.000000   1.035458
    230         -0.856493        0.727851   1.000000   1.030196
    231         -0.846630        0.750575   1.000000   1.012625
    232         -0.834137        0.781990   1.000000   0.959095
    233         -0.814798        0.806446   1.000000   0.888577
    234         -0.802484        0.826984   1.000000   0.808939
    235         -0.781976        0.851948   1.000000   0.690127
    236         -0.771995        0.886653   1.000000   0.500017
    237         -0.758835        0.916606   1.000000   0.334707
    238         -0.742345        0.943200   1.000000   0.204729
    239         -0.727267        0.966959   1.000000   0.111108
    240         -0.710909        0.996190   1.000000   0.030016
    241         -0.697089        1.028126   1.000000  -0.018174
    242         -0.682006        1.050621   1.000000  -0.032286
    243         -0.673199        1.073233   1.000000  -0.035403
    244         -0.664696        1.091967   1.000000  -0.032852
    245         -0.651754        1.121808   1.000000  -0.024562
    246         -0.638307        1.140453   1.000000  -0.018898
    247         -0.626865        1.149864   1.000000  -0.016231
    248         -0.606948        1.185621   1.000000  -0.008174
    249         -0.599356        1.215964   1.000000  -0.004045
    250         -0.586570        1.229736   1.000000  -0.002841
    251         -0.574056        1.255343   1.000000  -0.001395
    252         -0.548862        1.292940   1.000000  -0.000434
    253         -0.542980        1.309834   1.000000  -0.000245
    254         -0.535451        1.327546   1.000000  -0.000131
    255         -0.528750        1.341431   1.000000  -0.000078
    256         -0.523013        1.372203   1.000000  -0.000023
    257         -0.503471        1.394207   1.000000  -0.000009
    258         -0.494260        1.401806   1.000000  -0.000007
    259         -0.477320        1.426966   1.000000  -0.000002
    260         -0.472609        1.435672   1.000000  -0.000001
    261         -0.454004        1.458033   1.000000  -0.000001
    262         -0.447966        1.488059   1.000000  -0.000000
    263         -0.438186        1.495172   1.000000  -0.000000
    264         -0.425446        1.517096   1.000000  -0.000000
    265         -0.419582        1.542736   1.000000  -0.000000
    266         -0.397960        1.562296   1.000000  -0.000000
    267         -0.393655        1.583481   1.000000  -0.000000
    268         -0.378803        1.591087   1.000000  -0.000000
    269         -0.374464        1.604043   1.000000  -0.000000
    270         -0.360559        1.613438   1.000000  -0.000000
    271         -0.356334        1.631206   1.000000  -0.000000
    272         -0.343401        1.642822   1.000000  -0.000000
    273         -0.336699        1.656118   1.000000  -0.000000
    274         -0.320458        1.671739   1.000000  -0.000000
    275         -0.312707        1.685933   1.000000  -0.000000
    276         -0.310173        1.706023   1.000000  -0.000000
    277         -0.293005        1.721035   1.000000  -0.000000
    278         -0.277282        1.735810   1.000000  -0.000000
    279         -0.269625        1.747205   1.000000  -0.000000
    280         -0.255760        1.754871   1.000000  -0.000000
    281         -0.249881        1.767339   1.000000  -0.000000
    282         -0.228437        1.778084   1.000000  -0.000000
    283         -0.224439        1.791230   1.000000  -0.000000
    284         -0.211261        1.805961   1.000000  -0.000000
    285         -0.194488        1.827400   1.000000  -0.000000
    286         -0.189374        1.841591   1.000000  -0.000000
    287         -0.171697        1.848919   1.000000  -0.000000
    288         -0.143350        1.858755   1.000000  -0.000000
    289         -0.136503        1.869639   1.000000  -0.000000
    290         -0.130620        1.887820   1.000000  -0.000000
    291         -0.107502        1.896101   1.000000  -0.000000
    292         -0.087589        1.902577   1.000000  -0.000000
    293         -0.067387        1.918962   1.000000  -0.000000
    294         -0.051597        1.927601   1.000000  -0.000000
    295         -0.036338        1.943345   1.000000  -0.000000
    296         -0.014139        1.948042   1.000000  -0.000000
    297          0.009881        1.966165   1.000000  -0.000000
    298          0.044986        1.973043   1.000000  -0.000000
    299          0.065939        1.976833   1.000000  -0.000000
    300          0.096949        1.987305   1.000000  -0.000000
    301          0.115009        2.006451   1.000000  -0.000000
    302          0.160118        2.020193   1.000000  -0.000000
    303          0.185115        2.032093   1.000000  -0.000000
    304          0.208110        2.039380   1.000000  -0.000000
    305          0.220496        2.041302   1.000000  -0.000000
    306          0.247409        2.057688   1.000000  -0.000000
    307          0.275894        2.070807   1.000000  -0.000000
    308          0.284600        2.082841   1.000000  -0.000000
    309          0.317509        2.090188   1.000001  -0.000000
    310          0.345186        2.098619   1.000002  -0.000000
    311          0.369374        2.115254   1.000006  -0.000000
    312          0.387886        2.131162   1.000014  -0.000000
    313          0.405781        2.140894   1.000028  -0.000000
    314          0.436516        2.152410   1.000093  -0.000000
    315          0.460770        2.162082   1.000223  -0.000000
    316          0.482984        2.173975   1.000473  -0.000000
    317          0.522025        2.183493   1.001568  -0.000000
    318          0.562850        2.197486   1.004631  -0.000000
    319          0.604054        2.213375   1.011417  -0.000000
    320          0.643202        2.221897   1.022004  -0.000000
    321          0.675463        2.239932   1.031478  -0.000000
    322          0.706539        2.250495   1.035366  -0.000000
    323          0.737956        2.265760   1.024204  -0.000000
    324          0.757468        2.271786   1.004101  -0.000000
    325          0.796219        2.278313   0.921319  -0.000000
    326          0.842500        2.298507   0.737556  -0.000000
    327          0.860088        2.312844   0.647319  -0.000000
    328          0.920746        2.319907   0.313068  -0.000000
    329          0.975538        2.328515   0.083357  -0.000000
    330          1.003712        2.344165   0.015146  -0.000000
    331          1.062517        2.354017  -0.035005  -0.000000
    332          1.095241        2.370447  -0.032112  -0.000000
    333          1.133047        2.378136  -0.021109  -0.000000
    334          1.163759        2.390389  -0.012679  -0.000000
    335          1.193898        2.398624  -0.006819  -0.000000
    336          1.227492        2.411740  -0.003013  -0.000000
    337          1.268359        2.430628  -0.000946  -0.000000
    338          1.306102        2.436526  -0.000279  -0.000000
    339          1.338928        2.443416  -0.000086  -0.000000
    340          1.401182        2.450944  -0.000007  -0.000000
    341          1.430578        2.457017  -0.000002  -0.000000
    342          1.469637        2.468923  -0.000000  -0.000000
    343          1.496105        2.480581  -0.000000  -0.000000
    344          1.509392        2.484373  -0.000000  -0.000000
    345          1.541045        2.492897  -0.000000  -0.000000
    346          1.580320        2.497641  -0.000000  -0.000000
    347          1.628126        2.505854  -0.000000  -0.000000
    348          1.648623        2.509646  -0.000000  -0.000000
    349          1.679974        2.523218  -0.000000  -0.000000
    350          1.694290        2.530784  -0.000000  -0.000000
    351          1.724791        2.535803  -0.000000  -0.000000
    352          1.787267        2.545414  -0.000000  -0.000000
    353          1.800958        2.559806  -0.000000  -0.000000
    354          1.832147        2.578436  -0.000000  -0.000000
    355          1.843314        2.592875  -0.000000  -0.000000
    356          1.875283        2.610120  -0.000000  -0.000000
    357          1.915146        2.630063  -0.000000  -0.000000
    358          1.941799        2.639166  -0.000000  -0.000000
    359          1.964216        2.654317  -0.000000  -0.000000
    360          1.997007        2.665569  -0.000000  -0.000000
    361          2.035945        2.675852  -0.000000  -0.000000
    362          2.072262        2.688159  -0.000000  -0.000000
    363          2.102206        2.690966  -0.000000  -0.000000
    364          2.139613        2.718667  -0.000000  -0.000000
    365          2.234230        2.729693  -0.000000  -0.000000
    366          2.265970        2.743763  -0.000000  -0.000000
    367          2.286934        2.762332  -0.000000  -0.000000
    368          2.312521        2.773908  -0.000000  -0.000000
    369          2.320475        2.802550  -0.000000  -0.000000
 
 -0.1250000E+00  0.1250000E+00  0.0000000E+00  0.1250000E+00
      1        -42.295893      -43.492618   1.000000   1.000000
      2        -42.260150      -43.460177   1.000000   1.000000
      3        -42.228981      -43.442591   1.000000   1.000000
      4        -42.194005      -43.439321   1.000000   1.000000
      5        -42.166662      -43.438959   1.000000   1.000000
      6        -42.125302      -43.432223   1.000000   1.000000
      7        -42.098540      -43.416431   1.000000   1.000000
      8        -42.097042      -43.401385   1.000000   1.000000
      9        -42.073158      -43.377544   1.000000   1.000000
     10        -42.041750      -43.373139   1.000000   1.000000
     11        -41.952283      -43.358135   1.000000   1.000000
     12        -41.939333      -43.352203   1.000000   1.000000
     13        -41.936797      -43.325265   1.000000   1.000000
     14        -41.886266      -43.282731   1.000000   1.000000
     15        -41.876638      -43.259399   1.000000   1.000000
     16        -41.859499      -43.230626   1.000000   1.000000
     17        -41.845281      -43.213935   1.000000   1.000000
     18        -41.773582      -43.187485   1.000000   1.000000
     19        -41.773044      -43.173286   1.000000   1.000000
     20        -41.720582      -43.150662   1.000000   1.000000
     21        -41.716850      -43.120111   1.000000   1.000000
     22        -41.713194      -43.100251   1.000000   1.000000
     23        -41.694184      -43.022732   1.000000   1.000000
     24        -41.685041      -42.980747   1.000000   1.000000
     25        -40.400333      -42.934633   1.000000   1.000000
     26        -40.364625      -42.857011   1.000000   1.000000
     27        -40.361520      -42.794428   1.000000   1.000000
     28        -40.324435      -42.668254   1.000000   1.000000
     29        -40.301286      -42.593873   1.000000   1.000000
     30        -40.299157      -42.542133   1.000000   1.000000
     31        -40.264950      -42.511462   1.000000   1.000000
     32        -40.262638      -42.394883   1.000000   1.000000
     33        -40.246318      -42.374454   1.000000   1.000000
     34        -40.241941      -42.197937   1.000000   1.000000
     35        -40.215901      -42.153876   1.000000   1.000000
     36        -40.212867      -42.040541   1.000000   1.000000
     37        -40.169045      -42.024174   1.000000   1.000000
     38        -40.160113      -41.945982   1.000000   1.000000
     39        -40.137831      -41.729296   1.000000   1.000000
     40        -15.492961      -15.508483   1.000000   1.000000
     41        -15.485296      -15.486569   1.000000   1.000000
     42        -15.483953      -15.484192   1.000000   1.000000
     43        -15.445499      -15.467450   1.000000   1.000000
     44        -15.443856      -15.449194   1.000000   1.000000
     45         -7.634428       -7.612421   1.000000   1.000000
     46         -7.156454       -7.052304   1.000000   1.000000
     47         -6.144615       -6.053075   1.000000   1.000000
     48         -5.691930       -5.519834   1.000000   1.000000
     49         -5.612693       -5.480571   1.000000   1.000000
     50         -4.952130       -4.727596   1.000000   1.000000
     51         -4.902715       -4.675917   1.000000   1.000000
     52         -4.851098       -4.647799   1.000000   1.000000
     53         -4.794010       -4.610952   1.000000   1.000000
     54         -4.738580       -4.551504   1.000000   1.000000
     55         -4.534899       -4.222400   1.000000   1.000000
     56         -4.367919       -3.976843   1.000000   1.000000
     57         -4.310743       -3.941952   1.000000   1.000000
     58         -4.175069       -3.717722   1.000000   1.000000
     59         -4.121923       -3.647234   1.000000   1.000000
     60         -4.110344       -3.609476   1.000000   1.000000
     61         -4.065339       -3.581583   1.000000   1.000000
     62         -4.014058       -3.442095   1.000000   1.000000
     63         -3.984344       -3.325854   1.000000   1.000000
     64         -3.930527       -3.307404   1.000000   1.000000
     65         -3.880693       -3.259188   1.000000   1.000000
     66         -3.858149       -3.202754   1.000000   1.000000
     67         -3.760035       -2.919691   1.000000   1.000000
     68         -3.744806       -2.891657   1.000000   1.000000
     69         -3.700834       -2.878341   1.000000   1.000000
     70         -3.648731       -2.835407   1.000000   1.000000
     71         -3.639392       -2.812249   1.000000   1.000000
     72         -3.597477       -2.762392   1.000000   1.000000
     73         -3.579350       -2.610579   1.000000   1.000000
     74         -3.477001       -2.591476   1.000000   1.000000
     75         -3.456930       -2.548228   1.000000   1.000000
     76         -3.442167       -2.523022   1.000000   1.000000
     77         -3.418332       -2.519128   1.000000   1.000000
     78         -3.409740       -2.474811   1.000000   1.000000
     79         -3.399977       -2.439341   1.000000   1.000000
     80         -3.385665       -2.419557   1.000000   1.000000
     81         -3.362265       -2.394728   1.000000   1.000000
     82         -3.344298       -2.365492   1.000000   1.000000
     83         -3.335337       -2.303585   1.000000   1.000000
     84         -3.301960       -2.278392   1.000000   1.000000
     85         -3.281162       -2.266498   1.000000   1.000000
     86         -3.265787       -2.253339   1.000000   1.000000
     87         -3.231395       -2.209873   1.000000   1.000000
     88         -3.205901       -2.192304   1.000000   1.000000
     89         -3.196282       -2.158329   1.000000   1.000000
     90         -3.175438       -2.132561   1.000000   1.000000
     91         -3.143212       -2.108643   1.000000   1.000000
     92         -3.102161       -2.090228   1.000000   1.000000
     93         -3.068760       -2.067005   1.000000   1.000000
     94         -3.062576       -2.037824   1.000000   1.000000
     95         -3.053059       -2.017537   1.000000   1.000000
     96         -3.034056       -1.991460   1.000000   1.000000
     97         -3.012504       -1.918422   1.000000   1.000000
     98         -2.983085       -1.905014   1.000000   1.000000
     99         -2.968291       -1.882793   1.000000   1.000000
    100         -2.949560       -1.851137   1.000000   1.000000
    101         -2.898007       -1.815626   1.000000   1.000000
    102         -2.879206       -1.799841   1.000000   1.000000
    103         -2.864731       -1.753591   1.000000   1.000000
    104         -2.840036       -1.714632   1.000000   1.000000
    105         -2.826347       -1.696797   1.000000   1.000000
    106         -2.810401       -1.632909   1.000000   1.000000
    107         -2.774829       -1.610619   1.000000   1.000000
    108         -2.750690       -1.591432   1.000000   1.000000
    109         -2.725039       -1.581409   1.000000   1.000000
    110         -2.700187       -1.561468   1.000000   1.000000
    111         -2.696100       -1.537967   1.000000   1.000000
    112         -2.671919       -1.508420   1.000000   1.000000
    113         -2.649700       -1.493687   1.000000   1.000000
    114         -2.640042       -1.478107   1.000000   1.000000
    115         -2.628800       -1.453515   1.000000   1.000000
    116         -2.613769       -1.432464   1.000000   1.000000
    117         -2.591475       -1.405893   1.000000   1.000000
    118         -2.586068       -1.386862   1.000000   1.000000
    119         -2.569821       -1.374652   1.000000   1.000000
    120         -2.558511       -1.348874   1.000000   1.000000
    121         -2.553455       -1.333555   1.000000   1.000000
    122         -2.542410       -1.314728   1.000000   1.000000
    123         -2.532838       -1.303513   1.000000   1.000000
    124         -2.516521       -1.281953   1.000000   1.000000
    125         -2.509755       -1.258898   1.000000   1.000000
    126         -2.498858       -1.244073   1.000000   1.000000
    127         -2.487481       -1.232369   1.000000   1.000000
    128         -2.479861       -1.201149   1.000000   1.000000
    129         -2.466513       -1.187339   1.000000   1.000000
    130         -2.456724       -1.174756   1.000000   1.000000
    131         -2.443630       -1.159935   1.000000   1.000000
    132         -2.433657       -1.144062   1.000000   1.000000
    133         -2.419689       -1.138416   1.000000   1.000000
    134         -2.410974       -1.124341   1.000000   1.000000
    135         -2.399855       -1.103365   1.000000   1.000000
    136         -2.393646       -1.089680   1.000000   1.000000
    137         -2.375873       -1.064352   1.000000   1.000000
    138         -2.364924       -1.052879   1.000000   1.000000
    139         -2.353350       -1.044865   1.000000   1.000000
    140         -2.323811       -1.024711   1.000000   1.000000
    141         -2.317526       -1.014121   1.000000   1.000000
    142         -2.302779       -0.999559   1.000000   1.000000
    143         -2.281818       -0.976453   1.000000   1.000000
    144         -2.271156       -0.956584   1.000000   1.000000
    145         -2.263897       -0.943091   1.000000   1.000000
    146         -2.250796       -0.920221   1.000000   1.000000
    147         -2.234718       -0.911744   1.000000   1.000000
    148         -2.228396       -0.891491   1.000000   1.000000
    149         -2.211416       -0.885032   1.000000   1.000000
    150         -2.201295       -0.871741   1.000000   1.000000
    151         -2.188784       -0.853516   1.000000   1.000000
    152         -2.176826       -0.837374   1.000000   1.000000
    153         -2.166117       -0.821902   1.000000   1.000000
    154         -2.150157       -0.805983   1.000000   1.000000
    155         -2.143925       -0.797664   1.000000   1.000000
    156         -2.131794       -0.772785   1.000000   1.000000
    157         -2.113483       -0.764256   1.000000   1.000000
    158         -2.089735       -0.748886   1.000000   1.000000
    159         -2.083108       -0.735059   1.000000   1.000000
    160         -2.077217       -0.728361   1.000000   1.000000
    161         -2.044124       -0.704373   1.000000   1.000000
    162         -2.034377       -0.693630   1.000000   1.000000
    163         -2.024073       -0.685496   1.000000   1.000000
    164         -2.004207       -0.648124   1.000000   1.000000
    165         -1.996405       -0.631270   1.000000   1.000000
    166         -1.978175       -0.614697   1.000000   1.000000
    167         -1.959513       -0.600773   1.000000   1.000000
    168         -1.946961       -0.579056   1.000000   1.000000
    169         -1.937716       -0.572647   1.000000   1.000000
    170         -1.927434       -0.565916   1.000000   1.000000
    171         -1.898485       -0.551182   1.000000   1.000000
    172         -1.887297       -0.534613   1.000000   1.000000
    173         -1.875903       -0.496418   1.000000   1.000000
    174         -1.854698       -0.485210   1.000000   1.000000
    175         -1.848925       -0.474405   1.000000   1.000000
    176         -1.820671       -0.451347   1.000000   1.000000
    177         -1.801510       -0.428801   1.000000   1.000000
    178         -1.793470       -0.411712   1.000000   1.000000
    179         -1.768662       -0.394384   1.000000   1.000000
    180         -1.753068       -0.366477   1.000000   1.000000
    181         -1.744140       -0.346584   1.000000   1.000000
    182         -1.720475       -0.306310   1.000000   1.000000
    183         -1.710439       -0.304085   1.000000   1.000000
    184         -1.681231       -0.276964   1.000000   1.000000
    185         -1.657028       -0.261300   1.000000   1.000000
    186         -1.642170       -0.239799   1.000000   1.000000
    187         -1.629549       -0.211209   1.000000   1.000000
    188         -1.620601       -0.202401   1.000000   1.000000
    189         -1.607780       -0.170480   1.000000   1.000000
    190         -1.590322       -0.154869   1.000000   1.000000
    191         -1.583630       -0.142696   1.000000   1.000000
    192         -1.554338       -0.128522   1.000000   1.000000
    193         -1.544689       -0.109037   1.000000   1.000000
    194         -1.525958       -0.098215   1.000000   1.000000
    195         -1.516839       -0.074887   1.000000   1.000000
    196         -1.505863       -0.062569   1.000000   1.000000
    197         -1.484084       -0.035699   1.000000   1.000000
    198         -1.465108       -0.017872   1.000000   1.000000
    199         -1.447198        0.002051   1.000000   1.000000
    200         -1.435198        0.031597   1.000000   1.000000
    201         -1.430738        0.048435   1.000000   1.000000
    202         -1.408043        0.061991   1.000000   1.000000
    203         -1.398992        0.094812   1.000000   1.000000
    204         -1.370201        0.120523   1.000000   1.000000
    205         -1.364978        0.141967   1.000000   1.000000
    206         -1.349788        0.153728   1.000000   1.000000
    207         -1.334529        0.163256   1.000000   1.000000
    208         -1.312952        0.180703   1.000000   1.000000
    209         -1.303049        0.188777   1.000000   1.000000
    210         -1.283839        0.205820   1.000000   1.000000
    211         -1.268149        0.228126   1.000000   1.000000
    212         -1.238419        0.243425   1.000000   1.000000
    213         -1.228158        0.272080   1.000000   1.000000
    214         -1.197233        0.291184   1.000000   1.000000
    215         -1.168088        0.318691   1.000000   1.000001
    216         -1.154259        0.342583   1.000000   1.000002
    217         -1.131350        0.356995   1.000000   1.000004
    218         -1.100984        0.383563   1.000000   1.000011
    219         -1.083821        0.410883   1.000000   1.000035
    220         -1.067127        0.456140   1.000000   1.000190
    221         -1.056086        0.483679   1.000000   1.000484
    222         -1.040456        0.492666   1.000000   1.000646
    223         -1.016857        0.523857   1.000000   1.001653
    224         -0.985886        0.535258   1.000000   1.002272
    225         -0.961409        0.565259   1.000000   1.004909
    226         -0.956454        0.602755   1.000000   1.011132
    227         -0.929708        0.607741   1.000000   1.012254
    228         -0.917846        0.636189   1.000000   1.019882
    229         -0.892881        0.700470   1.000000   1.035417
    230         -0.884695        0.707410   1.000000   1.035316
    231         -0.869071        0.720488   1.000000   1.033000
    232         -0.840340        0.763536   1.000000   0.995180
    233         -0.818387        0.786243   1.000000   0.948741
    234         -0.813405        0.826621   1.000000   0.810499
    235         -0.789064        0.854997   1.000000   0.674280
    236         -0.783107        0.880034   1.000000   0.537320
    237         -0.768047        0.907853   1.000000   0.381723
    238         -0.755744        0.931195   1.000000   0.260583
    239         -0.738447        0.962319   1.000000   0.127483
    240         -0.726044        0.999200   1.000000   0.023785
    241         -0.706688        1.002707   1.000000   0.016998
    242         -0.690438        1.028075   1.000000  -0.018126
    243         -0.686027        1.040846   1.000000  -0.027788
    244         -0.671695        1.061698   1.000000  -0.034902
    245         -0.658343        1.081447   1.000000  -0.034699
    246         -0.641843        1.120254   1.000000  -0.025041
    247         -0.634140        1.142277   1.000000  -0.018367
    248         -0.620412        1.156523   1.000000  -0.014466
    249         -0.607143        1.183289   1.000000  -0.008590
    250         -0.594600        1.200182   1.000000  -0.005910
    251         -0.579259        1.216984   1.000000  -0.003943
    252         -0.563987        1.242809   1.000000  -0.001993
    253         -0.545437        1.258919   1.000000  -0.001256
    254         -0.533778        1.270203   1.000000  -0.000894
    255         -0.528944        1.294870   1.000000  -0.000407
    256         -0.516990        1.313375   1.000000  -0.000217
    257         -0.502166        1.327308   1.000000  -0.000132
    258         -0.499668        1.347419   1.000000  -0.000062
    259         -0.481241        1.367025   1.000000  -0.000029
    260         -0.472611        1.374621   1.000000  -0.000021
    261         -0.465487        1.396543   1.000000  -0.000008
    262         -0.452977        1.401041   1.000000  -0.000007
    263         -0.440798        1.428608   1.000000  -0.000002
    264         -0.435456        1.445256   1.000000  -0.000001
    265         -0.430400        1.464187   1.000000  -0.000000
    266         -0.414792        1.485577   1.000000  -0.000000
    267         -0.406604        1.508553   1.000000  -0.000000
    268         -0.396158        1.518939   1.000000  -0.000000
    269         -0.389918        1.521624   1.000000  -0.000000
    270         -0.371093        1.550376   1.000000  -0.000000
    271         -0.361180        1.565536   1.000000  -0.000000
    272         -0.355090        1.574120   1.000000  -0.000000
    273         -0.343071        1.589861   1.000000  -0.000000
    274         -0.333520        1.621626   1.000000  -0.000000
    275         -0.321764        1.641865   1.000000  -0.000000
    276         -0.315003        1.648594   1.000000  -0.000000
    277         -0.306633        1.665757   1.000000  -0.000000
    278         -0.293619        1.678513   1.000000  -0.000000
    279         -0.285899        1.687725   1.000000  -0.000000
    280         -0.273538        1.705132   1.000000  -0.000000
    281         -0.265374        1.718891   1.000000  -0.000000
    282         -0.262111        1.739578   1.000000  -0.000000
    283         -0.253844        1.761738   1.000000  -0.000000
    284         -0.243672        1.772741   1.000000  -0.000000
    285         -0.230421        1.786591   1.000000  -0.000000
    286         -0.221550        1.803948   1.000000  -0.000000
    287         -0.214422        1.816422   1.000000  -0.000000
    288         -0.211160        1.833028   1.000000  -0.000000
    289         -0.197361        1.858946   1.000000  -0.000000
    290         -0.184402        1.881422   1.000000  -0.000000
    291         -0.176674        1.892549   1.000000  -0.000000
    292         -0.150795        1.901626   1.000000  -0.000000
    293         -0.142236        1.904290   1.000000  -0.000000
    294         -0.113551        1.917262   1.000000  -0.000000
    295         -0.093407        1.926849   1.000000  -0.000000
    296         -0.079224        1.938164   1.000000  -0.000000
    297         -0.066104        1.955190   1.000000  -0.000000
    298         -0.037406        1.960824   1.000000  -0.000000
    299         -0.014095        1.977370   1.000000  -0.000000
    300          0.002469        1.985570   1.000000  -0.000000
    301          0.014834        2.014369   1.000000  -0.000000
    302          0.050597        2.023984   1.000000  -0.000000
    303          0.100934        2.035452   1.000000  -0.000000
    304          0.118540        2.053623   1.000000  -0.000000
    305          0.146703        2.070886   1.000000  -0.000000
    306          0.194720        2.078216   1.000000  -0.000000
    307          0.219134        2.093332   1.000000  -0.000000
    308          0.254383        2.095831   1.000000  -0.000000
    309          0.270672        2.100823   1.000000  -0.000000
    310          0.310111        2.120039   1.000000  -0.000000
    311          0.325933        2.131667   1.000001  -0.000000
    312          0.367917        2.140371   1.000006  -0.000000
    313          0.388195        2.158361   1.000014  -0.000000
    314          0.397695        2.165908   1.000020  -0.000000
    315          0.458027        2.177339   1.000203  -0.000000
    316          0.482716        2.181044   1.000469  -0.000000
    317          0.530771        2.200959   1.002008  -0.000000
    318          0.542117        2.207028   1.002733  -0.000000
    319          0.582882        2.211649   1.007364  -0.000000
    320          0.603114        2.228944   1.011210  -0.000000
    321          0.631014        2.240536   1.018361  -0.000000
    322          0.662216        2.253675   1.027818  -0.000000
    323          0.692041        2.258071   1.034722  -0.000000
    324          0.709330        2.266134   1.035162  -0.000000
    325          0.759461        2.275625   1.001322  -0.000000
    326          0.788044        2.281702   0.944118  -0.000000
    327          0.842840        2.296927   0.735896  -0.000000
    328          0.880939        2.313422   0.532227  -0.000000
    329          0.953087        2.323557   0.162874  -0.000000
    330          0.986593        2.335617   0.052467  -0.000000
    331          1.007724        2.342462   0.008153  -0.000000
    332          1.070219        2.356274  -0.035458  -0.000000
    333          1.107540        2.362839  -0.028856  -0.000000
    334          1.151549        2.376446  -0.015774  -0.000000
    335          1.184784        2.387858  -0.008322  -0.000000
    336          1.221926        2.397617  -0.003480  -0.000000
    337          1.250203        2.407459  -0.001618  -0.000000
    338          1.314719        2.414080  -0.000207  -0.000000
    339          1.346111        2.425527  -0.000065  -0.000000
    340          1.370717        2.432029  -0.000025  -0.000000
    341          1.421468        2.438915  -0.000003  -0.000000
    342          1.443689        2.447136  -0.000001  -0.000000
    343          1.497800        2.461344  -0.000000  -0.000000
    344          1.513306        2.466700  -0.000000  -0.000000
    345          1.540918        2.475667  -0.000000  -0.000000
    346          1.601329        2.479558  -0.000000  -0.000000
    347          1.666136        2.488521  -0.000000  -0.000000
    348          1.676705        2.498096  -0.000000  -0.000000
    349          1.700293        2.508931  -0.000000  -0.000000
    350          1.729385        2.521306  -0.000000  -0.000000
    351          1.761309        2.533445  -0.000000  -0.000000
    352          1.789786        2.537806  -0.000000  -0.000000
    353          1.829874        2.545499  -0.000000  -0.000000
    354          1.847967        2.563852  -0.000000  -0.000000
    355          1.858661        2.579816  -0.000000  -0.000000
    356          1.885018        2.590515  -0.000000  -0.000000
    357          1.923611        2.603871  -0.000000  -0.000000
    358          1.951055        2.634463  -0.000000  -0.000000
    359          2.001401        2.648973  -0.000000  -0.000000
    360          2.014492        2.670370  -0.000000  -0.000000
    361          2.054173        2.679728  -0.000000  -0.000000
    362          2.078398        2.688101  -0.000000  -0.000000
    363          2.159301        2.693874  -0.000000  -0.000000
    364          2.219068        2.706757  -0.000000  -0.000000
    365          2.252661        2.719123  -0.000000  -0.000000
    366          2.288784        2.766623  -0.000000  -0.000000
    367          2.325281        2.786054  -0.000000  -0.000000
    368          2.340756        2.817046  -0.000000  -0.000000
    369          2.396831        2.829777  -0.000000  -0.000000
 
  0.1250000E+00  0.3750000E+00  0.0000000E+00  0.1250000E+00
      1        -42.295909      -43.492610   1.000000   1.000000
      2        -42.260169      -43.460120   1.000000   1.000000
      3        -42.228993      -43.442602   1.000000   1.000000
      4        -42.194007      -43.439319   1.000000   1.000000
      5        -42.166678      -43.438960   1.000000   1.000000
      6        -42.125300      -43.432230   1.000000   1.000000
      7        -42.098533      -43.416433   1.000000   1.000000
      8        -42.097039      -43.401391   1.000000   1.000000
      9        -42.073164      -43.377547   1.000000   1.000000
     10        -42.041750      -43.373132   1.000000   1.000000
     11        -41.952289      -43.358153   1.000000   1.000000
     12        -41.939320      -43.352239   1.000000   1.000000
     13        -41.936795      -43.325262   1.000000   1.000000
     14        -41.886253      -43.282735   1.000000   1.000000
     15        -41.876645      -43.259411   1.000000   1.000000
     16        -41.859498      -43.230623   1.000000   1.000000
     17        -41.845269      -43.213929   1.000000   1.000000
     18        -41.773573      -43.187487   1.000000   1.000000
     19        -41.773041      -43.173282   1.000000   1.000000
     20        -41.720575      -43.150658   1.000000   1.000000
     21        -41.716861      -43.120117   1.000000   1.000000
     22        -41.713190      -43.100253   1.000000   1.000000
     23        -41.694190      -43.022727   1.000000   1.000000
     24        -41.685036      -42.980749   1.000000   1.000000
     25        -40.400354      -42.934628   1.000000   1.000000
     26        -40.364613      -42.857027   1.000000   1.000000
     27        -40.361533      -42.794439   1.000000   1.000000
     28        -40.324428      -42.668256   1.000000   1.000000
     29        -40.301282      -42.593871   1.000000   1.000000
     30        -40.299063      -42.542143   1.000000   1.000000
     31        -40.264952      -42.511464   1.000000   1.000000
     32        -40.262631      -42.394881   1.000000   1.000000
     33        -40.246314      -42.374446   1.000000   1.000000
     34        -40.241954      -42.197928   1.000000   1.000000
     35        -40.215963      -42.153880   1.000000   1.000000
     36        -40.212903      -42.040536   1.000000   1.000000
     37        -40.169044      -42.024169   1.000000   1.000000
     38        -40.160109      -41.945991   1.000000   1.000000
     39        -40.137828      -41.729287   1.000000   1.000000
     40        -15.492963      -15.508484   1.000000   1.000000
     41        -15.485294      -15.486568   1.000000   1.000000
     42        -15.483956      -15.484195   1.000000   1.000000
     43        -15.445498      -15.467449   1.000000   1.000000
     44        -15.443856      -15.449194   1.000000   1.000000
     45         -7.606011       -7.589855   1.000000   1.000000
     46         -6.902767       -6.789394   1.000000   1.000000
     47         -6.382203       -6.257809   1.000000   1.000000
     48         -5.910805       -5.810503   1.000000   1.000000
     49         -5.485314       -5.346693   1.000000   1.000000
     50         -5.411909       -5.253332   1.000000   1.000000
     51         -5.013360       -4.815575   1.000000   1.000000
     52         -4.687595       -4.489498   1.000000   1.000000
     53         -4.647365       -4.429580   1.000000   1.000000
     54         -4.609448       -4.384472   1.000000   1.000000
     55         -4.368597       -4.102992   1.000000   1.000000
     56         -4.322661       -4.022663   1.000000   1.000000
     57         -4.217799       -3.976146   1.000000   1.000000
     58         -4.120917       -3.727699   1.000000   1.000000
     59         -4.074448       -3.658252   1.000000   1.000000
     60         -4.034494       -3.451718   1.000000   1.000000
     61         -4.006844       -3.325469   1.000000   1.000000
     62         -3.903896       -3.311193   1.000000   1.000000
     63         -3.864616       -3.202549   1.000000   1.000000
     64         -3.831965       -3.152516   1.000000   1.000000
     65         -3.787842       -3.108756   1.000000   1.000000
     66         -3.777035       -3.087266   1.000000   1.000000
     67         -3.771855       -3.009760   1.000000   1.000000
     68         -3.747255       -2.953039   1.000000   1.000000
     69         -3.723703       -2.937696   1.000000   1.000000
     70         -3.714136       -2.918317   1.000000   1.000000
     71         -3.622313       -2.852748   1.000000   1.000000
     72         -3.589212       -2.785243   1.000000   1.000000
     73         -3.576104       -2.734861   1.000000   1.000000
     74         -3.570244       -2.647593   1.000000   1.000000
     75         -3.549615       -2.612813   1.000000   1.000000
     76         -3.523636       -2.581559   1.000000   1.000000
     77         -3.490207       -2.518617   1.000000   1.000000
     78         -3.484127       -2.491388   1.000000   1.000000
     79         -3.444305       -2.447956   1.000000   1.000000
     80         -3.432035       -2.414713   1.000000   1.000000
     81         -3.402909       -2.379310   1.000000   1.000000
     82         -3.326069       -2.344798   1.000000   1.000000
     83         -3.308628       -2.337808   1.000000   1.000000
     84         -3.286232       -2.299972   1.000000   1.000000
     85         -3.252814       -2.259313   1.000000   1.000000
     86         -3.247769       -2.226885   1.000000   1.000000
     87         -3.235503       -2.207539   1.000000   1.000000
     88         -3.216903       -2.194526   1.000000   1.000000
     89         -3.195638       -2.167379   1.000000   1.000000
     90         -3.183676       -2.145542   1.000000   1.000000
     91         -3.160755       -2.126291   1.000000   1.000000
     92         -3.145140       -2.113889   1.000000   1.000000
     93         -3.130872       -2.074318   1.000000   1.000000
     94         -3.116667       -2.045291   1.000000   1.000000
     95         -3.091495       -2.032717   1.000000   1.000000
     96         -3.077113       -2.025097   1.000000   1.000000
     97         -3.059052       -1.992812   1.000000   1.000000
     98         -3.040899       -1.949104   1.000000   1.000000
     99         -3.015599       -1.928978   1.000000   1.000000
    100         -2.993299       -1.889638   1.000000   1.000000
    101         -2.968114       -1.862584   1.000000   1.000000
    102         -2.938003       -1.826677   1.000000   1.000000
    103         -2.913630       -1.802672   1.000000   1.000000
    104         -2.885570       -1.762940   1.000000   1.000000
    105         -2.869084       -1.752207   1.000000   1.000000
    106         -2.854008       -1.728031   1.000000   1.000000
    107         -2.836068       -1.718220   1.000000   1.000000
    108         -2.799935       -1.669583   1.000000   1.000000
    109         -2.775729       -1.630871   1.000000   1.000000
    110         -2.747943       -1.598346   1.000000   1.000000
    111         -2.729346       -1.575846   1.000000   1.000000
    112         -2.707945       -1.547591   1.000000   1.000000
    113         -2.698626       -1.545207   1.000000   1.000000
    114         -2.686692       -1.514392   1.000000   1.000000
    115         -2.668720       -1.482168   1.000000   1.000000
    116         -2.641753       -1.464481   1.000000   1.000000
    117         -2.635990       -1.447418   1.000000   1.000000
    118         -2.620801       -1.423813   1.000000   1.000000
    119         -2.605528       -1.397510   1.000000   1.000000
    120         -2.601642       -1.376430   1.000000   1.000000
    121         -2.591283       -1.356569   1.000000   1.000000
    122         -2.576548       -1.349102   1.000000   1.000000
    123         -2.556418       -1.323692   1.000000   1.000000
    124         -2.552295       -1.284186   1.000000   1.000000
    125         -2.534046       -1.267350   1.000000   1.000000
    126         -2.518750       -1.247344   1.000000   1.000000
    127         -2.513317       -1.224121   1.000000   1.000000
    128         -2.505483       -1.212580   1.000000   1.000000
    129         -2.489207       -1.183706   1.000000   1.000000
    130         -2.474723       -1.173136   1.000000   1.000000
    131         -2.455188       -1.144912   1.000000   1.000000
    132         -2.448522       -1.137945   1.000000   1.000000
    133         -2.430107       -1.126007   1.000000   1.000000
    134         -2.419421       -1.107702   1.000000   1.000000
    135         -2.413598       -1.086538   1.000000   1.000000
    136         -2.384039       -1.075898   1.000000   1.000000
    137         -2.368215       -1.057023   1.000000   1.000000
    138         -2.363987       -1.036782   1.000000   1.000000
    139         -2.345167       -1.021678   1.000000   1.000000
    140         -2.338635       -1.006156   1.000000   1.000000
    141         -2.325518       -0.990831   1.000000   1.000000
    142         -2.310640       -0.980158   1.000000   1.000000
    143         -2.297956       -0.956414   1.000000   1.000000
    144         -2.271977       -0.942900   1.000000   1.000000
    145         -2.254216       -0.936142   1.000000   1.000000
    146         -2.242446       -0.918048   1.000000   1.000000
    147         -2.227681       -0.887563   1.000000   1.000000
    148         -2.212561       -0.868828   1.000000   1.000000
    149         -2.189854       -0.859411   1.000000   1.000000
    150         -2.176526       -0.839042   1.000000   1.000000
    151         -2.162436       -0.829157   1.000000   1.000000
    152         -2.152049       -0.807571   1.000000   1.000000
    153         -2.133536       -0.785588   1.000000   1.000000
    154         -2.117857       -0.770055   1.000000   1.000000
    155         -2.099298       -0.746162   1.000000   1.000000
    156         -2.091318       -0.737856   1.000000   1.000000
    157         -2.083182       -0.715613   1.000000   1.000000
    158         -2.060566       -0.699098   1.000000   1.000000
    159         -2.044550       -0.688266   1.000000   1.000000
    160         -2.038897       -0.658564   1.000000   1.000000
    161         -2.027029       -0.643640   1.000000   1.000000
    162         -2.008809       -0.632104   1.000000   1.000000
    163         -1.998348       -0.624271   1.000000   1.000000
    164         -1.977655       -0.608937   1.000000   1.000000
    165         -1.967324       -0.593755   1.000000   1.000000
    166         -1.957073       -0.571865   1.000000   1.000000
    167         -1.928471       -0.559986   1.000000   1.000000
    168         -1.918738       -0.547526   1.000000   1.000000
    169         -1.906784       -0.525345   1.000000   1.000000
    170         -1.892480       -0.505758   1.000000   1.000000
    171         -1.874728       -0.501439   1.000000   1.000000
    172         -1.867603       -0.488996   1.000000   1.000000
    173         -1.848553       -0.471139   1.000000   1.000000
    174         -1.837112       -0.456028   1.000000   1.000000
    175         -1.830619       -0.435404   1.000000   1.000000
    176         -1.815092       -0.427765   1.000000   1.000000
    177         -1.787325       -0.412090   1.000000   1.000000
    178         -1.772370       -0.383633   1.000000   1.000000
    179         -1.765363       -0.368718   1.000000   1.000000
    180         -1.750696       -0.353776   1.000000   1.000000
    181         -1.743857       -0.340145   1.000000   1.000000
    182         -1.739475       -0.325062   1.000000   1.000000
    183         -1.706933       -0.307880   1.000000   1.000000
    184         -1.693593       -0.298945   1.000000   1.000000
    185         -1.681990       -0.286540   1.000000   1.000000
    186         -1.675643       -0.269110   1.000000   1.000000
    187         -1.655531       -0.250401   1.000000   1.000000
    188         -1.644363       -0.223887   1.000000   1.000000
    189         -1.624118       -0.216618   1.000000   1.000000
    190         -1.622703       -0.197914   1.000000   1.000000
    191         -1.598566       -0.173601   1.000000   1.000000
    192         -1.583762       -0.165916   1.000000   1.000000
    193         -1.569073       -0.137440   1.000000   1.000000
    194         -1.553994       -0.123737   1.000000   1.000000
    195         -1.535717       -0.100025   1.000000   1.000000
    196         -1.526410       -0.080514   1.000000   1.000000
    197         -1.509389       -0.073236   1.000000   1.000000
    198         -1.494265       -0.065325   1.000000   1.000000
    199         -1.485215       -0.041980   1.000000   1.000000
    200         -1.469121       -0.026555   1.000000   1.000000
    201         -1.440217        0.006643   1.000000   1.000000
    202         -1.428530        0.015723   1.000000   1.000000
    203         -1.409862        0.041298   1.000000   1.000000
    204         -1.397510        0.047288   1.000000   1.000000
    205         -1.373477        0.080436   1.000000   1.000000
    206         -1.345831        0.090493   1.000000   1.000000
    207         -1.333489        0.116143   1.000000   1.000000
    208         -1.303541        0.131999   1.000000   1.000000
    209         -1.294090        0.154766   1.000000   1.000000
    210         -1.270066        0.192723   1.000000   1.000000
    211         -1.265732        0.214730   1.000000   1.000000
    212         -1.241579        0.226881   1.000000   1.000000
    213         -1.222442        0.248069   1.000000   1.000000
    214         -1.196235        0.274584   1.000000   1.000000
    215         -1.183219        0.292151   1.000000   1.000000
    216         -1.165915        0.333926   1.000000   1.000001
    217         -1.147674        0.350279   1.000000   1.000003
    218         -1.127597        0.368981   1.000000   1.000006
    219         -1.085730        0.419216   1.000000   1.000048
    220         -1.075042        0.448532   1.000000   1.000144
    221         -1.036530        0.480343   1.000000   1.000433
    222         -1.031437        0.495016   1.000000   1.000695
    223         -1.000513        0.510535   1.000000   1.001120
    224         -0.972611        0.535621   1.000000   1.002294
    225         -0.950572        0.589612   1.000000   1.008516
    226         -0.930288        0.610775   1.000000   1.012970
    227         -0.922403        0.628223   1.000000   1.017561
    228         -0.894627        0.670275   1.000000   1.030119
    229         -0.879310        0.685688   1.000000   1.033722
    230         -0.861502        0.719320   1.000000   1.033337
    231         -0.846718        0.738663   1.000000   1.023682
    232         -0.836846        0.774483   1.000000   0.975468
    233         -0.817544        0.800999   1.000000   0.906598
    234         -0.798918        0.829973   1.000000   0.795888
    235         -0.788163        0.857741   1.000000   0.659820
    236         -0.777215        0.903613   1.000000   0.405008
    237         -0.765784        0.917935   1.000000   0.327715
    238         -0.742904        0.945768   1.000000   0.193480
    239         -0.733816        0.997407   1.000000   0.027451
    240         -0.708396        1.007215   1.000000   0.009005
    241         -0.691704        1.046210   1.000000  -0.030537
    242         -0.677116        1.055180   1.000000  -0.033652
    243         -0.658262        1.085887   1.000000  -0.034031
    244         -0.654525        1.098768   1.000000  -0.031246
    245         -0.639749        1.119189   1.000000  -0.025368
    246         -0.631181        1.140913   1.000000  -0.018764
    247         -0.621816        1.155668   1.000000  -0.014686
    248         -0.612029        1.178373   1.000000  -0.009517
    249         -0.597097        1.189608   1.000000  -0.007498
    250         -0.586156        1.224600   1.000000  -0.003249
    251         -0.578004        1.248292   1.000000  -0.001708
    252         -0.564237        1.280359   1.000000  -0.000652
    253         -0.546991        1.293519   1.000000  -0.000426
    254         -0.541945        1.317597   1.000000  -0.000187
    255         -0.528361        1.348089   1.000000  -0.000061
    256         -0.523901        1.370625   1.000000  -0.000025
    257         -0.503401        1.391086   1.000000  -0.000011
    258         -0.493246        1.411632   1.000000  -0.000004
    259         -0.481511        1.422331   1.000000  -0.000003
    260         -0.474837        1.446114   1.000000  -0.000001
    261         -0.464437        1.464044   1.000000  -0.000000
    262         -0.449496        1.490969   1.000000  -0.000000
    263         -0.435285        1.505746   1.000000  -0.000000
    264         -0.420858        1.518373   1.000000  -0.000000
    265         -0.415636        1.549196   1.000000  -0.000000
    266         -0.407530        1.564319   1.000000  -0.000000
    267         -0.394117        1.576208   1.000000  -0.000000
    268         -0.384087        1.588712   1.000000  -0.000000
    269         -0.380596        1.601632   1.000000  -0.000000
    270         -0.363741        1.623214   1.000000  -0.000000
    271         -0.354690        1.642257   1.000000  -0.000000
    272         -0.346446        1.649314   1.000000  -0.000000
    273         -0.331234        1.661243   1.000000  -0.000000
    274         -0.322502        1.671283   1.000000  -0.000000
    275         -0.312253        1.694154   1.000000  -0.000000
    276         -0.303291        1.706861   1.000000  -0.000000
    277         -0.296001        1.719942   1.000000  -0.000000
    278         -0.281678        1.727318   1.000000  -0.000000
    279         -0.271841        1.746386   1.000000  -0.000000
    280         -0.256044        1.764958   1.000000  -0.000000
    281         -0.252272        1.778883   1.000000  -0.000000
    282         -0.239923        1.787723   1.000000  -0.000000
    283         -0.227438        1.794800   1.000000  -0.000000
    284         -0.215500        1.797895   1.000000  -0.000000
    285         -0.203837        1.814941   1.000000  -0.000000
    286         -0.188423        1.831492   1.000000  -0.000000
    287         -0.169287        1.845723   1.000000  -0.000000
    288         -0.158398        1.857599   1.000000  -0.000000
    289         -0.133779        1.871065   1.000000  -0.000000
    290         -0.125664        1.884437   1.000000  -0.000000
    291         -0.103113        1.894245   1.000000  -0.000000
    292         -0.085515        1.902826   1.000000  -0.000000
    293         -0.055033        1.924284   1.000000  -0.000000
    294         -0.040750        1.927820   1.000000  -0.000000
    295         -0.015555        1.937654   1.000000  -0.000000
    296          0.011138        1.950971   1.000000  -0.000000
    297          0.031664        1.961057   1.000000  -0.000000
    298          0.039147        1.973971   1.000000  -0.000000
    299          0.059745        1.979426   1.000000  -0.000000
    300          0.085252        2.000946   1.000000  -0.000000
    301          0.106530        2.010324   1.000000  -0.000000
    302          0.122672        2.015986   1.000000  -0.000000
    303          0.148098        2.033080   1.000000  -0.000000
    304          0.186900        2.038946   1.000000  -0.000000
    305          0.204852        2.048556   1.000000  -0.000000
    306          0.220539        2.056410   1.000000  -0.000000
    307          0.262167        2.067429   1.000000  -0.000000
    308          0.281288        2.076723   1.000000  -0.000000
    309          0.314878        2.088906   1.000000  -0.000000
    310          0.344682        2.092136   1.000002  -0.000000
    311          0.366721        2.100895   1.000005  -0.000000
    312          0.387520        2.121045   1.000013  -0.000000
    313          0.430222        2.131160   1.000073  -0.000000
    314          0.474065        2.136464   1.000352  -0.000000
    315          0.496374        2.149619   1.000726  -0.000000
    316          0.529725        2.178478   1.001950  -0.000000
    317          0.558659        2.185507   1.004179  -0.000000
    318          0.588330        2.192772   1.008287  -0.000000
    319          0.606682        2.207357   1.012010  -0.000000
    320          0.640107        2.217508   1.021061  -0.000000
    321          0.657110        2.236467   1.026282  -0.000000
    322          0.705949        2.253151   1.035394  -0.000000
    323          0.725404        2.266112   1.031263  -0.000000
    324          0.774033        2.276595   0.976374  -0.000000
    325          0.799391        2.291500   0.911667  -0.000000
    326          0.830310        2.297645   0.794394  -0.000000
    327          0.877051        2.313811   0.554067  -0.000000
    328          0.919646        2.333789   0.318775  -0.000000
    329          0.939003        2.343196   0.223662  -0.000000
    330          0.999587        2.352553   0.023011  -0.000000
    331          1.017009        2.366069  -0.005659  -0.000000
    332          1.081517        2.370599  -0.034690  -0.000000
    333          1.117679        2.377589  -0.025831  -0.000000
    334          1.187852        2.392497  -0.007791  -0.000000
    335          1.201242        2.396823  -0.005766  -0.000000
    336          1.242427        2.406593  -0.002014  -0.000000
    337          1.257059        2.423512  -0.001326  -0.000000
    338          1.287467        2.427554  -0.000519  -0.000000
    339          1.348007        2.443873  -0.000061  -0.000000
    340          1.398655        2.447593  -0.000008  -0.000000
    341          1.422363        2.458121  -0.000003  -0.000000
    342          1.440070        2.467034  -0.000001  -0.000000
    343          1.477347        2.476794  -0.000000  -0.000000
    344          1.527483        2.484204  -0.000000  -0.000000
    345          1.582800        2.490506  -0.000000  -0.000000
    346          1.610241        2.501965  -0.000000  -0.000000
    347          1.631125        2.511975  -0.000000  -0.000000
    348          1.670152        2.517149  -0.000000  -0.000000
    349          1.686927        2.526166  -0.000000  -0.000000
    350          1.698271        2.532545  -0.000000  -0.000000
    351          1.725646        2.541168  -0.000000  -0.000000
    352          1.765174        2.555170  -0.000000  -0.000000
    353          1.810297        2.567079  -0.000000  -0.000000
    354          1.836901        2.577303  -0.000000  -0.000000
    355          1.868903        2.593228  -0.000000  -0.000000
    356          1.888865        2.607545  -0.000000  -0.000000
    357          1.932478        2.626011  -0.000000  -0.000000
    358          1.979536        2.636899  -0.000000  -0.000000
    359          2.003009        2.656117  -0.000000  -0.000000
    360          2.025791        2.660278  -0.000000  -0.000000
    361          2.050538        2.676612  -0.000000  -0.000000
    362          2.110130        2.689592  -0.000000  -0.000000
    363          2.129284        2.712181  -0.000000  -0.000000
    364          2.170385        2.719626  -0.000000  -0.000000
    365          2.206417        2.735162  -0.000000  -0.000000
    366          2.223808        2.750702  -0.000000  -0.000000
    367          2.287988        2.762249  -0.000000  -0.000000
    368          2.338826        2.764978  -0.000000  -0.000000
    369          2.365460        2.803863  -0.000000  -0.000000
 
  0.3750000E+00  0.3750000E+00  0.0000000E+00  0.1250000E+00
      1        -42.295894      -43.492602   1.000000   1.000000
      2        -42.260142      -43.460105   1.000000   1.000000
      3        -42.228974      -43.442554   1.000000   1.000000
      4        -42.193995      -43.439308   1.000000   1.000000
      5        -42.166642      -43.438950   1.000000   1.000000
      6        -42.125254      -43.432212   1.000000   1.000000
      7        -42.098522      -43.416409   1.000000   1.000000
      8        -42.097045      -43.401375   1.000000   1.000000
      9        -42.073163      -43.377539   1.000000   1.000000
     10        -42.041729      -43.373115   1.000000   1.000000
     11        -41.952273      -43.358129   1.000000   1.000000
     12        -41.939318      -43.352231   1.000000   1.000000
     13        -41.936782      -43.325253   1.000000   1.000000
     14        -41.886232      -43.282732   1.000000   1.000000
     15        -41.876631      -43.259386   1.000000   1.000000
     16        -41.859485      -43.230627   1.000000   1.000000
     17        -41.845249      -43.213912   1.000000   1.000000
     18        -41.773559      -43.187473   1.000000   1.000000
     19        -41.773023      -43.173273   1.000000   1.000000
     20        -41.720556      -43.150647   1.000000   1.000000
     21        -41.716843      -43.120095   1.000000   1.000000
     22        -41.713190      -43.100237   1.000000   1.000000
     23        -41.694177      -43.022719   1.000000   1.000000
     24        -41.685026      -42.980734   1.000000   1.000000
     25        -40.400270      -42.934619   1.000000   1.000000
     26        -40.364598      -42.857006   1.000000   1.000000
     27        -40.361503      -42.794417   1.000000   1.000000
     28        -40.324417      -42.668238   1.000000   1.000000
     29        -40.301271      -42.593863   1.000000   1.000000
     30        -40.299043      -42.542128   1.000000   1.000000
     31        -40.264991      -42.511447   1.000000   1.000000
     32        -40.262614      -42.394868   1.000000   1.000000
     33        -40.246304      -42.374429   1.000000   1.000000
     34        -40.241930      -42.197920   1.000000   1.000000
     35        -40.215938      -42.153872   1.000000   1.000000
     36        -40.212892      -42.040523   1.000000   1.000000
     37        -40.169034      -42.024147   1.000000   1.000000
     38        -40.160098      -41.945968   1.000000   1.000000
     39        -40.137817      -41.729277   1.000000   1.000000
     40        -15.492964      -15.508485   1.000000   1.000000
     41        -15.485297      -15.486571   1.000000   1.000000
     42        -15.483954      -15.484193   1.000000   1.000000
     43        -15.445497      -15.467448   1.000000   1.000000
     44        -15.443855      -15.449193   1.000000   1.000000
     45         -7.590513       -7.576297   1.000000   1.000000
     46         -6.641719       -6.523461   1.000000   1.000000
     47         -6.152062       -6.015251   1.000000   1.000000
     48         -6.110156       -5.987256   1.000000   1.000000
     49         -5.680489       -5.577932   1.000000   1.000000
     50         -5.642443       -5.487952   1.000000   1.000000
     51         -5.251714       -5.135827   1.000000   1.000000
     52         -5.195843       -5.039593   1.000000   1.000000
     53         -4.788366       -4.631987   1.000000   1.000000
     54         -4.421927       -4.233229   1.000000   1.000000
     55         -4.188162       -3.917644   1.000000   1.000000
     56         -4.086756       -3.816128   1.000000   1.000000
     57         -3.961503       -3.521690   1.000000   1.000000
     58         -3.928767       -3.512797   1.000000   1.000000
     59         -3.911675       -3.454306   1.000000   1.000000
     60         -3.873806       -3.305363   1.000000   1.000000
     61         -3.868280       -3.248660   1.000000   1.000000
     62         -3.852551       -3.151724   1.000000   1.000000
     63         -3.841586       -3.065894   1.000000   1.000000
     64         -3.825086       -3.039444   1.000000   1.000000
     65         -3.794795       -2.974930   1.000000   1.000000
     66         -3.752669       -2.953367   1.000000   1.000000
     67         -3.718115       -2.919971   1.000000   1.000000
     68         -3.652963       -2.887437   1.000000   1.000000
     69         -3.632239       -2.851830   1.000000   1.000000
     70         -3.618640       -2.832351   1.000000   1.000000
     71         -3.608048       -2.801456   1.000000   1.000000
     72         -3.538960       -2.760893   1.000000   1.000000
     73         -3.527657       -2.735054   1.000000   1.000000
     74         -3.508592       -2.717574   1.000000   1.000000
     75         -3.503270       -2.694345   1.000000   1.000000
     76         -3.484630       -2.667005   1.000000   1.000000
     77         -3.466510       -2.599946   1.000000   1.000000
     78         -3.453392       -2.589101   1.000000   1.000000
     79         -3.438548       -2.539407   1.000000   1.000000
     80         -3.427582       -2.511480   1.000000   1.000000
     81         -3.417415       -2.472988   1.000000   1.000000
     82         -3.403794       -2.417875   1.000000   1.000000
     83         -3.390938       -2.408422   1.000000   1.000000
     84         -3.370842       -2.384464   1.000000   1.000000
     85         -3.360465       -2.339618   1.000000   1.000000
     86         -3.345902       -2.296286   1.000000   1.000000
     87         -3.339926       -2.275784   1.000000   1.000000
     88         -3.305633       -2.269432   1.000000   1.000000
     89         -3.282098       -2.229796   1.000000   1.000000
     90         -3.268588       -2.219005   1.000000   1.000000
     91         -3.246876       -2.191525   1.000000   1.000000
     92         -3.205139       -2.147194   1.000000   1.000000
     93         -3.178668       -2.118961   1.000000   1.000000
     94         -3.162161       -2.094789   1.000000   1.000000
     95         -3.130647       -2.062450   1.000000   1.000000
     96         -3.117540       -2.005100   1.000000   1.000000
     97         -3.095694       -1.994360   1.000000   1.000000
     98         -3.076744       -1.963167   1.000000   1.000000
     99         -3.032186       -1.946367   1.000000   1.000000
    100         -2.989614       -1.914884   1.000000   1.000000
    101         -2.975673       -1.892633   1.000000   1.000000
    102         -2.953159       -1.881028   1.000000   1.000000
    103         -2.938364       -1.815479   1.000000   1.000000
    104         -2.913561       -1.807703   1.000000   1.000000
    105         -2.890233       -1.775593   1.000000   1.000000
    106         -2.878353       -1.747938   1.000000   1.000000
    107         -2.850295       -1.701772   1.000000   1.000000
    108         -2.835380       -1.679990   1.000000   1.000000
    109         -2.812948       -1.673515   1.000000   1.000000
    110         -2.781585       -1.650585   1.000000   1.000000
    111         -2.751679       -1.628479   1.000000   1.000000
    112         -2.725297       -1.582388   1.000000   1.000000
    113         -2.699327       -1.560714   1.000000   1.000000
    114         -2.691756       -1.543418   1.000000   1.000000
    115         -2.677602       -1.515443   1.000000   1.000000
    116         -2.655394       -1.504859   1.000000   1.000000
    117         -2.644088       -1.481557   1.000000   1.000000
    118         -2.634376       -1.457917   1.000000   1.000000
    119         -2.632159       -1.418132   1.000000   1.000000
    120         -2.613975       -1.386082   1.000000   1.000000
    121         -2.608422       -1.378810   1.000000   1.000000
    122         -2.591629       -1.357559   1.000000   1.000000
    123         -2.579030       -1.342840   1.000000   1.000000
    124         -2.568502       -1.323549   1.000000   1.000000
    125         -2.557429       -1.311633   1.000000   1.000000
    126         -2.542001       -1.271408   1.000000   1.000000
    127         -2.534347       -1.253197   1.000000   1.000000
    128         -2.528175       -1.228511   1.000000   1.000000
    129         -2.522971       -1.197063   1.000000   1.000000
    130         -2.510011       -1.190078   1.000000   1.000000
    131         -2.487296       -1.177857   1.000000   1.000000
    132         -2.477844       -1.159976   1.000000   1.000000
    133         -2.469219       -1.144326   1.000000   1.000000
    134         -2.459894       -1.135596   1.000000   1.000000
    135         -2.440391       -1.118215   1.000000   1.000000
    136         -2.423086       -1.099683   1.000000   1.000000
    137         -2.408240       -1.088925   1.000000   1.000000
    138         -2.395487       -1.075921   1.000000   1.000000
    139         -2.381137       -1.054723   1.000000   1.000000
    140         -2.368881       -1.028864   1.000000   1.000000
    141         -2.349314       -1.000611   1.000000   1.000000
    142         -2.317707       -0.990151   1.000000   1.000000
    143         -2.307810       -0.970918   1.000000   1.000000
    144         -2.292688       -0.950661   1.000000   1.000000
    145         -2.275885       -0.919489   1.000000   1.000000
    146         -2.250639       -0.912528   1.000000   1.000000
    147         -2.245784       -0.903025   1.000000   1.000000
    148         -2.230380       -0.884785   1.000000   1.000000
    149         -2.199616       -0.858543   1.000000   1.000000
    150         -2.196968       -0.831677   1.000000   1.000000
    151         -2.169041       -0.816733   1.000000   1.000000
    152         -2.157939       -0.799489   1.000000   1.000000
    153         -2.138807       -0.785776   1.000000   1.000000
    154         -2.127405       -0.747084   1.000000   1.000000
    155         -2.108323       -0.740410   1.000000   1.000000
    156         -2.086190       -0.713606   1.000000   1.000000
    157         -2.080791       -0.695521   1.000000   1.000000
    158         -2.066874       -0.679320   1.000000   1.000000
    159         -2.059153       -0.663323   1.000000   1.000000
    160         -2.054199       -0.654104   1.000000   1.000000
    161         -2.036201       -0.636731   1.000000   1.000000
    162         -2.015257       -0.623363   1.000000   1.000000
    163         -2.004181       -0.608070   1.000000   1.000000
    164         -1.987368       -0.589700   1.000000   1.000000
    165         -1.977302       -0.570472   1.000000   1.000000
    166         -1.970941       -0.554077   1.000000   1.000000
    167         -1.955135       -0.535427   1.000000   1.000000
    168         -1.939622       -0.517572   1.000000   1.000000
    169         -1.926109       -0.497591   1.000000   1.000000
    170         -1.920691       -0.477466   1.000000   1.000000
    171         -1.908767       -0.467555   1.000000   1.000000
    172         -1.886244       -0.450283   1.000000   1.000000
    173         -1.870468       -0.432765   1.000000   1.000000
    174         -1.857259       -0.418245   1.000000   1.000000
    175         -1.831903       -0.411960   1.000000   1.000000
    176         -1.817115       -0.399653   1.000000   1.000000
    177         -1.803624       -0.376641   1.000000   1.000000
    178         -1.793676       -0.363466   1.000000   1.000000
    179         -1.774199       -0.339796   1.000000   1.000000
    180         -1.765283       -0.327133   1.000000   1.000000
    181         -1.740120       -0.318066   1.000000   1.000000
    182         -1.729686       -0.296379   1.000000   1.000000
    183         -1.706824       -0.294288   1.000000   1.000000
    184         -1.701277       -0.264409   1.000000   1.000000
    185         -1.689863       -0.254211   1.000000   1.000000
    186         -1.668707       -0.241418   1.000000   1.000000
    187         -1.652264       -0.224926   1.000000   1.000000
    188         -1.638502       -0.216284   1.000000   1.000000
    189         -1.619205       -0.198817   1.000000   1.000000
    190         -1.613603       -0.182448   1.000000   1.000000
    191         -1.600584       -0.154587   1.000000   1.000000
    192         -1.593088       -0.145024   1.000000   1.000000
    193         -1.558213       -0.131298   1.000000   1.000000
    194         -1.554835       -0.120365   1.000000   1.000000
    195         -1.528144       -0.100433   1.000000   1.000000
    196         -1.510540       -0.091657   1.000000   1.000000
    197         -1.494971       -0.067620   1.000000   1.000000
    198         -1.482681       -0.054552   1.000000   1.000000
    199         -1.464873       -0.045991   1.000000   1.000000
    200         -1.438636       -0.009956   1.000000   1.000000
    201         -1.413309        0.011187   1.000000   1.000000
    202         -1.401577        0.027984   1.000000   1.000000
    203         -1.387667        0.058912   1.000000   1.000000
    204         -1.377569        0.078836   1.000000   1.000000
    205         -1.360742        0.091865   1.000000   1.000000
    206         -1.331135        0.116522   1.000000   1.000000
    207         -1.307665        0.130778   1.000000   1.000000
    208         -1.283268        0.141721   1.000000   1.000000
    209         -1.276897        0.159129   1.000000   1.000000
    210         -1.257891        0.195991   1.000000   1.000000
    211         -1.238466        0.216132   1.000000   1.000000
    212         -1.199929        0.241467   1.000000   1.000000
    213         -1.194576        0.275749   1.000000   1.000000
    214         -1.170964        0.289646   1.000000   1.000000
    215         -1.135370        0.334823   1.000000   1.000001
    216         -1.123538        0.348558   1.000000   1.000002
    217         -1.090675        0.368959   1.000000   1.000006
    218         -1.078069        0.398819   1.000000   1.000021
    219         -1.058990        0.407133   1.000000   1.000030
    220         -1.032597        0.432312   1.000000   1.000079
    221         -1.018617        0.459630   1.000000   1.000214
    222         -0.989757        0.471279   1.000000   1.000320
    223         -0.980286        0.500040   1.000000   1.000814
    224         -0.944281        0.535448   1.000000   1.002284
    225         -0.914195        0.582086   1.000000   1.007236
    226         -0.904918        0.620769   1.000000   1.015508
    227         -0.882564        0.654204   1.000000   1.025393
    228         -0.865049        0.683152   1.000000   1.033230
    229         -0.845083        0.699738   1.000000   1.035389
    230         -0.841012        0.752573   1.000000   1.010324
    231         -0.823374        0.788567   1.000000   0.942747
    232         -0.813209        0.800447   1.000000   0.908351
    233         -0.777004        0.821918   1.000000   0.830245
    234         -0.761757        0.853186   1.000000   0.683720
    235         -0.751354        0.881419   1.000000   0.529525
    236         -0.744383        0.891757   1.000000   0.471238
    237         -0.731083        0.929922   1.000000   0.266798
    238         -0.716328        0.949745   1.000000   0.176577
    239         -0.694645        0.981654   1.000000   0.065594
    240         -0.687496        1.002121   1.000000   0.018097
    241         -0.666461        1.027898   1.000000  -0.017959
    242         -0.661359        1.065548   1.000000  -0.035292
    243         -0.643961        1.084953   1.000000  -0.034186
    244         -0.633763        1.112804   1.000000  -0.027309
    245         -0.621220        1.131761   1.000000  -0.021500
    246         -0.599676        1.156318   1.000000  -0.014518
    247         -0.590640        1.166472   1.000000  -0.012046
    248         -0.575127        1.185688   1.000000  -0.008163
    249         -0.557031        1.211111   1.000000  -0.004559
    250         -0.541319        1.224206   1.000000  -0.003282
    251         -0.538876        1.252457   1.000000  -0.001516
    252         -0.528984        1.260576   1.000000  -0.001196
    253         -0.518120        1.278509   1.000000  -0.000691
    254         -0.507260        1.327600   1.000000  -0.000130
    255         -0.495168        1.374854   1.000000  -0.000021
    256         -0.488834        1.389632   1.000000  -0.000011
    257         -0.476359        1.407080   1.000000  -0.000005
    258         -0.467952        1.429379   1.000000  -0.000002
    259         -0.458894        1.442003   1.000000  -0.000001
    260         -0.450208        1.459109   1.000000  -0.000000
    261         -0.438049        1.474403   1.000000  -0.000000
    262         -0.428531        1.480650   1.000000  -0.000000
    263         -0.421310        1.501497   1.000000  -0.000000
    264         -0.415861        1.531243   1.000000  -0.000000
    265         -0.406308        1.552074   1.000000  -0.000000
    266         -0.393047        1.562935   1.000000  -0.000000
    267         -0.381588        1.584807   1.000000  -0.000000
    268         -0.365770        1.603717   1.000000  -0.000000
    269         -0.362557        1.620276   1.000000  -0.000000
    270         -0.346870        1.631929   1.000000  -0.000000
    271         -0.338214        1.655383   1.000000  -0.000000
    272         -0.332035        1.665597   1.000000  -0.000000
    273         -0.324183        1.677351   1.000000  -0.000000
    274         -0.312083        1.684652   1.000000  -0.000000
    275         -0.305683        1.707306   1.000000  -0.000000
    276         -0.294577        1.717306   1.000000  -0.000000
    277         -0.283063        1.724958   1.000000  -0.000000
    278         -0.270994        1.749647   1.000000  -0.000000
    279         -0.267680        1.768366   1.000000  -0.000000
    280         -0.257331        1.780349   1.000000  -0.000000
    281         -0.233341        1.802385   1.000000  -0.000000
    282         -0.217691        1.818895   1.000000  -0.000000
    283         -0.212675        1.824894   1.000000  -0.000000
    284         -0.195376        1.835158   1.000000  -0.000000
    285         -0.182620        1.850061   1.000000  -0.000000
    286         -0.168580        1.860988   1.000000  -0.000000
    287         -0.149557        1.872045   1.000000  -0.000000
    288         -0.139032        1.882805   1.000000  -0.000000
    289         -0.119120        1.889506   1.000000  -0.000000
    290         -0.099112        1.901221   1.000000  -0.000000
    291         -0.081514        1.909978   1.000000  -0.000000
    292         -0.073538        1.931756   1.000000  -0.000000
    293         -0.050170        1.949783   1.000000  -0.000000
    294         -0.031060        1.961828   1.000000  -0.000000
    295         -0.003244        1.974163   1.000000  -0.000000
    296          0.012475        1.984647   1.000000  -0.000000
    297          0.031831        1.998072   1.000000  -0.000000
    298          0.061046        2.006159   1.000000  -0.000000
    299          0.074226        2.011343   1.000000  -0.000000
    300          0.095785        2.025775   1.000000  -0.000000
    301          0.113652        2.038742   1.000000  -0.000000
    302          0.126248        2.046652   1.000000  -0.000000
    303          0.147671        2.054996   1.000000  -0.000000
    304          0.180402        2.066369   1.000000  -0.000000
    305          0.199587        2.067762   1.000000  -0.000000
    306          0.228879        2.072925   1.000000  -0.000000
    307          0.262743        2.083965   1.000000  -0.000000
    308          0.281755        2.094492   1.000000  -0.000000
    309          0.304704        2.104829   1.000000  -0.000000
    310          0.344571        2.120571   1.000002  -0.000000
    311          0.355562        2.131523   1.000003  -0.000000
    312          0.378889        2.139387   1.000009  -0.000000
    313          0.395940        2.149699   1.000019  -0.000000
    314          0.441356        2.162455   1.000111  -0.000000
    315          0.459823        2.172084   1.000216  -0.000000
    316          0.507846        2.175401   1.001033  -0.000000
    317          0.540231        2.197199   1.002599  -0.000000
    318          0.574823        2.205296   1.006145  -0.000000
    319          0.627510        2.221341   1.017359  -0.000000
    320          0.654171        2.233685   1.025383  -0.000000
    321          0.676455        2.251539   1.031723  -0.000000
    322          0.720338        2.262321   1.033045  -0.000000
    323          0.761774        2.273631   0.997913  -0.000000
    324          0.792500        2.288337   0.932060  -0.000000
    325          0.817218        2.298105   0.849058  -0.000000
    326          0.882214        2.306905   0.525053  -0.000000
    327          0.907459        2.315294   0.383878  -0.000000
    328          0.949953        2.320354   0.175711  -0.000000
    329          0.971751        2.333869   0.095199  -0.000000
    330          1.025273        2.348552  -0.015354  -0.000000
    331          1.062533        2.364589  -0.035007  -0.000000
    332          1.091519        2.370763  -0.032948  -0.000000
    333          1.119743        2.381332  -0.025198  -0.000000
    334          1.199717        2.390149  -0.005974  -0.000000
    335          1.215900        2.403340  -0.004051  -0.000000
    336          1.250509        2.408170  -0.001604  -0.000000
    337          1.280622        2.416915  -0.000646  -0.000000
    338          1.313285        2.426861  -0.000217  -0.000000
    339          1.336256        2.432598  -0.000095  -0.000000
    340          1.358316        2.436295  -0.000041  -0.000000
    341          1.407669        2.443953  -0.000005  -0.000000
    342          1.430362        2.451547  -0.000002  -0.000000
    343          1.486813        2.459559  -0.000000  -0.000000
    344          1.557592        2.461861  -0.000000  -0.000000
    345          1.572691        2.475246  -0.000000  -0.000000
    346          1.605667        2.487142  -0.000000  -0.000000
    347          1.624615        2.491748  -0.000000  -0.000000
    348          1.656777        2.499766  -0.000000  -0.000000
    349          1.704787        2.508192  -0.000000  -0.000000
    350          1.726556        2.517112  -0.000000  -0.000000
    351          1.738982        2.523760  -0.000000  -0.000000
    352          1.779351        2.534975  -0.000000  -0.000000
    353          1.797076        2.537696  -0.000000  -0.000000
    354          1.827726        2.547941  -0.000000  -0.000000
    355          1.861477        2.571622  -0.000000  -0.000000
    356          1.909782        2.574962  -0.000000  -0.000000
    357          1.935978        2.582949  -0.000000  -0.000000
    358          1.993058        2.597113  -0.000000  -0.000000
    359          2.028376        2.602466  -0.000000  -0.000000
    360          2.058313        2.610385  -0.000000  -0.000000
    361          2.100640        2.619281  -0.000000  -0.000000
    362          2.140325        2.633637  -0.000000  -0.000000
    363          2.155776        2.641780  -0.000000  -0.000000
    364          2.175994        2.654519  -0.000000  -0.000000
    365          2.196660        2.677010  -0.000000  -0.000000
    366          2.262332        2.697208  -0.000000  -0.000000
    367          2.298479        2.709973  -0.000000  -0.000000
    368          2.315394        2.749384  -0.000000  -0.000000
    369          2.366246        2.790122  -0.000000  -0.000000
 
 -0.3750000E+00  0.3750000E+00  0.0000000E+00  0.1250000E+00
      1        -42.295895      -43.492601   1.000000   1.000000
      2        -42.260155      -43.460097   1.000000   1.000000
      3        -42.228982      -43.442556   1.000000   1.000000
      4        -42.193977      -43.439303   1.000000   1.000000
      5        -42.166646      -43.438956   1.000000   1.000000
      6        -42.125241      -43.432219   1.000000   1.000000
      7        -42.098527      -43.416424   1.000000   1.000000
      8        -42.097048      -43.401370   1.000000   1.000000
      9        -42.073162      -43.377523   1.000000   1.000000
     10        -42.041728      -43.373119   1.000000   1.000000
     11        -41.952277      -43.358144   1.000000   1.000000
     12        -41.939311      -43.352217   1.000000   1.000000
     13        -41.936764      -43.325253   1.000000   1.000000
     14        -41.886237      -43.282751   1.000000   1.000000
     15        -41.876633      -43.259401   1.000000   1.000000
     16        -41.859470      -43.230609   1.000000   1.000000
     17        -41.845262      -43.213913   1.000000   1.000000
     18        -41.773565      -43.187475   1.000000   1.000000
     19        -41.773030      -43.173257   1.000000   1.000000
     20        -41.720559      -43.150648   1.000000   1.000000
     21        -41.716838      -43.120092   1.000000   1.000000
     22        -41.713174      -43.100243   1.000000   1.000000
     23        -41.694195      -43.022698   1.000000   1.000000
     24        -41.685023      -42.980738   1.000000   1.000000
     25        -40.400275      -42.934601   1.000000   1.000000
     26        -40.364592      -42.857019   1.000000   1.000000
     27        -40.361521      -42.794431   1.000000   1.000000
     28        -40.324401      -42.668243   1.000000   1.000000
     29        -40.301271      -42.593849   1.000000   1.000000
     30        -40.299044      -42.542137   1.000000   1.000000
     31        -40.264990      -42.511446   1.000000   1.000000
     32        -40.262610      -42.394862   1.000000   1.000000
     33        -40.246304      -42.374430   1.000000   1.000000
     34        -40.241934      -42.197919   1.000000   1.000000
     35        -40.215957      -42.153866   1.000000   1.000000
     36        -40.212872      -42.040520   1.000000   1.000000
     37        -40.169034      -42.024160   1.000000   1.000000
     38        -40.160099      -41.945974   1.000000   1.000000
     39        -40.137817      -41.729274   1.000000   1.000000
     40        -15.492964      -15.508485   1.000000   1.000000
     41        -15.485297      -15.486571   1.000000   1.000000
     42        -15.483954      -15.484193   1.000000   1.000000
     43        -15.445497      -15.467448   1.000000   1.000000
     44        -15.443855      -15.449193   1.000000   1.000000
     45         -7.590537       -7.576315   1.000000   1.000000
     46         -6.641226       -6.523327   1.000000   1.000000
     47         -6.173628       -6.019136   1.000000   1.000000
     48         -6.084186       -5.983242   1.000000   1.000000
     49         -5.697943       -5.576807   1.000000   1.000000
     50         -5.626230       -5.489175   1.000000   1.000000
     51         -5.279558       -5.136947   1.000000   1.000000
     52         -5.171787       -5.039703   1.000000   1.000000
     53         -4.785383       -4.630101   1.000000   1.000000
     54         -4.428869       -4.230651   1.000000   1.000000
     55         -4.187760       -3.939524   1.000000   1.000000
     56         -4.085677       -3.797019   1.000000   1.000000
     57         -3.963849       -3.524007   1.000000   1.000000
     58         -3.926744       -3.482981   1.000000   1.000000
     59         -3.913186       -3.470307   1.000000   1.000000
     60         -3.872363       -3.295412   1.000000   1.000000
     61         -3.863134       -3.256446   1.000000   1.000000
     62         -3.846291       -3.154475   1.000000   1.000000
     63         -3.832826       -3.111768   1.000000   1.000000
     64         -3.811353       -3.028478   1.000000   1.000000
     65         -3.801990       -2.975885   1.000000   1.000000
     66         -3.762696       -2.966857   1.000000   1.000000
     67         -3.724342       -2.925724   1.000000   1.000000
     68         -3.664212       -2.892694   1.000000   1.000000
     69         -3.635700       -2.852589   1.000000   1.000000
     70         -3.632024       -2.813509   1.000000   1.000000
     71         -3.601230       -2.788939   1.000000   1.000000
     72         -3.531769       -2.755210   1.000000   1.000000
     73         -3.517213       -2.733916   1.000000   1.000000
     74         -3.502452       -2.687387   1.000000   1.000000
     75         -3.490636       -2.679339   1.000000   1.000000
     76         -3.483313       -2.649119   1.000000   1.000000
     77         -3.475930       -2.613650   1.000000   1.000000
     78         -3.463629       -2.584856   1.000000   1.000000
     79         -3.443908       -2.546039   1.000000   1.000000
     80         -3.432409       -2.511429   1.000000   1.000000
     81         -3.417622       -2.477014   1.000000   1.000000
     82         -3.403432       -2.435668   1.000000   1.000000
     83         -3.385548       -2.399402   1.000000   1.000000
     84         -3.379588       -2.377233   1.000000   1.000000
     85         -3.360186       -2.350560   1.000000   1.000000
     86         -3.342829       -2.326475   1.000000   1.000000
     87         -3.319776       -2.299767   1.000000   1.000000
     88         -3.297403       -2.270340   1.000000   1.000000
     89         -3.290325       -2.240895   1.000000   1.000000
     90         -3.280022       -2.208644   1.000000   1.000000
     91         -3.252787       -2.194838   1.000000   1.000000
     92         -3.212803       -2.148529   1.000000   1.000000
     93         -3.174172       -2.103698   1.000000   1.000000
     94         -3.156509       -2.092737   1.000000   1.000000
     95         -3.132523       -2.063034   1.000000   1.000000
     96         -3.111569       -2.011755   1.000000   1.000000
     97         -3.106310       -1.983556   1.000000   1.000000
     98         -3.064167       -1.967000   1.000000   1.000000
     99         -3.032027       -1.946994   1.000000   1.000000
    100         -2.994804       -1.894160   1.000000   1.000000
    101         -2.982548       -1.877794   1.000000   1.000000
    102         -2.961270       -1.853085   1.000000   1.000000
    103         -2.924897       -1.849342   1.000000   1.000000
    104         -2.910689       -1.806462   1.000000   1.000000
    105         -2.889846       -1.755005   1.000000   1.000000
    106         -2.879282       -1.745091   1.000000   1.000000
    107         -2.844913       -1.715383   1.000000   1.000000
    108         -2.832126       -1.694489   1.000000   1.000000
    109         -2.804038       -1.680374   1.000000   1.000000
    110         -2.790135       -1.647555   1.000000   1.000000
    111         -2.756513       -1.607528   1.000000   1.000000
    112         -2.728315       -1.591979   1.000000   1.000000
    113         -2.705063       -1.567145   1.000000   1.000000
    114         -2.692017       -1.528622   1.000000   1.000000
    115         -2.679925       -1.511498   1.000000   1.000000
    116         -2.671890       -1.500770   1.000000   1.000000
    117         -2.652748       -1.476486   1.000000   1.000000
    118         -2.635179       -1.456933   1.000000   1.000000
    119         -2.624913       -1.410489   1.000000   1.000000
    120         -2.608119       -1.397858   1.000000   1.000000
    121         -2.603237       -1.380684   1.000000   1.000000
    122         -2.588429       -1.358990   1.000000   1.000000
    123         -2.579266       -1.338954   1.000000   1.000000
    124         -2.567716       -1.324963   1.000000   1.000000
    125         -2.555351       -1.312794   1.000000   1.000000
    126         -2.545000       -1.272413   1.000000   1.000000
    127         -2.535949       -1.253610   1.000000   1.000000
    128         -2.526546       -1.248769   1.000000   1.000000
    129         -2.511045       -1.214459   1.000000   1.000000
    130         -2.494621       -1.197068   1.000000   1.000000
    131         -2.490871       -1.188749   1.000000   1.000000
    132         -2.481572       -1.177275   1.000000   1.000000
    133         -2.459119       -1.138915   1.000000   1.000000
    134         -2.453997       -1.123604   1.000000   1.000000
    135         -2.437806       -1.114376   1.000000   1.000000
    136         -2.421225       -1.101246   1.000000   1.000000
    137         -2.411247       -1.081923   1.000000   1.000000
    138         -2.397846       -1.067262   1.000000   1.000000
    139         -2.383320       -1.036316   1.000000   1.000000
    140         -2.358445       -1.025116   1.000000   1.000000
    141         -2.351260       -1.005552   1.000000   1.000000
    142         -2.323775       -0.991560   1.000000   1.000000
    143         -2.318122       -0.979887   1.000000   1.000000
    144         -2.298707       -0.952045   1.000000   1.000000
    145         -2.276692       -0.937465   1.000000   1.000000
    146         -2.256310       -0.912129   1.000000   1.000000
    147         -2.234247       -0.884181   1.000000   1.000000
    148         -2.217841       -0.864606   1.000000   1.000000
    149         -2.202731       -0.854442   1.000000   1.000000
    150         -2.191793       -0.840834   1.000000   1.000000
    151         -2.171075       -0.828366   1.000000   1.000000
    152         -2.162799       -0.804567   1.000000   1.000000
    153         -2.152925       -0.784889   1.000000   1.000000
    154         -2.131493       -0.747406   1.000000   1.000000
    155         -2.125278       -0.736210   1.000000   1.000000
    156         -2.111708       -0.720189   1.000000   1.000000
    157         -2.084899       -0.695330   1.000000   1.000000
    158         -2.079245       -0.679516   1.000000   1.000000
    159         -2.055816       -0.662422   1.000000   1.000000
    160         -2.047057       -0.648385   1.000000   1.000000
    161         -2.035295       -0.628423   1.000000   1.000000
    162         -2.017281       -0.622502   1.000000   1.000000
    163         -2.004201       -0.618825   1.000000   1.000000
    164         -1.996609       -0.594140   1.000000   1.000000
    165         -1.982974       -0.567336   1.000000   1.000000
    166         -1.963868       -0.545874   1.000000   1.000000
    167         -1.941728       -0.528472   1.000000   1.000000
    168         -1.932599       -0.509687   1.000000   1.000000
    169         -1.917782       -0.485706   1.000000   1.000000
    170         -1.909979       -0.479453   1.000000   1.000000
    171         -1.899180       -0.466732   1.000000   1.000000
    172         -1.878875       -0.452933   1.000000   1.000000
    173         -1.864439       -0.439721   1.000000   1.000000
    174         -1.840793       -0.425013   1.000000   1.000000
    175         -1.837028       -0.409711   1.000000   1.000000
    176         -1.828480       -0.392351   1.000000   1.000000
    177         -1.813780       -0.380779   1.000000   1.000000
    178         -1.788853       -0.372930   1.000000   1.000000
    179         -1.779180       -0.351287   1.000000   1.000000
    180         -1.764800       -0.333664   1.000000   1.000000
    181         -1.752146       -0.321487   1.000000   1.000000
    182         -1.731748       -0.294603   1.000000   1.000000
    183         -1.717747       -0.287842   1.000000   1.000000
    184         -1.698462       -0.271714   1.000000   1.000000
    185         -1.681201       -0.252828   1.000000   1.000000
    186         -1.671064       -0.234530   1.000000   1.000000
    187         -1.659513       -0.223125   1.000000   1.000000
    188         -1.644055       -0.210770   1.000000   1.000000
    189         -1.627786       -0.194480   1.000000   1.000000
    190         -1.608958       -0.188146   1.000000   1.000000
    191         -1.588083       -0.167048   1.000000   1.000000
    192         -1.570099       -0.154206   1.000000   1.000000
    193         -1.563226       -0.138731   1.000000   1.000000
    194         -1.546691       -0.116712   1.000000   1.000000
    195         -1.512551       -0.101487   1.000000   1.000000
    196         -1.500964       -0.087266   1.000000   1.000000
    197         -1.491827       -0.064407   1.000000   1.000000
    198         -1.476132       -0.053130   1.000000   1.000000
    199         -1.456443       -0.021555   1.000000   1.000000
    200         -1.442317        0.000448   1.000000   1.000000
    201         -1.429542        0.010736   1.000000   1.000000
    202         -1.418612        0.030270   1.000000   1.000000
    203         -1.402222        0.039257   1.000000   1.000000
    204         -1.373877        0.049794   1.000000   1.000000
    205         -1.351456        0.063151   1.000000   1.000000
    206         -1.337810        0.102272   1.000000   1.000000
    207         -1.317745        0.128292   1.000000   1.000000
    208         -1.295531        0.158673   1.000000   1.000000
    209         -1.280204        0.193627   1.000000   1.000000
    210         -1.250365        0.212564   1.000000   1.000000
    211         -1.231222        0.243246   1.000000   1.000000
    212         -1.211997        0.253193   1.000000   1.000000
    213         -1.181804        0.271682   1.000000   1.000000
    214         -1.165163        0.291814   1.000000   1.000000
    215         -1.152324        0.313515   1.000000   1.000000
    216         -1.132253        0.349333   1.000000   1.000002
    217         -1.088427        0.354091   1.000000   1.000003
    218         -1.064528        0.395444   1.000000   1.000019
    219         -1.044401        0.415119   1.000000   1.000041
    220         -1.031598        0.442273   1.000000   1.000115
    221         -1.006717        0.466260   1.000000   1.000270
    222         -0.991883        0.478023   1.000000   1.000401
    223         -0.963259        0.509680   1.000000   1.001092
    224         -0.946459        0.538643   1.000000   1.002490
    225         -0.906352        0.589166   1.000000   1.008436
    226         -0.897990        0.608122   1.000000   1.012342
    227         -0.893012        0.644879   1.000000   1.022519
    228         -0.871696        0.688995   1.000000   1.034287
    229         -0.847167        0.720772   1.000000   1.032914
    230         -0.829290        0.728817   1.000000   1.029735
    231         -0.822072        0.751392   1.000000   1.011701
    232         -0.790816        0.795791   1.000000   0.922585
    233         -0.785563        0.826818   1.000000   0.809656
    234         -0.779775        0.844356   1.000000   0.728453
    235         -0.761060        0.881814   1.000000   0.527306
    236         -0.745811        0.899012   1.000000   0.430550
    237         -0.721875        0.934033   1.000000   0.246916
    238         -0.717991        0.943198   1.000000   0.204737
    239         -0.711512        0.967341   1.000000   0.109800
    240         -0.685474        1.006598   1.000000   0.010051
    241         -0.670451        1.037501   1.000000  -0.025702
    242         -0.649394        1.052721   1.000000  -0.032969
    243         -0.640982        1.088462   1.000000  -0.033565
    244         -0.626528        1.117800   1.000000  -0.025794
    245         -0.610563        1.126496   1.000000  -0.023115
    246         -0.600351        1.151722   1.000000  -0.015727
    247         -0.590942        1.171385   1.000000  -0.010953
    248         -0.579011        1.188698   1.000000  -0.007649
    249         -0.571030        1.204315   1.000000  -0.005366
    250         -0.564553        1.229689   1.000000  -0.002844
    251         -0.548922        1.271167   1.000000  -0.000868
    252         -0.538475        1.290121   1.000000  -0.000476
    253         -0.515840        1.298637   1.000000  -0.000359
    254         -0.506484        1.331052   1.000000  -0.000115
    255         -0.496510        1.367991   1.000000  -0.000028
    256         -0.480084        1.373114   1.000000  -0.000023
    257         -0.472720        1.387494   1.000000  -0.000012
    258         -0.464303        1.421667   1.000000  -0.000003
    259         -0.454537        1.450998   1.000000  -0.000001
    260         -0.449924        1.466866   1.000000  -0.000000
    261         -0.440795        1.481543   1.000000  -0.000000
    262         -0.428828        1.488785   1.000000  -0.000000
    263         -0.417731        1.504839   1.000000  -0.000000
    264         -0.409227        1.534713   1.000000  -0.000000
    265         -0.399926        1.557966   1.000000  -0.000000
    266         -0.396318        1.564328   1.000000  -0.000000
    267         -0.379116        1.580129   1.000000  -0.000000
    268         -0.374965        1.591898   1.000000  -0.000000
    269         -0.366104        1.614696   1.000000  -0.000000
    270         -0.357705        1.622517   1.000000  -0.000000
    271         -0.345702        1.636942   1.000000  -0.000000
    272         -0.336083        1.662075   1.000000  -0.000000
    273         -0.327574        1.672470   1.000000  -0.000000
    274         -0.319621        1.686763   1.000000  -0.000000
    275         -0.296771        1.695776   1.000000  -0.000000
    276         -0.292277        1.721048   1.000000  -0.000000
    277         -0.285200        1.734900   1.000000  -0.000000
    278         -0.273508        1.758022   1.000000  -0.000000
    279         -0.263098        1.782945   1.000000  -0.000000
    280         -0.252306        1.786847   1.000000  -0.000000
    281         -0.240511        1.802683   1.000000  -0.000000
    282         -0.229919        1.812456   1.000000  -0.000000
    283         -0.212863        1.827085   1.000000  -0.000000
    284         -0.204536        1.842960   1.000000  -0.000000
    285         -0.185734        1.847878   1.000000  -0.000000
    286         -0.170057        1.861486   1.000000  -0.000000
    287         -0.159828        1.866310   1.000000  -0.000000
    288         -0.138164        1.877904   1.000000  -0.000000
    289         -0.125386        1.893936   1.000000  -0.000000
    290         -0.107834        1.898550   1.000000  -0.000000
    291         -0.095830        1.917656   1.000000  -0.000000
    292         -0.071354        1.935449   1.000000  -0.000000
    293         -0.042370        1.940399   1.000000  -0.000000
    294         -0.019439        1.951278   1.000000  -0.000000
    295          0.005461        1.966095   1.000000  -0.000000
    296          0.027825        1.975564   1.000000  -0.000000
    297          0.036362        1.985077   1.000000  -0.000000
    298          0.056881        1.994723   1.000000  -0.000000
    299          0.079547        2.004282   1.000000  -0.000000
    300          0.092720        2.020679   1.000000  -0.000000
    301          0.114243        2.045469   1.000000  -0.000000
    302          0.135623        2.050871   1.000000  -0.000000
    303          0.164500        2.052976   1.000000  -0.000000
    304          0.187773        2.060810   1.000000  -0.000000
    305          0.205695        2.071881   1.000000  -0.000000
    306          0.227412        2.081724   1.000000  -0.000000
    307          0.241604        2.089419   1.000000  -0.000000
    308          0.276711        2.102611   1.000000  -0.000000
    309          0.309921        2.110668   1.000000  -0.000000
    310          0.339535        2.115010   1.000002  -0.000000
    311          0.366913        2.129476   1.000005  -0.000000
    312          0.398093        2.138820   1.000021  -0.000000
    313          0.403107        2.148310   1.000025  -0.000000
    314          0.456250        2.162985   1.000190  -0.000000
    315          0.474521        2.167965   1.000357  -0.000000
    316          0.499540        2.189167   1.000801  -0.000000
    317          0.533364        2.195361   1.002157  -0.000000
    318          0.570328        2.207875   1.005536  -0.000000
    319          0.601370        2.230227   1.010833  -0.000000
    320          0.668631        2.244804   1.029666  -0.000000
    321          0.684710        2.255254   1.033538  -0.000000
    322          0.712682        2.263460   1.034749  -0.000000
    323          0.741810        2.274176   1.021184  -0.000000
    324          0.775636        2.290275   0.973109  -0.000000
    325          0.830138        2.296451   0.795156  -0.000000
    326          0.881927        2.306340   0.526667  -0.000000
    327          0.923309        2.315643   0.299900  -0.000000
    328          0.961589        2.327856   0.130147  -0.000000
    329          0.989892        2.338040   0.044300  -0.000000
    330          1.032794        2.343857  -0.022244  -0.000000
    331          1.065245        2.357640  -0.035270  -0.000000
    332          1.091654        2.375178  -0.032919  -0.000000
    333          1.151839        2.384591  -0.015696  -0.000000
    334          1.191907        2.390184  -0.007128  -0.000000
    335          1.208925        2.399348  -0.004807  -0.000000
    336          1.267945        2.404361  -0.000958  -0.000000
    337          1.278399        2.412592  -0.000693  -0.000000
    338          1.282083        2.423208  -0.000617  -0.000000
    339          1.337034        2.428916  -0.000092  -0.000000
    340          1.372623        2.436331  -0.000023  -0.000000
    341          1.424256        2.449193  -0.000002  -0.000000
    342          1.442534        2.452689  -0.000001  -0.000000
    343          1.487794        2.460335  -0.000000  -0.000000
    344          1.551819        2.470781  -0.000000  -0.000000
    345          1.572064        2.481347  -0.000000  -0.000000
    346          1.608404        2.485085  -0.000000  -0.000000
    347          1.615513        2.501706  -0.000000  -0.000000
    348          1.641160        2.505033  -0.000000  -0.000000
    349          1.682296        2.509606  -0.000000  -0.000000
    350          1.701540        2.518888  -0.000000  -0.000000
    351          1.771062        2.527662  -0.000000  -0.000000
    352          1.787639        2.535322  -0.000000  -0.000000
    353          1.811766        2.543814  -0.000000  -0.000000
    354          1.852651        2.548590  -0.000000  -0.000000
    355          1.883144        2.559536  -0.000000  -0.000000
    356          1.917222        2.575104  -0.000000  -0.000000
    357          1.936170        2.582228  -0.000000  -0.000000
    358          1.971105        2.587664  -0.000000  -0.000000
    359          1.989673        2.598259  -0.000000  -0.000000
    360          2.020115        2.604597  -0.000000  -0.000000
    361          2.068747        2.614258  -0.000000  -0.000000
    362          2.081043        2.621935  -0.000000  -0.000000
    363          2.141826        2.646091  -0.000000  -0.000000
    364          2.172274        2.665008  -0.000000  -0.000000
    365          2.213256        2.671383  -0.000000  -0.000000
    366          2.233123        2.680574  -0.000000  -0.000000
    367          2.273215        2.706434  -0.000000  -0.000000
    368          2.288549        2.745006  -0.000000  -0.000000
    369          2.360671        2.793636  -0.000000  -0.000000
 
 -0.1250000E+00  0.3750000E+00  0.0000000E+00  0.1250000E+00
      1        -42.295905      -43.492610   1.000000   1.000000
      2        -42.260167      -43.460122   1.000000   1.000000
      3        -42.229000      -43.442598   1.000000   1.000000
      4        -42.194006      -43.439315   1.000000   1.000000
      5        -42.166667      -43.438963   1.000000   1.000000
      6        -42.125300      -43.432230   1.000000   1.000000
      7        -42.098534      -43.416434   1.000000   1.000000
      8        -42.097042      -43.401390   1.000000   1.000000
      9        -42.073163      -43.377548   1.000000   1.000000
     10        -42.041752      -43.373132   1.000000   1.000000
     11        -41.952287      -43.358155   1.000000   1.000000
     12        -41.939313      -43.352238   1.000000   1.000000
     13        -41.936795      -43.325262   1.000000   1.000000
     14        -41.886260      -43.282737   1.000000   1.000000
     15        -41.876643      -43.259411   1.000000   1.000000
     16        -41.859496      -43.230622   1.000000   1.000000
     17        -41.845272      -43.213929   1.000000   1.000000
     18        -41.773577      -43.187487   1.000000   1.000000
     19        -41.773040      -43.173282   1.000000   1.000000
     20        -41.720575      -43.150658   1.000000   1.000000
     21        -41.716862      -43.120117   1.000000   1.000000
     22        -41.713189      -43.100252   1.000000   1.000000
     23        -41.694193      -43.022726   1.000000   1.000000
     24        -41.685036      -42.980749   1.000000   1.000000
     25        -40.400354      -42.934628   1.000000   1.000000
     26        -40.364613      -42.857026   1.000000   1.000000
     27        -40.361533      -42.794438   1.000000   1.000000
     28        -40.324427      -42.668254   1.000000   1.000000
     29        -40.301281      -42.593871   1.000000   1.000000
     30        -40.299063      -42.542147   1.000000   1.000000
     31        -40.264951      -42.511465   1.000000   1.000000
     32        -40.262631      -42.394881   1.000000   1.000000
     33        -40.246313      -42.374439   1.000000   1.000000
     34        -40.241954      -42.197934   1.000000   1.000000
     35        -40.215966      -42.153876   1.000000   1.000000
     36        -40.212899      -42.040536   1.000000   1.000000
     37        -40.169043      -42.024173   1.000000   1.000000
     38        -40.160108      -41.945992   1.000000   1.000000
     39        -40.137827      -41.729287   1.000000   1.000000
     40        -15.492963      -15.508484   1.000000   1.000000
     41        -15.485294      -15.486568   1.000000   1.000000
     42        -15.483956      -15.484195   1.000000   1.000000
     43        -15.445498      -15.467449   1.000000   1.000000
     44        -15.443856      -15.449194   1.000000   1.000000
     45         -7.606036       -7.589874   1.000000   1.000000
     46         -6.902682       -6.789345   1.000000   1.000000
     47         -6.382560       -6.257881   1.000000   1.000000
     48         -5.910598       -5.810247   1.000000   1.000000
     49         -5.473532       -5.346028   1.000000   1.000000
     50         -5.422435       -5.254391   1.000000   1.000000
     51         -5.019513       -4.816525   1.000000   1.000000
     52         -4.688494       -4.491867   1.000000   1.000000
     53         -4.652301       -4.428251   1.000000   1.000000
     54         -4.598542       -4.381278   1.000000   1.000000
     55         -4.367374       -4.097088   1.000000   1.000000
     56         -4.313008       -4.025584   1.000000   1.000000
     57         -4.228488       -3.980711   1.000000   1.000000
     58         -4.136448       -3.728401   1.000000   1.000000
     59         -4.058444       -3.657269   1.000000   1.000000
     60         -4.037067       -3.430914   1.000000   1.000000
     61         -3.995283       -3.358005   1.000000   1.000000
     62         -3.894488       -3.311860   1.000000   1.000000
     63         -3.869187       -3.192980   1.000000   1.000000
     64         -3.841298       -3.148413   1.000000   1.000000
     65         -3.808604       -3.108339   1.000000   1.000000
     66         -3.772964       -3.076714   1.000000   1.000000
     67         -3.763563       -3.024516   1.000000   1.000000
     68         -3.746902       -2.959280   1.000000   1.000000
     69         -3.725839       -2.943266   1.000000   1.000000
     70         -3.709006       -2.918472   1.000000   1.000000
     71         -3.622046       -2.859426   1.000000   1.000000
     72         -3.593587       -2.783778   1.000000   1.000000
     73         -3.575470       -2.686130   1.000000   1.000000
     74         -3.562846       -2.656476   1.000000   1.000000
     75         -3.551233       -2.609107   1.000000   1.000000
     76         -3.519344       -2.596963   1.000000   1.000000
     77         -3.511840       -2.523514   1.000000   1.000000
     78         -3.472714       -2.475882   1.000000   1.000000
     79         -3.452975       -2.447368   1.000000   1.000000
     80         -3.422090       -2.406105   1.000000   1.000000
     81         -3.400910       -2.392954   1.000000   1.000000
     82         -3.324483       -2.361295   1.000000   1.000000
     83         -3.306248       -2.332029   1.000000   1.000000
     84         -3.275213       -2.303649   1.000000   1.000000
     85         -3.260562       -2.264518   1.000000   1.000000
     86         -3.237044       -2.236960   1.000000   1.000000
     87         -3.225417       -2.214510   1.000000   1.000000
     88         -3.220444       -2.190244   1.000000   1.000000
     89         -3.203116       -2.168803   1.000000   1.000000
     90         -3.193022       -2.145872   1.000000   1.000000
     91         -3.172511       -2.126326   1.000000   1.000000
     92         -3.150630       -2.116110   1.000000   1.000000
     93         -3.129973       -2.083754   1.000000   1.000000
     94         -3.111864       -2.059256   1.000000   1.000000
     95         -3.090652       -2.032585   1.000000   1.000000
     96         -3.087041       -1.999812   1.000000   1.000000
     97         -3.049916       -1.981051   1.000000   1.000000
     98         -3.036276       -1.945765   1.000000   1.000000
     99         -3.026890       -1.934450   1.000000   1.000000
    100         -3.004684       -1.876953   1.000000   1.000000
    101         -2.955390       -1.860930   1.000000   1.000000
    102         -2.931339       -1.827846   1.000000   1.000000
    103         -2.906865       -1.808373   1.000000   1.000000
    104         -2.889796       -1.778116   1.000000   1.000000
    105         -2.867642       -1.753349   1.000000   1.000000
    106         -2.848583       -1.720470   1.000000   1.000000
    107         -2.823963       -1.698143   1.000000   1.000000
    108         -2.809620       -1.668537   1.000000   1.000000
    109         -2.775933       -1.627266   1.000000   1.000000
    110         -2.748288       -1.597471   1.000000   1.000000
    111         -2.734325       -1.572771   1.000000   1.000000
    112         -2.708643       -1.553410   1.000000   1.000000
    113         -2.704385       -1.527807   1.000000   1.000000
    114         -2.688660       -1.510894   1.000000   1.000000
    115         -2.665498       -1.490501   1.000000   1.000000
    116         -2.652611       -1.462890   1.000000   1.000000
    117         -2.633792       -1.443706   1.000000   1.000000
    118         -2.624659       -1.433368   1.000000   1.000000
    119         -2.607315       -1.403017   1.000000   1.000000
    120         -2.598318       -1.373142   1.000000   1.000000
    121         -2.583218       -1.355524   1.000000   1.000000
    122         -2.572547       -1.331122   1.000000   1.000000
    123         -2.563415       -1.313451   1.000000   1.000000
    124         -2.541442       -1.302845   1.000000   1.000000
    125         -2.526392       -1.256719   1.000000   1.000000
    126         -2.518825       -1.245657   1.000000   1.000000
    127         -2.505399       -1.229248   1.000000   1.000000
    128         -2.498883       -1.219585   1.000000   1.000000
    129         -2.485040       -1.195200   1.000000   1.000000
    130         -2.481011       -1.185297   1.000000   1.000000
    131         -2.459299       -1.149799   1.000000   1.000000
    132         -2.447109       -1.138579   1.000000   1.000000
    133         -2.435751       -1.128438   1.000000   1.000000
    134         -2.424821       -1.104748   1.000000   1.000000
    135         -2.409379       -1.093575   1.000000   1.000000
    136         -2.393313       -1.068681   1.000000   1.000000
    137         -2.373872       -1.060623   1.000000   1.000000
    138         -2.368475       -1.045021   1.000000   1.000000
    139         -2.348363       -1.034909   1.000000   1.000000
    140         -2.340803       -1.010244   1.000000   1.000000
    141         -2.318184       -1.005986   1.000000   1.000000
    142         -2.305202       -0.983321   1.000000   1.000000
    143         -2.290994       -0.964760   1.000000   1.000000
    144         -2.267143       -0.935863   1.000000   1.000000
    145         -2.254657       -0.917496   1.000000   1.000000
    146         -2.242522       -0.913072   1.000000   1.000000
    147         -2.218464       -0.897226   1.000000   1.000000
    148         -2.208236       -0.856227   1.000000   1.000000
    149         -2.194090       -0.851845   1.000000   1.000000
    150         -2.182562       -0.836747   1.000000   1.000000
    151         -2.162590       -0.819108   1.000000   1.000000
    152         -2.154239       -0.799957   1.000000   1.000000
    153         -2.139335       -0.782362   1.000000   1.000000
    154         -2.132114       -0.760439   1.000000   1.000000
    155         -2.107012       -0.754058   1.000000   1.000000
    156         -2.097906       -0.731176   1.000000   1.000000
    157         -2.082815       -0.707460   1.000000   1.000000
    158         -2.066225       -0.699230   1.000000   1.000000
    159         -2.050239       -0.686661   1.000000   1.000000
    160         -2.036863       -0.670277   1.000000   1.000000
    161         -2.028806       -0.653362   1.000000   1.000000
    162         -2.006544       -0.633844   1.000000   1.000000
    163         -1.995706       -0.626791   1.000000   1.000000
    164         -1.973632       -0.602519   1.000000   1.000000
    165         -1.964456       -0.594428   1.000000   1.000000
    166         -1.948122       -0.579057   1.000000   1.000000
    167         -1.933819       -0.558608   1.000000   1.000000
    168         -1.919260       -0.551500   1.000000   1.000000
    169         -1.899090       -0.531730   1.000000   1.000000
    170         -1.894194       -0.516612   1.000000   1.000000
    171         -1.890839       -0.499106   1.000000   1.000000
    172         -1.868311       -0.493142   1.000000   1.000000
    173         -1.853660       -0.467840   1.000000   1.000000
    174         -1.842030       -0.451386   1.000000   1.000000
    175         -1.824673       -0.424552   1.000000   1.000000
    176         -1.809952       -0.411808   1.000000   1.000000
    177         -1.791815       -0.398747   1.000000   1.000000
    178         -1.773200       -0.385597   1.000000   1.000000
    179         -1.765761       -0.372848   1.000000   1.000000
    180         -1.757186       -0.362379   1.000000   1.000000
    181         -1.734522       -0.349015   1.000000   1.000000
    182         -1.725647       -0.330745   1.000000   1.000000
    183         -1.714186       -0.315177   1.000000   1.000000
    184         -1.691090       -0.292771   1.000000   1.000000
    185         -1.681757       -0.283259   1.000000   1.000000
    186         -1.669008       -0.263781   1.000000   1.000000
    187         -1.652336       -0.246272   1.000000   1.000000
    188         -1.643944       -0.233444   1.000000   1.000000
    189         -1.630601       -0.226799   1.000000   1.000000
    190         -1.604743       -0.199290   1.000000   1.000000
    191         -1.593447       -0.183535   1.000000   1.000000
    192         -1.582536       -0.169187   1.000000   1.000000
    193         -1.572118       -0.151811   1.000000   1.000000
    194         -1.553436       -0.131526   1.000000   1.000000
    195         -1.537832       -0.095974   1.000000   1.000000
    196         -1.519915       -0.088388   1.000000   1.000000
    197         -1.511678       -0.068841   1.000000   1.000000
    198         -1.492626       -0.044336   1.000000   1.000000
    199         -1.479175       -0.025201   1.000000   1.000000
    200         -1.462170       -0.018221   1.000000   1.000000
    201         -1.441597        0.000853   1.000000   1.000000
    202         -1.432402        0.025624   1.000000   1.000000
    203         -1.404763        0.038245   1.000000   1.000000
    204         -1.393481        0.053334   1.000000   1.000000
    205         -1.379283        0.069163   1.000000   1.000000
    206         -1.352052        0.094345   1.000000   1.000000
    207         -1.331823        0.117998   1.000000   1.000000
    208         -1.311717        0.142893   1.000000   1.000000
    209         -1.299496        0.153789   1.000000   1.000000
    210         -1.287436        0.182611   1.000000   1.000000
    211         -1.254424        0.194739   1.000000   1.000000
    212         -1.236182        0.228642   1.000000   1.000000
    213         -1.214556        0.261816   1.000000   1.000000
    214         -1.207164        0.285366   1.000000   1.000000
    215         -1.193113        0.308558   1.000000   1.000000
    216         -1.164431        0.330947   1.000000   1.000001
    217         -1.135627        0.350364   1.000000   1.000003
    218         -1.120924        0.378666   1.000000   1.000009
    219         -1.095636        0.404649   1.000000   1.000027
    220         -1.062559        0.451420   1.000000   1.000160
    221         -1.036707        0.472606   1.000000   1.000335
    222         -1.023854        0.495784   1.000000   1.000712
    223         -1.001862        0.516329   1.000000   1.001329
    224         -0.972507        0.536777   1.000000   1.002368
    225         -0.948301        0.556348   1.000000   1.003945
    226         -0.933391        0.611253   1.000000   1.013086
    227         -0.923662        0.646093   1.000000   1.022892
    228         -0.900974        0.675980   1.000000   1.031606
    229         -0.879304        0.683440   1.000000   1.033289
    230         -0.858148        0.725856   1.000000   1.031076
    231         -0.845766        0.748978   1.000000   1.014368
    232         -0.826570        0.785325   1.000000   0.951042
    233         -0.816422        0.803314   1.000000   0.899101
    234         -0.807553        0.834659   1.000000   0.774730
    235         -0.796110        0.859035   1.000000   0.652944
    236         -0.782252        0.882214   1.000000   0.525052
    237         -0.763701        0.911948   1.000000   0.359536
    238         -0.741478        0.941070   1.000000   0.214253
    239         -0.719795        0.957577   1.000000   0.145204
    240         -0.704001        0.995936   1.000000   0.030558
    241         -0.692053        1.038470   1.000000  -0.026337
    242         -0.682453        1.053354   1.000000  -0.033156
    243         -0.665130        1.085974   1.000000  -0.034016
    244         -0.659574        1.102576   1.000000  -0.030244
    245         -0.648797        1.109647   1.000000  -0.028245
    246         -0.642515        1.151605   1.000000  -0.015759
    247         -0.623201        1.162378   1.000000  -0.013009
    248         -0.614931        1.176506   1.000000  -0.009887
    249         -0.593659        1.212710   1.000000  -0.004384
    250         -0.585147        1.239227   1.000000  -0.002200
    251         -0.572612        1.257906   1.000000  -0.001294
    252         -0.567931        1.293516   1.000000  -0.000426
    253         -0.551456        1.304038   1.000000  -0.000299
    254         -0.545123        1.330800   1.000000  -0.000116
    255         -0.529597        1.342031   1.000000  -0.000076
    256         -0.522454        1.356176   1.000000  -0.000044
    257         -0.500729        1.394652   1.000000  -0.000009
    258         -0.489645        1.403762   1.000000  -0.000006
    259         -0.481447        1.428518   1.000000  -0.000002
    260         -0.474428        1.442240   1.000000  -0.000001
    261         -0.456412        1.466879   1.000000  -0.000000
    262         -0.445120        1.473259   1.000000  -0.000000
    263         -0.427452        1.507508   1.000000  -0.000000
    264         -0.424872        1.531442   1.000000  -0.000000
    265         -0.417837        1.551731   1.000000  -0.000000
    266         -0.404865        1.568768   1.000000  -0.000000
    267         -0.395496        1.582719   1.000000  -0.000000
    268         -0.391652        1.594999   1.000000  -0.000000
    269         -0.375171        1.603994   1.000000  -0.000000
    270         -0.365537        1.613155   1.000000  -0.000000
    271         -0.356068        1.629508   1.000000  -0.000000
    272         -0.353204        1.648510   1.000000  -0.000000
    273         -0.332789        1.658764   1.000000  -0.000000
    274         -0.324461        1.677034   1.000000  -0.000000
    275         -0.309332        1.687125   1.000000  -0.000000
    276         -0.299752        1.698222   1.000000  -0.000000
    277         -0.290250        1.708093   1.000000  -0.000000
    278         -0.282729        1.728336   1.000000  -0.000000
    279         -0.264656        1.739178   1.000000  -0.000000
    280         -0.259636        1.750710   1.000000  -0.000000
    281         -0.253432        1.772698   1.000000  -0.000000
    282         -0.236580        1.781281   1.000000  -0.000000
    283         -0.226613        1.796505   1.000000  -0.000000
    284         -0.218821        1.801857   1.000000  -0.000000
    285         -0.207908        1.820073   1.000000  -0.000000
    286         -0.203156        1.838272   1.000000  -0.000000
    287         -0.171891        1.849890   1.000000  -0.000000
    288         -0.162219        1.859861   1.000000  -0.000000
    289         -0.141929        1.875222   1.000000  -0.000000
    290         -0.118912        1.891881   1.000000  -0.000000
    291         -0.108642        1.897699   1.000000  -0.000000
    292         -0.092881        1.907638   1.000000  -0.000000
    293         -0.067307        1.919654   1.000000  -0.000000
    294         -0.050691        1.926274   1.000000  -0.000000
    295         -0.030179        1.943185   1.000000  -0.000000
    296          0.006671        1.953934   1.000000  -0.000000
    297          0.024884        1.967997   1.000000  -0.000000
    298          0.046813        1.977795   1.000000  -0.000000
    299          0.069104        1.990025   1.000000  -0.000000
    300          0.074559        1.993432   1.000000  -0.000000
    301          0.127377        2.002756   1.000000  -0.000000
    302          0.138512        2.010305   1.000000  -0.000000
    303          0.166946        2.022220   1.000000  -0.000000
    304          0.189959        2.036405   1.000000  -0.000000
    305          0.233370        2.040047   1.000000  -0.000000
    306          0.242499        2.055238   1.000000  -0.000000
    307          0.264193        2.068397   1.000000  -0.000000
    308          0.298001        2.075502   1.000000  -0.000000
    309          0.326338        2.088912   1.000001  -0.000000
    310          0.336629        2.093427   1.000001  -0.000000
    311          0.368554        2.104399   1.000006  -0.000000
    312          0.394621        2.124179   1.000018  -0.000000
    313          0.423713        2.133838   1.000057  -0.000000
    314          0.456273        2.143934   1.000190  -0.000000
    315          0.488103        2.158088   1.000558  -0.000000
    316          0.503309        2.169889   1.000900  -0.000000
    317          0.547933        2.181338   1.003184  -0.000000
    318          0.580196        2.197118   1.006939  -0.000000
    319          0.621853        2.217301   1.015798  -0.000000
    320          0.631221        2.221382   1.018421  -0.000000
    321          0.655304        2.232048   1.025731  -0.000000
    322          0.686524        2.243147   1.033874  -0.000000
    323          0.710988        2.262239   1.034982  -0.000000
    324          0.765998        2.279014   0.991162  -0.000000
    325          0.800647        2.291374   0.907717  -0.000000
    326          0.862671        2.302394   0.633422  -0.000000
    327          0.890407        2.316780   0.478843  -0.000000
    328          0.925532        2.329855   0.288627  -0.000000
    329          0.940674        2.340003   0.216044  -0.000000
    330          0.998099        2.350578   0.026020  -0.000000
    331          1.050389        2.357596  -0.032205  -0.000000
    332          1.065902        2.366469  -0.035316  -0.000000
    333          1.132687        2.373538  -0.021218  -0.000000
    334          1.182577        2.388743  -0.008720  -0.000000
    335          1.205257        2.393390  -0.005248  -0.000000
    336          1.250179        2.407049  -0.001619  -0.000000
    337          1.307984        2.421860  -0.000261  -0.000000
    338          1.331487        2.430390  -0.000113  -0.000000
    339          1.346029        2.449248  -0.000066  -0.000000
    340          1.389869        2.455461  -0.000011  -0.000000
    341          1.402182        2.460737  -0.000007  -0.000000
    342          1.450541        2.472632  -0.000001  -0.000000
    343          1.488419        2.479266  -0.000000  -0.000000
    344          1.507855        2.488383  -0.000000  -0.000000
    345          1.562548        2.493224  -0.000000  -0.000000
    346          1.597623        2.499344  -0.000000  -0.000000
    347          1.614883        2.508471  -0.000000  -0.000000
    348          1.657900        2.518897  -0.000000  -0.000000
    349          1.682464        2.527369  -0.000000  -0.000000
    350          1.712676        2.530728  -0.000000  -0.000000
    351          1.758745        2.550043  -0.000000  -0.000000
    352          1.769181        2.559014  -0.000000  -0.000000
    353          1.806477        2.563907  -0.000000  -0.000000
    354          1.837517        2.579116  -0.000000  -0.000000
    355          1.850194        2.594203  -0.000000  -0.000000
    356          1.895626        2.606140  -0.000000  -0.000000
    357          1.919265        2.627929  -0.000000  -0.000000
    358          1.942579        2.635790  -0.000000  -0.000000
    359          1.958486        2.648408  -0.000000  -0.000000
    360          1.994509        2.665972  -0.000000  -0.000000
    361          2.033843        2.677093  -0.000000  -0.000000
    362          2.076929        2.698078  -0.000000  -0.000000
    363          2.125541        2.707864  -0.000000  -0.000000
    364          2.161662        2.715897  -0.000000  -0.000000
    365          2.199789        2.730465  -0.000000  -0.000000
    366          2.261021        2.743117  -0.000000  -0.000000
    367          2.295868        2.763248  -0.000000  -0.000000
    368          2.322930        2.772638  -0.000000  -0.000000
    369          2.370308        2.804729  -0.000000  -0.000000
