Generated by VASPKIT code               
   1.00000000000000     
     8.5261999999999993    0.0000000000000000    0.0000000000000000
    -0.0017663600000000    8.5045998199999993    0.0000000000000000
     0.0000000000000000    0.0000000000000000   23.5558000000000014
   Pb   Cr   Fe
     1    13    49
Selective dynamics
Direct
  0.8210572133619224  0.8396740950614645  0.4396049711812421   T   T   T
  0.9996200000000002  0.3343100000000021  0.0019899999999993   F   F   F
  0.0018469226941460  0.3319223489968663  0.3614490401648855   T   T   T
  0.3233653907064106  0.6797919675581513  0.3599644769292669   T   T   T
  0.6687900000000013  0.9968900000000005  0.1222500000000011   F   F   F
  0.1774764657441489  0.8241312736555837  0.3061074162647149   T   T   T
  0.8329765531042561  0.8334261441962949  0.3026914796236207   T   T   T
  0.3366200000000035  0.9978399999999965  0.2417200000000008   F   F   F
  0.0024000000000015  0.3333200000000005  0.2407899999999970   F   F   F
  0.0012699999999981  0.6647600000000011  0.1204600000000013   F   F   F
  0.3392199999999974  0.3307199999999995  0.0000000000000000   F   F   F
  0.3352399999999989  0.6703699999999984  0.0002300000000020   F   F   F
  0.5027199999999965  0.8339100000000030  0.1809799999999981   F   F   F
  0.8377899999999983  0.4999899999999968  0.0613499999999974   F   F   F
  0.6688199999999966  0.6665500000000009  0.0006800000000027   F   F   F
  0.5022200000000012  0.8331799999999987  0.0607699999999980   F   F   F
  0.1689399999999992  0.8330399999999969  0.0606200000000001   F   F   F
  0.0041974690930542  0.6582653680254158  0.3594636426222616   T   T   T
  0.0023899999999983  0.6644099999999966  0.0005099999999985   F   F   F
  0.6770764398314065  0.3314359367418246  0.3609090325364947   T   T   T
  0.6692999999999998  0.3335799999999978  0.0005000000000024   F   F   F
  0.5021500000000003  0.4999200000000030  0.0608599999999981   F   F   F
  0.8361999999999981  0.8320599999999985  0.0608599999999981   F   F   F
  0.6609009872555349  0.6625475403364481  0.3590607668356849   T   T   T
  0.6694800000000001  0.9988299999999981  0.0005299999999977   F   F   F
  0.6570688450578882  0.0120784539248257  0.3601138209634921   T   T   T
  0.3399704326374495  0.9934460290210559  0.3620466782899028   T   T   T
  0.5034300000000016  0.1651999999999987  0.0610500000000016   F   F   F
  0.1692899999999966  0.1669399999999968  0.0607100000000003   F   F   F
  0.3365700000000018  0.0007499999999965  0.0006699999999995   F   F   F
  0.0027100000000004  0.9986900000000034  0.0003400000000013   F   F   F
  0.0056047972644100  0.0012805031733566  0.3588173761112826   T   T   T
  0.8357000000000028  0.1655599999999993  0.0609400000000022   F   F   F
  0.1706100000000035  0.4974599999999967  0.0603199999999973   F   F   F
  0.4995293467820049  0.1698155938504590  0.3024173455542301   T   T   T
  0.6698799999999991  0.9992400000000004  0.2414199999999980   F   F   F
  0.6696499999999972  0.3330399999999969  0.1210299999999975   F   F   F
  0.8362600000000029  0.4996300000000033  0.1811700000000016   F   F   F
  0.1689900000000009  0.8332899999999981  0.1817700000000002   F   F   F
  0.3358199999999982  0.6668900000000022  0.1209500000000006   F   F   F
  0.6691399999999987  0.6672200000000004  0.1211699999999993   F   F   F
  0.8367999999999967  0.8322000000000003  0.1811399999999992   F   F   F
  0.0017199999999988  0.9994399999999999  0.2415099999999981   F   F   F
  0.1689454719827734  0.1690059368631873  0.3048564204687019   T   T   T
  0.0026000000000010  0.3328399999999974  0.1210099999999983   F   F   F
  0.1699399999999969  0.4992500000000035  0.1810400000000030   F   F   F
  0.5016400000000019  0.1659399999999991  0.1813500000000019   F   F   F
  0.8361500000000035  0.1655900000000017  0.1809900000000013   F   F   F
  0.1698000000000022  0.1658699999999982  0.1809900000000013   F   F   F
  0.3362300000000005  0.9985199999999992  0.1210999999999984   F   F   F
  0.0024500000000032  0.9986499999999978  0.1211699999999993   F   F   F
  0.3365099999999970  0.3328699999999998  0.1208600000000004   F   F   F
  0.5018000000000029  0.4993699999999990  0.1812299999999993   F   F   F
  0.1693828368759724  0.4934598178488275  0.3051096055500343   T   T   T
  0.8400646192631673  0.1694795450442386  0.3041240469427011   T   T   T
  0.4948238425566660  0.4989758721451097  0.3044862374103198   T   T   T
  0.3352399999999989  0.3324599999999975  0.2418300000000002   F   F   F
  0.8384786053646562  0.4947028385845772  0.3039743957631310   T   T   T
  0.6690200000000033  0.3331700000000026  0.2412300000000016   F   F   F
  0.3360500000000002  0.6658800000000014  0.2414600000000036   F   F   F
  0.0031800000000004  0.6659799999999976  0.2417700000000025   F   F   F
  0.6691799999999972  0.6667399999999972  0.2413099999999986   F   F   F
  0.4989666243662062  0.8312040711144610  0.3036198405647832   T   T   T
 
  0.00000000E+00  0.00000000E+00  0.00000000E+00
  0.00000000E+00  0.00000000E+00  0.00000000E+00
  0.00000000E+00  0.00000000E+00  0.00000000E+00
  0.00000000E+00  0.00000000E+00  0.00000000E+00
  0.00000000E+00  0.00000000E+00  0.00000000E+00
  0.00000000E+00  0.00000000E+00  0.00000000E+00
  0.00000000E+00  0.00000000E+00  0.00000000E+00
  0.00000000E+00  0.00000000E+00  0.00000000E+00
  0.00000000E+00  0.00000000E+00  0.00000000E+00
  0.00000000E+00  0.00000000E+00  0.00000000E+00
  0.00000000E+00  0.00000000E+00  0.00000000E+00
  0.00000000E+00  0.00000000E+00  0.00000000E+00
  0.00000000E+00  0.00000000E+00  0.00000000E+00
  0.00000000E+00  0.00000000E+00  0.00000000E+00
  0.00000000E+00  0.00000000E+00  0.00000000E+00
  0.00000000E+00  0.00000000E+00  0.00000000E+00
  0.00000000E+00  0.00000000E+00  0.00000000E+00
  0.00000000E+00  0.00000000E+00  0.00000000E+00
  0.00000000E+00  0.00000000E+00  0.00000000E+00
  0.00000000E+00  0.00000000E+00  0.00000000E+00
  0.00000000E+00  0.00000000E+00  0.00000000E+00
  0.00000000E+00  0.00000000E+00  0.00000000E+00
  0.00000000E+00  0.00000000E+00  0.00000000E+00
  0.00000000E+00  0.00000000E+00  0.00000000E+00
  0.00000000E+00  0.00000000E+00  0.00000000E+00
  0.00000000E+00  0.00000000E+00  0.00000000E+00
  0.00000000E+00  0.00000000E+00  0.00000000E+00
  0.00000000E+00  0.00000000E+00  0.00000000E+00
  0.00000000E+00  0.00000000E+00  0.00000000E+00
  0.00000000E+00  0.00000000E+00  0.00000000E+00
  0.00000000E+00  0.00000000E+00  0.00000000E+00
  0.00000000E+00  0.00000000E+00  0.00000000E+00
  0.00000000E+00  0.00000000E+00  0.00000000E+00
  0.00000000E+00  0.00000000E+00  0.00000000E+00
  0.00000000E+00  0.00000000E+00  0.00000000E+00
  0.00000000E+00  0.00000000E+00  0.00000000E+00
  0.00000000E+00  0.00000000E+00  0.00000000E+00
  0.00000000E+00  0.00000000E+00  0.00000000E+00
  0.00000000E+00  0.00000000E+00  0.00000000E+00
  0.00000000E+00  0.00000000E+00  0.00000000E+00
  0.00000000E+00  0.00000000E+00  0.00000000E+00
  0.00000000E+00  0.00000000E+00  0.00000000E+00
  0.00000000E+00  0.00000000E+00  0.00000000E+00
  0.00000000E+00  0.00000000E+00  0.00000000E+00
  0.00000000E+00  0.00000000E+00  0.00000000E+00
  0.00000000E+00  0.00000000E+00  0.00000000E+00
  0.00000000E+00  0.00000000E+00  0.00000000E+00
  0.00000000E+00  0.00000000E+00  0.00000000E+00
  0.00000000E+00  0.00000000E+00  0.00000000E+00
  0.00000000E+00  0.00000000E+00  0.00000000E+00
  0.00000000E+00  0.00000000E+00  0.00000000E+00
  0.00000000E+00  0.00000000E+00  0.00000000E+00
  0.00000000E+00  0.00000000E+00  0.00000000E+00
  0.00000000E+00  0.00000000E+00  0.00000000E+00
  0.00000000E+00  0.00000000E+00  0.00000000E+00
  0.00000000E+00  0.00000000E+00  0.00000000E+00
  0.00000000E+00  0.00000000E+00  0.00000000E+00
  0.00000000E+00  0.00000000E+00  0.00000000E+00
  0.00000000E+00  0.00000000E+00  0.00000000E+00
  0.00000000E+00  0.00000000E+00  0.00000000E+00
  0.00000000E+00  0.00000000E+00  0.00000000E+00
  0.00000000E+00  0.00000000E+00  0.00000000E+00
  0.00000000E+00  0.00000000E+00  0.00000000E+00
