Generated by VASPKIT code               
   1.00000000000000     
     8.5392999648999997    0.0000000000000000    0.0000000000000000
     0.0135247189000000    8.5058896306000005    0.0000000000000000
     0.0000000000000000    0.0000000000000000   23.5338993073000005
   Cr   Fe
    14    49
Selective dynamics
Direct
  0.0021800000000027  0.9986699999999971  0.2416600000000031   F   F   F
  0.0030199999999994  0.3336100000000002  0.0005700000000033   F   F   F
  0.9904168394323816  0.3274930201978209  0.3690714909822588   T   T   T
  0.1621700000000033  0.4943099999999987  0.0598099999999988   F   F   F
  0.1649200000000022  0.8355400000000017  0.0602700000000027   F   F   F
  0.5023956186276145  0.4971823889128500  0.3042685219530581   T   T   T
  0.5044699999999978  0.4965400000000031  0.0603199999999973   F   F   F
  0.5051399999999973  0.1623700000000028  0.1816699999999969   F   F   F
  0.6613600000000019  0.0006500000000003  0.2402200000000008   F   F   F
  0.6660299999999992  0.9979900000000015  0.0004700000000000   F   F   F
  0.6665171365889375  0.0021102343147510  0.3642389499491642   T   T   T
  0.6598899999999972  0.3395000000000010  0.0003099999999989   F   F   F
  0.6559002331287466  0.3365998763556892  0.3661429750057017   T   T   T
  0.6635199999999983  0.9993499999999997  0.1216200000000001   F   F   F
  0.1652654132160554  0.1612927785863197  0.3024994751494945   T   T   T
  0.9999699999999976  0.3320500000000024  0.2416600000000031   F   F   F
  0.1664592582478803  0.4986055849861813  0.3036394278471369   T   T   T
  0.0001299999999986  0.6649299999999982  0.2414300000000011   F   F   F
  0.1678983471715693  0.8324482148659228  0.3034731111930378   T   T   T
  0.9985399999999984  0.0004800000000031  0.0000000000000000   F   F   F
 -0.0087462857491853 -0.0021155944551757  0.3605985362855270   T   T   T
  0.1655000000000015  0.1649999999999991  0.0604999999999976   F   F   F
  0.0010600000000025  0.6666200000000018  0.0005700000000033   F   F   F
 -0.0081078348250975  0.6653973526663083  0.3602732790504933   T   T   T
  0.9992999999999981  0.9993600000000029  0.1207399999999978   F   F   F
  0.1668499999999966  0.1653799999999990  0.1810499999999990   F   F   F
  0.9993600000000029  0.3316099999999977  0.1208299999999980   F   F   F
  0.1654399999999967  0.4981200000000001  0.1809299999999965   F   F   F
  0.0003999999999991  0.6653599999999997  0.1205700000000007   F   F   F
  0.1662699999999973  0.8320300000000032  0.1810299999999998   F   F   F
  0.3335999999999970  0.9973099999999988  0.2411600000000007   F   F   F
  0.4954834139507391  0.1628869093613056  0.3015141234907661   T   T   T
  0.3325099999999992  0.3324399999999983  0.2411499999999975   F   F   F
  0.3324300000000022  0.6641100000000009  0.2413499999999971   F   F   F
  0.4996507106133303  0.8322816265582235  0.3034318246561183   T   T   T
  0.3340600000000009  0.9984999999999999  0.0006199999999978   F   F   F
  0.3436529214753339  0.0009818988312980  0.3625789094182472   T   T   T
  0.5011200000000002  0.1646599999999978  0.0604900000000015   F   F   F
  0.3330600000000032  0.3325999999999993  0.0006500000000003   F   F   F
  0.3253981571893197  0.3226641311383294  0.3601609096612092   T   T   T
  0.3327900000000028  0.6619099999999989  0.0010300000000001   F   F   F
  0.3351809899517662  0.6693184285795165  0.3611848150518228   T   T   T
  0.5000000000000000  0.8311599999999970  0.0606000000000009   F   F   F
  0.3333599999999990  0.9985399999999984  0.1208900000000028   F   F   F
  0.3325900000000033  0.3328199999999981  0.1201500000000024   F   F   F
  0.4995800000000017  0.4977900000000020  0.1807599999999994   F   F   F
  0.3319199999999967  0.6632999999999996  0.1202499999999986   F   F   F
  0.4997200000000035  0.8301700000000025  0.1808100000000010   F   F   F
  0.8313146332838887  0.1621927825814426  0.2997534153026679   T   T   T
  0.6653200000000012  0.3323200000000028  0.2413700000000034   F   F   F
  0.8316936368395954  0.5011355858389828  0.3013605252928973   T   T   T
  0.6662299999999988  0.6653400000000005  0.2412399999999977   F   F   F
  0.8326173700491067  0.8326132786547814  0.3014752550910050   T   T   T
  0.8317800000000020  0.1660899999999970  0.0600600000000000   F   F   F
  0.8342400000000012  0.4992400000000004  0.0602000000000018   F   F   F
  0.6667500000000004  0.6669699999999992  0.0003400000000013   F   F   F
  0.6725700025577475  0.6769158123656834  0.3623413707279987   T   T   T
  0.8329099999999983  0.8338699999999974  0.0606700000000018   F   F   F
  0.8346900000000019  0.1658899999999974  0.1816200000000023   F   F   F
  0.6668099999999981  0.3315899999999985  0.1207199999999986   F   F   F
  0.8327900000000028  0.4985100000000031  0.1813500000000019   F   F   F
  0.6670900000000017  0.6650199999999984  0.1208099999999988   F   F   F
  0.8333700000000022  0.8339599999999976  0.1814299999999989   F   F   F
 
  0.00000000E+00  0.00000000E+00  0.00000000E+00
  0.00000000E+00  0.00000000E+00  0.00000000E+00
  0.00000000E+00  0.00000000E+00  0.00000000E+00
  0.00000000E+00  0.00000000E+00  0.00000000E+00
  0.00000000E+00  0.00000000E+00  0.00000000E+00
  0.00000000E+00  0.00000000E+00  0.00000000E+00
  0.00000000E+00  0.00000000E+00  0.00000000E+00
  0.00000000E+00  0.00000000E+00  0.00000000E+00
  0.00000000E+00  0.00000000E+00  0.00000000E+00
  0.00000000E+00  0.00000000E+00  0.00000000E+00
  0.00000000E+00  0.00000000E+00  0.00000000E+00
  0.00000000E+00  0.00000000E+00  0.00000000E+00
  0.00000000E+00  0.00000000E+00  0.00000000E+00
  0.00000000E+00  0.00000000E+00  0.00000000E+00
  0.00000000E+00  0.00000000E+00  0.00000000E+00
  0.00000000E+00  0.00000000E+00  0.00000000E+00
  0.00000000E+00  0.00000000E+00  0.00000000E+00
  0.00000000E+00  0.00000000E+00  0.00000000E+00
  0.00000000E+00  0.00000000E+00  0.00000000E+00
  0.00000000E+00  0.00000000E+00  0.00000000E+00
  0.00000000E+00  0.00000000E+00  0.00000000E+00
  0.00000000E+00  0.00000000E+00  0.00000000E+00
  0.00000000E+00  0.00000000E+00  0.00000000E+00
  0.00000000E+00  0.00000000E+00  0.00000000E+00
  0.00000000E+00  0.00000000E+00  0.00000000E+00
  0.00000000E+00  0.00000000E+00  0.00000000E+00
  0.00000000E+00  0.00000000E+00  0.00000000E+00
  0.00000000E+00  0.00000000E+00  0.00000000E+00
  0.00000000E+00  0.00000000E+00  0.00000000E+00
  0.00000000E+00  0.00000000E+00  0.00000000E+00
  0.00000000E+00  0.00000000E+00  0.00000000E+00
  0.00000000E+00  0.00000000E+00  0.00000000E+00
  0.00000000E+00  0.00000000E+00  0.00000000E+00
  0.00000000E+00  0.00000000E+00  0.00000000E+00
  0.00000000E+00  0.00000000E+00  0.00000000E+00
  0.00000000E+00  0.00000000E+00  0.00000000E+00
  0.00000000E+00  0.00000000E+00  0.00000000E+00
  0.00000000E+00  0.00000000E+00  0.00000000E+00
  0.00000000E+00  0.00000000E+00  0.00000000E+00
  0.00000000E+00  0.00000000E+00  0.00000000E+00
  0.00000000E+00  0.00000000E+00  0.00000000E+00
  0.00000000E+00  0.00000000E+00  0.00000000E+00
  0.00000000E+00  0.00000000E+00  0.00000000E+00
  0.00000000E+00  0.00000000E+00  0.00000000E+00
  0.00000000E+00  0.00000000E+00  0.00000000E+00
  0.00000000E+00  0.00000000E+00  0.00000000E+00
  0.00000000E+00  0.00000000E+00  0.00000000E+00
  0.00000000E+00  0.00000000E+00  0.00000000E+00
  0.00000000E+00  0.00000000E+00  0.00000000E+00
  0.00000000E+00  0.00000000E+00  0.00000000E+00
  0.00000000E+00  0.00000000E+00  0.00000000E+00
  0.00000000E+00  0.00000000E+00  0.00000000E+00
  0.00000000E+00  0.00000000E+00  0.00000000E+00
  0.00000000E+00  0.00000000E+00  0.00000000E+00
  0.00000000E+00  0.00000000E+00  0.00000000E+00
  0.00000000E+00  0.00000000E+00  0.00000000E+00
  0.00000000E+00  0.00000000E+00  0.00000000E+00
  0.00000000E+00  0.00000000E+00  0.00000000E+00
  0.00000000E+00  0.00000000E+00  0.00000000E+00
  0.00000000E+00  0.00000000E+00  0.00000000E+00
  0.00000000E+00  0.00000000E+00  0.00000000E+00
  0.00000000E+00  0.00000000E+00  0.00000000E+00
  0.00000000E+00  0.00000000E+00  0.00000000E+00
