  63  63   0   0
  0.2713285E+02  0.8539300E-09  0.8505900E-09  0.2353390E-08  0.5000000E-15
  1.000000000000000E-004
  CAR 
 ni3al                                   
      5.20946815    -45.75622809  301      0.81836821      1.00000000
    -45.756  0.0000E+00  0.0000E+00  0.0000E+00  0.0000E+00
    -45.586  0.0000E+00  0.0000E+00  0.0000E+00  0.0000E+00
    -45.416  0.0000E+00  0.0000E+00  0.0000E+00  0.0000E+00
    -45.247  0.0000E+00  0.0000E+00  0.0000E+00  0.0000E+00
    -45.077  0.0000E+00  0.0000E+00  0.0000E+00  0.0000E+00
    -44.907  0.0000E+00  0.0000E+00  0.0000E+00  0.0000E+00
    -44.737  0.0000E+00 -0.1582E-33  0.0000E+00 -0.2687E-34
    -44.567  0.0000E+00 -0.1243E-25  0.0000E+00 -0.2112E-26
    -44.397  0.0000E+00 -0.7447E-19  0.0000E+00 -0.1265E-19
    -44.227 -0.2834E-30 -0.3304E-13 -0.4815E-31 -0.5613E-14
    -44.057 -0.7907E-23 -0.1165E-08 -0.1343E-23 -0.1980E-09
    -43.887 -0.1654E-16 -0.3275E-05 -0.2811E-17 -0.5565E-06
    -43.718 -0.2465E-11 -0.7294E-03 -0.4189E-12 -0.1245E-03
    -43.548 -0.2739E-07 -0.6899E-02 -0.4654E-08 -0.1297E-02
    -43.378 -0.2124E-04  0.1108E+00 -0.3613E-05  0.1753E-01
    -43.208 -0.9830E-03  0.2438E+00 -0.1706E-03  0.5895E-01
    -43.038  0.4772E-02  0.6722E-01  0.6400E-03  0.7037E-01
    -42.868  0.5854E-01  0.1238E-01  0.1059E-01  0.7248E-01
    -42.698  0.5568E-01  0.7590E-01  0.2005E-01  0.8537E-01
    -42.528 -0.9628E-04  0.3896E-01  0.2003E-01  0.9199E-01
    -42.359  0.1545E-01  0.6470E-01  0.2265E-01  0.1030E+00
    -42.189  0.5898E-01  0.4451E-01  0.3267E-01  0.1105E+00
    -42.019  0.1455E+00  0.4474E-01  0.5740E-01  0.1181E+00
    -41.849  0.1129E+00  0.1203E-01  0.7657E-01  0.1202E+00
    -41.679  0.7966E-01 -0.1022E-02  0.9010E-01  0.1200E+00
    -41.509  0.2987E-01 -0.7762E-04  0.9518E-01  0.1200E+00
    -41.339  0.2895E-01 -0.2348E-06  0.1001E+00  0.1200E+00
    -41.169 -0.2661E-03 -0.4614E-10  0.1001E+00  0.1200E+00
    -40.999 -0.3167E-03 -0.6407E-15  0.1000E+00  0.1200E+00
    -40.830 -0.8681E-03 -0.9591E-13  0.9985E-01  0.1200E+00
    -40.660  0.2622E-02 -0.2285E-08  0.1003E+00  0.1200E+00
    -40.490  0.5430E-01 -0.3742E-05  0.1095E+00  0.1200E+00
    -40.320  0.9229E-01 -0.3525E-03  0.1252E+00  0.1199E+00
    -40.150  0.7699E-01  0.1116E-02  0.1383E+00  0.1201E+00
    -39.980  0.1157E-01  0.2207E-01  0.1402E+00  0.1239E+00
    -39.810 -0.1360E-02  0.2936E-01  0.1400E+00  0.1289E+00
    -39.640 -0.7904E-04  0.2836E-01  0.1400E+00  0.1337E+00
    -39.470 -0.2307E-06  0.2444E-01  0.1400E+00  0.1378E+00
    -39.301 -0.4475E-10  0.1318E-01  0.1400E+00  0.1401E+00
    -39.131 -0.6170E-15 -0.3106E-03  0.1400E+00  0.1400E+00
    -38.961  0.0000E+00 -0.1343E-03  0.1400E+00  0.1400E+00
    -38.791  0.0000E+00 -0.6458E-06  0.1400E+00  0.1400E+00
    -38.621  0.0000E+00 -0.1890E-09  0.1400E+00  0.1400E+00
    -38.451  0.0000E+00 -0.3860E-14  0.1400E+00  0.1400E+00
    -38.281  0.0000E+00  0.0000E+00  0.1400E+00  0.1400E+00
    -38.111  0.0000E+00  0.0000E+00  0.1400E+00  0.1400E+00
    -37.941  0.0000E+00  0.0000E+00  0.1400E+00  0.1400E+00
    -37.772  0.0000E+00  0.0000E+00  0.1400E+00  0.1400E+00
    -37.602  0.0000E+00  0.0000E+00  0.1400E+00  0.1400E+00
    -37.432  0.0000E+00  0.0000E+00  0.1400E+00  0.1400E+00
    -37.262  0.0000E+00  0.0000E+00  0.1400E+00  0.1400E+00
    -37.092  0.0000E+00  0.0000E+00  0.1400E+00  0.1400E+00
    -36.922  0.0000E+00  0.0000E+00  0.1400E+00  0.1400E+00
    -36.752  0.0000E+00  0.0000E+00  0.1400E+00  0.1400E+00
    -36.582  0.0000E+00  0.0000E+00  0.1400E+00  0.1400E+00
    -36.413  0.0000E+00  0.0000E+00  0.1400E+00  0.1400E+00
    -36.243  0.0000E+00  0.0000E+00  0.1400E+00  0.1400E+00
    -36.073  0.0000E+00  0.0000E+00  0.1400E+00  0.1400E+00
    -35.903  0.0000E+00  0.0000E+00  0.1400E+00  0.1400E+00
    -35.733  0.0000E+00  0.0000E+00  0.1400E+00  0.1400E+00
    -35.563  0.0000E+00  0.0000E+00  0.1400E+00  0.1400E+00
    -35.393  0.0000E+00  0.0000E+00  0.1400E+00  0.1400E+00
    -35.223  0.0000E+00  0.0000E+00  0.1400E+00  0.1400E+00
    -35.053  0.0000E+00  0.0000E+00  0.1400E+00  0.1400E+00
    -34.884  0.0000E+00  0.0000E+00  0.1400E+00  0.1400E+00
    -34.714  0.0000E+00  0.0000E+00  0.1400E+00  0.1400E+00
    -34.544  0.0000E+00  0.0000E+00  0.1400E+00  0.1400E+00
    -34.374  0.0000E+00  0.0000E+00  0.1400E+00  0.1400E+00
    -34.204  0.0000E+00  0.0000E+00  0.1400E+00  0.1400E+00
    -34.034  0.0000E+00  0.0000E+00  0.1400E+00  0.1400E+00
    -33.864  0.0000E+00  0.0000E+00  0.1400E+00  0.1400E+00
    -33.694  0.0000E+00  0.0000E+00  0.1400E+00  0.1400E+00
    -33.524  0.0000E+00  0.0000E+00  0.1400E+00  0.1400E+00
    -33.355  0.0000E+00  0.0000E+00  0.1400E+00  0.1400E+00
    -33.185  0.0000E+00  0.0000E+00  0.1400E+00  0.1400E+00
    -33.015  0.0000E+00  0.0000E+00  0.1400E+00  0.1400E+00
    -32.845  0.0000E+00  0.0000E+00  0.1400E+00  0.1400E+00
    -32.675  0.0000E+00  0.0000E+00  0.1400E+00  0.1400E+00
    -32.505  0.0000E+00  0.0000E+00  0.1400E+00  0.1400E+00
    -32.335  0.0000E+00  0.0000E+00  0.1400E+00  0.1400E+00
    -32.165  0.0000E+00  0.0000E+00  0.1400E+00  0.1400E+00
    -31.995  0.0000E+00  0.0000E+00  0.1400E+00  0.1400E+00
    -31.826  0.0000E+00  0.0000E+00  0.1400E+00  0.1400E+00
    -31.656  0.0000E+00  0.0000E+00  0.1400E+00  0.1400E+00
    -31.486  0.0000E+00  0.0000E+00  0.1400E+00  0.1400E+00
    -31.316  0.0000E+00  0.0000E+00  0.1400E+00  0.1400E+00
    -31.146  0.0000E+00  0.0000E+00  0.1400E+00  0.1400E+00
    -30.976  0.0000E+00  0.0000E+00  0.1400E+00  0.1400E+00
    -30.806  0.0000E+00  0.0000E+00  0.1400E+00  0.1400E+00
    -30.636  0.0000E+00  0.0000E+00  0.1400E+00  0.1400E+00
    -30.467  0.0000E+00  0.0000E+00  0.1400E+00  0.1400E+00
    -30.297  0.0000E+00  0.0000E+00  0.1400E+00  0.1400E+00
    -30.127  0.0000E+00  0.0000E+00  0.1400E+00  0.1400E+00
    -29.957  0.0000E+00  0.0000E+00  0.1400E+00  0.1400E+00
    -29.787  0.0000E+00  0.0000E+00  0.1400E+00  0.1400E+00
    -29.617  0.0000E+00  0.0000E+00  0.1400E+00  0.1400E+00
    -29.447  0.0000E+00  0.0000E+00  0.1400E+00  0.1400E+00
    -29.277  0.0000E+00  0.0000E+00  0.1400E+00  0.1400E+00
    -29.107  0.0000E+00  0.0000E+00  0.1400E+00  0.1400E+00
    -28.938  0.0000E+00  0.0000E+00  0.1400E+00  0.1400E+00
    -28.768  0.0000E+00  0.0000E+00  0.1400E+00  0.1400E+00
    -28.598  0.0000E+00  0.0000E+00  0.1400E+00  0.1400E+00
    -28.428  0.0000E+00  0.0000E+00  0.1400E+00  0.1400E+00
    -28.258  0.0000E+00  0.0000E+00  0.1400E+00  0.1400E+00
    -28.088  0.0000E+00  0.0000E+00  0.1400E+00  0.1400E+00
    -27.918  0.0000E+00  0.0000E+00  0.1400E+00  0.1400E+00
    -27.748  0.0000E+00  0.0000E+00  0.1400E+00  0.1400E+00
    -27.578  0.0000E+00  0.0000E+00  0.1400E+00  0.1400E+00
    -27.409  0.0000E+00  0.0000E+00  0.1400E+00  0.1400E+00
    -27.239  0.0000E+00  0.0000E+00  0.1400E+00  0.1400E+00
    -27.069  0.0000E+00  0.0000E+00  0.1400E+00  0.1400E+00
    -26.899  0.0000E+00  0.0000E+00  0.1400E+00  0.1400E+00
    -26.729  0.0000E+00  0.0000E+00  0.1400E+00  0.1400E+00
    -26.559  0.0000E+00  0.0000E+00  0.1400E+00  0.1400E+00
    -26.389  0.0000E+00  0.0000E+00  0.1400E+00  0.1400E+00
    -26.219  0.0000E+00  0.0000E+00  0.1400E+00  0.1400E+00
    -26.049  0.0000E+00  0.0000E+00  0.1400E+00  0.1400E+00
    -25.880  0.0000E+00  0.0000E+00  0.1400E+00  0.1400E+00
    -25.710  0.0000E+00  0.0000E+00  0.1400E+00  0.1400E+00
    -25.540  0.0000E+00  0.0000E+00  0.1400E+00  0.1400E+00
    -25.370  0.0000E+00  0.0000E+00  0.1400E+00  0.1400E+00
    -25.200  0.0000E+00  0.0000E+00  0.1400E+00  0.1400E+00
    -25.030  0.0000E+00  0.0000E+00  0.1400E+00  0.1400E+00
    -24.860  0.0000E+00  0.0000E+00  0.1400E+00  0.1400E+00
    -24.690  0.0000E+00  0.0000E+00  0.1400E+00  0.1400E+00
    -24.521  0.0000E+00  0.0000E+00  0.1400E+00  0.1400E+00
    -24.351  0.0000E+00  0.0000E+00  0.1400E+00  0.1400E+00
    -24.181  0.0000E+00  0.0000E+00  0.1400E+00  0.1400E+00
    -24.011  0.0000E+00  0.0000E+00  0.1400E+00  0.1400E+00
    -23.841  0.0000E+00  0.0000E+00  0.1400E+00  0.1400E+00
    -23.671  0.0000E+00  0.0000E+00  0.1400E+00  0.1400E+00
    -23.501  0.0000E+00  0.0000E+00  0.1400E+00  0.1400E+00
    -23.331  0.0000E+00  0.0000E+00  0.1400E+00  0.1400E+00
    -23.161  0.0000E+00  0.0000E+00  0.1400E+00  0.1400E+00
    -22.992  0.0000E+00  0.0000E+00  0.1400E+00  0.1400E+00
    -22.822  0.0000E+00  0.0000E+00  0.1400E+00  0.1400E+00
    -22.652  0.0000E+00  0.0000E+00  0.1400E+00  0.1400E+00
    -22.482  0.0000E+00  0.0000E+00  0.1400E+00  0.1400E+00
    -22.312  0.0000E+00  0.0000E+00  0.1400E+00  0.1400E+00
    -22.142  0.0000E+00  0.0000E+00  0.1400E+00  0.1400E+00
    -21.972  0.0000E+00  0.0000E+00  0.1400E+00  0.1400E+00
    -21.802  0.0000E+00  0.0000E+00  0.1400E+00  0.1400E+00
    -21.632  0.0000E+00  0.0000E+00  0.1400E+00  0.1400E+00
    -21.463  0.0000E+00  0.0000E+00  0.1400E+00  0.1400E+00
    -21.293  0.0000E+00  0.0000E+00  0.1400E+00  0.1400E+00
    -21.123  0.0000E+00  0.0000E+00  0.1400E+00  0.1400E+00
    -20.953  0.0000E+00  0.0000E+00  0.1400E+00  0.1400E+00
    -20.783  0.0000E+00  0.0000E+00  0.1400E+00  0.1400E+00
    -20.613  0.0000E+00  0.0000E+00  0.1400E+00  0.1400E+00
    -20.443  0.0000E+00  0.0000E+00  0.1400E+00  0.1400E+00
    -20.273  0.0000E+00  0.0000E+00  0.1400E+00  0.1400E+00
    -20.103  0.0000E+00  0.0000E+00  0.1400E+00  0.1400E+00
    -19.934  0.0000E+00  0.0000E+00  0.1400E+00  0.1400E+00
    -19.764  0.0000E+00  0.0000E+00  0.1400E+00  0.1400E+00
    -19.594  0.0000E+00  0.0000E+00  0.1400E+00  0.1400E+00
    -19.424  0.0000E+00  0.0000E+00  0.1400E+00  0.1400E+00
    -19.254  0.0000E+00  0.0000E+00  0.1400E+00  0.1400E+00
    -19.084  0.0000E+00  0.0000E+00  0.1400E+00  0.1400E+00
    -18.914  0.0000E+00  0.0000E+00  0.1400E+00  0.1400E+00
    -18.744  0.0000E+00  0.0000E+00  0.1400E+00  0.1400E+00
    -18.575  0.0000E+00  0.0000E+00  0.1400E+00  0.1400E+00
    -18.405  0.0000E+00  0.0000E+00  0.1400E+00  0.1400E+00
    -18.235  0.0000E+00  0.0000E+00  0.1400E+00  0.1400E+00
    -18.065  0.0000E+00  0.0000E+00  0.1400E+00  0.1400E+00
    -17.895  0.0000E+00  0.0000E+00  0.1400E+00  0.1400E+00
    -17.725  0.0000E+00  0.0000E+00  0.1400E+00  0.1400E+00
    -17.555  0.0000E+00  0.0000E+00  0.1400E+00  0.1400E+00
    -17.385  0.0000E+00  0.0000E+00  0.1400E+00  0.1400E+00
    -17.215  0.0000E+00  0.0000E+00  0.1400E+00  0.1400E+00
    -17.046  0.0000E+00  0.0000E+00  0.1400E+00  0.1400E+00
    -16.876  0.0000E+00  0.0000E+00  0.1400E+00  0.1400E+00
    -16.706  0.0000E+00  0.0000E+00  0.1400E+00  0.1400E+00
    -16.536  0.0000E+00  0.0000E+00  0.1400E+00  0.1400E+00
    -16.366  0.0000E+00  0.0000E+00  0.1400E+00  0.1400E+00
    -16.196  0.0000E+00  0.0000E+00  0.1400E+00  0.1400E+00
    -16.026  0.0000E+00  0.0000E+00  0.1400E+00  0.1400E+00
    -15.856  0.0000E+00  0.0000E+00  0.1400E+00  0.1400E+00
    -15.686  0.0000E+00  0.0000E+00  0.1400E+00  0.1400E+00
    -15.517  0.0000E+00  0.0000E+00  0.1400E+00  0.1400E+00
    -15.347  0.0000E+00  0.0000E+00  0.1400E+00  0.1400E+00
    -15.177  0.0000E+00  0.0000E+00  0.1400E+00  0.1400E+00
    -15.007  0.0000E+00  0.0000E+00  0.1400E+00  0.1400E+00
    -14.837  0.0000E+00  0.0000E+00  0.1400E+00  0.1400E+00
    -14.667  0.0000E+00  0.0000E+00  0.1400E+00  0.1400E+00
    -14.497  0.0000E+00  0.0000E+00  0.1400E+00  0.1400E+00
    -14.327  0.0000E+00  0.0000E+00  0.1400E+00  0.1400E+00
    -14.157  0.0000E+00  0.0000E+00  0.1400E+00  0.1400E+00
    -13.988  0.0000E+00  0.0000E+00  0.1400E+00  0.1400E+00
    -13.818  0.0000E+00  0.0000E+00  0.1400E+00  0.1400E+00
    -13.648  0.0000E+00  0.0000E+00  0.1400E+00  0.1400E+00
    -13.478  0.0000E+00  0.0000E+00  0.1400E+00  0.1400E+00
    -13.308  0.0000E+00  0.0000E+00  0.1400E+00  0.1400E+00
    -13.138  0.0000E+00  0.0000E+00  0.1400E+00  0.1400E+00
    -12.968  0.0000E+00  0.0000E+00  0.1400E+00  0.1400E+00
    -12.798  0.0000E+00  0.0000E+00  0.1400E+00  0.1400E+00
    -12.629  0.0000E+00  0.0000E+00  0.1400E+00  0.1400E+00
    -12.459  0.0000E+00  0.0000E+00  0.1400E+00  0.1400E+00
    -12.289  0.0000E+00  0.0000E+00  0.1400E+00  0.1400E+00
    -12.119  0.0000E+00  0.0000E+00  0.1400E+00  0.1400E+00
    -11.949  0.0000E+00  0.0000E+00  0.1400E+00  0.1400E+00
    -11.779  0.0000E+00  0.0000E+00  0.1400E+00  0.1400E+00
    -11.609  0.0000E+00  0.0000E+00  0.1400E+00  0.1400E+00
    -11.439  0.0000E+00  0.0000E+00  0.1400E+00  0.1400E+00
    -11.269  0.0000E+00  0.0000E+00  0.1400E+00  0.1400E+00
    -11.100  0.0000E+00  0.0000E+00  0.1400E+00  0.1400E+00
    -10.930  0.0000E+00  0.0000E+00  0.1400E+00  0.1400E+00
    -10.760  0.0000E+00  0.0000E+00  0.1400E+00  0.1400E+00
    -10.590  0.0000E+00  0.0000E+00  0.1400E+00  0.1400E+00
    -10.420  0.0000E+00  0.0000E+00  0.1400E+00  0.1400E+00
    -10.250  0.0000E+00  0.0000E+00  0.1400E+00  0.1400E+00
    -10.080  0.0000E+00  0.0000E+00  0.1400E+00  0.1400E+00
     -9.910  0.0000E+00  0.0000E+00  0.1400E+00  0.1400E+00
     -9.740  0.0000E+00  0.0000E+00  0.1400E+00  0.1400E+00
     -9.571  0.0000E+00  0.0000E+00  0.1400E+00  0.1400E+00
     -9.401  0.0000E+00  0.0000E+00  0.1400E+00  0.1400E+00
     -9.231  0.0000E+00  0.0000E+00  0.1400E+00  0.1400E+00
     -9.061  0.0000E+00  0.0000E+00  0.1400E+00  0.1400E+00
     -8.891  0.0000E+00  0.0000E+00  0.1400E+00  0.1400E+00
     -8.721  0.0000E+00  0.0000E+00  0.1400E+00  0.1400E+00
     -8.551 -0.9801E-34  0.0000E+00  0.1400E+00  0.1400E+00
     -8.381 -0.6732E-26 -0.3482E-31  0.1400E+00  0.1400E+00
     -8.211 -0.3474E-19 -0.1072E-23  0.1400E+00  0.1400E+00
     -8.042 -0.1286E-13 -0.2475E-17  0.1400E+00  0.1400E+00
     -7.872 -0.3531E-09 -0.4058E-12  0.1400E+00  0.1400E+00
     -7.702 -0.6653E-06 -0.4897E-08  0.1400E+00  0.1400E+00
     -7.532 -0.7019E-04 -0.3920E-05  0.1400E+00  0.1400E+00
     -7.362  0.3162E-03 -0.1428E-03  0.1400E+00  0.1400E+00
     -7.192  0.3611E-02  0.1317E-02  0.1407E+00  0.1402E+00
     -7.022  0.3990E-02  0.3411E-02  0.1413E+00  0.1408E+00
     -6.852  0.6858E-02  0.5822E-02  0.1425E+00  0.1418E+00
     -6.683  0.3114E-02  0.4982E-02  0.1430E+00  0.1426E+00
     -6.513  0.3427E-02  0.3276E-02  0.1436E+00  0.1432E+00
     -6.343  0.8919E-02  0.4419E-02  0.1451E+00  0.1439E+00
     -6.173  0.1003E-01  0.9419E-02  0.1468E+00  0.1455E+00
     -6.003  0.1103E-01  0.1075E-01  0.1487E+00  0.1473E+00
     -5.833  0.4505E-02  0.9851E-02  0.1495E+00  0.1490E+00
     -5.663  0.1407E-01  0.3744E-02  0.1519E+00  0.1497E+00
     -5.493  0.1676E-01  0.1499E-01  0.1547E+00  0.1522E+00
     -5.323  0.1141E-01  0.1532E-01  0.1566E+00  0.1548E+00
     -5.154  0.5618E-02  0.1184E-01  0.1576E+00  0.1568E+00
     -4.984  0.1517E-01  0.4036E-02  0.1602E+00  0.1575E+00
     -4.814  0.2384E-01  0.1078E-01  0.1642E+00  0.1593E+00
     -4.644  0.2606E-01  0.2205E-01  0.1687E+00  0.1631E+00
     -4.474  0.1818E-01  0.2423E-01  0.1717E+00  0.1672E+00
     -4.304  0.2809E-01  0.1643E-01  0.1765E+00  0.1700E+00
     -4.134  0.4280E-01  0.1415E-01  0.1838E+00  0.1724E+00
     -3.964  0.6624E-01  0.2779E-01  0.1950E+00  0.1771E+00
     -3.794  0.1088E+00  0.1874E-01  0.2135E+00  0.1803E+00
     -3.625  0.1049E+00  0.2796E-01  0.2314E+00  0.1850E+00
     -3.455  0.1461E+00  0.2946E-01  0.2562E+00  0.1901E+00
     -3.285  0.1603E+00  0.4293E-01  0.2834E+00  0.1973E+00
     -3.115  0.1709E+00  0.5097E-01  0.3124E+00  0.2060E+00
     -2.945  0.1445E+00  0.6614E-01  0.3370E+00  0.2172E+00
     -2.775  0.1590E+00  0.7055E-01  0.3640E+00  0.2292E+00
     -2.605  0.2314E+00  0.8019E-01  0.4033E+00  0.2429E+00
     -2.435  0.2601E+00  0.1006E+00  0.4475E+00  0.2599E+00
     -2.266  0.2317E+00  0.1131E+00  0.4869E+00  0.2792E+00
     -2.096  0.2408E+00  0.1271E+00  0.5278E+00  0.3008E+00
     -1.926  0.2338E+00  0.1200E+00  0.5675E+00  0.3211E+00
     -1.756  0.2272E+00  0.1217E+00  0.6061E+00  0.3418E+00
     -1.586  0.2306E+00  0.1215E+00  0.6453E+00  0.3625E+00
     -1.416  0.2115E+00  0.1363E+00  0.6812E+00  0.3856E+00
     -1.246  0.1750E+00  0.1646E+00  0.7109E+00  0.4136E+00
     -1.076  0.1506E+00  0.1875E+00  0.7365E+00  0.4454E+00
     -0.906  0.1651E+00  0.1894E+00  0.7646E+00  0.4776E+00
     -0.737  0.1953E+00  0.1913E+00  0.7977E+00  0.5101E+00
     -0.567  0.2721E+00  0.2064E+00  0.8440E+00  0.5452E+00
     -0.397  0.3201E+00  0.2114E+00  0.8984E+00  0.5811E+00
     -0.227  0.2915E+00  0.2009E+00  0.9479E+00  0.6153E+00
     -0.057  0.2192E+00  0.1870E+00  0.9851E+00  0.6470E+00
      0.113  0.1578E+00  0.1615E+00  0.1012E+01  0.6745E+00
      0.283  0.1375E+00  0.1424E+00  0.1035E+01  0.6987E+00
      0.453  0.1385E+00  0.1287E+00  0.1059E+01  0.7205E+00
      0.623  0.1345E+00  0.1191E+00  0.1082E+01  0.7407E+00
      0.792  0.1142E+00  0.1131E+00  0.1101E+01  0.7600E+00
      0.962  0.9943E-01  0.1170E+00  0.1118E+01  0.7798E+00
      1.132  0.9035E-01  0.1468E+00  0.1133E+01  0.8048E+00
      1.302  0.8845E-01  0.1571E+00  0.1148E+01  0.8315E+00
      1.472  0.9042E-01  0.1765E+00  0.1164E+01  0.8615E+00
      1.642  0.1048E+00  0.2109E+00  0.1181E+01  0.8973E+00
      1.812  0.1073E+00  0.2552E+00  0.1200E+01  0.9407E+00
      1.982  0.9684E-01  0.2879E+00  0.1216E+01  0.9896E+00
      2.152  0.5870E-01  0.2835E+00  0.1226E+01  0.1038E+01
      2.321  0.4113E-02  0.3047E+00  0.1227E+01  0.1089E+01
      2.491 -0.1019E-02  0.3351E+00  0.1227E+01  0.1146E+01
      2.661 -0.1665E-04  0.2689E+00  0.1227E+01  0.1192E+01
      2.831 -0.1761E-07  0.1666E+00  0.1227E+01  0.1220E+01
      3.001 -0.1413E-11  0.4072E-01  0.1227E+01  0.1227E+01
      3.171 -0.8713E-17 -0.3614E-02  0.1227E+01  0.1227E+01
      3.341  0.0000E+00 -0.2759E-03  0.1227E+01  0.1227E+01
      3.511  0.0000E+00 -0.1076E-05  0.1227E+01  0.1227E+01
      3.680  0.0000E+00 -0.3260E-09  0.1227E+01  0.1227E+01
      3.850  0.0000E+00 -0.7860E-14  0.1227E+01  0.1227E+01
      4.020  0.0000E+00  0.0000E+00  0.1227E+01  0.1227E+01
      4.190  0.0000E+00  0.0000E+00  0.1227E+01  0.1227E+01
      4.360  0.0000E+00  0.0000E+00  0.1227E+01  0.1227E+01
      4.530  0.0000E+00  0.0000E+00  0.1227E+01  0.1227E+01
      4.700  0.0000E+00  0.0000E+00  0.1227E+01  0.1227E+01
      4.870  0.0000E+00  0.0000E+00  0.1227E+01  0.1227E+01
      5.040  0.0000E+00  0.0000E+00  0.1227E+01  0.1227E+01
      5.209  0.0000E+00  0.0000E+00  0.1227E+01  0.1227E+01
