srun: ROUTE: split_hostlist: hl=b05r2n[06-07] tree_width 0
 running on    8 total cores
 distrk:  each k-point on    1 cores,    8 groups
 distr:  one band on    1 cores,    1 groups
 HIP runtime initialized ...    8 DCUs will be used
 Created    4 streams on each DCU
 vasp.6.3.2 27Jun22 (build Mar 15 2023 15:45:48) complex                        
  
 POSCAR found type information on POSCAR CrFe
 POSCAR found :  2 types and      63 ions
 Reading from existing POTCAR
 -----------------------------------------------------------------------------
|                                                                             |
|           W    W    AA    RRRRR   N    N  II  N    N   GGGG   !!!           |
|           W    W   A  A   R    R  NN   N  II  NN   N  G    G  !!!           |
|           W    W  A    A  R    R  N N  N  II  N N  N  G       !!!           |
|           W WW W  AAAAAA  RRRRR   N  N N  II  N  N N  G  GGG   !            |
|           WW  WW  A    A  R   R   N   NN  II  N   NN  G    G                |
|           W    W  A    A  R    R  N    N  II  N    N   GGGG   !!!           |
|                                                                             |
|     You use a magnetic or noncollinear calculation, but did not specify     |
|     the initial magnetic moment with the MAGMOM tag. Note that a            |
|     default of 1 will be used for all atoms. This ferromagnetic setup       |
|     may break the symmetry of the crystal, in particular it may rule        |
|     out finding an antiferromagnetic solution. Thence, we recommend         |
|     setting the initial magnetic moment manually or verifying carefully     |
|     that this magnetic setup is desired.                                    |
|                                                                             |
 -----------------------------------------------------------------------------

 scaLAPACK will be used selectively (only on CPU)
 -----------------------------------------------------------------------------
|                                                                             |
|           W    W    AA    RRRRR   N    N  II  N    N   GGGG   !!!           |
|           W    W   A  A   R    R  NN   N  II  NN   N  G    G  !!!           |
|           W    W  A    A  R    R  N N  N  II  N N  N  G       !!!           |
|           W WW W  AAAAAA  RRRRR   N  N N  II  N  N N  G  GGG   !            |
|           WW  WW  A    A  R   R   N   NN  II  N   NN  G    G                |
|           W    W  A    A  R    R  N    N  II  N    N   GGGG   !!!           |
|                                                                             |
|     For optimal performance we recommend to set                             |
|       NCORE = 2 up to number-of-cores-per-socket                            |
|     NCORE specifies how many cores store one orbital (NPAR=cpu/NCORE).      |
|     This setting can greatly improve the performance of VASP for DFT.       |
|     The default, NCORE=1 might be grossly inefficient on modern             |
|     multi-core architectures or massively parallel machines. Do your        |
|     own testing! More info at https://www.vasp.at/wiki/index.php/NCORE      |
|     Unfortunately you need to use the default for GW and RPA                |
|     calculations (for HF NCORE is supported but not extensively tested      |
|     yet).                                                                   |
|                                                                             |
 -----------------------------------------------------------------------------

 Reading from existing POTCAR
 LDA part: xc-table for Pade appr. of Perdew
 POSCAR found type information on POSCAR CrFe
 POSCAR found :  2 types and      63 ions
 Optimize memory usage for KPAR
 POSCAR, INCAR and KPOINTS ok, starting setup
 FFT: planning ... GRIDC
 FFT: planning ... GRID_SOFT
 FFT: planning ... GRID
 WAVECAR not read
 WARNING: chargedensity file is incomplete
 WARNING: random wavefunctions but no delay for mixing, default for NELMDL
 entering main loop
       N       E                     dE             d eps       ncg     rms          rms(c)
DAV:   1     0.546939536814E+04    0.54694E+04   -0.23901E+05 12448   0.143E+03
DAV:   2    -0.914964083820E+02   -0.55609E+04   -0.53625E+04 11776   0.420E+02
DAV:   3    -0.526306099973E+03   -0.43481E+03   -0.38394E+03 12136   0.159E+02
DAV:   4    -0.584029955474E+03   -0.57724E+02   -0.53989E+02 20840   0.442E+01
DAV:   5    -0.587092545144E+03   -0.30626E+01   -0.29112E+01 19064   0.986E+00    0.919E+01
DAV:   6    -0.648430334569E+03   -0.61338E+02   -0.23420E+02 21312   0.658E+01    0.141E+02
DAV:   7    -0.551905004607E+03    0.96525E+02   -0.14397E+02 21656   0.605E+01    0.811E+01
DAV:   8    -0.661935310571E+03   -0.11003E+03   -0.88506E+01 21680   0.717E+01    0.142E+02
DAV:   9    -0.538701187244E+03    0.12323E+03   -0.99690E+01 21328   0.686E+01    0.809E+01
DAV:  10    -0.507087313819E+03    0.31614E+02   -0.15722E+02 19376   0.477E+01    0.563E+01
DAV:  11    -0.497132465807E+03    0.99548E+01   -0.60264E+01 16232   0.296E+01    0.371E+01
DAV:  12    -0.497079710423E+03    0.52755E-01   -0.97010E+00 18912   0.129E+01    0.350E+01
DAV:  13    -0.497469088744E+03   -0.38938E+00   -0.12026E+00 16448   0.432E+00    0.353E+01
DAV:  14    -0.497911004859E+03   -0.44192E+00   -0.32593E-01 19880   0.277E+00    0.352E+01
DAV:  15    -0.499194796863E+03   -0.12838E+01   -0.83781E-01 20360   0.364E+00    0.335E+01
DAV:  16    -0.502696129186E+03   -0.35013E+01   -0.60205E+00 20120   0.811E+00    0.281E+01
DAV:  17    -0.504287581052E+03   -0.15915E+01   -0.35108E+00 20360   0.644E+00    0.266E+01
DAV:  18    -0.504608320394E+03   -0.32074E+00   -0.15721E+00 20200   0.516E+00    0.235E+01
DAV:  19    -0.505534119573E+03   -0.92580E+00   -0.13951E+00 20832   0.499E+00    0.214E+01
DAV:  20    -0.506396285808E+03   -0.86217E+00   -0.13632E+00 20408   0.459E+00    0.177E+01
DAV:  21    -0.507091320933E+03   -0.69504E+00   -0.19113E+00 20632   0.520E+00    0.140E+01
DAV:  22    -0.507369767525E+03   -0.27845E+00   -0.87696E-01 20328   0.357E+00    0.123E+01
DAV:  23    -0.507703961354E+03   -0.33419E+00   -0.65514E-01 20000   0.283E+00    0.108E+01
DAV:  24    -0.508220857858E+03   -0.51690E+00   -0.99238E-01 20776   0.310E+00    0.898E+00
DAV:  25    -0.508540004164E+03   -0.31915E+00   -0.96660E-01 20376   0.281E+00    0.786E+00
DAV:  26    -0.508556367410E+03   -0.16363E-01   -0.16503E-01 18160   0.178E+00    0.700E+00
DAV:  27    -0.508673251938E+03   -0.11688E+00   -0.29375E-01 20432   0.167E+00    0.586E+00
DAV:  28    -0.508767521326E+03   -0.94269E-01   -0.32434E-01 20344   0.166E+00    0.488E+00
DAV:  29    -0.508804886853E+03   -0.37366E-01   -0.10992E-01 19296   0.106E+00    0.448E+00
DAV:  30    -0.508848655696E+03   -0.43769E-01   -0.65715E-02 20368   0.883E-01    0.414E+00
DAV:  31    -0.508935306508E+03   -0.86651E-01   -0.19818E-01 20440   0.115E+00    0.419E+00
DAV:  32    -0.508979181131E+03   -0.43875E-01   -0.54598E-02 19384   0.601E-01    0.407E+00
DAV:  33    -0.509009651951E+03   -0.30471E-01   -0.23773E-02 21008   0.464E-01    0.402E+00
DAV:  34    -0.509025910300E+03   -0.16258E-01   -0.81253E-03 19536   0.220E-01    0.406E+00
DAV:  35    -0.509011003064E+03    0.14907E-01   -0.41092E-03 19592   0.169E-01    0.402E+00
DAV:  36    -0.508989856207E+03    0.21147E-01   -0.11046E-02 20760   0.242E-01    0.392E+00
DAV:  37    -0.508966407045E+03    0.23449E-01   -0.21809E-02 20808   0.387E-01    0.369E+00
DAV:  38    -0.508974520895E+03   -0.81138E-02   -0.65704E-02 20896   0.755E-01    0.319E+00
DAV:  39    -0.508981367408E+03   -0.68465E-02   -0.54858E-02 20640   0.744E-01    0.294E+00
DAV:  40    -0.508995504278E+03   -0.14137E-01   -0.37764E-02 19968   0.527E-01    0.273E+00
DAV:  41    -0.509012195448E+03   -0.16691E-01   -0.94861E-02 20472   0.775E-01    0.217E+00
DAV:  42    -0.509019844694E+03   -0.76492E-02   -0.49543E-02 19312   0.573E-01    0.170E+00
DAV:  43    -0.509027093330E+03   -0.72486E-02   -0.29409E-02 20560   0.633E-01    0.140E+00
DAV:  44    -0.509035014571E+03   -0.79212E-02   -0.47959E-02 19848   0.560E-01    0.106E+00
DAV:  45    -0.509037105276E+03   -0.20907E-02   -0.15738E-02 19648   0.367E-01    0.956E-01
DAV:  46    -0.509038177370E+03   -0.10721E-02   -0.37276E-03 19152   0.189E-01    0.782E-01
DAV:  47    -0.509037692832E+03    0.48454E-03   -0.15988E-02 20048   0.340E-01    0.612E-01
DAV:  48    -0.509038778824E+03   -0.10860E-02   -0.36128E-03 18808   0.252E-01    0.461E-01
DAV:  49    -0.509039090464E+03   -0.31164E-03   -0.17669E-03 20136   0.150E-01    0.394E-01
DAV:  50    -0.509039525591E+03   -0.43513E-03   -0.12001E-03 19752   0.125E-01    0.295E-01
DAV:  51    -0.509039680253E+03   -0.15466E-03   -0.94018E-04 20432   0.106E-01    0.236E-01
DAV:  52    -0.509039825265E+03   -0.14501E-03   -0.11021E-03 20152   0.107E-01    0.162E-01
DAV:  53    -0.509039902570E+03   -0.77305E-04   -0.53769E-04 19240   0.764E-02    0.107E-01
DAV:  54    -0.509039924791E+03   -0.22221E-04   -0.14636E-04 18400   0.442E-02    0.857E-02
DAV:  55    -0.509039950923E+03   -0.26132E-04   -0.14575E-04 16080   0.355E-02    0.713E-02
DAV:  56    -0.509039978157E+03   -0.27234E-04   -0.52913E-05 12960   0.292E-02    0.523E-02
DAV:  57    -0.509039997156E+03   -0.18999E-04   -0.60157E-05 13440   0.241E-02    0.423E-02
DAV:  58    -0.509039999640E+03   -0.24837E-05   -0.38366E-05  9624   0.225E-02
   1 F= -.50904000E+03 E0= -.50904416E+03  d E =-.509040E+03  mag=    98.8694
 curvature:   0.00 expect dE= 0.000E+00 dE for cont linesearch  0.000E+00
 trial: gam= 0.00000 g(F)=  0.583E+00 g(S)=  0.000E+00 ort = 0.000E+00 (trialstep = 0.100E+01)
 search vector abs. value=  0.583E+00
 bond charge predicted
       N       E                     dE             d eps       ncg     rms          rms(c)
DAV:   1    -0.507282361483E+03    0.17576E+01   -0.15100E+02 13464   0.350E+01    0.820E+00
DAV:   2    -0.509853470179E+03   -0.25711E+01   -0.19023E+01 16552   0.128E+01    0.123E+01
DAV:   3    -0.510266469417E+03   -0.41300E+00   -0.65369E+00 20664   0.144E+01    0.141E+01
DAV:   4    -0.509278013913E+03    0.98846E+00   -0.22103E+00 20936   0.695E+00    0.451E+00
DAV:   5    -0.509343538416E+03   -0.65525E-01   -0.15562E-01 15488   0.178E+00    0.366E+00
DAV:   6    -0.509435727509E+03   -0.92189E-01   -0.99814E-02 18336   0.172E+00    0.333E+00
DAV:   7    -0.509494474195E+03   -0.58747E-01   -0.87730E-02 21344   0.151E+00    0.275E+00
DAV:   8    -0.509479156342E+03    0.15318E-01   -0.63472E-02 20640   0.131E+00    0.169E+00
DAV:   9    -0.509485352604E+03   -0.61963E-02   -0.13302E-02 18808   0.492E-01    0.173E+00
DAV:  10    -0.509487117278E+03   -0.17647E-02   -0.41243E-03 19624   0.264E-01    0.169E+00
DAV:  11    -0.509488728927E+03   -0.16116E-02   -0.20443E-03 20480   0.141E-01    0.165E+00
DAV:  12    -0.509489481865E+03   -0.75294E-03   -0.37039E-04 15312   0.551E-02    0.166E+00
DAV:  13    -0.509484316653E+03    0.51652E-02   -0.21181E-03 20640   0.140E-01    0.149E+00
DAV:  14    -0.509475159501E+03    0.91572E-02   -0.13468E-02 21088   0.389E-01    0.110E+00
DAV:  15    -0.509469676208E+03    0.54833E-02   -0.12666E-02 20064   0.311E-01    0.901E-01
DAV:  16    -0.509468747050E+03    0.92916E-03   -0.36070E-03 19592   0.183E-01    0.769E-01
DAV:  17    -0.509467904830E+03    0.84222E-03   -0.55695E-03 20168   0.233E-01    0.541E-01
DAV:  18    -0.509467775390E+03    0.12944E-03   -0.48892E-03 20608   0.222E-01    0.438E-01
DAV:  19    -0.509467918918E+03   -0.14353E-03   -0.11110E-03 18560   0.102E-01    0.401E-01
DAV:  20    -0.509468452881E+03   -0.53396E-03   -0.85006E-04 19792   0.933E-02    0.316E-01
DAV:  21    -0.509468886658E+03   -0.43378E-03   -0.17048E-03 19904   0.115E-01    0.208E-01
DAV:  22    -0.509469003795E+03   -0.11714E-03   -0.35874E-04 18880   0.651E-02    0.189E-01
DAV:  23    -0.509469103565E+03   -0.99770E-04   -0.21384E-04 17984   0.607E-02    0.146E-01
DAV:  24    -0.509469279059E+03   -0.17549E-03   -0.29740E-04 17392   0.548E-02    0.115E-01
DAV:  25    -0.509469320380E+03   -0.41321E-04   -0.91445E-05 15776   0.317E-02    0.101E-01
DAV:  26    -0.509469322072E+03   -0.16917E-05   -0.51226E-05 10392   0.358E-02
   2 F= -.50946932E+03 E0= -.50947296E+03  d E =-.429322E+00  mag=    99.1428
 trial-energy change:   -0.429322  1 .order   -0.429376   -0.583029   -0.275724
 step:   1.8972(harm=  1.8972)  dis= 0.12610  next Energy=  -509.593070 (dE=-0.553E+00)
 bond charge predicted
       N       E                     dE             d eps       ncg     rms          rms(c)
DAV:   1    -0.507863968374E+03    0.16054E+01   -0.12351E+02 13560   0.313E+01    0.722E+00
DAV:   2    -0.509699779698E+03   -0.18358E+01   -0.14580E+01 15968   0.106E+01    0.941E+00
DAV:   3    -0.510366922457E+03   -0.66714E+00   -0.52367E+00 20864   0.122E+01    0.135E+01
DAV:   4    -0.509437441280E+03    0.92948E+00   -0.18670E+00 21560   0.644E+00    0.410E+00
DAV:   5    -0.509496579277E+03   -0.59138E-01   -0.11022E-01 16672   0.145E+00    0.326E+00
DAV:   6    -0.509591028724E+03   -0.94449E-01   -0.87377E-02 17736   0.161E+00    0.292E+00
DAV:   7    -0.509624787948E+03   -0.33759E-01   -0.53241E-02 21376   0.124E+00    0.249E+00
DAV:   8    -0.509610144839E+03    0.14643E-01   -0.44989E-02 20544   0.112E+00    0.172E+00
DAV:   9    -0.509615244663E+03   -0.50998E-02   -0.82573E-03 18264   0.361E-01    0.175E+00
DAV:  10    -0.509616587923E+03   -0.13433E-02   -0.32158E-03 20384   0.214E-01    0.169E+00
DAV:  11    -0.509619346763E+03   -0.27588E-02   -0.25454E-03 20288   0.130E-01    0.167E+00
DAV:  12    -0.509619690773E+03   -0.34401E-03   -0.35291E-04 14296   0.567E-02    0.168E+00
DAV:  13    -0.509615163217E+03    0.45276E-02   -0.15266E-03 19952   0.121E-01    0.153E+00
DAV:  14    -0.509603320424E+03    0.11843E-01   -0.16706E-02 20928   0.349E-01    0.118E+00
DAV:  15    -0.509598120299E+03    0.52001E-02   -0.94414E-03 20440   0.280E-01    0.109E+00
DAV:  16    -0.509594572931E+03    0.35474E-02   -0.49696E-03 20416   0.213E-01    0.922E-01
DAV:  17    -0.509588545803E+03    0.60271E-02   -0.18380E-02 20736   0.335E-01    0.757E-01
DAV:  18    -0.509582915945E+03    0.56299E-02   -0.32609E-02 20736   0.387E-01    0.720E-01
DAV:  19    -0.509582860575E+03    0.55369E-04   -0.23998E-03 14192   0.141E-01    0.716E-01
DAV:  20    -0.509582467252E+03    0.39332E-03   -0.30874E-04 16240   0.311E-02    0.715E-01
DAV:  21    -0.509582238740E+03    0.22851E-03   -0.89822E-05 14464   0.324E-02    0.735E-01
DAV:  22    -0.509583567383E+03   -0.13286E-02   -0.14323E-03 18680   0.102E-01    0.656E-01
DAV:  23    -0.509584004125E+03   -0.43674E-03   -0.22363E-03 18864   0.131E-01    0.649E-01
DAV:  24    -0.509584569406E+03   -0.56528E-03   -0.10032E-03 18144   0.104E-01    0.642E-01
DAV:  25    -0.509585471632E+03   -0.90223E-03   -0.14657E-03 19688   0.110E-01    0.565E-01
DAV:  26    -0.509585246535E+03    0.22510E-03   -0.14506E-03 19736   0.118E-01    0.554E-01
DAV:  27    -0.509584970015E+03    0.27652E-03   -0.87270E-04 19344   0.793E-02    0.596E-01
DAV:  28    -0.509584556719E+03    0.41330E-03   -0.11778E-03 19992   0.723E-02    0.617E-01
DAV:  29    -0.509584173644E+03    0.38307E-03   -0.12753E-03 19952   0.759E-02    0.623E-01
DAV:  30    -0.509584232651E+03   -0.59007E-04   -0.19092E-04 16440   0.448E-02    0.619E-01
DAV:  31    -0.509584438961E+03   -0.20631E-03   -0.20521E-04 16976   0.485E-02    0.557E-01
DAV:  32    -0.509584384513E+03    0.54448E-04   -0.74643E-05 13808   0.297E-02    0.527E-01
DAV:  33    -0.509584231624E+03    0.15289E-03   -0.19435E-04 16424   0.289E-02    0.525E-01
DAV:  34    -0.509584132630E+03    0.98994E-04   -0.12047E-04 15088   0.203E-02    0.520E-01
DAV:  35    -0.509584128007E+03    0.46239E-05   -0.12505E-05  8272   0.870E-03
   3 F= -.50958413E+03 E0= -.50958588E+03  d E =-.544128E+00  mag=    99.7390
 curvature:  -0.95 expect dE=-0.100E+00 dE for cont linesearch -0.116E-02
 ZBRENT: interpolating
 opt :   1.8180  next Energy=  -509.585187 (dE=-0.545E+00)
 bond charge predicted
       N       E                     dE             d eps       ncg     rms          rms(c)
DAV:   1    -0.509571904881E+03    0.12228E-01   -0.97683E-01 13384   0.276E+00    0.762E-01
DAV:   2    -0.509587422236E+03   -0.15517E-01   -0.11623E-01 16200   0.885E-01    0.101E+00
DAV:   3    -0.509590106184E+03   -0.26839E-02   -0.55705E-02 19584   0.113E+00    0.124E+00
DAV:   4    -0.509584392607E+03    0.57136E-02   -0.12890E-02 18816   0.497E-01    0.501E-01
DAV:   5    -0.509585055032E+03   -0.66242E-03   -0.13774E-03 18120   0.158E-01    0.366E-01
DAV:   6    -0.509585839495E+03   -0.78446E-03   -0.14240E-03 18072   0.174E-01    0.266E-01
DAV:   7    -0.509585785909E+03    0.53585E-04   -0.41577E-04 19264   0.121E-01    0.244E-01
DAV:   8    -0.509585753804E+03    0.32105E-04   -0.87343E-05 14992   0.530E-02    0.213E-01
DAV:   9    -0.509585757900E+03   -0.40956E-05   -0.29791E-04 19680   0.654E-02    0.128E-01
DAV:  10    -0.509585810345E+03   -0.52445E-04   -0.22498E-04 17608   0.568E-02    0.132E-01
DAV:  11    -0.509585811361E+03   -0.10158E-05   -0.56857E-05 13888   0.312E-02
   4 F= -.50958581E+03 E0= -.50958780E+03  d E =-.545812E+00  mag=    99.7454
 curvature:  -0.86 expect dE=-0.834E-01 dE for cont linesearch -0.160E-04
 trial: gam= 0.17103 g(F)=  0.964E-01 g(S)=  0.000E+00 ort =-0.328E-02 (trialstep = 0.116E+01)
 search vector abs. value=  0.112E+00
 bond charge predicted
       N       E                     dE             d eps       ncg     rms          rms(c)
DAV:   1    -0.509031472645E+03    0.55434E+00   -0.45677E+01 14000   0.191E+01    0.420E+00
DAV:   2    -0.509690637570E+03   -0.65916E+00   -0.55117E+00 13712   0.528E+00    0.550E+00
DAV:   3    -0.509927735211E+03   -0.23710E+00   -0.18990E+00 20904   0.662E+00    0.760E+00
DAV:   4    -0.509638382830E+03    0.28935E+00   -0.98307E-01 21144   0.489E+00    0.264E+00
DAV:   5    -0.509648716708E+03   -0.10334E-01   -0.77404E-02 18272   0.139E+00    0.195E+00
DAV:   6    -0.509672023596E+03   -0.23307E-01   -0.31305E-02 19288   0.884E-01    0.147E+00
DAV:   7    -0.509679932817E+03   -0.79092E-02   -0.25298E-02 19048   0.983E-01    0.792E-01
DAV:   8    -0.509680570715E+03   -0.63790E-03   -0.68358E-03 18888   0.393E-01    0.654E-01
DAV:   9    -0.509681159007E+03   -0.58829E-03   -0.17754E-03 19000   0.145E-01    0.710E-01
DAV:  10    -0.509681141689E+03    0.17319E-04   -0.11053E-03 19112   0.119E-01    0.653E-01
DAV:  11    -0.509681266486E+03   -0.12480E-03   -0.27863E-03 20224   0.153E-01    0.550E-01
DAV:  12    -0.509681520378E+03   -0.25389E-03   -0.10635E-03 19720   0.994E-02    0.502E-01
DAV:  13    -0.509682119694E+03   -0.59932E-03   -0.53599E-04 19936   0.890E-02    0.535E-01
DAV:  14    -0.509682992455E+03   -0.87276E-03   -0.14372E-03 19768   0.878E-02    0.524E-01
DAV:  15    -0.509683624525E+03   -0.63207E-03   -0.86741E-04 19168   0.627E-02    0.510E-01
DAV:  16    -0.509684206337E+03   -0.58181E-03   -0.68191E-04 18624   0.516E-02    0.493E-01
DAV:  17    -0.509685360266E+03   -0.11539E-02   -0.42737E-03 20560   0.145E-01    0.400E-01
DAV:  18    -0.509686670235E+03   -0.13100E-02   -0.72143E-03 19752   0.165E-01    0.339E-01
DAV:  19    -0.509687123894E+03   -0.45366E-03   -0.12410E-03 18000   0.759E-02    0.284E-01
DAV:  20    -0.509687604361E+03   -0.48047E-03   -0.25972E-03 20344   0.113E-01    0.216E-01
DAV:  21    -0.509687942961E+03   -0.33860E-03   -0.50363E-03 19768   0.166E-01    0.236E-01
DAV:  22    -0.509688045972E+03   -0.10301E-03   -0.44981E-04 14080   0.608E-02    0.210E-01
DAV:  23    -0.509687949458E+03    0.96514E-04   -0.18743E-04 16152   0.625E-02    0.108E-01
DAV:  24    -0.509687932423E+03    0.17035E-04   -0.38257E-04 16768   0.646E-02    0.796E-02
DAV:  25    -0.509687957818E+03   -0.25395E-04   -0.94000E-05 15920   0.265E-02    0.816E-02
DAV:  26    -0.509687930778E+03    0.27039E-04   -0.86274E-05 13880   0.276E-02    0.605E-02
DAV:  27    -0.509687940592E+03   -0.98140E-05   -0.26631E-04 14544   0.375E-02    0.282E-02
DAV:  28    -0.509687931257E+03    0.93354E-05   -0.18737E-04 14376   0.317E-02    0.294E-02
DAV:  29    -0.509687948082E+03   -0.16825E-04   -0.42805E-05 12296   0.180E-02    0.191E-02
DAV:  30    -0.509687949904E+03   -0.18228E-05   -0.55423E-05 13416   0.135E-02
   5 F= -.50968795E+03 E0= -.50968973E+03  d E =-.102139E+00  mag=   100.5255
 trial-energy change:   -0.102139  1 .order   -0.098254   -0.111554   -0.084953
 step:   2.4647(harm=  4.8798)  dis= 0.08518  next Energy=  -509.740878 (dE=-0.155E+00)
 bond charge predicted
       N       E                     dE             d eps       ncg     rms          rms(c)
DAV:   1    -0.508944091160E+03    0.74386E+00   -0.58745E+01 13840   0.213E+01    0.482E+00
DAV:   2    -0.509721082361E+03   -0.77699E+00   -0.67348E+00 13040   0.567E+00    0.523E+00
DAV:   3    -0.510196065553E+03   -0.47498E+00   -0.23337E+00 21360   0.758E+00    0.959E+00
DAV:   4    -0.509701283213E+03    0.49478E+00   -0.13955E+00 21952   0.597E+00    0.286E+00
DAV:   5    -0.509722904532E+03   -0.21621E-01   -0.89605E-02 18680   0.148E+00    0.211E+00
DAV:   6    -0.509746466044E+03   -0.23562E-01   -0.35685E-02 19104   0.991E-01    0.161E+00
DAV:   7    -0.509758727780E+03   -0.12262E-01   -0.29833E-02 19344   0.103E+00    0.772E-01
DAV:   8    -0.509758494704E+03    0.23308E-03   -0.61192E-03 19080   0.406E-01    0.563E-01
DAV:   9    -0.509758676050E+03   -0.18135E-03   -0.22104E-03 18912   0.203E-01    0.581E-01
DAV:  10    -0.509758185083E+03    0.49097E-03   -0.10693E-03 18344   0.121E-01    0.500E-01
DAV:  11    -0.509757451915E+03    0.73317E-03   -0.16716E-03 20352   0.153E-01    0.318E-01
DAV:  12    -0.509757294285E+03    0.15763E-03   -0.11712E-03 19344   0.115E-01    0.254E-01
DAV:  13    -0.509757311156E+03   -0.16871E-04   -0.51296E-04 19352   0.113E-01    0.225E-01
DAV:  14    -0.509757356183E+03   -0.45027E-04   -0.38795E-04 19040   0.719E-02    0.161E-01
DAV:  15    -0.509757422995E+03   -0.66812E-04   -0.20907E-04 18928   0.507E-02    0.132E-01
DAV:  16    -0.509757438333E+03   -0.15338E-04   -0.34116E-05 11736   0.251E-02    0.120E-01
DAV:  17    -0.509757442315E+03   -0.39822E-05   -0.97530E-05 14664   0.410E-02
   6 F= -.50975744E+03 E0= -.50975950E+03  d E =-.171631E+00  mag=   100.6569
 curvature:  -1.65 expect dE=-0.113E+00 dE for cont linesearch -0.163E-01
 ZBRENT: increasing intervall
 opt :   5.0669  next Energy=  -509.740706 (dE=-0.155E+00)
 bond charge predicted
       N       E                     dE             d eps       ncg     rms          rms(c)
DAV:   1    -0.506543834601E+03    0.32136E+01   -0.23890E+02 13880   0.421E+01    0.115E+01
DAV:   2    -0.509990097682E+03   -0.34463E+01   -0.26727E+01 15232   0.130E+01    0.139E+01
DAV:   3    -0.512103880376E+03   -0.21138E+01   -0.10233E+01 21328   0.189E+01    0.211E+01
DAV:   4    -0.509537646049E+03    0.25662E+01   -0.56920E+00 22248   0.138E+01    0.640E+00
DAV:   5    -0.509562703124E+03   -0.25057E-01   -0.37286E-01 17056   0.300E+00    0.452E+00
DAV:   6    -0.509632075845E+03   -0.69373E-01   -0.16487E-01 18944   0.214E+00    0.381E+00
DAV:   7    -0.509732747336E+03   -0.10067E+00   -0.96693E-02 19552   0.155E+00    0.256E+00
DAV:   8    -0.509747959093E+03   -0.15212E-01   -0.81695E-02 18960   0.147E+00    0.126E+00
DAV:   9    -0.509748448113E+03   -0.48902E-03   -0.16035E-02 19000   0.517E-01    0.112E+00
DAV:  10    -0.509748063731E+03    0.38438E-03   -0.34884E-03 17344   0.229E-01    0.103E+00
DAV:  11    -0.509745323934E+03    0.27398E-02   -0.44841E-03 20160   0.350E-01    0.747E-01
DAV:  12    -0.509743268395E+03    0.20555E-02   -0.49560E-03 18728   0.230E-01    0.522E-01
DAV:  13    -0.509742459221E+03    0.80917E-03   -0.34959E-03 19272   0.226E-01    0.452E-01
DAV:  14    -0.509742421774E+03    0.37447E-04   -0.10387E-03 18200   0.122E-01    0.360E-01
DAV:  15    -0.509742478539E+03   -0.56764E-04   -0.91725E-04 19928   0.132E-01    0.210E-01
DAV:  16    -0.509742581313E+03   -0.10277E-03   -0.27731E-04 18392   0.579E-02    0.185E-01
DAV:  17    -0.509742616214E+03   -0.34901E-04   -0.11444E-04 16536   0.446E-02    0.152E-01
DAV:  18    -0.509742613535E+03    0.26793E-05   -0.29844E-04 19744   0.883E-02    0.992E-02
DAV:  19    -0.509742621308E+03   -0.77736E-05   -0.92538E-05 14928   0.384E-02
   7 F= -.50974262E+03 E0= -.50974476E+03  d E =-.156810E+00  mag=   100.5764
 curvature:   1.70 expect dE= 0.188E+00 dE for cont linesearch  0.300E-01
 ZBRENT: bracketing found
 ZBRENT: interpolating
 opt :   3.5769  next Energy=  -509.775955 (dE=-0.190E+00)
 bond charge predicted
       N       E                     dE             d eps       ncg     rms          rms(c)
DAV:   1    -0.508699894869E+03    0.10427E+01   -0.78023E+01 13792   0.244E+01    0.576E+00
DAV:   2    -0.509626591485E+03   -0.92670E+00   -0.85969E+00 12480   0.587E+00    0.400E+00
DAV:   3    -0.510593753209E+03   -0.96716E+00   -0.24521E+00 22200   0.791E+00    0.127E+01
DAV:   4    -0.509684504017E+03    0.90925E+00   -0.20111E+00 22448   0.706E+00    0.291E+00
DAV:   5    -0.509732199432E+03   -0.47695E-01   -0.58757E-02 18664   0.107E+00    0.229E+00
DAV:   6    -0.509761740107E+03   -0.29541E-01   -0.43489E-02 19472   0.128E+00    0.179E+00
DAV:   7    -0.509782837057E+03   -0.21097E-01   -0.39201E-02 20608   0.962E-01    0.125E+00
DAV:   8    -0.509778048873E+03    0.47882E-02   -0.26688E-02 19504   0.835E-01    0.614E-01
DAV:   9    -0.509777787037E+03    0.26184E-03   -0.35448E-03 17664   0.254E-01    0.508E-01
DAV:  10    -0.509777090392E+03    0.69664E-03   -0.15500E-03 19136   0.139E-01    0.424E-01
DAV:  11    -0.509776302310E+03    0.78808E-03   -0.14036E-03 19248   0.136E-01    0.285E-01
DAV:  12    -0.509775983713E+03    0.31860E-03   -0.10493E-03 19032   0.122E-01    0.231E-01
DAV:  13    -0.509775973672E+03    0.10041E-04   -0.42725E-04 19128   0.101E-01    0.199E-01
DAV:  14    -0.509776050183E+03   -0.76511E-04   -0.26552E-04 17760   0.604E-02    0.135E-01
DAV:  15    -0.509776067354E+03   -0.17171E-04   -0.18627E-04 17176   0.633E-02    0.913E-02
DAV:  16    -0.509776083322E+03   -0.15968E-04   -0.39713E-05 11480   0.220E-02    0.821E-02
DAV:  17    -0.509776084333E+03   -0.10108E-05   -0.24840E-05  9528   0.245E-02
   8 F= -.50977608E+03 E0= -.50977828E+03  d E =-.190273E+00  mag=   100.6700
 curvature:  -1.05 expect dE=-0.726E-01 dE for cont linesearch -0.105E-06
 trial: gam= 0.53228 g(F)=  0.694E-01 g(S)=  0.000E+00 ort = 0.106E-03 (trialstep = 0.165E+01)
 search vector abs. value=  0.101E+00
 bond charge predicted
       N       E                     dE             d eps       ncg     rms          rms(c)
DAV:   1    -0.508773471445E+03    0.10026E+01   -0.74605E+01 12992   0.236E+01    0.583E+00
DAV:   2    -0.509827576903E+03   -0.10541E+01   -0.91629E+00 13160   0.719E+00    0.661E+00
DAV:   3    -0.510477164765E+03   -0.64959E+00   -0.30452E+00 21336   0.907E+00    0.108E+01
DAV:   4    -0.509825004864E+03    0.65216E+00   -0.23325E+00 22176   0.793E+00    0.466E+00
DAV:   5    -0.509803580501E+03    0.21424E-01   -0.17130E-01 19040   0.192E+00    0.298E+00
DAV:   6    -0.509828567403E+03   -0.24987E-01   -0.45580E-02 17856   0.101E+00    0.207E+00
DAV:   7    -0.509866338358E+03   -0.37771E-01   -0.48387E-02 19768   0.131E+00    0.170E+00
DAV:   8    -0.509864953828E+03    0.13845E-02   -0.13414E-02 20592   0.652E-01    0.134E+00
DAV:   9    -0.509867013914E+03   -0.20601E-02   -0.47667E-03 18712   0.226E-01    0.135E+00
DAV:  10    -0.509865995919E+03    0.10180E-02   -0.29777E-03 20160   0.216E-01    0.113E+00
DAV:  11    -0.509865422796E+03    0.57312E-03   -0.78148E-03 19504   0.237E-01    0.721E-01
DAV:  12    -0.509864826046E+03    0.59675E-03   -0.61856E-03 20680   0.267E-01    0.413E-01
DAV:  13    -0.509864932713E+03   -0.10667E-03   -0.12319E-03 15680   0.134E-01    0.343E-01
DAV:  14    -0.509864981176E+03   -0.48463E-04   -0.58771E-04 19208   0.735E-02    0.259E-01
DAV:  15    -0.509865028800E+03   -0.47624E-04   -0.38160E-04 18224   0.658E-02    0.217E-01
DAV:  16    -0.509865086622E+03   -0.57823E-04   -0.14616E-04 17016   0.460E-02    0.205E-01
DAV:  17    -0.509865055497E+03    0.31125E-04   -0.20533E-04 16824   0.685E-02    0.114E-01
DAV:  18    -0.509865094676E+03   -0.39179E-04   -0.15464E-04 17464   0.484E-02    0.780E-02
DAV:  19    -0.509865105276E+03   -0.10600E-04   -0.31092E-05  9912   0.267E-02    0.662E-02
DAV:  20    -0.509865107083E+03   -0.18068E-05   -0.11345E-05  6680   0.163E-02
   9 F= -.50986511E+03 E0= -.50986888E+03  d E =-.890228E-01  mag=   101.3234
 trial-energy change:   -0.089023  1 .order   -0.086891   -0.114296   -0.059487
 step:   2.9112(harm=  3.4330)  dis= 0.07677  next Energy=  -509.888927 (dE=-0.113E+00)
 bond charge predicted
       N       E                     dE             d eps       ncg     rms          rms(c)
DAV:   1    -0.509248394766E+03    0.61671E+00   -0.45487E+01 12952   0.182E+01    0.428E+00
DAV:   2    -0.509815305231E+03   -0.56691E+00   -0.52474E+00 12496   0.500E+00    0.358E+00
DAV:   3    -0.510227474416E+03   -0.41217E+00   -0.13404E+00 21904   0.571E+00    0.805E+00
DAV:   4    -0.509866546899E+03    0.36093E+00   -0.14079E+00 22224   0.585E+00    0.340E+00
DAV:   5    -0.509860120322E+03    0.64266E-02   -0.98091E-02 19512   0.146E+00    0.204E+00
DAV:   6    -0.509881750245E+03   -0.21630E-01   -0.27453E-02 17320   0.710E-01    0.127E+00
DAV:   7    -0.509894004481E+03   -0.12254E-01   -0.19347E-02 20144   0.869E-01    0.108E+00
DAV:   8    -0.509891293050E+03    0.27114E-02   -0.65927E-03 20992   0.517E-01    0.693E-01
DAV:   9    -0.509891276958E+03    0.16092E-04   -0.18112E-03 17792   0.149E-01    0.635E-01
DAV:  10    -0.509890590218E+03    0.68674E-03   -0.19018E-03 20712   0.194E-01    0.465E-01
DAV:  11    -0.509890225170E+03    0.36505E-03   -0.22006E-03 18592   0.142E-01    0.307E-01
DAV:  12    -0.509890075412E+03    0.14976E-03   -0.11233E-03 19784   0.118E-01    0.225E-01
DAV:  13    -0.509890068881E+03    0.65310E-05   -0.30413E-04 18240   0.642E-02    0.201E-01
DAV:  14    -0.509890041396E+03    0.27485E-04   -0.19523E-04 17776   0.517E-02    0.141E-01
DAV:  15    -0.509890057487E+03   -0.16091E-04   -0.90500E-05 14360   0.355E-02    0.112E-01
DAV:  16    -0.509890078388E+03   -0.20900E-04   -0.42585E-05 11520   0.265E-02    0.100E-01
DAV:  17    -0.509890091273E+03   -0.12886E-04   -0.12705E-04 16056   0.514E-02    0.601E-02
DAV:  18    -0.509890109807E+03   -0.18534E-04   -0.36622E-05 11184   0.238E-02    0.621E-02
DAV:  19    -0.509890106580E+03    0.32269E-05   -0.16190E-05  7032   0.213E-02
  10 F= -.50989011E+03 E0= -.50989443E+03  d E =-.114022E+00  mag=   101.6444
 curvature:  -2.29 expect dE=-0.730E-01 dE for cont linesearch -0.193E-03
 trial: gam= 0.17019 g(F)=  0.319E-01 g(S)=  0.000E+00 ort = 0.292E-02 (trialstep = 0.190E+01)
 search vector abs. value=  0.358E-01
 bond charge predicted
       N       E                     dE             d eps       ncg     rms          rms(c)
DAV:   1    -0.509257617975E+03    0.63249E+00   -0.43378E+01 14360   0.177E+01    0.435E+00
DAV:   2    -0.509864289212E+03   -0.60667E+00   -0.56298E+00 12112   0.450E+00    0.356E+00
DAV:   3    -0.510438503524E+03   -0.57421E+00   -0.19888E+00 21768   0.696E+00    0.935E+00
DAV:   4    -0.509903903061E+03    0.53460E+00   -0.15944E+00 22304   0.621E+00    0.263E+00
DAV:   5    -0.509907686044E+03   -0.37830E-02   -0.56178E-02 19232   0.106E+00    0.180E+00
DAV:   6    -0.509917128049E+03   -0.94420E-02   -0.17259E-02 18328   0.726E-01    0.146E+00
DAV:   7    -0.509934178636E+03   -0.17051E-01   -0.19260E-02 19424   0.711E-01    0.697E-01
DAV:   8    -0.509933793476E+03    0.38516E-03   -0.50290E-03 18896   0.368E-01    0.490E-01
DAV:   9    -0.509934054124E+03   -0.26065E-03   -0.23581E-03 18536   0.237E-01    0.511E-01
DAV:  10    -0.509933884518E+03    0.16961E-03   -0.71966E-04 18568   0.107E-01    0.477E-01
DAV:  11    -0.509933264386E+03    0.62013E-03   -0.10840E-03 19656   0.128E-01    0.294E-01
DAV:  12    -0.509933128089E+03    0.13630E-03   -0.13355E-03 19480   0.119E-01    0.210E-01
DAV:  13    -0.509933195737E+03   -0.67648E-04   -0.28730E-04 14424   0.511E-02    0.200E-01
DAV:  14    -0.509933193499E+03    0.22383E-05   -0.11393E-04 16168   0.551E-02    0.146E-01
DAV:  15    -0.509933176213E+03    0.17286E-04   -0.10120E-04 12184   0.492E-02    0.101E-01
DAV:  16    -0.509933209423E+03   -0.33210E-04   -0.11135E-04 14296   0.394E-02    0.106E-01
DAV:  17    -0.509933210006E+03   -0.58228E-06   -0.73219E-05 13760   0.437E-02
  11 F= -.50993321E+03 E0= -.50993791E+03  d E =-.431034E-01  mag=   101.9193
 trial-energy change:   -0.043103  1 .order   -0.043151   -0.061440   -0.024862
 step:   3.1901(harm=  3.1901)  dis= 0.08897  next Energy=  -509.941706 (dE=-0.516E-01)
 bond charge predicted
       N       E                     dE             d eps       ncg     rms          rms(c)
DAV:   1    -0.509634289950E+03    0.29892E+00   -0.20381E+01 14304   0.121E+01    0.267E+00
DAV:   2    -0.509903143311E+03   -0.26885E+00   -0.25369E+00 12128   0.285E+00    0.204E+00
DAV:   3    -0.510110798090E+03   -0.20765E+00   -0.70804E-01 21728   0.394E+00    0.546E+00
DAV:   4    -0.509926461826E+03    0.18434E+00   -0.61264E-01 22248   0.370E+00    0.167E+00
DAV:   5    -0.509931077775E+03   -0.46159E-02   -0.25114E-02 19648   0.725E-01    0.113E+00
DAV:   6    -0.509936736499E+03   -0.56587E-02   -0.83060E-03 19776   0.539E-01    0.882E-01
DAV:   7    -0.509942117125E+03   -0.53806E-02   -0.89456E-03 19408   0.528E-01    0.427E-01
DAV:   8    -0.509941742521E+03    0.37460E-03   -0.21304E-03 18064   0.227E-01    0.303E-01
DAV:   9    -0.509941738740E+03    0.37811E-05   -0.46895E-04 16608   0.845E-02    0.292E-01
DAV:  10    -0.509941629829E+03    0.10891E-03   -0.25866E-04 18744   0.578E-02    0.253E-01
DAV:  11    -0.509941521787E+03    0.10804E-03   -0.72944E-04 19464   0.951E-02    0.140E-01
DAV:  12    -0.509941519108E+03    0.26792E-05   -0.30364E-04 18048   0.507E-02    0.134E-01
DAV:  13    -0.509941527309E+03   -0.82011E-05   -0.55165E-05 12664   0.247E-02
  12 F= -.50994153E+03 E0= -.50994657E+03  d E =-.514207E-01  mag=   102.0815
 curvature:  -1.76 expect dE=-0.246E-01 dE for cont linesearch -0.765E-05
 trial: gam= 0.39953 g(F)=  0.140E-01 g(S)=  0.000E+00 ort = 0.394E-03 (trialstep = 0.216E+01)
 search vector abs. value=  0.200E-01
 bond charge predicted
       N       E                     dE             d eps       ncg     rms          rms(c)
DAV:   1    -0.509429474072E+03    0.51205E+00   -0.35974E+01 15056   0.152E+01    0.380E+00
DAV:   2    -0.509887761711E+03   -0.45829E+00   -0.44013E+00 12136   0.324E+00    0.245E+00
DAV:   3    -0.509944672057E+03   -0.56910E-01   -0.32941E-01 22008   0.130E+00    0.216E+00
DAV:   4    -0.510089219182E+03   -0.14455E+00   -0.54494E-01 22248   0.357E+00    0.484E+00
DAV:   5    -0.509942166804E+03    0.14705E+00   -0.40180E-01 22192   0.294E+00    0.150E+00
DAV:   6    -0.509957486891E+03   -0.15320E-01   -0.95415E-03 19216   0.456E-01    0.118E+00
DAV:   7    -0.509964262644E+03   -0.67758E-02   -0.12948E-02 20736   0.673E-01    0.635E-01
DAV:   8    -0.509963430897E+03    0.83175E-03   -0.51371E-03 20000   0.386E-01    0.387E-01
DAV:   9    -0.509963352203E+03    0.78693E-04   -0.90295E-04 15704   0.129E-01    0.341E-01
DAV:  10    -0.509963128747E+03    0.22346E-03   -0.34489E-04 18736   0.731E-02    0.280E-01
DAV:  11    -0.509962766487E+03    0.36226E-03   -0.10397E-03 19088   0.101E-01    0.161E-01
DAV:  12    -0.509962730121E+03    0.36366E-04   -0.33791E-04 18160   0.731E-02    0.138E-01
DAV:  13    -0.509962726274E+03    0.38468E-05   -0.64544E-05 13456   0.330E-02
  13 F= -.50996273E+03 E0= -.50996794E+03  d E =-.211990E-01  mag=   102.1561
 trial-energy change:   -0.021199  1 .order   -0.021749   -0.030467   -0.013031
 step:   5.0533(harm=  3.7699)  dis= 0.12246  next Energy=  -509.970142 (dE=-0.286E-01)
 bond charge predicted
       N       E                     dE             d eps       ncg     rms          rms(c)
DAV:   1    -0.509011146982E+03    0.95158E+00   -0.65770E+01 14856   0.202E+01    0.573E+00
DAV:   2    -0.509823526249E+03   -0.81238E+00   -0.77681E+00 12160   0.443E+00    0.360E+00
DAV:   3    -0.509909748270E+03   -0.86222E-01   -0.56377E-01 21928   0.105E+00    0.234E+00
DAV:   4    -0.509926601117E+03   -0.16853E-01   -0.18271E-02 19392   0.475E-01    0.207E+00
DAV:   5    -0.510058275691E+03   -0.13167E+00   -0.31362E-01 21952   0.270E+00    0.432E+00
DAV:   6    -0.509962366446E+03    0.95909E-01   -0.45478E-01 22072   0.318E+00    0.178E+00
DAV:   7    -0.509965224208E+03   -0.28578E-02   -0.41139E-02 20672   0.938E-01    0.781E-01
DAV:   8    -0.509963819148E+03    0.14051E-02   -0.69679E-03 19264   0.444E-01    0.553E-01
DAV:   9    -0.509963671420E+03    0.14773E-03   -0.18171E-03 16800   0.151E-01    0.485E-01
DAV:  10    -0.509963336184E+03    0.33524E-03   -0.51063E-04 18992   0.750E-02    0.402E-01
DAV:  11    -0.509962782384E+03    0.55380E-03   -0.11831E-03 19920   0.120E-01    0.263E-01
DAV:  12    -0.509962545836E+03    0.23655E-03   -0.80522E-04 18728   0.106E-01    0.186E-01
DAV:  13    -0.509962535610E+03    0.10227E-04   -0.19921E-04 17104   0.589E-02    0.167E-01
DAV:  14    -0.509962544774E+03   -0.91645E-05   -0.17166E-04 17352   0.541E-02    0.121E-01
DAV:  15    -0.509962562634E+03   -0.17860E-04   -0.12163E-04 15752   0.343E-02    0.983E-02
DAV:  16    -0.509962565814E+03   -0.31801E-05   -0.18405E-05  7832   0.203E-02
  14 F= -.50996257E+03 E0= -.50996800E+03  d E =-.210385E-01  mag=   102.2243
 curvature:  -0.98 expect dE=-0.777E-02 dE for cont linesearch -0.163E-02
 ZBRENT: interpolating
 opt :   3.6386  next Energy=  -509.966646 (dE=-0.251E-01)
 bond charge predicted
       N       E                     dE             d eps       ncg     rms          rms(c)
DAV:   1    -0.509733979729E+03    0.22858E+00   -0.15740E+01 14976   0.986E+00    0.232E+00
DAV:   2    -0.509950980401E+03   -0.21700E+00   -0.20071E+00 12536   0.229E+00    0.197E+00
DAV:   3    -0.510115255581E+03   -0.16428E+00   -0.64517E-01 21816   0.395E+00    0.504E+00
DAV:   4    -0.509951270242E+03    0.16399E+00   -0.42957E-01 22280   0.311E+00    0.114E+00
DAV:   5    -0.509959781373E+03   -0.85111E-02   -0.12249E-02 19832   0.537E-01    0.978E-01
DAV:   6    -0.509965740116E+03   -0.59587E-02   -0.85865E-03 19400   0.566E-01    0.817E-01
DAV:   7    -0.509967233313E+03   -0.14932E-02   -0.57810E-03 18456   0.400E-01    0.295E-01
DAV:   8    -0.509967099530E+03    0.13378E-03   -0.14579E-03 18424   0.136E-01    0.210E-01
DAV:   9    -0.509967046452E+03    0.53078E-04   -0.31945E-04 14584   0.627E-02    0.187E-01
DAV:  10    -0.509966935977E+03    0.11047E-03   -0.13604E-04 16336   0.409E-02    0.156E-01
DAV:  11    -0.509966791682E+03    0.14430E-03   -0.38331E-04 19064   0.897E-02    0.114E-01
DAV:  12    -0.509966741269E+03    0.50413E-04   -0.11918E-04 14712   0.355E-02    0.880E-02
DAV:  13    -0.509966725724E+03    0.15545E-04   -0.47578E-05 10296   0.220E-02    0.621E-02
DAV:  14    -0.509966726635E+03   -0.91030E-06   -0.75529E-05 13392   0.245E-02
  15 F= -.50996673E+03 E0= -.50997204E+03  d E =-.251993E-01  mag=   102.1940
 curvature:  -2.45 expect dE=-0.789E-02 dE for cont linesearch -0.909E-05
 trial: gam= 0.22390 g(F)=  0.322E-02 g(S)=  0.000E+00 ort =-0.272E-03 (trialstep = 0.245E+01)
 search vector abs. value=  0.410E-02
 bond charge predicted
       N       E                     dE             d eps       ncg     rms          rms(c)
DAV:   1    -0.509840845558E+03    0.12588E+00   -0.82243E+00 15144   0.842E+00    0.165E+00
DAV:   2    -0.509957843352E+03   -0.11700E+00   -0.11248E+00 12480   0.187E+00    0.108E+00
DAV:   3    -0.510004255234E+03   -0.46412E-01   -0.14018E-01 21944   0.177E+00    0.255E+00
DAV:   4    -0.509964403218E+03    0.39852E-01   -0.12921E-01 22440   0.171E+00    0.919E-01
DAV:   5    -0.509969721542E+03   -0.53183E-02   -0.83465E-03 19336   0.427E-01    0.604E-01
DAV:   6    -0.509971796913E+03   -0.20754E-02   -0.40322E-03 20328   0.391E-01    0.424E-01
DAV:   7    -0.509971750602E+03    0.46311E-04   -0.23338E-03 19072   0.292E-01    0.186E-01
DAV:   8    -0.509971782875E+03   -0.32273E-04   -0.43194E-04 13624   0.682E-02    0.171E-01
DAV:   9    -0.509971775722E+03    0.71527E-05   -0.93705E-05 15080   0.371E-02
  16 F= -.50997178E+03 E0= -.50997707E+03  d E =-.504909E-02  mag=   102.2476
 trial-energy change:   -0.005049  1 .order   -0.005695   -0.007750   -0.003639
 step:   4.6256(harm=  4.6256)  dis= 0.03163  next Energy=  -509.974032 (dE=-0.731E-02)
 bond charge predicted
       N       E                     dE             d eps       ncg     rms          rms(c)
DAV:   1    -0.509868931236E+03    0.10285E+00   -0.64774E+00 15192   0.748E+00    0.146E+00
DAV:   2    -0.509960374002E+03   -0.91443E-01   -0.88364E-01 12416   0.164E+00    0.930E-01
DAV:   3    -0.509971779819E+03   -0.11406E-01   -0.38064E-02 21840   0.768E-01    0.122E+00
DAV:   4    -0.509968626440E+03    0.31534E-02   -0.43514E-02 21880   0.101E+00    0.991E-01
DAV:   5    -0.509970218763E+03   -0.15923E-02   -0.11142E-02 20744   0.509E-01    0.555E-01
DAV:   6    -0.509971360809E+03   -0.11420E-02   -0.33533E-03 20488   0.352E-01    0.338E-01
DAV:   7    -0.509971454350E+03   -0.93541E-04   -0.14158E-03 18168   0.205E-01    0.198E-01
DAV:   8    -0.509971463999E+03   -0.96493E-05   -0.29108E-04 13440   0.567E-02    0.182E-01
DAV:   9    -0.509971481242E+03   -0.17243E-04   -0.14290E-04 16576   0.448E-02    0.140E-01
DAV:  10    -0.509971468446E+03    0.12796E-04   -0.35894E-04 17792   0.655E-02    0.868E-02
DAV:  11    -0.509971479080E+03   -0.10634E-04   -0.94333E-05 13768   0.344E-02    0.753E-02
DAV:  12    -0.509971516312E+03   -0.37232E-04   -0.19312E-05  8288   0.190E-02    0.589E-02
DAV:  13    -0.509971565022E+03   -0.48711E-04   -0.34903E-05  9656   0.204E-02    0.406E-02
DAV:  14    -0.509971571775E+03   -0.67529E-05   -0.12728E-05  6400   0.146E-02
  17 F= -.50997157E+03 E0= -.50997694E+03  d E =-.484514E-02  mag=   102.2906
 curvature:  -3.00 expect dE=-0.460E-02 dE for cont linesearch -0.839E-03
 ZBRENT: interpolating
 opt :   3.7151  next Energy=  -509.972059 (dE=-0.533E-02)
 bond charge predicted
       N       E                     dE             d eps       ncg     rms          rms(c)
DAV:   1    -0.509954119995E+03    0.17445E-01   -0.11363E+00 15200   0.313E+00    0.602E-01
DAV:   2    -0.509970271090E+03   -0.16151E-01   -0.15565E-01 12352   0.685E-01    0.387E-01
DAV:   3    -0.509973506408E+03   -0.32353E-02   -0.10262E-02 21672   0.448E-01    0.668E-01
DAV:   4    -0.509971337559E+03    0.21688E-02   -0.97636E-03 21840   0.471E-01    0.355E-01
DAV:   5    -0.509972114045E+03   -0.77649E-03   -0.14257E-03 18728   0.177E-01    0.157E-01
DAV:   6    -0.509972204721E+03   -0.90676E-04   -0.40581E-04 17088   0.798E-02    0.821E-02
DAV:   7    -0.509972192589E+03    0.12132E-04   -0.68736E-05 11792   0.380E-02    0.701E-02
DAV:   8    -0.509972179739E+03    0.12849E-04   -0.31025E-05  9976   0.169E-02    0.626E-02
DAV:   9    -0.509972154738E+03    0.25001E-04   -0.39627E-05  8296   0.267E-02    0.355E-02
DAV:  10    -0.509972158064E+03   -0.33257E-05   -0.34340E-05  9520   0.159E-02
  18 F= -.50997216E+03 E0= -.50997749E+03  d E =-.543143E-02  mag=   102.2710
 curvature:  -1.74 expect dE=-0.146E-02 dE for cont linesearch -0.510E-04
 ZBRENT: interpolating
 opt :   3.3623  next Energy=  -509.972231 (dE=-0.550E-02)
 bond charge predicted
       N       E                     dE             d eps       ncg     rms          rms(c)
DAV:   1    -0.509969464286E+03    0.26905E-02   -0.17029E-01 15096   0.121E+00    0.238E-01
DAV:   2    -0.509971902091E+03   -0.24378E-02   -0.23554E-02 12240   0.275E-01    0.164E-01
DAV:   3    -0.509973326374E+03   -0.14243E-02   -0.44646E-03 21632   0.320E-01    0.455E-01
DAV:   4    -0.509971980841E+03    0.13455E-02   -0.37264E-03 16816   0.290E-01    0.131E-01
DAV:   5    -0.509972151640E+03   -0.17080E-03   -0.19281E-04 18024   0.567E-02    0.802E-02
DAV:   6    -0.509972176245E+03   -0.24605E-04   -0.72347E-05 13656   0.581E-02    0.562E-02
DAV:   7    -0.509972174055E+03    0.21899E-05   -0.21912E-05  8912   0.309E-02
  19 F= -.50997217E+03 E0= -.50997751E+03  d E =-.544742E-02  mag=   102.2648
 curvature:  -2.48 expect dE=-0.169E-02 dE for cont linesearch -0.839E-08
 trial: gam= 0.19626 g(F)=  0.678E-03 g(S)=  0.000E+00 ort =-0.372E-05 (trialstep = 0.264E+01)
 search vector abs. value=  0.835E-03
 bond charge predicted
       N       E                     dE             d eps       ncg     rms          rms(c)
DAV:   1    -0.509952727305E+03    0.19449E-01   -0.14771E+00 12960   0.326E+00    0.768E-01
DAV:   2    -0.509969639956E+03   -0.16913E-01   -0.15228E-01 12432   0.790E-01    0.567E-01
DAV:   3    -0.509983794645E+03   -0.14155E-01   -0.39667E-02 21952   0.978E-01    0.143E+00
DAV:   4    -0.509971233310E+03    0.12561E-01   -0.38610E-02 22368   0.940E-01    0.455E-01
DAV:   5    -0.509973247708E+03   -0.20144E-02   -0.27942E-03 19560   0.242E-01    0.275E-01
DAV:   6    -0.509973433643E+03   -0.18593E-03   -0.97276E-04 19592   0.186E-01    0.177E-01
DAV:   7    -0.509973339061E+03    0.94582E-04   -0.40380E-04 17608   0.122E-01    0.890E-02
DAV:   8    -0.509973339500E+03   -0.43972E-06   -0.70797E-05 12904   0.293E-02
  20 F= -.50997334E+03 E0= -.50997876E+03  d E =-.116545E-02  mag=   102.2763
 trial-energy change:   -0.001165  1 .order   -0.001256   -0.001786   -0.000727
 step:   4.4436(harm=  4.4436)  dis= 0.00761  next Energy=  -509.973680 (dE=-0.151E-02)
 bond charge predicted
       N       E                     dE             d eps       ncg     rms          rms(c)
DAV:   1    -0.509963611873E+03    0.97272E-02   -0.69572E-01 12952   0.224E+00    0.526E-01
DAV:   2    -0.509971529228E+03   -0.79174E-02   -0.72000E-02 12352   0.539E-01    0.393E-01
DAV:   3    -0.509976140695E+03   -0.46115E-02   -0.12803E-02 21736   0.546E-01    0.823E-01
DAV:   4    -0.509972327045E+03    0.38136E-02   -0.12876E-02 22008   0.541E-01    0.330E-01
DAV:   5    -0.509973281810E+03   -0.95476E-03   -0.12477E-03 20088   0.178E-01    0.207E-01
DAV:   6    -0.509973323584E+03   -0.41774E-04   -0.55702E-04 19456   0.142E-01    0.130E-01
DAV:   7    -0.509973303275E+03    0.20309E-04   -0.16709E-04 17064   0.677E-02    0.942E-02
DAV:   8    -0.509973298113E+03    0.51622E-05   -0.30238E-05  9384   0.279E-02
  21 F= -.50997330E+03 E0= -.50997882E+03  d E =-.112406E-02  mag=   102.2869
 curvature:  -2.74 expect dE=-0.140E-02 dE for cont linesearch -0.936E-05
 trial: gam= 0.88796 g(F)=  0.512E-03 g(S)=  0.000E+00 ort =-0.534E-04 (trialstep = 0.233E+01)
 search vector abs. value=  0.108E-02
 bond charge predicted
       N       E                     dE             d eps       ncg     rms          rms(c)
DAV:   1    -0.509955484743E+03    0.17819E-01   -0.14042E+00 12720   0.305E+00    0.776E-01
DAV:   2    -0.509970618667E+03   -0.15134E-01   -0.12765E-01 12296   0.803E-01    0.689E-01
DAV:   3    -0.509984160455E+03   -0.13542E-01   -0.51518E-02 21168   0.115E+00    0.148E+00
DAV:   4    -0.509971517879E+03    0.12643E-01   -0.38985E-02 22376   0.941E-01    0.464E-01
DAV:   5    -0.509973597932E+03   -0.20801E-02   -0.26265E-03 19560   0.241E-01    0.305E-01
DAV:   6    -0.509974029329E+03   -0.43140E-03   -0.10913E-03 19800   0.202E-01    0.244E-01
DAV:   7    -0.509973816239E+03    0.21309E-03   -0.61000E-04 18464   0.148E-01    0.119E-01
DAV:   8    -0.509973810398E+03    0.58414E-05   -0.11901E-04 15920   0.394E-02    0.103E-01
DAV:   9    -0.509973802081E+03    0.83168E-05   -0.70234E-05 13424   0.292E-02
  22 F= -.50997380E+03 E0= -.50997933E+03  d E =-.503968E-03  mag=   102.3034
 trial-energy change:   -0.000504  1 .order   -0.000778   -0.001081   -0.000475
 step:   4.1512(harm=  4.1512)  dis= 0.00907  next Energy=  -509.974262 (dE=-0.964E-03)
 bond charge predicted
       N       E                     dE             d eps       ncg     rms          rms(c)
DAV:   1    -0.509962448602E+03    0.11362E-01   -0.86347E-01 12696   0.240E+00    0.611E-01
DAV:   2    -0.509971262303E+03   -0.88137E-02   -0.77749E-02 12288   0.579E-01    0.446E-01
DAV:   3    -0.509975964484E+03   -0.47022E-02   -0.11423E-02 21576   0.527E-01    0.811E-01
DAV:   4    -0.509972658268E+03    0.33062E-02   -0.14214E-02 22040   0.575E-01    0.397E-01
DAV:   5    -0.509973633517E+03   -0.97525E-03   -0.20306E-03 20776   0.215E-01    0.265E-01
DAV:   6    -0.509973744881E+03   -0.11136E-03   -0.77574E-04 19968   0.170E-01    0.137E-01
DAV:   7    -0.509973714879E+03    0.30001E-04   -0.23272E-04 16744   0.769E-02    0.914E-02
DAV:   8    -0.509973712086E+03    0.27932E-05   -0.33367E-05  8808   0.256E-02
  23 F= -.50997371E+03 E0= -.50997928E+03  d E =-.413973E-03  mag=   102.3119
 curvature:  -4.81 expect dE=-0.197E-02 dE for cont linesearch -0.187E-04
 trial: gam= 0.45797 g(F)=  0.411E-03 g(S)=  0.000E+00 ort =-0.647E-04 (trialstep = 0.269E+01)
 search vector abs. value=  0.577E-03
 bond charge predicted
       N       E                     dE             d eps       ncg     rms          rms(c)
DAV:   1    -0.509964215570E+03    0.94993E-02   -0.92558E-01 12392   0.217E+00    0.640E-01
DAV:   2    -0.509972141658E+03   -0.79261E-02   -0.59975E-02 12768   0.605E-01    0.622E-01
DAV:   3    -0.509977769174E+03   -0.56275E-02   -0.27380E-02 19472   0.859E-01    0.103E+00
DAV:   4    -0.509972879901E+03    0.48893E-02   -0.18614E-02 21640   0.662E-01    0.387E-01
DAV:   5    -0.509974231782E+03   -0.13519E-02   -0.21215E-03 19960   0.218E-01    0.244E-01
DAV:   6    -0.509974414837E+03   -0.18306E-03   -0.66903E-04 18904   0.144E-01    0.183E-01
DAV:   7    -0.509974314631E+03    0.10021E-03   -0.28022E-04 17496   0.106E-01    0.111E-01
DAV:   8    -0.509974306642E+03    0.79892E-05   -0.66214E-05 11872   0.309E-02
  24 F= -.50997431E+03 E0= -.50997989E+03  d E =-.594556E-03  mag=   102.2999
 trial-energy change:   -0.000595  1 .order   -0.000714   -0.001027   -0.000402
 step:   4.4261(harm=  4.4261)  dis= 0.00523  next Energy=  -509.974556 (dE=-0.844E-03)
 bond charge predicted
       N       E                     dE             d eps       ncg     rms          rms(c)
DAV:   1    -0.509970085120E+03    0.42295E-02   -0.38381E-01 12304   0.140E+00    0.417E-01
DAV:   2    -0.509973267189E+03   -0.31821E-02   -0.24864E-02 12296   0.385E-01    0.386E-01
DAV:   3    -0.509976266248E+03   -0.29991E-02   -0.12006E-02 20208   0.564E-01    0.723E-01
DAV:   4    -0.509973604390E+03    0.26619E-02   -0.89557E-03 21376   0.452E-01    0.261E-01
DAV:   5    -0.509974231050E+03   -0.62666E-03   -0.84882E-04 19096   0.130E-01    0.165E-01
DAV:   6    -0.509974283602E+03   -0.52552E-04   -0.26333E-04 18528   0.883E-02    0.132E-01
DAV:   7    -0.509974247259E+03    0.36344E-04   -0.10816E-04 14184   0.605E-02    0.968E-02
DAV:   8    -0.509974239666E+03    0.75931E-05   -0.36663E-05  8096   0.358E-02
  25 F= -.50997424E+03 E0= -.50997978E+03  d E =-.527580E-03  mag=   102.2904
 curvature:  -3.35 expect dE=-0.123E-02 dE for cont linesearch -0.552E-05
 trial: gam= 0.77098 g(F)=  0.368E-03 g(S)=  0.000E+00 ort =-0.308E-04 (trialstep = 0.264E+01)
 search vector abs. value=  0.664E-03
 bond charge predicted
       N       E                     dE             d eps       ncg     rms          rms(c)
DAV:   1    -0.509961990405E+03    0.12257E-01   -0.10518E+00 12392   0.253E+00    0.671E-01
DAV:   2    -0.509971608530E+03   -0.96181E-02   -0.81308E-02 12352   0.637E-01    0.528E-01
DAV:   3    -0.509983458122E+03   -0.11850E-01   -0.32722E-02 21696   0.903E-01    0.132E+00
DAV:   4    -0.509973009946E+03    0.10448E-01   -0.32196E-02 22216   0.862E-01    0.410E-01
DAV:   5    -0.509974777207E+03   -0.17673E-02   -0.26266E-03 20744   0.266E-01    0.270E-01
DAV:   6    -0.509974669617E+03    0.10759E-03   -0.83302E-04 19376   0.176E-01    0.157E-01
DAV:   7    -0.509974623675E+03    0.45942E-04   -0.29493E-04 17976   0.811E-02    0.999E-02
DAV:   8    -0.509974625822E+03   -0.21473E-05   -0.60462E-05 12656   0.256E-02
  26 F= -.50997463E+03 E0= -.50998021E+03  d E =-.386157E-03  mag=   102.2729
 trial-energy change:   -0.000386  1 .order   -0.000600   -0.000910   -0.000290
 step:   3.8805(harm=  3.8805)  dis= 0.00640  next Energy=  -509.974908 (dE=-0.668E-03)
 bond charge predicted
       N       E                     dE             d eps       ncg     rms          rms(c)
DAV:   1    -0.509971780488E+03    0.28432E-02   -0.23064E-01 12392   0.119E+00    0.321E-01
DAV:   2    -0.509974019350E+03   -0.22389E-02   -0.18154E-02 12368   0.328E-01    0.304E-01
DAV:   3    -0.509975677027E+03   -0.16577E-02   -0.72051E-03 20832   0.435E-01    0.544E-01
DAV:   4    -0.509974163533E+03    0.15135E-02   -0.51413E-03 19880   0.344E-01    0.206E-01
DAV:   5    -0.509974551858E+03   -0.38832E-03   -0.59956E-04 18696   0.108E-01    0.126E-01
DAV:   6    -0.509974548099E+03    0.37592E-05   -0.15635E-04 16280   0.541E-02    0.886E-02
DAV:   7    -0.509974531919E+03    0.16180E-04   -0.43597E-05  7856   0.362E-02    0.726E-02
DAV:   8    -0.509974531930E+03   -0.11096E-07   -0.54054E-05 13456   0.205E-02
  27 F= -.50997453E+03 E0= -.50998008E+03  d E =-.292264E-03  mag=   102.2630
 curvature:  -3.74 expect dE=-0.100E-02 dE for cont linesearch -0.129E-04
 trial: gam= 0.51804 g(F)=  0.267E-03 g(S)=  0.000E+00 ort =-0.478E-04 (trialstep = 0.289E+01)
 search vector abs. value=  0.396E-03
 bond charge predicted
       N       E                     dE             d eps       ncg     rms          rms(c)
DAV:   1    -0.509965752992E+03    0.87789E-02   -0.77441E-01 12432   0.215E+00    0.563E-01
DAV:   2    -0.509972621467E+03   -0.68685E-02   -0.58930E-02 12416   0.543E-01    0.433E-01
DAV:   3    -0.509980482989E+03   -0.78615E-02   -0.21098E-02 21928   0.718E-01    0.107E+00
DAV:   4    -0.509973605410E+03    0.68776E-02   -0.21780E-02 22384   0.706E-01    0.340E-01
DAV:   5    -0.509974857042E+03   -0.12516E-02   -0.19663E-03 19560   0.205E-01    0.212E-01
DAV:   6    -0.509974841942E+03    0.15101E-04   -0.49762E-04 19384   0.128E-01    0.136E-01
DAV:   7    -0.509974775898E+03    0.66044E-04   -0.26015E-04 15952   0.962E-02    0.737E-02
DAV:   8    -0.509974781669E+03   -0.57709E-05   -0.46553E-05 11888   0.224E-02
  28 F= -.50997478E+03 E0= -.50998034E+03  d E =-.249739E-03  mag=   102.2678
 trial-energy change:   -0.000250  1 .order   -0.000377   -0.000701   -0.000052
 step:   3.1218(harm=  3.1218)  dis= 0.00525  next Energy=  -509.974911 (dE=-0.379E-03)
 reached required accuracy - stopping structural energy minimisation
 PROFILE, used timers:     231
