ni3al                                   
           1
     8.539300    0.000000    0.000000
     0.013525    8.505890    0.000000
     0.000000    0.000000   23.533899
   Cr   Fe
    14    49
Direct configuration=     1
   0.00218000  0.99867000  0.24166000
   0.00302000  0.33361000  0.00057000
   0.99795393  0.34583655  0.36274216
   0.16217000  0.49431000  0.05981000
   0.16492000  0.83554000  0.06027000
   0.49895785  0.49913218  0.30601285
   0.50447000  0.49654000  0.06032000
   0.50514000  0.16237000  0.18167000
   0.66136000  0.00065000  0.24022000
   0.66603000  0.99799000  0.00047000
   0.65376865  0.00142458  0.35229011
   0.65989000  0.33950000  0.00031000
   0.66457265  0.33557178  0.36506952
   0.66352000  0.99935000  0.12162000
   0.16880349  0.16249743  0.30280976
   0.99997000  0.33205000  0.24166000
   0.16998180  0.49715618  0.30200193
   0.00013000  0.66493000  0.24143000
   0.16606427  0.83305937  0.30403866
   0.99854000  0.00048000  0.00000000
   0.00396963  0.99673572  0.35853542
   0.16550000  0.16500000  0.06050000
   0.00106000  0.66662000  0.00057000
   0.00236603  0.65196902  0.35976072
   0.99930000  0.99936000  0.12074000
   0.16685000  0.16538000  0.18105000
   0.99936000  0.33161000  0.12083000
   0.16544000  0.49812000  0.18093000
   0.00040000  0.66536000  0.12057000
   0.16627000  0.83203000  0.18103000
   0.33360000  0.99731000  0.24116000
   0.49656937  0.16815948  0.30081729
   0.33251000  0.33244000  0.24115000
   0.33243000  0.66411000  0.24135000
   0.50318225  0.82967605  0.30266797
   0.33406000  0.99850000  0.00062000
   0.33969339  0.99530546  0.35504613
   0.50112000  0.16466000  0.06049000
   0.33306000  0.33260000  0.00065000
   0.33073556  0.33032427  0.36047724
   0.33279000  0.66191000  0.00103000
   0.33268384  0.66350021  0.35321837
   0.50000000  0.83116000  0.06060000
   0.33336000  0.99854000  0.12089000
   0.33259000  0.33282000  0.12015000
   0.49958000  0.49779000  0.18076000
   0.33192000  0.66330000  0.12025000
   0.49972000  0.83017000  0.18081000
   0.83223311  0.16023517  0.30093771
   0.66532000  0.33232000  0.24137000
   0.82704780  0.50420026  0.30072373
   0.66623000  0.66534000  0.24124000
   0.83168232  0.83407772  0.30406019
   0.83178000  0.16609000  0.06006000
   0.83424000  0.49924000  0.06020000
   0.66675000  0.66697000  0.00034000
   0.66783014  0.66719827  0.36048028
   0.83291000  0.83387000  0.06067000
   0.83469000  0.16589000  0.18162000
   0.66681000  0.33159000  0.12072000
   0.83279000  0.49851000  0.18135000
   0.66709000  0.66502000  0.12081000
   0.83337000  0.83396000  0.18143000
Direct configuration=     2
   0.00218000  0.99867000  0.24166000
   0.00302000  0.33361000  0.00057000
   0.99713458  0.34516206  0.36037898
   0.16217000  0.49431000  0.05981000
   0.16492000  0.83554000  0.06027000
   0.50159363  0.49690002  0.30457967
   0.50447000  0.49654000  0.06032000
   0.50514000  0.16237000  0.18167000
   0.66136000  0.00065000  0.24022000
   0.66603000  0.99799000  0.00047000
   0.65571543  0.00231182  0.35499115
   0.65989000  0.33950000  0.00031000
   0.66513465  0.33492519  0.36582276
   0.66352000  0.99935000  0.12162000
   0.16670092  0.16528438  0.30298158
   0.99997000  0.33205000  0.24166000
   0.16600844  0.49478788  0.30217172
   0.00013000  0.66493000  0.24143000
   0.16496514  0.83193383  0.30237077
   0.99854000  0.00048000  0.00000000
   0.00168094  0.99868745  0.35927327
   0.16550000  0.16500000  0.06050000
   0.00106000  0.66662000  0.00057000
   0.00082195  0.65195090  0.36028011
   0.99930000  0.99936000  0.12074000
   0.16685000  0.16538000  0.18105000
   0.99936000  0.33161000  0.12083000
   0.16544000  0.49812000  0.18093000
   0.00040000  0.66536000  0.12057000
   0.16627000  0.83203000  0.18103000
   0.33360000  0.99731000  0.24116000
   0.49531491  0.16933743  0.30065593
   0.33251000  0.33244000  0.24115000
   0.33243000  0.66411000  0.24135000
   0.50151046  0.82816652  0.30140376
   0.33406000  0.99850000  0.00062000
   0.34022891  0.99682061  0.35685481
   0.50112000  0.16466000  0.06049000
   0.33306000  0.33260000  0.00065000
   0.33016470  0.32860473  0.36058017
   0.33279000  0.66191000  0.00103000
   0.33229736  0.66498383  0.35604266
   0.50000000  0.83116000  0.06060000
   0.33336000  0.99854000  0.12089000
   0.33259000  0.33282000  0.12015000
   0.49958000  0.49779000  0.18076000
   0.33192000  0.66330000  0.12025000
   0.49972000  0.83017000  0.18081000
   0.83520449  0.16320630  0.30098549
   0.66532000  0.33232000  0.24137000
   0.83120798  0.50159387  0.30121127
   0.66623000  0.66534000  0.24124000
   0.83380856  0.83202049  0.30335153
   0.83178000  0.16609000  0.06006000
   0.83424000  0.49924000  0.06020000
   0.66675000  0.66697000  0.00034000
   0.66886140  0.66850779  0.36096956
   0.83291000  0.83387000  0.06067000
   0.83469000  0.16589000  0.18162000
   0.66681000  0.33159000  0.12072000
   0.83279000  0.49851000  0.18135000
   0.66709000  0.66502000  0.12081000
   0.83337000  0.83396000  0.18143000
Direct configuration=     3
   0.00218000  0.99867000  0.24166000
   0.00302000  0.33361000  0.00057000
   0.99639944  0.34455687  0.35825867
   0.16217000  0.49431000  0.05981000
   0.16492000  0.83554000  0.06027000
   0.50395855  0.49489724  0.30329378
   0.50447000  0.49654000  0.06032000
   0.50514000  0.16237000  0.18167000
   0.66136000  0.00065000  0.24022000
   0.66603000  0.99799000  0.00047000
   0.65746214  0.00310788  0.35741461
   0.65989000  0.33950000  0.00031000
   0.66563889  0.33434505  0.36649859
   0.66352000  0.99935000  0.12162000
   0.16481442  0.16778492  0.30313574
   0.99997000  0.33205000  0.24166000
   0.16244341  0.49266297  0.30232405
   0.00013000  0.66493000  0.24143000
   0.16397897  0.83092396  0.30087428
   0.99854000  0.00048000  0.00000000
  -0.00037256  0.00043861  0.35993529
   0.16550000  0.16500000  0.06050000
   0.00106000  0.66662000  0.00057000
  -0.00056346  0.65193463  0.36074612
   0.99930000  0.99936000  0.12074000
   0.16685000  0.16538000  0.18105000
   0.99936000  0.33161000  0.12083000
   0.16544000  0.49812000  0.18093000
   0.00040000  0.66536000  0.12057000
   0.16627000  0.83203000  0.18103000
   0.33360000  0.99731000  0.24116000
   0.49418938  0.17039433  0.30051115
   0.33251000  0.33244000  0.24115000
   0.33243000  0.66411000  0.24135000
   0.50001046  0.82681212  0.30026948
   0.33406000  0.99850000  0.00062000
   0.34070940  0.99818004  0.35847761
   0.50112000  0.16466000  0.06049000
   0.33306000  0.33260000  0.00065000
   0.32965251  0.32706190  0.36067251
   0.33279000  0.66191000  0.00103000
   0.33195059  0.66631497  0.35857670
   0.50000000  0.83116000  0.06060000
   0.33336000  0.99854000  0.12089000
   0.33259000  0.33282000  0.12015000
   0.49958000  0.49779000  0.18076000
   0.33192000  0.66330000  0.12025000
   0.49972000  0.83017000  0.18081000
   0.83787052  0.16587209  0.30102835
   0.66532000  0.33232000  0.24137000
   0.83494064  0.49925534  0.30164871
   0.66623000  0.66534000  0.24124000
   0.83571629  0.83017467  0.30271570
   0.83178000  0.16609000  0.06006000
   0.83424000  0.49924000  0.06020000
   0.66675000  0.66697000  0.00034000
   0.66978669  0.66968273  0.36140857
   0.83291000  0.83387000  0.06067000
   0.83469000  0.16589000  0.18162000
   0.66681000  0.33159000  0.12072000
   0.83279000  0.49851000  0.18135000
   0.66709000  0.66502000  0.12081000
   0.83337000  0.83396000  0.18143000
Direct configuration=     4
   0.00218000  0.99867000  0.24166000
   0.00302000  0.33361000  0.00057000
   0.99646437  0.34461033  0.35844595
   0.16217000  0.49431000  0.05981000
   0.16492000  0.83554000  0.06027000
   0.50374966  0.49507415  0.30340737
   0.50447000  0.49654000  0.06032000
   0.50514000  0.16237000  0.18167000
   0.66136000  0.00065000  0.24022000
   0.66603000  0.99799000  0.00047000
   0.65730785  0.00303756  0.35720055
   0.65989000  0.33950000  0.00031000
   0.66559435  0.33439629  0.36643890
   0.66352000  0.99935000  0.12162000
   0.16498105  0.16756405  0.30312212
   0.99997000  0.33205000  0.24166000
   0.16275831  0.49285066  0.30231060
   0.00013000  0.66493000  0.24143000
   0.16406607  0.83101316  0.30100646
   0.99854000  0.00048000  0.00000000
  -0.00019117  0.00028393  0.35987682
   0.16550000  0.16500000  0.06050000
   0.00106000  0.66662000  0.00057000
  -0.00044109  0.65193607  0.36070496
   0.99930000  0.99936000  0.12074000
   0.16685000  0.16538000  0.18105000
   0.99936000  0.33161000  0.12083000
   0.16544000  0.49812000  0.18093000
   0.00040000  0.66536000  0.12057000
   0.16627000  0.83203000  0.18103000
   0.33360000  0.99731000  0.24116000
   0.49428880  0.17030098  0.30052394
   0.33251000  0.33244000  0.24115000
   0.33243000  0.66411000  0.24135000
   0.50014296  0.82693175  0.30036967
   0.33406000  0.99850000  0.00062000
   0.34066696  0.99805996  0.35833427
   0.50112000  0.16466000  0.06049000
   0.33306000  0.33260000  0.00065000
   0.32969775  0.32719818  0.36066436
   0.33279000  0.66191000  0.00103000
   0.33198122  0.66619739  0.35835287
   0.50000000  0.83116000  0.06060000
   0.33336000  0.99854000  0.12089000
   0.33259000  0.33282000  0.12015000
   0.49958000  0.49779000  0.18076000
   0.33192000  0.66330000  0.12025000
   0.49972000  0.83017000  0.18081000
   0.83763503  0.16563662  0.30102457
   0.66532000  0.33232000  0.24137000
   0.83461093  0.49946190  0.30161007
   0.66623000  0.66534000  0.24124000
   0.83554778  0.83033771  0.30277187
   0.83178000  0.16609000  0.06006000
   0.83424000  0.49924000  0.06020000
   0.66675000  0.66697000  0.00034000
   0.66970496  0.66957894  0.36136979
   0.83291000  0.83387000  0.06067000
   0.83469000  0.16589000  0.18162000
   0.66681000  0.33159000  0.12072000
   0.83279000  0.49851000  0.18135000
   0.66709000  0.66502000  0.12081000
   0.83337000  0.83396000  0.18143000
Direct configuration=     5
   0.00218000  0.99867000  0.24166000
   0.00302000  0.33361000  0.00057000
   0.99546797  0.34074185  0.35806238
   0.16217000  0.49431000  0.05981000
   0.16492000  0.83554000  0.06027000
   0.50422208  0.49511466  0.30301999
   0.50447000  0.49654000  0.06032000
   0.50514000  0.16237000  0.18167000
   0.66136000  0.00065000  0.24022000
   0.66603000  0.99799000  0.00047000
   0.65888808  0.00289349  0.35890932
   0.65989000  0.33950000  0.00031000
   0.66536658  0.33397277  0.36706255
   0.66352000  0.99935000  0.12162000
   0.16509878  0.16647565  0.30318380
   0.99997000  0.33205000  0.24166000
   0.16495829  0.49516193  0.30243745
   0.00013000  0.66493000  0.24143000
   0.16499865  0.83109133  0.30141749
   0.99854000  0.00048000  0.00000000
  -0.00198515  0.00090445  0.35999365
   0.16550000  0.16500000  0.06050000
   0.00106000  0.66662000  0.00057000
  -0.00150893  0.65431381  0.36111314
   0.99930000  0.99936000  0.12074000
   0.16685000  0.16538000  0.18105000
   0.99936000  0.33161000  0.12083000
   0.16544000  0.49812000  0.18093000
   0.00040000  0.66536000  0.12057000
   0.16627000  0.83203000  0.18103000
   0.33360000  0.99731000  0.24116000
   0.49422551  0.16846004  0.30080335
   0.33251000  0.33244000  0.24115000
   0.33243000  0.66411000  0.24135000
   0.49915688  0.82768232  0.30095899
   0.33406000  0.99850000  0.00062000
   0.34144117  0.99826428  0.35898289
   0.50112000  0.16466000  0.06049000
   0.33306000  0.33260000  0.00065000
   0.32934891  0.32611883  0.36064113
   0.33279000  0.66191000  0.00103000
   0.33121275  0.66745596  0.35943771
   0.50000000  0.83116000  0.06060000
   0.33336000  0.99854000  0.12089000
   0.33259000  0.33282000  0.12015000
   0.49958000  0.49779000  0.18076000
   0.33192000  0.66330000  0.12025000
   0.49972000  0.83017000  0.18081000
   0.83801745  0.16547077  0.30101726
   0.66532000  0.33232000  0.24137000
   0.83421222  0.49945596  0.30140884
   0.66623000  0.66534000  0.24124000
   0.83549007  0.83025181  0.30262149
   0.83178000  0.16609000  0.06006000
   0.83424000  0.49924000  0.06020000
   0.66675000  0.66697000  0.00034000
   0.67024789  0.67145654  0.36124964
   0.83291000  0.83387000  0.06067000
   0.83469000  0.16589000  0.18162000
   0.66681000  0.33159000  0.12072000
   0.83279000  0.49851000  0.18135000
   0.66709000  0.66502000  0.12081000
   0.83337000  0.83396000  0.18143000
Direct configuration=     6
   0.00218000  0.99867000  0.24166000
   0.00302000  0.33361000  0.00057000
   0.99435383  0.33641622  0.35763349
   0.16217000  0.49431000  0.05981000
   0.16492000  0.83554000  0.06027000
   0.50475033  0.49515996  0.30258684
   0.50447000  0.49654000  0.06032000
   0.50514000  0.16237000  0.18167000
   0.66136000  0.00065000  0.24022000
   0.66603000  0.99799000  0.00047000
   0.66065504  0.00273240  0.36082002
   0.65989000  0.33950000  0.00031000
   0.66511188  0.33349919  0.36775990
   0.66352000  0.99935000  0.12162000
   0.16523042  0.16525864  0.30325278
   0.99997000  0.33205000  0.24166000
   0.16741826  0.49774632  0.30257929
   0.00013000  0.66493000  0.24143000
   0.16604142  0.83117873  0.30187709
   0.99854000  0.00048000  0.00000000
  -0.00399112  0.00159830  0.36012428
   0.16550000  0.16500000  0.06050000
   0.00106000  0.66662000  0.00057000
  -0.00270296  0.65697254  0.36156957
   0.99930000  0.99936000  0.12074000
   0.16685000  0.16538000  0.18105000
   0.99936000  0.33161000  0.12083000
   0.16544000  0.49812000  0.18093000
   0.00040000  0.66536000  0.12057000
   0.16627000  0.83203000  0.18103000
   0.33360000  0.99731000  0.24116000
   0.49415473  0.16640157  0.30111579
   0.33251000  0.33244000  0.24115000
   0.33243000  0.66411000  0.24135000
   0.49805427  0.82852158  0.30161795
   0.33406000  0.99850000  0.00062000
   0.34230687  0.99849275  0.35970816
   0.50112000  0.16466000  0.06049000
   0.33306000  0.33260000  0.00065000
   0.32895884  0.32491193  0.36061516
   0.33279000  0.66191000  0.00103000
   0.33035347  0.66886325  0.36065076
   0.50000000  0.83116000  0.06060000
   0.33336000  0.99854000  0.12089000
   0.33259000  0.33282000  0.12015000
   0.49958000  0.49779000  0.18076000
   0.33192000  0.66330000  0.12025000
   0.49972000  0.83017000  0.18081000
   0.83844506  0.16528532  0.30100909
   0.66532000  0.33232000  0.24137000
   0.83376640  0.49944931  0.30118383
   0.66623000  0.66534000  0.24124000
   0.83542554  0.83015576  0.30245335
   0.83178000  0.16609000  0.06006000
   0.83424000  0.49924000  0.06020000
   0.66675000  0.66697000  0.00034000
   0.67085498  0.67355602  0.36111529
   0.83291000  0.83387000  0.06067000
   0.83469000  0.16589000  0.18162000
   0.66681000  0.33159000  0.12072000
   0.83279000  0.49851000  0.18135000
   0.66709000  0.66502000  0.12081000
   0.83337000  0.83396000  0.18143000
Direct configuration=     7
   0.00218000  0.99867000  0.24166000
   0.00302000  0.33361000  0.00057000
   0.99212553  0.32776497  0.35677569
   0.16217000  0.49431000  0.05981000
   0.16492000  0.83554000  0.06027000
   0.50580683  0.49525057  0.30172053
   0.50447000  0.49654000  0.06032000
   0.50514000  0.16237000  0.18167000
   0.66136000  0.00065000  0.24022000
   0.66603000  0.99799000  0.00047000
   0.66418897  0.00241022  0.36464142
   0.65989000  0.33950000  0.00031000
   0.66460249  0.33255204  0.36915461
   0.66352000  0.99935000  0.12162000
   0.16549370  0.16282461  0.30339072
   0.99997000  0.33205000  0.24166000
   0.17233819  0.50291510  0.30286297
   0.00013000  0.66493000  0.24143000
   0.16812697  0.83135353  0.30279628
   0.99854000  0.00048000  0.00000000
  -0.00800307  0.00298599  0.36038555
   0.16550000  0.16500000  0.06050000
   0.00106000  0.66662000  0.00057000
  -0.00509103  0.66228998  0.36248242
   0.99930000  0.99936000  0.12074000
   0.16685000  0.16538000  0.18105000
   0.99936000  0.33161000  0.12083000
   0.16544000  0.49812000  0.18093000
   0.00040000  0.66536000  0.12057000
   0.16627000  0.83203000  0.18103000
   0.33360000  0.99731000  0.24116000
   0.49401319  0.16228461  0.30174067
   0.33251000  0.33244000  0.24115000
   0.33243000  0.66411000  0.24135000
   0.49584904  0.83020011  0.30293587
   0.33406000  0.99850000  0.00062000
   0.34403827  0.99894967  0.36115870
   0.50112000  0.16466000  0.06049000
   0.33306000  0.33260000  0.00065000
   0.32817870  0.32249813  0.36056321
   0.33279000  0.66191000  0.00103000
   0.32863490  0.67167783  0.36307685
   0.50000000  0.83116000  0.06060000
   0.33336000  0.99854000  0.12089000
   0.33259000  0.33282000  0.12015000
   0.49958000  0.49779000  0.18076000
   0.33192000  0.66330000  0.12025000
   0.49972000  0.83017000  0.18081000
   0.83930028  0.16491441  0.30099275
   0.66532000  0.33232000  0.24137000
   0.83287475  0.49943603  0.30073380
   0.66623000  0.66534000  0.24124000
   0.83529648  0.82996367  0.30211707
   0.83178000  0.16609000  0.06006000
   0.83424000  0.49924000  0.06020000
   0.66675000  0.66697000  0.00034000
   0.67206916  0.67775498  0.36084660
   0.83291000  0.83387000  0.06067000
   0.83469000  0.16589000  0.18162000
   0.66681000  0.33159000  0.12072000
   0.83279000  0.49851000  0.18135000
   0.66709000  0.66502000  0.12081000
   0.83337000  0.83396000  0.18143000
Direct configuration=     8
   0.00218000  0.99867000  0.24166000
   0.00302000  0.33361000  0.00057000
   0.99340140  0.33271845  0.35726684
   0.16217000  0.49431000  0.05981000
   0.16492000  0.83554000  0.06027000
   0.50520191  0.49519869  0.30221655
   0.50447000  0.49654000  0.06032000
   0.50514000  0.16237000  0.18167000
   0.66136000  0.00065000  0.24022000
   0.66603000  0.99799000  0.00047000
   0.66216553  0.00259469  0.36245338
   0.65989000  0.33950000  0.00031000
   0.66489415  0.33309435  0.36835604
   0.66352000  0.99935000  0.12162000
   0.16534296  0.16421828  0.30331174
   0.99997000  0.33205000  0.24166000
   0.16952116  0.49995559  0.30270054
   0.00013000  0.66493000  0.24143000
   0.16693284  0.83125344  0.30226998
   0.99854000  0.00048000  0.00000000
  -0.00570593  0.00219143  0.36023595
   0.16550000  0.16500000  0.06050000
   0.00106000  0.66662000  0.00057000
  -0.00372368  0.65924535  0.36195974
   0.99930000  0.99936000  0.12074000
   0.16685000  0.16538000  0.18105000
   0.99936000  0.33161000  0.12083000
   0.16544000  0.49812000  0.18093000
   0.00040000  0.66536000  0.12057000
   0.16627000  0.83203000  0.18103000
   0.33360000  0.99731000  0.24116000
   0.49409424  0.16464187  0.30138288
   0.33251000  0.33244000  0.24115000
   0.33243000  0.66411000  0.24135000
   0.49711170  0.82923903  0.30218126
   0.33406000  0.99850000  0.00062000
   0.34304692  0.99868805  0.36032816
   0.50112000  0.16466000  0.06049000
   0.33306000  0.33260000  0.00065000
   0.32862539  0.32388021  0.36059296
   0.33279000  0.66191000  0.00103000
   0.32961891  0.67006627  0.36168773
   0.50000000  0.83116000  0.06060000
   0.33336000  0.99854000  0.12089000
   0.33259000  0.33282000  0.12015000
   0.49958000  0.49779000  0.18076000
   0.33192000  0.66330000  0.12025000
   0.49972000  0.83017000  0.18081000
   0.83881060  0.16512678  0.30100211
   0.66532000  0.33232000  0.24137000
   0.83338529  0.49944363  0.30099148
   0.66623000  0.66534000  0.24124000
   0.83537038  0.83007366  0.30230962
   0.83178000  0.16609000  0.06006000
   0.83424000  0.49924000  0.06020000
   0.66675000  0.66697000  0.00034000
   0.67137395  0.67535077  0.36100045
   0.83291000  0.83387000  0.06067000
   0.83469000  0.16589000  0.18162000
   0.66681000  0.33159000  0.12072000
   0.83279000  0.49851000  0.18135000
   0.66709000  0.66502000  0.12081000
   0.83337000  0.83396000  0.18143000
Direct configuration=     9
   0.00218000  0.99867000  0.24166000
   0.00302000  0.33361000  0.00057000
   0.99331176  0.32848439  0.35911158
   0.16217000  0.49431000  0.05981000
   0.16492000  0.83554000  0.06027000
   0.50418300  0.49580832  0.30298391
   0.50447000  0.49654000  0.06032000
   0.50514000  0.16237000  0.18167000
   0.66136000  0.00065000  0.24022000
   0.66603000  0.99799000  0.00047000
   0.66441563  0.00211807  0.36370927
   0.65989000  0.33950000  0.00031000
   0.66419856  0.33311548  0.36869003
   0.66352000  0.99935000  0.12162000
   0.16750854  0.16193224  0.30260838
   0.99997000  0.33205000  0.24166000
   0.17059938  0.50157401  0.30304550
   0.00013000  0.66493000  0.24143000
   0.16711171  0.83203075  0.30338355
   0.99854000  0.00048000  0.00000000
  -0.00751221  0.00147985  0.36062541
   0.16550000  0.16500000  0.06050000
   0.00106000  0.66662000  0.00057000
  -0.00486339  0.66228386  0.36156588
   0.99930000  0.99936000  0.12074000
   0.16685000  0.16538000  0.18105000
   0.99936000  0.33161000  0.12083000
   0.16544000  0.49812000  0.18093000
   0.00040000  0.66536000  0.12057000
   0.16627000  0.83203000  0.18103000
   0.33360000  0.99731000  0.24116000
   0.49574786  0.16309857  0.30167543
   0.33251000  0.33244000  0.24115000
   0.33243000  0.66411000  0.24135000
   0.49798126  0.83031625  0.30298053
   0.33406000  0.99850000  0.00062000
   0.34384374  0.99833131  0.36142878
   0.50112000  0.16466000  0.06049000
   0.33306000  0.33260000  0.00065000
   0.32838691  0.32368059  0.36029779
   0.33279000  0.66191000  0.00103000
   0.32929797  0.67144081  0.36240118
   0.50000000  0.83116000  0.06060000
   0.33336000  0.99854000  0.12089000
   0.33259000  0.33282000  0.12015000
   0.49958000  0.49779000  0.18076000
   0.33192000  0.66330000  0.12025000
   0.49972000  0.83017000  0.18081000
   0.83493351  0.16236129  0.30018156
   0.66532000  0.33232000  0.24137000
   0.83196339  0.50172222  0.30086246
   0.66623000  0.66534000  0.24124000
   0.83453240  0.83155958  0.30227658
   0.83178000  0.16609000  0.06006000
   0.83424000  0.49924000  0.06020000
   0.66675000  0.66697000  0.00034000
   0.67147853  0.67663390  0.36098604
   0.83291000  0.83387000  0.06067000
   0.83469000  0.16589000  0.18162000
   0.66681000  0.33159000  0.12072000
   0.83279000  0.49851000  0.18135000
   0.66709000  0.66502000  0.12081000
   0.83337000  0.83396000  0.18143000
Direct configuration=    10
   0.00218000  0.99867000  0.24166000
   0.00302000  0.33361000  0.00057000
   0.99324289  0.32523115  0.36052898
   0.16217000  0.49431000  0.05981000
   0.16492000  0.83554000  0.06027000
   0.50340012  0.49627674  0.30357352
   0.50447000  0.49654000  0.06032000
   0.50514000  0.16237000  0.18167000
   0.66136000  0.00065000  0.24022000
   0.66603000  0.99799000  0.00047000
   0.66614449  0.00175185  0.36467423
   0.65989000  0.33950000  0.00031000
   0.66366410  0.33313171  0.36894666
   0.66352000  0.99935000  0.12162000
   0.16917246  0.16017576  0.30206795
   0.99997000  0.33205000  0.24166000
   0.17142783  0.50281752  0.30331054
   0.00013000  0.66493000  0.24143000
   0.16724914  0.83262800  0.30423916
   0.99854000  0.00048000  0.00000000
  -0.00890007  0.00093310  0.36092465
   0.16550000  0.16500000  0.06050000
   0.00106000  0.66662000  0.00057000
  -0.00573908  0.66461849  0.36126326
   0.99930000  0.99936000  0.12074000
   0.16685000  0.16538000  0.18105000
   0.99936000  0.33161000  0.12083000
   0.16544000  0.49812000  0.18093000
   0.00040000  0.66536000  0.12057000
   0.16627000  0.83203000  0.18103000
   0.33360000  0.99731000  0.24116000
   0.49701842  0.16191277  0.30190020
   0.33251000  0.33244000  0.24115000
   0.33243000  0.66411000  0.24135000
   0.49864938  0.83114393  0.30359466
   0.33406000  0.99850000  0.00062000
   0.34445598  0.99805721  0.36227444
   0.50112000  0.16466000  0.06049000
   0.33306000  0.33260000  0.00065000
   0.32820368  0.32352722  0.36007100
   0.33279000  0.66191000  0.00103000
   0.32905137  0.67249693  0.36294936
   0.50000000  0.83116000  0.06060000
   0.33336000  0.99854000  0.12089000
   0.33259000  0.33282000  0.12015000
   0.49958000  0.49779000  0.18076000
   0.33192000  0.66330000  0.12025000
   0.49972000  0.83017000  0.18081000
   0.83195455  0.16023643  0.29955110
   0.66532000  0.33232000  0.24137000
   0.83087088  0.50347297  0.30076333
   0.66623000  0.66534000  0.24124000
   0.83388854  0.83270129  0.30225120
   0.83178000  0.16609000  0.06006000
   0.83424000  0.49924000  0.06020000
   0.66675000  0.66697000  0.00034000
   0.67155888  0.67761979  0.36097496
   0.83291000  0.83387000  0.06067000
   0.83469000  0.16589000  0.18162000
   0.66681000  0.33159000  0.12072000
   0.83279000  0.49851000  0.18135000
   0.66709000  0.66502000  0.12081000
   0.83337000  0.83396000  0.18143000
Direct configuration=    11
   0.00218000  0.99867000  0.24166000
   0.00302000  0.33361000  0.00057000
   0.99389058  0.32600548  0.36277972
   0.16217000  0.49431000  0.05981000
   0.16492000  0.83554000  0.06027000
   0.50276373  0.49651071  0.30442096
   0.50447000  0.49654000  0.06032000
   0.50514000  0.16237000  0.18167000
   0.66136000  0.00065000  0.24022000
   0.66603000  0.99799000  0.00047000
   0.66654558  0.00168468  0.36470628
   0.65989000  0.33950000  0.00031000
   0.66269321  0.33381442  0.36841510
   0.66352000  0.99935000  0.12162000
   0.16869048  0.16001371  0.30183226
   0.99997000  0.33205000  0.24166000
   0.16861438  0.50043840  0.30342734
   0.00013000  0.66493000  0.24143000
   0.16693143  0.83321965  0.30401389
   0.99854000  0.00048000  0.00000000
  -0.00900900 -0.00002132  0.36100890
   0.16550000  0.16500000  0.06050000
   0.00106000  0.66662000  0.00057000
  -0.00612225  0.66489290  0.36073371
   0.99930000  0.99936000  0.12074000
   0.16685000  0.16538000  0.18105000
   0.99936000  0.33161000  0.12083000
   0.16544000  0.49812000  0.18093000
   0.00040000  0.66536000  0.12057000
   0.16627000  0.83203000  0.18103000
   0.33360000  0.99731000  0.24116000
   0.49744792  0.16264569  0.30196455
   0.33251000  0.33244000  0.24115000
   0.33243000  0.66411000  0.24135000
   0.49906360  0.83143419  0.30330919
   0.33406000  0.99850000  0.00062000
   0.34484992  0.99813356  0.36285022
   0.50112000  0.16466000  0.06049000
   0.33306000  0.33260000  0.00065000
   0.32874212  0.32384321  0.35976775
   0.33279000  0.66191000  0.00103000
   0.32999441  0.67286510  0.36292694
   0.50000000  0.83116000  0.06060000
   0.33336000  0.99854000  0.12089000
   0.33259000  0.33282000  0.12015000
   0.49958000  0.49779000  0.18076000
   0.33192000  0.66330000  0.12025000
   0.49972000  0.83017000  0.18081000
   0.83046183  0.16004738  0.29899035
   0.66532000  0.33232000  0.24137000
   0.83142424  0.50271490  0.30108553
   0.66623000  0.66534000  0.24124000
   0.83375147  0.83318606  0.30193184
   0.83178000  0.16609000  0.06006000
   0.83424000  0.49924000  0.06020000
   0.66675000  0.66697000  0.00034000
   0.67104744  0.67649250  0.36154672
   0.83291000  0.83387000  0.06067000
   0.83469000  0.16589000  0.18162000
   0.66681000  0.33159000  0.12072000
   0.83279000  0.49851000  0.18135000
   0.66709000  0.66502000  0.12081000
   0.83337000  0.83396000  0.18143000
Direct configuration=    12
   0.00218000  0.99867000  0.24166000
   0.00302000  0.33361000  0.00057000
   0.99433080  0.32653179  0.36430952
   0.16217000  0.49431000  0.05981000
   0.16492000  0.83554000  0.06027000
   0.50233118  0.49666973  0.30499695
   0.50447000  0.49654000  0.06032000
   0.50514000  0.16237000  0.18167000
   0.66136000  0.00065000  0.24022000
   0.66603000  0.99799000  0.00047000
   0.66681820  0.00163902  0.36472807
   0.65989000  0.33950000  0.00031000
   0.66203331  0.33427845  0.36805381
   0.66352000  0.99935000  0.12162000
   0.16836288  0.15990357  0.30167206
   0.99997000  0.33205000  0.24166000
   0.16670211  0.49882134  0.30350673
   0.00013000  0.66493000  0.24143000
   0.16671548  0.83362179  0.30386078
   0.99854000  0.00048000  0.00000000
  -0.00908305 -0.00067002  0.36106617
   0.16550000  0.16500000  0.06050000
   0.00106000  0.66662000  0.00057000
  -0.00638269  0.66507941  0.36037378
   0.99930000  0.99936000  0.12074000
   0.16685000  0.16538000  0.18105000
   0.99936000  0.33161000  0.12083000
   0.16544000  0.49812000  0.18093000
   0.00040000  0.66536000  0.12057000
   0.16627000  0.83203000  0.18103000
   0.33360000  0.99731000  0.24116000
   0.49773986  0.16314385  0.30200829
   0.33251000  0.33244000  0.24115000
   0.33243000  0.66411000  0.24135000
   0.49934515  0.83163148  0.30311516
   0.33406000  0.99850000  0.00062000
   0.34511767  0.99818545  0.36324157
   0.50112000  0.16466000  0.06049000
   0.33306000  0.33260000  0.00065000
   0.32910808  0.32405799  0.35956164
   0.33279000  0.66191000  0.00103000
   0.33063538  0.67311534  0.36291170
   0.50000000  0.83116000  0.06060000
   0.33336000  0.99854000  0.12089000
   0.33259000  0.33282000  0.12015000
   0.49958000  0.49779000  0.18076000
   0.33192000  0.66330000  0.12025000
   0.49972000  0.83017000  0.18081000
   0.82944724  0.15991888  0.29860922
   0.66532000  0.33232000  0.24137000
   0.83180035  0.50219965  0.30130453
   0.66623000  0.66534000  0.24124000
   0.83365831  0.83351555  0.30171478
   0.83178000  0.16609000  0.06006000
   0.83424000  0.49924000  0.06020000
   0.66675000  0.66697000  0.00034000
   0.67069982  0.67572629  0.36193533
   0.83291000  0.83387000  0.06067000
   0.83469000  0.16589000  0.18162000
   0.66681000  0.33159000  0.12072000
   0.83279000  0.49851000  0.18135000
   0.66709000  0.66502000  0.12081000
   0.83337000  0.83396000  0.18143000
Direct configuration=    13
   0.00218000  0.99867000  0.24166000
   0.00302000  0.33361000  0.00057000
   0.99365020  0.32619556  0.36653116
   0.16217000  0.49431000  0.05981000
   0.16492000  0.83554000  0.06027000
   0.50235447  0.49708449  0.30521965
   0.50447000  0.49654000  0.06032000
   0.50514000  0.16237000  0.18167000
   0.66136000  0.00065000  0.24022000
   0.66603000  0.99799000  0.00047000
   0.66672236  0.00155719  0.36457314
   0.65989000  0.33950000  0.00031000
   0.66099939  0.33472996  0.36746121
   0.66352000  0.99935000  0.12162000
   0.16711679  0.16029711  0.30213879
   0.99997000  0.33205000  0.24166000
   0.16692356  0.49901941  0.30330801
   0.00013000  0.66493000  0.24143000
   0.16747098  0.83314125  0.30363032
   0.99854000  0.00048000  0.00000000
  -0.00906858 -0.00107532  0.36073465
   0.16550000  0.16500000  0.06050000
   0.00106000  0.66662000  0.00057000
  -0.00668391  0.66505003  0.36007258
   0.99930000  0.99936000  0.12074000
   0.16685000  0.16538000  0.18105000
   0.99936000  0.33161000  0.12083000
   0.16544000  0.49812000  0.18093000
   0.00040000  0.66536000  0.12057000
   0.16627000  0.83203000  0.18103000
   0.33360000  0.99731000  0.24116000
   0.49687907  0.16282262  0.30201127
   0.33251000  0.33244000  0.24115000
   0.33243000  0.66411000  0.24135000
   0.49937021  0.83175669  0.30330864
   0.33406000  0.99850000  0.00062000
   0.34534567  0.99848647  0.36313662
   0.50112000  0.16466000  0.06049000
   0.33306000  0.33260000  0.00065000
   0.32931862  0.32397586  0.35946654
   0.33279000  0.66191000  0.00103000
   0.33123620  0.67361988  0.36234496
   0.50000000  0.83116000  0.06060000
   0.33336000  0.99854000  0.12089000
   0.33259000  0.33282000  0.12015000
   0.49958000  0.49779000  0.18076000
   0.33192000  0.66330000  0.12025000
   0.49972000  0.83017000  0.18081000
   0.83065925  0.16112996  0.29908932
   0.66532000  0.33232000  0.24137000
   0.83150247  0.50140618  0.30147273
   0.66623000  0.66534000  0.24124000
   0.83283729  0.83263705  0.30170102
   0.83178000  0.16609000  0.06006000
   0.83424000  0.49924000  0.06020000
   0.66675000  0.66697000  0.00034000
   0.67036332  0.67522654  0.36206322
   0.83291000  0.83387000  0.06067000
   0.83469000  0.16589000  0.18162000
   0.66681000  0.33159000  0.12072000
   0.83279000  0.49851000  0.18135000
   0.66709000  0.66502000  0.12081000
   0.83337000  0.83396000  0.18143000
Direct configuration=    14
   0.00218000  0.99867000  0.24166000
   0.00302000  0.33361000  0.00057000
   0.99273664  0.32574424  0.36951324
   0.16217000  0.49431000  0.05981000
   0.16492000  0.83554000  0.06027000
   0.50238574  0.49764122  0.30551858
   0.50447000  0.49654000  0.06032000
   0.50514000  0.16237000  0.18167000
   0.66136000  0.00065000  0.24022000
   0.66603000  0.99799000  0.00047000
   0.66659372  0.00144736  0.36436519
   0.65989000  0.33950000  0.00031000
   0.65961158  0.33533603  0.36666578
   0.66352000  0.99935000  0.12162000
   0.16544417  0.16082534  0.30276527
   0.99997000  0.33205000  0.24166000
   0.16722082  0.49928528  0.30304127
   0.00013000  0.66493000  0.24143000
   0.16848509  0.83249622  0.30332099
   0.99854000  0.00048000  0.00000000
  -0.00904917 -0.00161935  0.36028966
   0.16550000  0.16500000  0.06050000
   0.00106000  0.66662000  0.00057000
  -0.00708823  0.66501058  0.35966828
   0.99930000  0.99936000  0.12074000
   0.16685000  0.16538000  0.18105000
   0.99936000  0.33161000  0.12083000
   0.16544000  0.49812000  0.18093000
   0.00040000  0.66536000  0.12057000
   0.16627000  0.83203000  0.18103000
   0.33360000  0.99731000  0.24116000
   0.49572365  0.16239145  0.30201528
   0.33251000  0.33244000  0.24115000
   0.33243000  0.66411000  0.24135000
   0.49940385  0.83192477  0.30356834
   0.33406000  0.99850000  0.00062000
   0.34565171  0.99889052  0.36299574
   0.50112000  0.16466000  0.06049000
   0.33306000  0.33260000  0.00065000
   0.32960121  0.32386562  0.35933890
   0.33279000  0.66191000  0.00103000
   0.33204267  0.67429712  0.36158422
   0.50000000  0.83116000  0.06060000
   0.33336000  0.99854000  0.12089000
   0.33259000  0.33282000  0.12015000
   0.49958000  0.49779000  0.18076000
   0.33192000  0.66330000  0.12025000
   0.49972000  0.83017000  0.18081000
   0.83228611  0.16275558  0.29973376
   0.66532000  0.33232000  0.24137000
   0.83110263  0.50034112  0.30169850
   0.66623000  0.66534000  0.24124000
   0.83173524  0.83145786  0.30168256
   0.83178000  0.16609000  0.06006000
   0.83424000  0.49924000  0.06020000
   0.66675000  0.66697000  0.00034000
   0.66991164  0.67455574  0.36223487
   0.83291000  0.83387000  0.06067000
   0.83469000  0.16589000  0.18162000
   0.66681000  0.33159000  0.12072000
   0.83279000  0.49851000  0.18135000
   0.66709000  0.66502000  0.12081000
   0.83337000  0.83396000  0.18143000
Direct configuration=    15
   0.00218000  0.99867000  0.24166000
   0.00302000  0.33361000  0.00057000
   0.99318293  0.32596472  0.36805645
   0.16217000  0.49431000  0.05981000
   0.16492000  0.83554000  0.06027000
   0.50237047  0.49736925  0.30537255
   0.50447000  0.49654000  0.06032000
   0.50514000  0.16237000  0.18167000
   0.66136000  0.00065000  0.24022000
   0.66603000  0.99799000  0.00047000
   0.66665657  0.00150102  0.36446678
   0.65989000  0.33950000  0.00031000
   0.66028955  0.33503995  0.36705436
   0.66352000  0.99935000  0.12162000
   0.16626127  0.16056729  0.30245923
   0.99997000  0.33205000  0.24166000
   0.16707560  0.49915540  0.30317157
   0.00013000  0.66493000  0.24143000
   0.16798968  0.83281132  0.30347210
   0.99854000  0.00048000  0.00000000
  -0.00905865 -0.00135359  0.36050704
   0.16550000  0.16500000  0.06050000
   0.00106000  0.66662000  0.00057000
  -0.00689071  0.66502985  0.35986579
   0.99930000  0.99936000  0.12074000
   0.16685000  0.16538000  0.18105000
   0.99936000  0.33161000  0.12083000
   0.16544000  0.49812000  0.18093000
   0.00040000  0.66536000  0.12057000
   0.16627000  0.83203000  0.18103000
   0.33360000  0.99731000  0.24116000
   0.49628809  0.16260208  0.30201332
   0.33251000  0.33244000  0.24115000
   0.33243000  0.66411000  0.24135000
   0.49938742  0.83184266  0.30344147
   0.33406000  0.99850000  0.00062000
   0.34550220  0.99869314  0.36306456
   0.50112000  0.16466000  0.06049000
   0.33306000  0.33260000  0.00065000
   0.32946316  0.32391947  0.35940126
   0.33279000  0.66191000  0.00103000
   0.33164870  0.67396628  0.36195585
   0.50000000  0.83116000  0.06060000
   0.33336000  0.99854000  0.12089000
   0.33259000  0.33282000  0.12015000
   0.49958000  0.49779000  0.18076000
   0.33192000  0.66330000  0.12025000
   0.49972000  0.83017000  0.18081000
   0.83149136  0.16196144  0.29941894
   0.66532000  0.33232000  0.24137000
   0.83129796  0.50086142  0.30158821
   0.66623000  0.66534000  0.24124000
   0.83227361  0.83203391  0.30169158
   0.83178000  0.16609000  0.06006000
   0.83424000  0.49924000  0.06020000
   0.66675000  0.66697000  0.00034000
   0.67013229  0.67488344  0.36215102
   0.83291000  0.83387000  0.06067000
   0.83469000  0.16589000  0.18162000
   0.66681000  0.33159000  0.12072000
   0.83279000  0.49851000  0.18135000
   0.66709000  0.66502000  0.12081000
   0.83337000  0.83396000  0.18143000
Direct configuration=    16
   0.00218000  0.99867000  0.24166000
   0.00302000  0.33361000  0.00057000
   0.99285715  0.32679936  0.36876940
   0.16217000  0.49431000  0.05981000
   0.16492000  0.83554000  0.06027000
   0.50277612  0.49709507  0.30478491
   0.50447000  0.49654000  0.06032000
   0.50514000  0.16237000  0.18167000
   0.66136000  0.00065000  0.24022000
   0.66603000  0.99799000  0.00047000
   0.66678476  0.00183656  0.36431968
   0.65989000  0.33950000  0.00031000
   0.65904243  0.33481293  0.36688762
   0.66352000  0.99935000  0.12162000
   0.16643229  0.16095906  0.30265349
   0.99997000  0.33205000  0.24166000
   0.16716146  0.49895008  0.30346960
   0.00013000  0.66493000  0.24143000
   0.16753713  0.83310809  0.30331955
   0.99854000  0.00048000  0.00000000
  -0.00891640 -0.00179927  0.36037787
   0.16550000  0.16500000  0.06050000
   0.00106000  0.66662000  0.00057000
  -0.00690039  0.66466447  0.35990854
   0.99930000  0.99936000  0.12074000
   0.16685000  0.16538000  0.18105000
   0.99936000  0.33161000  0.12083000
   0.16544000  0.49812000  0.18093000
   0.00040000  0.66536000  0.12057000
   0.16627000  0.83203000  0.18103000
   0.33360000  0.99731000  0.24116000
   0.49635357  0.16252914  0.30172741
   0.33251000  0.33244000  0.24115000
   0.33243000  0.66411000  0.24135000
   0.49971914  0.83195431  0.30330410
   0.33406000  0.99850000  0.00062000
   0.34471671  0.99910604  0.36289433
   0.50112000  0.16466000  0.06049000
   0.33306000  0.33260000  0.00065000
   0.32886927  0.32394509  0.35966816
   0.33279000  0.66191000  0.00103000
   0.33192010  0.67358563  0.36189558
   0.50000000  0.83116000  0.06060000
   0.33336000  0.99854000  0.12089000
   0.33259000  0.33282000  0.12015000
   0.49958000  0.49779000  0.18076000
   0.33192000  0.66330000  0.12025000
   0.49972000  0.83017000  0.18081000
   0.83198952  0.16199083  0.29972344
   0.66532000  0.33232000  0.24137000
   0.83193248  0.50086794  0.30151984
   0.66623000  0.66534000  0.24124000
   0.83204014  0.83196797  0.30169561
   0.83178000  0.16609000  0.06006000
   0.83424000  0.49924000  0.06020000
   0.66675000  0.66697000  0.00034000
   0.67036187  0.67484072  0.36212856
   0.83291000  0.83387000  0.06067000
   0.83469000  0.16589000  0.18162000
   0.66681000  0.33159000  0.12072000
   0.83279000  0.49851000  0.18135000
   0.66709000  0.66502000  0.12081000
   0.83337000  0.83396000  0.18143000
Direct configuration=    17
   0.00218000  0.99867000  0.24166000
   0.00302000  0.33361000  0.00057000
   0.99256878  0.32753816  0.36940049
   0.16217000  0.49431000  0.05981000
   0.16492000  0.83554000  0.06027000
   0.50313519  0.49685237  0.30426474
   0.50447000  0.49654000  0.06032000
   0.50514000  0.16237000  0.18167000
   0.66136000  0.00065000  0.24022000
   0.66603000  0.99799000  0.00047000
   0.66689824  0.00213358  0.36418947
   0.65989000  0.33950000  0.00031000
   0.65793852  0.33461197  0.36674001
   0.66352000  0.99935000  0.12162000
   0.16658367  0.16130585  0.30282544
   0.99997000  0.33205000  0.24166000
   0.16723745  0.49876835  0.30373340
   0.00013000  0.66493000  0.24143000
   0.16713654  0.83337079  0.30318451
   0.99854000  0.00048000  0.00000000
  -0.00879048 -0.00219378  0.36026353
   0.16550000  0.16500000  0.06050000
   0.00106000  0.66662000  0.00057000
  -0.00690896  0.66434104  0.35994638
   0.99930000  0.99936000  0.12074000
   0.16685000  0.16538000  0.18105000
   0.99936000  0.33161000  0.12083000
   0.16544000  0.49812000  0.18093000
   0.00040000  0.66536000  0.12057000
   0.16627000  0.83203000  0.18103000
   0.33360000  0.99731000  0.24116000
   0.49641154  0.16246457  0.30147433
   0.33251000  0.33244000  0.24115000
   0.33243000  0.66411000  0.24135000
   0.50001277  0.83205314  0.30318250
   0.33406000  0.99850000  0.00062000
   0.34402141  0.99947154  0.36274365
   0.50112000  0.16466000  0.06049000
   0.33306000  0.33260000  0.00065000
   0.32834357  0.32396776  0.35990442
   0.33279000  0.66191000  0.00103000
   0.33216034  0.67324869  0.36184223
   0.50000000  0.83116000  0.06060000
   0.33336000  0.99854000  0.12089000
   0.33259000  0.33282000  0.12015000
   0.49958000  0.49779000  0.18076000
   0.33192000  0.66330000  0.12025000
   0.49972000  0.83017000  0.18081000
   0.83243047  0.16201684  0.29999297
   0.66532000  0.33232000  0.24137000
   0.83249414  0.50087371  0.30145932
   0.66623000  0.66534000  0.24124000
   0.83183348  0.83190959  0.30169918
   0.83178000  0.16609000  0.06006000
   0.83424000  0.49924000  0.06020000
   0.66675000  0.66697000  0.00034000
   0.67056509  0.67480291  0.36210868
   0.83291000  0.83387000  0.06067000
   0.83469000  0.16589000  0.18162000
   0.66681000  0.33159000  0.12072000
   0.83279000  0.49851000  0.18135000
   0.66709000  0.66502000  0.12081000
   0.83337000  0.83396000  0.18143000
Direct configuration=    18
   0.00218000  0.99867000  0.24166000
   0.00302000  0.33361000  0.00057000
   0.99268967  0.32722846  0.36913594
   0.16217000  0.49431000  0.05981000
   0.16492000  0.83554000  0.06027000
   0.50298467  0.49695411  0.30448279
   0.50447000  0.49654000  0.06032000
   0.50514000  0.16237000  0.18167000
   0.66136000  0.00065000  0.24022000
   0.66603000  0.99799000  0.00047000
   0.66685067  0.00200907  0.36424405
   0.65989000  0.33950000  0.00031000
   0.65840128  0.33469621  0.36680189
   0.66352000  0.99935000  0.12162000
   0.16652021  0.16116048  0.30275336
   0.99997000  0.33205000  0.24166000
   0.16720560  0.49884453  0.30362282
   0.00013000  0.66493000  0.24143000
   0.16730447  0.83326067  0.30324111
   0.99854000  0.00048000  0.00000000
  -0.00884326 -0.00202841  0.36031146
   0.16550000  0.16500000  0.06050000
   0.00106000  0.66662000  0.00057000
  -0.00690537  0.66447662  0.35993052
   0.99930000  0.99936000  0.12074000
   0.16685000  0.16538000  0.18105000
   0.99936000  0.33161000  0.12083000
   0.16544000  0.49812000  0.18093000
   0.00040000  0.66536000  0.12057000
   0.16627000  0.83203000  0.18103000
   0.33360000  0.99731000  0.24116000
   0.49638724  0.16249163  0.30158042
   0.33251000  0.33244000  0.24115000
   0.33243000  0.66411000  0.24135000
   0.49988968  0.83201171  0.30323348
   0.33406000  0.99850000  0.00062000
   0.34431288  0.99931832  0.36280682
   0.50112000  0.16466000  0.06049000
   0.33306000  0.33260000  0.00065000
   0.32856394  0.32395825  0.35980538
   0.33279000  0.66191000  0.00103000
   0.33205963  0.67338993  0.36186460
   0.50000000  0.83116000  0.06060000
   0.33336000  0.99854000  0.12089000
   0.33259000  0.33282000  0.12015000
   0.49958000  0.49779000  0.18076000
   0.33192000  0.66330000  0.12025000
   0.49972000  0.83017000  0.18081000
   0.83224563  0.16200594  0.29987999
   0.66532000  0.33232000  0.24137000
   0.83225869  0.50087129  0.30148469
   0.66623000  0.66534000  0.24124000
   0.83192011  0.83193406  0.30169769
   0.83178000  0.16609000  0.06006000
   0.83424000  0.49924000  0.06020000
   0.66675000  0.66697000  0.00034000
   0.67047990  0.67481876  0.36211701
   0.83291000  0.83387000  0.06067000
   0.83469000  0.16589000  0.18162000
   0.66681000  0.33159000  0.12072000
   0.83279000  0.49851000  0.18135000
   0.66709000  0.66502000  0.12081000
   0.83337000  0.83396000  0.18143000
Direct configuration=    19
   0.00218000  0.99867000  0.24166000
   0.00302000  0.33361000  0.00057000
   0.99273650  0.32710845  0.36903343
   0.16217000  0.49431000  0.05981000
   0.16492000  0.83554000  0.06027000
   0.50292635  0.49699353  0.30456728
   0.50447000  0.49654000  0.06032000
   0.50514000  0.16237000  0.18167000
   0.66136000  0.00065000  0.24022000
   0.66603000  0.99799000  0.00047000
   0.66683224  0.00196083  0.36426520
   0.65989000  0.33950000  0.00031000
   0.65858058  0.33472886  0.36682586
   0.66352000  0.99935000  0.12162000
   0.16649562  0.16110415  0.30272543
   0.99997000  0.33205000  0.24166000
   0.16719325  0.49887405  0.30357997
   0.00013000  0.66493000  0.24143000
   0.16736953  0.83321800  0.30326305
   0.99854000  0.00048000  0.00000000
  -0.00886371 -0.00196433  0.36033003
   0.16550000  0.16500000  0.06050000
   0.00106000  0.66662000  0.00057000
  -0.00690398  0.66452916  0.35992437
   0.99930000  0.99936000  0.12074000
   0.16685000  0.16538000  0.18105000
   0.99936000  0.33161000  0.12083000
   0.16544000  0.49812000  0.18093000
   0.00040000  0.66536000  0.12057000
   0.16627000  0.83203000  0.18103000
   0.33360000  0.99731000  0.24116000
   0.49637782  0.16250212  0.30162153
   0.33251000  0.33244000  0.24115000
   0.33243000  0.66411000  0.24135000
   0.49984199  0.83199566  0.30325323
   0.33406000  0.99850000  0.00062000
   0.34442581  0.99925896  0.36283129
   0.50112000  0.16466000  0.06049000
   0.33306000  0.33260000  0.00065000
   0.32864933  0.32395457  0.35976701
   0.33279000  0.66191000  0.00103000
   0.33202061  0.67344466  0.36187326
   0.50000000  0.83116000  0.06060000
   0.33336000  0.99854000  0.12089000
   0.33259000  0.33282000  0.12015000
   0.49958000  0.49779000  0.18076000
   0.33192000  0.66330000  0.12025000
   0.49972000  0.83017000  0.18081000
   0.83217400  0.16200171  0.29983621
   0.66532000  0.33232000  0.24137000
   0.83216746  0.50087036  0.30149452
   0.66623000  0.66534000  0.24124000
   0.83195368  0.83194354  0.30169711
   0.83178000  0.16609000  0.06006000
   0.83424000  0.49924000  0.06020000
   0.66675000  0.66697000  0.00034000
   0.67044689  0.67482490  0.36212024
   0.83291000  0.83387000  0.06067000
   0.83469000  0.16589000  0.18162000
   0.66681000  0.33159000  0.12072000
   0.83279000  0.49851000  0.18135000
   0.66709000  0.66502000  0.12081000
   0.83337000  0.83396000  0.18143000
Direct configuration=    20
   0.00218000  0.99867000  0.24166000
   0.00302000  0.33361000  0.00057000
   0.99242879  0.32745662  0.36912398
   0.16217000  0.49431000  0.05981000
   0.16492000  0.83554000  0.06027000
   0.50267997  0.49691126  0.30438278
   0.50447000  0.49654000  0.06032000
   0.50514000  0.16237000  0.18167000
   0.66136000  0.00065000  0.24022000
   0.66603000  0.99799000  0.00047000
   0.66675871  0.00217392  0.36421773
   0.65989000  0.33950000  0.00031000
   0.65794749  0.33485085  0.36673006
   0.66352000  0.99935000  0.12162000
   0.16646597  0.16152179  0.30266227
   0.99997000  0.33205000  0.24166000
   0.16725295  0.49887944  0.30362101
   0.00013000  0.66493000  0.24143000
   0.16746283  0.83283344  0.30330366
   0.99854000  0.00048000  0.00000000
  -0.00866300 -0.00203299  0.36052187
   0.16550000  0.16500000  0.06050000
   0.00106000  0.66662000  0.00057000
  -0.00691932  0.66457973  0.36007940
   0.99930000  0.99936000  0.12074000
   0.16685000  0.16538000  0.18105000
   0.99936000  0.33161000  0.12083000
   0.16544000  0.49812000  0.18093000
   0.00040000  0.66536000  0.12057000
   0.16627000  0.83203000  0.18103000
   0.33360000  0.99731000  0.24116000
   0.49613160  0.16254662  0.30160800
   0.33251000  0.33244000  0.24115000
   0.33243000  0.66411000  0.24135000
   0.49950399  0.83190976  0.30329783
   0.33406000  0.99850000  0.00062000
   0.34410496  0.99956820  0.36263255
   0.50112000  0.16466000  0.06049000
   0.33306000  0.33260000  0.00065000
   0.32844356  0.32384808  0.35994117
   0.33279000  0.66191000  0.00103000
   0.33245336  0.67311506  0.36171070
   0.50000000  0.83116000  0.06060000
   0.33336000  0.99854000  0.12089000
   0.33259000  0.33282000  0.12015000
   0.49958000  0.49779000  0.18076000
   0.33192000  0.66330000  0.12025000
   0.49972000  0.83017000  0.18081000
   0.83219258  0.16205587  0.29972754
   0.66532000  0.33232000  0.24137000
   0.83203733  0.50078816  0.30150876
   0.66623000  0.66534000  0.24124000
   0.83218863  0.83194264  0.30164638
   0.83178000  0.16609000  0.06006000
   0.83424000  0.49924000  0.06020000
   0.66675000  0.66697000  0.00034000
   0.67066978  0.67486843  0.36203086
   0.83291000  0.83387000  0.06067000
   0.83469000  0.16589000  0.18162000
   0.66681000  0.33159000  0.12072000
   0.83279000  0.49851000  0.18135000
   0.66709000  0.66502000  0.12081000
   0.83337000  0.83396000  0.18143000
Direct configuration=    21
   0.00218000  0.99867000  0.24166000
   0.00302000  0.33361000  0.00057000
   0.99221766  0.32769550  0.36918611
   0.16217000  0.49431000  0.05981000
   0.16492000  0.83554000  0.06027000
   0.50251093  0.49685482  0.30425619
   0.50447000  0.49654000  0.06032000
   0.50514000  0.16237000  0.18167000
   0.66136000  0.00065000  0.24022000
   0.66603000  0.99799000  0.00047000
   0.66670826  0.00232013  0.36418516
   0.65989000  0.33950000  0.00031000
   0.65751312  0.33493455  0.36666432
   0.66352000  0.99935000  0.12162000
   0.16644563  0.16180834  0.30261894
   0.99997000  0.33205000  0.24166000
   0.16729391  0.49888314  0.30364917
   0.00013000  0.66493000  0.24143000
   0.16752684  0.83256959  0.30333153
   0.99854000  0.00048000  0.00000000
  -0.00852529 -0.00208010  0.36065350
   0.16550000  0.16500000  0.06050000
   0.00106000  0.66662000  0.00057000
  -0.00692985  0.66461444  0.36018577
   0.99930000  0.99936000  0.12074000
   0.16685000  0.16538000  0.18105000
   0.99936000  0.33161000  0.12083000
   0.16544000  0.49812000  0.18093000
   0.00040000  0.66536000  0.12057000
   0.16627000  0.83203000  0.18103000
   0.33360000  0.99731000  0.24116000
   0.49596266  0.16257715  0.30159872
   0.33251000  0.33244000  0.24115000
   0.33243000  0.66411000  0.24135000
   0.49927208  0.83185082  0.30332844
   0.33406000  0.99850000  0.00062000
   0.34388481  0.99978037  0.36249618
   0.50112000  0.16466000  0.06049000
   0.33306000  0.33260000  0.00065000
   0.32830237  0.32377502  0.36006066
   0.33279000  0.66191000  0.00103000
   0.33275027  0.67288891  0.36159916
   0.50000000  0.83116000  0.06060000
   0.33336000  0.99854000  0.12089000
   0.33259000  0.33282000  0.12015000
   0.49958000  0.49779000  0.18076000
   0.33192000  0.66330000  0.12025000
   0.49972000  0.83017000  0.18081000
   0.83220533  0.16209302  0.29965298
   0.66532000  0.33232000  0.24137000
   0.83194804  0.50073177  0.30151853
   0.66623000  0.66534000  0.24124000
   0.83234983  0.83194201  0.30161158
   0.83178000  0.16609000  0.06006000
   0.83424000  0.49924000  0.06020000
   0.66675000  0.66697000  0.00034000
   0.67082271  0.67489830  0.36196954
   0.83291000  0.83387000  0.06067000
   0.83469000  0.16589000  0.18162000
   0.66681000  0.33159000  0.12072000
   0.83279000  0.49851000  0.18135000
   0.66709000  0.66502000  0.12081000
   0.83337000  0.83396000  0.18143000
Direct configuration=    22
   0.00218000  0.99867000  0.24166000
   0.00302000  0.33361000  0.00057000
   0.99180252  0.32779495  0.36919213
   0.16217000  0.49431000  0.05981000
   0.16492000  0.83554000  0.06027000
   0.50213887  0.49688730  0.30413183
   0.50447000  0.49654000  0.06032000
   0.50514000  0.16237000  0.18167000
   0.66136000  0.00065000  0.24022000
   0.66603000  0.99799000  0.00047000
   0.66665103  0.00244246  0.36411100
   0.65989000  0.33950000  0.00031000
   0.65702236  0.33518443  0.36653242
   0.66352000  0.99935000  0.12162000
   0.16611033  0.16191296  0.30261486
   0.99997000  0.33205000  0.24166000
   0.16711491  0.49879722  0.30366396
   0.00013000  0.66493000  0.24143000
   0.16738535  0.83259987  0.30337491
   0.99854000  0.00048000  0.00000000
  -0.00837110 -0.00204579  0.36069507
   0.16550000  0.16500000  0.06050000
   0.00106000  0.66662000  0.00057000
  -0.00708630  0.66476309  0.36032667
   0.99930000  0.99936000  0.12074000
   0.16685000  0.16538000  0.18105000
   0.99936000  0.33161000  0.12083000
   0.16544000  0.49812000  0.18093000
   0.00040000  0.66536000  0.12057000
   0.16627000  0.83203000  0.18103000
   0.33360000  0.99731000  0.24116000
   0.49572117  0.16270081  0.30152887
   0.33251000  0.33244000  0.24115000
   0.33243000  0.66411000  0.24135000
   0.49941708  0.83194992  0.30328635
   0.33406000  0.99850000  0.00062000
   0.34345096  0.00022284  0.36238815
   0.50112000  0.16466000  0.06049000
   0.33306000  0.33260000  0.00065000
   0.32785363  0.32362519  0.36021836
   0.33279000  0.66191000  0.00103000
   0.33334711  0.67211274  0.36152060
   0.50000000  0.83116000  0.06060000
   0.33336000  0.99854000  0.12089000
   0.33259000  0.33282000  0.12015000
   0.49958000  0.49779000  0.18076000
   0.33192000  0.66330000  0.12025000
   0.49972000  0.83017000  0.18081000
   0.83223330  0.16200588  0.29966434
   0.66532000  0.33232000  0.24137000
   0.83181311  0.50084037  0.30151898
   0.66623000  0.66534000  0.24124000
   0.83268800  0.83216809  0.30166876
   0.83178000  0.16609000  0.06006000
   0.83424000  0.49924000  0.06020000
   0.66675000  0.66697000  0.00034000
   0.67119650  0.67501352  0.36187761
   0.83291000  0.83387000  0.06067000
   0.83469000  0.16589000  0.18162000
   0.66681000  0.33159000  0.12072000
   0.83279000  0.49851000  0.18135000
   0.66709000  0.66502000  0.12081000
   0.83337000  0.83396000  0.18143000
Direct configuration=    23
   0.00218000  0.99867000  0.24166000
   0.00302000  0.33361000  0.00057000
   0.99147705  0.32787292  0.36919685
   0.16217000  0.49431000  0.05981000
   0.16492000  0.83554000  0.06027000
   0.50184718  0.49691276  0.30403434
   0.50447000  0.49654000  0.06032000
   0.50514000  0.16237000  0.18167000
   0.66136000  0.00065000  0.24022000
   0.66603000  0.99799000  0.00047000
   0.66660617  0.00253836  0.36405286
   0.65989000  0.33950000  0.00031000
   0.65663761  0.33538033  0.36642900
   0.66352000  0.99935000  0.12162000
   0.16584746  0.16199498  0.30261165
   0.99997000  0.33205000  0.24166000
   0.16697459  0.49872986  0.30367556
   0.00013000  0.66493000  0.24143000
   0.16727443  0.83262361  0.30340892
   0.99854000  0.00048000  0.00000000
  -0.00825021 -0.00201888  0.36072766
   0.16550000  0.16500000  0.06050000
   0.00106000  0.66662000  0.00057000
  -0.00720896  0.66487964  0.36043713
   0.99930000  0.99936000  0.12074000
   0.16685000  0.16538000  0.18105000
   0.99936000  0.33161000  0.12083000
   0.16544000  0.49812000  0.18093000
   0.00040000  0.66536000  0.12057000
   0.16627000  0.83203000  0.18103000
   0.33360000  0.99731000  0.24116000
   0.49553184  0.16279776  0.30147412
   0.33251000  0.33244000  0.24115000
   0.33243000  0.66411000  0.24135000
   0.49953076  0.83202760  0.30325335
   0.33406000  0.99850000  0.00062000
   0.34311083  0.00056972  0.36230345
   0.50112000  0.16466000  0.06049000
   0.33306000  0.33260000  0.00065000
   0.32750183  0.32350773  0.36034200
   0.33279000  0.66191000  0.00103000
   0.33381501  0.67150425  0.36145901
   0.50000000  0.83116000  0.06060000
   0.33336000  0.99854000  0.12089000
   0.33259000  0.33282000  0.12015000
   0.49958000  0.49779000  0.18076000
   0.33192000  0.66330000  0.12025000
   0.49972000  0.83017000  0.18081000
   0.83225523  0.16193757  0.29967325
   0.66532000  0.33232000  0.24137000
   0.83170732  0.50092551  0.30151934
   0.66623000  0.66534000  0.24124000
   0.83295312  0.83234533  0.30171359
   0.83178000  0.16609000  0.06006000
   0.83424000  0.49924000  0.06020000
   0.66675000  0.66697000  0.00034000
   0.67148954  0.67510385  0.36180555
   0.83291000  0.83387000  0.06067000
   0.83469000  0.16589000  0.18162000
   0.66681000  0.33159000  0.12072000
   0.83279000  0.49851000  0.18135000
   0.66709000  0.66502000  0.12081000
   0.83337000  0.83396000  0.18143000
Direct configuration=    24
   0.00218000  0.99867000  0.24166000
   0.00302000  0.33361000  0.00057000
   0.99112729  0.32769169  0.36917250
   0.16217000  0.49431000  0.05981000
   0.16492000  0.83554000  0.06027000
   0.50179468  0.49702293  0.30410304
   0.50447000  0.49654000  0.06032000
   0.50514000  0.16237000  0.18167000
   0.66136000  0.00065000  0.24022000
   0.66603000  0.99799000  0.00047000
   0.66654193  0.00248380  0.36402374
   0.65989000  0.33950000  0.00031000
   0.65652034  0.33560716  0.36631070
   0.66352000  0.99935000  0.12162000
   0.16572746  0.16174494  0.30266348
   0.99997000  0.33205000  0.24166000
   0.16673152  0.49871981  0.30372230
   0.00013000  0.66493000  0.24143000
   0.16748708  0.83272529  0.30342814
   0.99854000  0.00048000  0.00000000
  -0.00829449 -0.00182998  0.36067476
   0.16550000  0.16500000  0.06050000
   0.00106000  0.66662000  0.00057000
  -0.00742381  0.66497963  0.36041532
   0.99930000  0.99936000  0.12074000
   0.16685000  0.16538000  0.18105000
   0.99936000  0.33161000  0.12083000
   0.16544000  0.49812000  0.18093000
   0.00040000  0.66536000  0.12057000
   0.16627000  0.83203000  0.18103000
   0.33360000  0.99731000  0.24116000
   0.49550570  0.16291935  0.30143015
   0.33251000  0.33244000  0.24115000
   0.33243000  0.66411000  0.24135000
   0.49980391  0.83226483  0.30323932
   0.33406000  0.99850000  0.00062000
   0.34299708  0.00078709  0.36236321
   0.50112000  0.16466000  0.06049000
   0.33306000  0.33260000  0.00065000
   0.32675864  0.32328808  0.36027573
   0.33279000  0.66191000  0.00103000
   0.33416523  0.67081103  0.36138260
   0.50000000  0.83116000  0.06060000
   0.33336000  0.99854000  0.12089000
   0.33259000  0.33282000  0.12015000
   0.49958000  0.49779000  0.18076000
   0.33192000  0.66330000  0.12025000
   0.49972000  0.83017000  0.18081000
   0.83204621  0.16197063  0.29980830
   0.66532000  0.33232000  0.24137000
   0.83182962  0.50114175  0.30144771
   0.66623000  0.66534000  0.24124000
   0.83288100  0.83242572  0.30172966
   0.83178000  0.16609000  0.06006000
   0.83424000  0.49924000  0.06020000
   0.66675000  0.66697000  0.00034000
   0.67178103  0.67540055  0.36186552
   0.83291000  0.83387000  0.06067000
   0.83469000  0.16589000  0.18162000
   0.66681000  0.33159000  0.12072000
   0.83279000  0.49851000  0.18135000
   0.66709000  0.66502000  0.12081000
   0.83337000  0.83396000  0.18143000
Direct configuration=    25
   0.00218000  0.99867000  0.24166000
   0.00302000  0.33361000  0.00057000
   0.99090194  0.32757493  0.36915681
   0.16217000  0.49431000  0.05981000
   0.16492000  0.83554000  0.06027000
   0.50176085  0.49709392  0.30414731
   0.50447000  0.49654000  0.06032000
   0.50514000  0.16237000  0.18167000
   0.66136000  0.00065000  0.24022000
   0.66603000  0.99799000  0.00047000
   0.66650054  0.00244865  0.36400499
   0.65989000  0.33950000  0.00031000
   0.65644478  0.33575331  0.36623447
   0.66352000  0.99935000  0.12162000
   0.16565015  0.16158383  0.30269687
   0.99997000  0.33205000  0.24166000
   0.16657490  0.49871334  0.30375241
   0.00013000  0.66493000  0.24143000
   0.16762410  0.83279081  0.30344051
   0.99854000  0.00048000  0.00000000
  -0.00832302 -0.00170827  0.36064068
   0.16550000  0.16500000  0.06050000
   0.00106000  0.66662000  0.00057000
  -0.00756224  0.66504406  0.36040126
   0.99930000  0.99936000  0.12074000
   0.16685000  0.16538000  0.18105000
   0.99936000  0.33161000  0.12083000
   0.16544000  0.49812000  0.18093000
   0.00040000  0.66536000  0.12057000
   0.16627000  0.83203000  0.18103000
   0.33360000  0.99731000  0.24116000
   0.49548885  0.16299769  0.30140182
   0.33251000  0.33244000  0.24115000
   0.33243000  0.66411000  0.24135000
   0.49997991  0.83241768  0.30323028
   0.33406000  0.99850000  0.00062000
   0.34292378  0.00092714  0.36240172
   0.50112000  0.16466000  0.06049000
   0.33306000  0.33260000  0.00065000
   0.32627980  0.32314656  0.36023303
   0.33279000  0.66191000  0.00103000
   0.33439088  0.67036438  0.36133336
   0.50000000  0.83116000  0.06060000
   0.33336000  0.99854000  0.12089000
   0.33259000  0.33282000  0.12015000
   0.49958000  0.49779000  0.18076000
   0.33192000  0.66330000  0.12025000
   0.49972000  0.83017000  0.18081000
   0.83191154  0.16199193  0.29989531
   0.66532000  0.33232000  0.24137000
   0.83190842  0.50128108  0.30140156
   0.66623000  0.66534000  0.24124000
   0.83283452  0.83247751  0.30174002
   0.83178000  0.16609000  0.06006000
   0.83424000  0.49924000  0.06020000
   0.66675000  0.66697000  0.00034000
   0.67196884  0.67559171  0.36190416
   0.83291000  0.83387000  0.06067000
   0.83469000  0.16589000  0.18162000
   0.66681000  0.33159000  0.12072000
   0.83279000  0.49851000  0.18135000
   0.66709000  0.66502000  0.12081000
   0.83337000  0.83396000  0.18143000
Direct configuration=    26
   0.00218000  0.99867000  0.24166000
   0.00302000  0.33361000  0.00057000
   0.99061773  0.32747529  0.36912665
   0.16217000  0.49431000  0.05981000
   0.16492000  0.83554000  0.06027000
   0.50204013  0.49718572  0.30426032
   0.50447000  0.49654000  0.06032000
   0.50514000  0.16237000  0.18167000
   0.66136000  0.00065000  0.24022000
   0.66603000  0.99799000  0.00047000
   0.66643257  0.00231904  0.36408507
   0.65989000  0.33950000  0.00031000
   0.65627132  0.33611391  0.36615605
   0.66352000  0.99935000  0.12162000
   0.16551453  0.16141730  0.30261954
   0.99997000  0.33205000  0.24166000
   0.16644261  0.49873171  0.30373618
   0.00013000  0.66493000  0.24143000
   0.16795012  0.83257882  0.30345356
   0.99854000  0.00048000  0.00000000
  -0.00848022 -0.00172845  0.36065324
   0.16550000  0.16500000  0.06050000
   0.00106000  0.66662000  0.00057000
  -0.00778485  0.66520148  0.36034157
   0.99930000  0.99936000  0.12074000
   0.16685000  0.16538000  0.18105000
   0.99936000  0.33161000  0.12083000
   0.16544000  0.49812000  0.18093000
   0.00040000  0.66536000  0.12057000
   0.16627000  0.83203000  0.18103000
   0.33360000  0.99731000  0.24116000
   0.49548336  0.16299479  0.30143605
   0.33251000  0.33244000  0.24115000
   0.33243000  0.66411000  0.24135000
   0.49981712  0.83244860  0.30333065
   0.33406000  0.99850000  0.00062000
   0.34321673  0.00097474  0.36249209
   0.50112000  0.16466000  0.06049000
   0.33306000  0.33260000  0.00065000
   0.32565822  0.32291273  0.36015706
   0.33279000  0.66191000  0.00103000
   0.33475704  0.66985691  0.36120974
   0.50000000  0.83116000  0.06060000
   0.33336000  0.99854000  0.12089000
   0.33259000  0.33282000  0.12015000
   0.49958000  0.49779000  0.18076000
   0.33192000  0.66330000  0.12025000
   0.49972000  0.83017000  0.18081000
   0.83159423  0.16217949  0.29988121
   0.66532000  0.33232000  0.24137000
   0.83190679  0.50122281  0.30134637
   0.66623000  0.66534000  0.24124000
   0.83269519  0.83248747  0.30161880
   0.83178000  0.16609000  0.06006000
   0.83424000  0.49924000  0.06020000
   0.66675000  0.66697000  0.00034000
   0.67219902  0.67610437  0.36208849
   0.83291000  0.83387000  0.06067000
   0.83469000  0.16589000  0.18162000
   0.66681000  0.33159000  0.12072000
   0.83279000  0.49851000  0.18135000
   0.66709000  0.66502000  0.12081000
   0.83337000  0.83396000  0.18143000
Direct configuration=    27
   0.00218000  0.99867000  0.24166000
   0.00302000  0.33361000  0.00057000
   0.99048461  0.32742863  0.36911252
   0.16217000  0.49431000  0.05981000
   0.16492000  0.83554000  0.06027000
   0.50217093  0.49722872  0.30431325
   0.50447000  0.49654000  0.06032000
   0.50514000  0.16237000  0.18167000
   0.66136000  0.00065000  0.24022000
   0.66603000  0.99799000  0.00047000
   0.66640074  0.00225834  0.36412258
   0.65989000  0.33950000  0.00031000
   0.65619008  0.33628280  0.36611933
   0.66352000  0.99935000  0.12162000
   0.16545101  0.16133930  0.30258332
   0.99997000  0.33205000  0.24166000
   0.16638064  0.49874032  0.30372858
   0.00013000  0.66493000  0.24143000
   0.16810282  0.83247953  0.30345967
   0.99854000  0.00048000  0.00000000
  -0.00855385 -0.00173791  0.36065913
   0.16550000  0.16500000  0.06050000
   0.00106000  0.66662000  0.00057000
  -0.00788911  0.66527521  0.36031361
   0.99930000  0.99936000  0.12074000
   0.16685000  0.16538000  0.18105000
   0.99936000  0.33161000  0.12083000
   0.16544000  0.49812000  0.18093000
   0.00040000  0.66536000  0.12057000
   0.16627000  0.83203000  0.18103000
   0.33360000  0.99731000  0.24116000
   0.49548079  0.16299343  0.30145209
   0.33251000  0.33244000  0.24115000
   0.33243000  0.66411000  0.24135000
   0.49974087  0.83246308  0.30337766
   0.33406000  0.99850000  0.00062000
   0.34335394  0.00099703  0.36253442
   0.50112000  0.16466000  0.06049000
   0.33306000  0.33260000  0.00065000
   0.32536711  0.32280321  0.36012148
   0.33279000  0.66191000  0.00103000
   0.33492854  0.66961923  0.36115184
   0.50000000  0.83116000  0.06060000
   0.33336000  0.99854000  0.12089000
   0.33259000  0.33282000  0.12015000
   0.49958000  0.49779000  0.18076000
   0.33192000  0.66330000  0.12025000
   0.49972000  0.83017000  0.18081000
   0.83144561  0.16226734  0.29987460
   0.66532000  0.33232000  0.24137000
   0.83190603  0.50119552  0.30132053
   0.66623000  0.66534000  0.24124000
   0.83262993  0.83249213  0.30156202
   0.83178000  0.16609000  0.06006000
   0.83424000  0.49924000  0.06020000
   0.66675000  0.66697000  0.00034000
   0.67230683  0.67634448  0.36217483
   0.83291000  0.83387000  0.06067000
   0.83469000  0.16589000  0.18162000
   0.66681000  0.33159000  0.12072000
   0.83279000  0.49851000  0.18135000
   0.66709000  0.66502000  0.12081000
   0.83337000  0.83396000  0.18143000
Direct configuration=    28
   0.00218000  0.99867000  0.24166000
   0.00302000  0.33361000  0.00057000
   0.99041684  0.32749302  0.36907149
   0.16217000  0.49431000  0.05981000
   0.16492000  0.83554000  0.06027000
   0.50239562  0.49718239  0.30426852
   0.50447000  0.49654000  0.06032000
   0.50514000  0.16237000  0.18167000
   0.66136000  0.00065000  0.24022000
   0.66603000  0.99799000  0.00047000
   0.66651714  0.00211023  0.36423895
   0.65989000  0.33950000  0.00031000
   0.65590023  0.33659988  0.36614298
   0.66352000  0.99935000  0.12162000
   0.16526541  0.16129278  0.30249948
   0.99997000  0.33205000  0.24166000
   0.16645926  0.49860558  0.30363943
   0.00013000  0.66493000  0.24143000
   0.16789835  0.83244821  0.30347311
   0.99854000  0.00048000  0.00000000
  -0.00874629 -0.00211559  0.36059854
   0.16550000  0.16500000  0.06050000
   0.00106000  0.66662000  0.00057000
  -0.00810783  0.66539735  0.36027328
   0.99930000  0.99936000  0.12074000
   0.16685000  0.16538000  0.18105000
   0.99936000  0.33161000  0.12083000
   0.16544000  0.49812000  0.18093000
   0.00040000  0.66536000  0.12057000
   0.16627000  0.83203000  0.18103000
   0.33360000  0.99731000  0.24116000
   0.49548341  0.16288691  0.30151412
   0.33251000  0.33244000  0.24115000
   0.33243000  0.66411000  0.24135000
   0.49965071  0.83228163  0.30343182
   0.33406000  0.99850000  0.00062000
   0.34365292  0.00098190  0.36257891
   0.50112000  0.16466000  0.06049000
   0.33306000  0.33260000  0.00065000
   0.32539816  0.32266413  0.36016091
   0.33279000  0.66191000  0.00103000
   0.33518099  0.66931843  0.36118482
   0.50000000  0.83116000  0.06060000
   0.33336000  0.99854000  0.12089000
   0.33259000  0.33282000  0.12015000
   0.49958000  0.49779000  0.18076000
   0.33192000  0.66330000  0.12025000
   0.49972000  0.83017000  0.18081000
   0.83131463  0.16219278  0.29975342
   0.66532000  0.33232000  0.24137000
   0.83169364  0.50113559  0.30136053
   0.66623000  0.66534000  0.24124000
   0.83261737  0.83261328  0.30147526
   0.83178000  0.16609000  0.06006000
   0.83424000  0.49924000  0.06020000
   0.66675000  0.66697000  0.00034000
   0.67257000  0.67691581  0.36234137
   0.83291000  0.83387000  0.06067000
   0.83469000  0.16589000  0.18162000
   0.66681000  0.33159000  0.12072000
   0.83279000  0.49851000  0.18135000
   0.66709000  0.66502000  0.12081000
   0.83337000  0.83396000  0.18143000
