Generated by VASPKIT code               
   1.00000000000000     
     8.5045999999999999    0.0000000000000000    0.0000000000000000
    -0.0010989900000000    8.5090999299999996    0.0000000000000000
     0.0000000000000000    0.0000000000000000   23.5565999999999995
   Cr   Pb   Fe
    14     1    49
Selective dynamics
Direct
     0.9975999999999985    0.0033000000000030    0.2422100000000000   F   F   F
     0.6656100000000009    0.9983399999999989    0.0005999999999986   F   F   F
     0.6592484888804099    0.9935167471300063    0.3691170456988586   T   T   T
     0.8346700000000027    0.1658899999999974    0.1820900000000023   F   F   F
     0.9986600000000010    0.3340400000000017    0.1219800000000006   F   F   F
     0.3342099999999988    0.3314700000000030    0.0010100000000008   F   F   F
     0.3303666769830351    0.3206103928439900    0.3656337260263687   T   T   T
     0.8322000000000003    0.5002500000000012    0.0627500000000012   F   F   F
     0.8315305648166770    0.4986716395098056    0.3043178317224270   T   T   T
     0.3351200000000034    0.6703699999999984    0.0000000000000000   F   F   F
     0.3201191678514889    0.6694185711543191    0.3688628238973458   T   T   T
     0.3314499999999967    0.6648799999999966    0.1229200000000006   F   F   F
     0.5085694700029066    0.8398290406763702    0.3035526290176017   T   T   T
     0.6711099999999988    0.6655000000000015    0.1214799999999983   F   F   F
     0.5277252928426142    0.4974152895269246    0.4449238993587133   T   T   T
     0.9994999999999976    0.0003200000000021    0.0010300000000001   F   F   F
     0.0033118234785169    0.9969843690243774    0.3603827402871386   T   T   T
     0.1666999999999987    0.1659199999999998    0.0615999999999985   F   F   F
     0.9992999999999981    0.0001299999999986    0.1218300000000028   F   F   F
     0.1666999999999987    0.1669199999999975    0.1816999999999993   F   F   F
     0.1633536388087529    0.1643345230671909    0.3033120219708249   T   T   T
     0.3336800000000011    0.9998599999999982    0.0010800000000017   F   F   F
     0.3317650186610377    0.9977356177415797    0.3603331504694405   T   T   T
     0.5000799999999970    0.1660600000000017    0.0616399999999970   F   F   F
     0.3336499999999987    0.9994500000000031    0.1219400000000022   F   F   F
     0.5001299999999986    0.1665700000000001    0.1817599999999970   F   F   F
     0.3337399999999988    0.9999400000000023    0.2425199999999990   F   F   F
     0.5006452536035843    0.1686801073851467    0.3029328249937691   T   T   T
     0.8341199999999986    0.1680700000000002    0.0613000000000028   F   F   F
     0.6676700000000011    0.9997200000000035    0.1216799999999978   F   F   F
     0.6679200000000023    0.0003200000000021    0.2423300000000026   F   F   F
     0.8333828673075868    0.1647712674259932    0.3037765363640477   T   T   T
     0.0003299999999982    0.3334600000000023    0.0007599999999996   F   F   F
     0.0004129408419536    0.3323805171734855    0.3615495096204588   T   T   T
     0.1670400000000001    0.5011599999999987    0.0607699999999980   F   F   F
     0.1662699999999973    0.4994000000000014    0.1823800000000020   F   F   F
     0.0000000000000000    0.3331900000000019    0.2426000000000030   F   F   F
     0.1671857855655646    0.4991957765035845    0.3047673334564802   T   T   T
     0.4981099999999969    0.5018600000000006    0.0611200000000025   F   F   F
     0.3332800000000020    0.3343399999999974    0.1214799999999983   F   F   F
     0.5005099999999985    0.5005299999999977    0.1814499999999981   F   F   F
     0.3339199999999991    0.3326899999999995    0.2422899999999970   F   F   F
     0.4991908316014401    0.5027039043171059    0.3058661793777021   T   T   T
     0.6668700000000030    0.3341800000000035    0.0012899999999973   F   F   F
     0.6699258257595684    0.3310861438686500    0.3601854732027997   T   T   T
     0.6666999999999987    0.3333200000000005    0.1217699999999979   F   F   F
     0.8346599999999995    0.4991600000000034    0.1818099999999987   F   F   F
     0.6674799999999976    0.3329099999999983    0.2423399999999987   F   F   F
     0.9994900000000015    0.6658100000000005    0.0011200000000002   F   F   F
     0.9966266099703368    0.6683174279325494    0.3615265090531520   T   T   T
     0.1677299999999988    0.8329499999999967    0.0614100000000022   F   F   F
     0.0014899999999969    0.6667199999999980    0.1219600000000014   F   F   F
     0.1659199999999998    0.8338899999999967    0.1823499999999996   F   F   F
     0.9994999999999976    0.6663500000000013    0.2424499999999981   F   F   F
     0.1672711126164499    0.8322594537101877    0.3031860278668616   T   T   T
     0.4982499999999987    0.8318500000000029    0.0618899999999982   F   F   F
     0.5006399999999971    0.8333500000000029    0.1818900000000028   F   F   F
     0.3342400000000012    0.6662699999999973    0.2423900000000003   F   F   F
     0.6652100000000019    0.6662900000000036    0.0009999999999977   F   F   F
     0.6658899637363512    0.6693676263819115    0.3610581663822120   T   T   T
     0.8338200000000029    0.8326800000000034    0.0612799999999964   F   F   F
     0.8338999999999999    0.8331099999999978    0.1819100000000020   F   F   F
     0.6672099999999972    0.6667500000000004    0.2422100000000000   F   F   F
     0.8354662283048344    0.8323553777986396    0.3027383281159485   T   T   T
 
  0.00000000E+00  0.00000000E+00  0.00000000E+00
  0.00000000E+00  0.00000000E+00  0.00000000E+00
  0.00000000E+00  0.00000000E+00  0.00000000E+00
  0.00000000E+00  0.00000000E+00  0.00000000E+00
  0.00000000E+00  0.00000000E+00  0.00000000E+00
  0.00000000E+00  0.00000000E+00  0.00000000E+00
  0.00000000E+00  0.00000000E+00  0.00000000E+00
  0.00000000E+00  0.00000000E+00  0.00000000E+00
  0.00000000E+00  0.00000000E+00  0.00000000E+00
  0.00000000E+00  0.00000000E+00  0.00000000E+00
  0.00000000E+00  0.00000000E+00  0.00000000E+00
  0.00000000E+00  0.00000000E+00  0.00000000E+00
  0.00000000E+00  0.00000000E+00  0.00000000E+00
  0.00000000E+00  0.00000000E+00  0.00000000E+00
  0.00000000E+00  0.00000000E+00  0.00000000E+00
  0.00000000E+00  0.00000000E+00  0.00000000E+00
  0.00000000E+00  0.00000000E+00  0.00000000E+00
  0.00000000E+00  0.00000000E+00  0.00000000E+00
  0.00000000E+00  0.00000000E+00  0.00000000E+00
  0.00000000E+00  0.00000000E+00  0.00000000E+00
  0.00000000E+00  0.00000000E+00  0.00000000E+00
  0.00000000E+00  0.00000000E+00  0.00000000E+00
  0.00000000E+00  0.00000000E+00  0.00000000E+00
  0.00000000E+00  0.00000000E+00  0.00000000E+00
  0.00000000E+00  0.00000000E+00  0.00000000E+00
  0.00000000E+00  0.00000000E+00  0.00000000E+00
  0.00000000E+00  0.00000000E+00  0.00000000E+00
  0.00000000E+00  0.00000000E+00  0.00000000E+00
  0.00000000E+00  0.00000000E+00  0.00000000E+00
  0.00000000E+00  0.00000000E+00  0.00000000E+00
  0.00000000E+00  0.00000000E+00  0.00000000E+00
  0.00000000E+00  0.00000000E+00  0.00000000E+00
  0.00000000E+00  0.00000000E+00  0.00000000E+00
  0.00000000E+00  0.00000000E+00  0.00000000E+00
  0.00000000E+00  0.00000000E+00  0.00000000E+00
  0.00000000E+00  0.00000000E+00  0.00000000E+00
  0.00000000E+00  0.00000000E+00  0.00000000E+00
  0.00000000E+00  0.00000000E+00  0.00000000E+00
  0.00000000E+00  0.00000000E+00  0.00000000E+00
  0.00000000E+00  0.00000000E+00  0.00000000E+00
  0.00000000E+00  0.00000000E+00  0.00000000E+00
  0.00000000E+00  0.00000000E+00  0.00000000E+00
  0.00000000E+00  0.00000000E+00  0.00000000E+00
  0.00000000E+00  0.00000000E+00  0.00000000E+00
  0.00000000E+00  0.00000000E+00  0.00000000E+00
  0.00000000E+00  0.00000000E+00  0.00000000E+00
  0.00000000E+00  0.00000000E+00  0.00000000E+00
  0.00000000E+00  0.00000000E+00  0.00000000E+00
  0.00000000E+00  0.00000000E+00  0.00000000E+00
  0.00000000E+00  0.00000000E+00  0.00000000E+00
  0.00000000E+00  0.00000000E+00  0.00000000E+00
  0.00000000E+00  0.00000000E+00  0.00000000E+00
  0.00000000E+00  0.00000000E+00  0.00000000E+00
  0.00000000E+00  0.00000000E+00  0.00000000E+00
  0.00000000E+00  0.00000000E+00  0.00000000E+00
  0.00000000E+00  0.00000000E+00  0.00000000E+00
  0.00000000E+00  0.00000000E+00  0.00000000E+00
  0.00000000E+00  0.00000000E+00  0.00000000E+00
  0.00000000E+00  0.00000000E+00  0.00000000E+00
  0.00000000E+00  0.00000000E+00  0.00000000E+00
  0.00000000E+00  0.00000000E+00  0.00000000E+00
  0.00000000E+00  0.00000000E+00  0.00000000E+00
  0.00000000E+00  0.00000000E+00  0.00000000E+00
  0.00000000E+00  0.00000000E+00  0.00000000E+00
