 
:: initializing oneAPI environment ...
   slurm_script: BASH_VERSION = 4.4.20(1)-release
   args: Using "$@" for setvars.sh arguments: --force
:: advisor -- latest
:: ccl -- latest
:: compiler -- latest
:: dal -- latest
:: debugger -- latest
:: dev-utilities -- latest
:: dnnl -- latest
:: dpcpp-ct -- latest
:: dpl -- latest
:: ipp -- latest
:: ippcp -- latest
:: mkl -- latest
:: mpi -- latest
:: pti -- latest
:: tbb -- latest
:: umf -- latest
:: vtune -- latest
:: oneAPI environment initialized ::
 
 running   96 mpi-ranks, on    1 nodes
 distrk:  each k-point on   12 cores,    8 groups
 distr:  one band on    4 cores,    3 groups
 vasp.6.5.1 10Mar25 (build Oct 09 2025 23:55:08) complex                        
  
 POSCAR found type information on POSCAR FePbCr
 POSCAR found :  3 types and      63 ions
 -----------------------------------------------------------------------------
|                                                                             |
|           W    W    AA    RRRRR   N    N  II  N    N   GGGG   !!!           |
|           W    W   A  A   R    R  NN   N  II  NN   N  G    G  !!!           |
|           W    W  A    A  R    R  N N  N  II  N N  N  G       !!!           |
|           W WW W  AAAAAA  RRRRR   N  N N  II  N  N N  G  GGG   !            |
|           WW  WW  A    A  R   R   N   NN  II  N   NN  G    G                |
|           W    W  A    A  R    R  N    N  II  N    N   GGGG   !!!           |
|                                                                             |
|     You requested a magnetic or noncollinear calculation, but did not       |
|     specify the initial magnetic moment with the MAGMOM tag. Note that      |
|     a default of 1 will be used for all atoms. This ferromagnetic setup     |
|     may break the symmetry of the crystal, in particular it may rule        |
|     out finding an antiferromagnetic solution. Thence, we recommend         |
|     setting the initial magnetic moment manually or verifying carefully     |
|     that this magnetic setup is desired.                                    |
|                                                                             |
 -----------------------------------------------------------------------------

 scaLAPACK will be used
 -----------------------------------------------------------------------------
|                                                                             |
|           W    W    AA    RRRRR   N    N  II  N    N   GGGG   !!!           |
|           W    W   A  A   R    R  NN   N  II  NN   N  G    G  !!!           |
|           W    W  A    A  R    R  N N  N  II  N N  N  G       !!!           |
|           W WW W  AAAAAA  RRRRR   N  N N  II  N  N N  G  GGG   !            |
|           WW  WW  A    A  R   R   N   NN  II  N   NN  G    G                |
|           W    W  A    A  R    R  N    N  II  N    N   GGGG   !!!           |
|                                                                             |
|     For optimal performance we recommend to set                             |
|       NCORE = 2 up to number-of-cores-per-socket                            |
|     NCORE specifies how many cores store one orbital (NPAR=cpu/NCORE).      |
|     This setting can greatly improve the performance of VASP for DFT.       |
|     The default, NCORE=1 might be grossly inefficient on modern             |
|     multi-core architectures or massively parallel machines. Do your        |
|     own testing! More info at https://www.vasp.at/wiki/index.php/NCORE      |
|     Unfortunately you need to use the default for GW and RPA                |
|     calculations (for HF NCORE is supported but not extensively tested      |
|     yet).                                                                   |
|                                                                             |
 -----------------------------------------------------------------------------

 LDA part: xc-table for (Slater+PW92), standard interpolation
 POSCAR, INCAR and KPOINTS ok, starting setup
 FFT: planning ... GRIDC
 FFT: planning ... GRID_SOFT
 FFT: planning ... GRID
 WAVECAR not read
 WARNING: chargedensity file is incomplete
 WARNING: random wavefunctions but no delay for mixing, default for NELMDL
 entering main loop
       N       E                     dE             d eps       ncg     rms          rms(c)
DAV:   1     0.552583711835E+04    0.55258E+04   -0.23788E+05 15642   0.144E+03
DAV:   2    -0.600270376518E+02   -0.55859E+04   -0.53902E+04 14760   0.421E+02
DAV:   3    -0.514330686015E+03   -0.45430E+03   -0.40181E+03 15255   0.162E+02
DAV:   4    -0.574929231169E+03   -0.60599E+02   -0.56442E+02 26073   0.455E+01
DAV:   5    -0.578464919409E+03   -0.35357E+01   -0.33449E+01 24390   0.109E+01    0.936E+01
DAV:   6    -0.653707823425E+03   -0.75243E+02   -0.22480E+02 26739   0.719E+01    0.142E+02
DAV:   7    -0.554511853121E+03    0.99196E+02   -0.14509E+02 27279   0.691E+01    0.924E+01
DAV:   8    -0.614000955878E+03   -0.59489E+02   -0.88368E+01 26946   0.679E+01    0.126E+02
DAV:   9    -0.526890786950E+03    0.87110E+02   -0.82746E+01 26136   0.570E+01    0.781E+01
DAV:  10    -0.500590522381E+03    0.26300E+02   -0.98273E+01 22932   0.355E+01    0.525E+01
DAV:  11    -0.490355185865E+03    0.10235E+02   -0.54109E+01 20070   0.278E+01    0.404E+01
DAV:  12    -0.489420431889E+03    0.93475E+00   -0.82824E+00 22149   0.124E+01    0.363E+01
DAV:  13    -0.489652400044E+03   -0.23197E+00   -0.98966E-01 21465   0.341E+00    0.366E+01
DAV:  14    -0.489762596406E+03   -0.11020E+00   -0.92593E-02 25839   0.717E-01    0.368E+01
DAV:  15    -0.490922153770E+03   -0.11596E+01   -0.36526E-01 26766   0.245E+00    0.368E+01
DAV:  16    -0.492057991519E+03   -0.11358E+01   -0.56148E-01 24903   0.262E+00    0.352E+01
DAV:  17    -0.494206236851E+03   -0.21482E+01   -0.11310E+00 25272   0.362E+00    0.331E+01
DAV:  18    -0.498638446709E+03   -0.44322E+01   -0.44814E+00 25614   0.770E+00    0.310E+01
DAV:  19    -0.498341551944E+03    0.29689E+00   -0.42398E+00 25389   0.836E+00    0.246E+01
DAV:  20    -0.500164216877E+03   -0.18227E+01   -0.26476E+00 24480   0.631E+00    0.223E+01
DAV:  21    -0.501138745898E+03   -0.97453E+00   -0.13683E+00 24876   0.423E+00    0.189E+01
DAV:  22    -0.502004700461E+03   -0.86595E+00   -0.17831E+00 25569   0.501E+00    0.149E+01
DAV:  23    -0.502152469971E+03   -0.14777E+00   -0.13993E+00 25218   0.410E+00    0.132E+01
DAV:  24    -0.502170522778E+03   -0.18053E-01   -0.43432E-01 24309   0.309E+00    0.129E+01
DAV:  25    -0.502544674861E+03   -0.37415E+00   -0.33685E-01 25830   0.208E+00    0.125E+01
DAV:  26    -0.502863982266E+03   -0.31931E+00   -0.53363E-01 25344   0.244E+00    0.106E+01
DAV:  27    -0.502975530526E+03   -0.11155E+00   -0.40614E-01 26325   0.265E+00    0.864E+00
DAV:  28    -0.503007464237E+03   -0.31934E-01   -0.29416E-01 25875   0.212E+00    0.705E+00
DAV:  29    -0.503105715110E+03   -0.98251E-01   -0.34852E-01 26496   0.213E+00    0.573E+00
DAV:  30    -0.503174479696E+03   -0.68765E-01   -0.17575E-01 23706   0.133E+00    0.500E+00
DAV:  31    -0.503271577855E+03   -0.97098E-01   -0.29612E-01 24912   0.150E+00    0.404E+00
DAV:  32    -0.503349669335E+03   -0.78091E-01   -0.19292E-01 25758   0.148E+00    0.362E+00
DAV:  33    -0.503413675625E+03   -0.64006E-01   -0.18196E-01 25407   0.116E+00    0.296E+00
DAV:  34    -0.503460373853E+03   -0.46698E-01   -0.13108E-01 25776   0.986E-01    0.292E+00
DAV:  35    -0.503471244207E+03   -0.10870E-01   -0.60808E-02 24795   0.875E-01    0.224E+00
DAV:  36    -0.503473575495E+03   -0.23313E-02   -0.36618E-02 25335   0.610E-01    0.190E+00
DAV:  37    -0.503479871900E+03   -0.62964E-02   -0.37438E-02 24354   0.616E-01    0.141E+00
DAV:  38    -0.503483582421E+03   -0.37105E-02   -0.12364E-02 24021   0.351E-01    0.118E+00
DAV:  39    -0.503485309818E+03   -0.17274E-02   -0.23558E-02 25578   0.443E-01    0.934E-01
DAV:  40    -0.503486629125E+03   -0.13193E-02   -0.72546E-03 24435   0.305E-01    0.738E-01
DAV:  41    -0.503487644546E+03   -0.10154E-02   -0.64982E-03 25407   0.232E-01    0.584E-01
DAV:  42    -0.503488720326E+03   -0.10758E-02   -0.44048E-03 25407   0.222E-01    0.464E-01
DAV:  43    -0.503488929586E+03   -0.20926E-03   -0.43544E-03 24885   0.235E-01    0.354E-01
DAV:  44    -0.503489235398E+03   -0.30581E-03   -0.22598E-03 24669   0.136E-01    0.256E-01
DAV:  45    -0.503489393243E+03   -0.15785E-03   -0.65289E-04 24561   0.789E-02    0.233E-01
DAV:  46    -0.503489416995E+03   -0.23752E-04   -0.55368E-04 25947   0.995E-02    0.169E-01
DAV:  47    -0.503489475050E+03   -0.58055E-04   -0.58123E-04 25479   0.805E-02    0.136E-01
DAV:  48    -0.503489532358E+03   -0.57308E-04   -0.16821E-04 22014   0.468E-02    0.106E-01
DAV:  49    -0.503489574450E+03   -0.42092E-04   -0.13876E-04 22896   0.351E-02    0.866E-02
DAV:  50    -0.503489610453E+03   -0.36003E-04   -0.87318E-05 18774   0.330E-02    0.626E-02
DAV:  51    -0.503489621990E+03   -0.11537E-04   -0.50594E-05 17010   0.196E-02    0.541E-02
DAV:  52    -0.503489635430E+03   -0.13440E-04   -0.26108E-05 12573   0.145E-02    0.460E-02
DAV:  53    -0.503489646026E+03   -0.10597E-04   -0.42568E-05 15696   0.187E-02    0.369E-02
DAV:  54    -0.503489653475E+03   -0.74489E-05   -0.35800E-05 12942   0.180E-02
   1 F= -.50348965E+03 E0= -.50348915E+03  d E =-.503490E+03  mag=   107.8928
 curvature:   0.00 expect dE= 0.000E+00 dE for cont linesearch  0.000E+00
 trial: gam= 0.00000 g(F)=  0.129E+01 g(S)=  0.000E+00 ort = 0.000E+00 (trialstep = 0.100E+01)
 search vector abs. value=  0.129E+01
 bond charge predicted
       N       E                     dE             d eps       ncg     rms          rms(c)
DAV:   1    -0.499895871202E+03    0.35938E+01   -0.58548E+02 22401   0.474E+01    0.978E+00
DAV:   2    -0.504483478320E+03   -0.45876E+01   -0.39224E+01 18693   0.124E+01    0.126E+01
DAV:   3    -0.506027007000E+03   -0.15435E+01   -0.10608E+01 27162   0.181E+01    0.187E+01
DAV:   4    -0.503858684069E+03    0.21683E+01   -0.47058E+00 27630   0.113E+01    0.529E+00
DAV:   5    -0.503889436442E+03   -0.30752E-01   -0.30029E-01 23805   0.277E+00    0.396E+00
DAV:   6    -0.503921671373E+03   -0.32235E-01   -0.12909E-01 20061   0.192E+00    0.315E+00
DAV:   7    -0.503981349578E+03   -0.59678E-01   -0.51445E-02 24255   0.897E-01    0.221E+00
DAV:   8    -0.503999544201E+03   -0.18195E-01   -0.36992E-02 21996   0.756E-01    0.137E+00
DAV:   9    -0.503994865020E+03    0.46792E-02   -0.21188E-02 23994   0.620E-01    0.970E-01
DAV:  10    -0.503993894892E+03    0.97013E-03   -0.40439E-03 24876   0.269E-01    0.891E-01
DAV:  11    -0.503991747005E+03    0.21479E-02   -0.34983E-03 23787   0.232E-01    0.712E-01
DAV:  12    -0.503990808322E+03    0.93868E-03   -0.54289E-03 25533   0.237E-01    0.613E-01
DAV:  13    -0.503989789669E+03    0.10187E-02   -0.24482E-03 21708   0.217E-01    0.421E-01
DAV:  14    -0.503989813289E+03   -0.23620E-04   -0.31567E-03 26955   0.245E-01    0.365E-01
DAV:  15    -0.503990224056E+03   -0.41077E-03   -0.97825E-04 21213   0.903E-02    0.337E-01
DAV:  16    -0.503989876669E+03    0.34739E-03   -0.74577E-04 21744   0.147E-01    0.172E-01
DAV:  17    -0.503989877806E+03   -0.11370E-05   -0.22354E-04 23427   0.578E-02    0.130E-01
DAV:  18    -0.503989919197E+03   -0.41391E-04   -0.10509E-04 16110   0.458E-02    0.129E-01
DAV:  19    -0.503989910972E+03    0.82250E-05   -0.12708E-04 19611   0.358E-02    0.991E-02
DAV:  20    -0.503989859097E+03    0.51874E-04   -0.15847E-04 14949   0.604E-02    0.417E-02
DAV:  21    -0.503989869245E+03   -0.10147E-04   -0.36591E-05 13761   0.182E-02    0.457E-02
DAV:  22    -0.503989869028E+03    0.21657E-06   -0.11290E-05  8460   0.149E-02
   2 F= -.50398987E+03 E0= -.50398850E+03  d E =-.500216E+00  mag=   107.6835
 trial-energy change:   -0.500216  1 .order   -0.615749   -1.287328    0.055829
 step:   0.9208(harm=  0.9584)  dis= 0.13888  next Energy=  -503.992137 (dE=-0.502E+00)
 bond charge predicted
       N       E                     dE             d eps       ncg     rms          rms(c)
DAV:   1    -0.503959041038E+03    0.30828E-01   -0.31901E+00 21627   0.377E+00    0.725E-01
DAV:   2    -0.503990597184E+03   -0.31556E-01   -0.30642E-01 15993   0.770E-01    0.523E-01
DAV:   3    -0.504013846439E+03   -0.23249E-01   -0.93891E-02 27432   0.131E+00    0.192E+00
DAV:   4    -0.503990206595E+03    0.23640E-01   -0.67874E-02 27882   0.108E+00    0.323E-01
DAV:   5    -0.503991326053E+03   -0.11195E-02   -0.12515E-03 25299   0.140E-01    0.288E-01
DAV:   6    -0.503991743446E+03   -0.41739E-03   -0.10396E-03 24669   0.180E-01    0.230E-01
DAV:   7    -0.503991794214E+03   -0.50768E-04   -0.46946E-04 22023   0.902E-02    0.114E-01
DAV:   8    -0.503991752237E+03    0.41977E-04   -0.12898E-04 16812   0.484E-02    0.777E-02
DAV:   9    -0.503991748237E+03    0.39999E-05   -0.56363E-05 15507   0.194E-02
   3 F= -.50399175E+03 E0= -.50399046E+03  d E =-.502095E+00  mag=   107.7031
 curvature:  -0.09 expect dE=-0.260E-02 dE for cont linesearch -0.123E-05
 trial: gam= 0.02006 g(F)=  0.301E-01 g(S)=  0.000E+00 ort = 0.429E-02 (trialstep = 0.984E+00)
 search vector abs. value=  0.308E-01
 bond charge predicted
       N       E                     dE             d eps       ncg     rms          rms(c)
DAV:   1    -0.503953625599E+03    0.38127E-01   -0.85068E+00 15435   0.531E+00    0.120E+00
DAV:   2    -0.504010281487E+03   -0.56656E-01   -0.52153E-01 15858   0.162E+00    0.109E+00
DAV:   3    -0.504047341135E+03   -0.37060E-01   -0.17058E-01 24795   0.187E+00    0.255E+00
DAV:   4    -0.504011020214E+03    0.36321E-01   -0.10970E-01 26712   0.142E+00    0.721E-01
DAV:   5    -0.504015461097E+03   -0.44409E-02   -0.43217E-03 26145   0.332E-01    0.638E-01
DAV:   6    -0.504017295445E+03   -0.18343E-02   -0.55557E-03 24957   0.422E-01    0.386E-01
DAV:   7    -0.504017325416E+03   -0.29971E-04   -0.22776E-03 23670   0.229E-01    0.213E-01
DAV:   8    -0.504017447350E+03   -0.12193E-03   -0.60687E-04 24543   0.948E-02    0.236E-01
DAV:   9    -0.504017357796E+03    0.89554E-04   -0.26222E-04 19629   0.806E-02    0.187E-01
DAV:  10    -0.504017281851E+03    0.75946E-04   -0.56556E-04 23805   0.961E-02    0.134E-01
DAV:  11    -0.504017291583E+03   -0.97326E-05   -0.30909E-04 22518   0.486E-02    0.120E-01
DAV:  12    -0.504017238999E+03    0.52584E-04   -0.95760E-05 16992   0.497E-02    0.738E-02
DAV:  13    -0.504017247984E+03   -0.89845E-05   -0.88806E-05 18963   0.309E-02
   4 F= -.50401725E+03 E0= -.50401578E+03  d E =-.254997E-01  mag=   107.6651
 trial-energy change:   -0.025500  1 .order   -0.025736   -0.029717   -0.021756
 step:   3.6738(harm=  3.6738)  dis= 0.08444  next Energy=  -504.047212 (dE=-0.555E-01)
 bond charge predicted
       N       E                     dE             d eps       ncg     rms          rms(c)
DAV:   1    -0.503540200724E+03    0.47704E+00   -0.64464E+01 15327   0.147E+01    0.337E+00
DAV:   2    -0.503983405077E+03   -0.44320E+00   -0.41473E+00 15732   0.452E+00    0.272E+00
DAV:   3    -0.504328118504E+03   -0.34471E+00   -0.12425E+00 27180   0.508E+00    0.745E+00
DAV:   4    -0.504000810815E+03    0.32731E+00   -0.94881E-01 27873   0.422E+00    0.200E+00
DAV:   5    -0.504033387913E+03   -0.32577E-01   -0.34593E-02 26181   0.906E-01    0.180E+00
DAV:   6    -0.504045371062E+03   -0.11983E-01   -0.39538E-02 24606   0.115E+00    0.981E-01
DAV:   7    -0.504048014517E+03   -0.26435E-02   -0.12953E-02 23535   0.559E-01    0.577E-01
DAV:   8    -0.504048683729E+03   -0.66921E-03   -0.37313E-03 24507   0.246E-01    0.589E-01
DAV:   9    -0.504048220748E+03    0.46298E-03   -0.15705E-03 19575   0.197E-01    0.491E-01
DAV:  10    -0.504047649681E+03    0.57107E-03   -0.23196E-03 26847   0.198E-01    0.357E-01
DAV:  11    -0.504047764902E+03   -0.11522E-03   -0.23470E-03 23904   0.166E-01    0.352E-01
DAV:  12    -0.504047403480E+03    0.36142E-03   -0.77662E-04 21960   0.130E-01    0.241E-01
DAV:  13    -0.504047309236E+03    0.94243E-04   -0.38497E-04 24075   0.677E-02    0.158E-01
DAV:  14    -0.504047393314E+03   -0.84078E-04   -0.41036E-04 16434   0.836E-02    0.153E-01
DAV:  15    -0.504047471068E+03   -0.77754E-04   -0.26466E-04 19863   0.413E-02    0.136E-01
DAV:  16    -0.504047411525E+03    0.59543E-04   -0.92099E-05 14895   0.520E-02    0.742E-02
DAV:  17    -0.504047416313E+03   -0.47875E-05   -0.57392E-05 14274   0.290E-02
   5 F= -.50404742E+03 E0= -.50404556E+03  d E =-.556681E-01  mag=   107.5586
 curvature:  -1.87 expect dE=-0.535E-01 dE for cont linesearch -0.765E-05
 trial: gam= 0.97001 g(F)=  0.285E-01 g(S)=  0.000E+00 ort = 0.355E-03 (trialstep = 0.805E+00)
 search vector abs. value=  0.582E-01
 bond charge predicted
       N       E                     dE             d eps       ncg     rms          rms(c)
DAV:   1    -0.503998639686E+03    0.48772E-01   -0.12390E+01 16560   0.477E+00    0.102E+00
DAV:   2    -0.504063601213E+03   -0.64962E-01   -0.63416E-01 15687   0.127E+00    0.682E-01
DAV:   3    -0.504078504871E+03   -0.14904E-01   -0.50981E-02 26433   0.965E-01    0.150E+00
DAV:   4    -0.504066637264E+03    0.11868E-01   -0.49596E-02 26172   0.952E-01    0.605E-01
DAV:   5    -0.504068547590E+03   -0.19103E-02   -0.38979E-03 25776   0.293E-01    0.481E-01
DAV:   6    -0.504069892937E+03   -0.13453E-02   -0.30078E-03 24840   0.317E-01    0.310E-01
DAV:   7    -0.504069731774E+03    0.16116E-03   -0.11642E-03 22689   0.158E-01    0.161E-01
DAV:   8    -0.504069702169E+03    0.29605E-04   -0.19672E-04 22599   0.509E-02    0.120E-01
DAV:   9    -0.504069694466E+03    0.77028E-05   -0.79242E-05 17397   0.298E-02
   6 F= -.50406969E+03 E0= -.50406781E+03  d E =-.222782E-01  mag=   107.5421
 ZBRENT: can't locate minimum, use default step
 trial-energy change:   -0.022278  1 .order   -0.022455   -0.023261   -0.021649
 step:   3.2217(harm= 11.6278)  dis= 0.13358  next Energy=  -504.215320 (dE=-0.168E+00)
 bond charge predicted
       N       E                     dE             d eps       ncg     rms          rms(c)
DAV:   1    -0.503721111540E+03    0.34859E+00   -0.12188E+02 16650   0.150E+01    0.289E+00
DAV:   2    -0.504069752398E+03   -0.34864E+00   -0.33190E+00 15489   0.357E+00    0.202E+00
DAV:   3    -0.504109103512E+03   -0.39351E-01   -0.14918E-01 25812   0.131E+00    0.224E+00
DAV:   4    -0.504142721621E+03   -0.33618E-01   -0.28988E-01 25632   0.239E+00    0.305E+00
DAV:   5    -0.504114674812E+03    0.28047E-01   -0.16964E-01 27090   0.183E+00    0.135E+00
DAV:   6    -0.504122824907E+03   -0.81501E-02   -0.26399E-02 27000   0.919E-01    0.860E-01
DAV:   7    -0.504123195568E+03   -0.37066E-03   -0.95428E-03 22905   0.453E-01    0.445E-01
DAV:   8    -0.504123289753E+03   -0.94185E-04   -0.23449E-03 20142   0.187E-01    0.407E-01
DAV:   9    -0.504123027222E+03    0.26253E-03   -0.66922E-04 23715   0.910E-02    0.342E-01
DAV:  10    -0.504122752959E+03    0.27426E-03   -0.13780E-03 25731   0.161E-01    0.262E-01
DAV:  11    -0.504122738698E+03    0.14261E-04   -0.12200E-03 22293   0.979E-02    0.249E-01
DAV:  12    -0.504122680028E+03    0.58670E-04   -0.39472E-04 22320   0.712E-02    0.188E-01
DAV:  13    -0.504122657851E+03    0.22177E-04   -0.61721E-04 18063   0.112E-01    0.129E-01
DAV:  14    -0.504122788549E+03   -0.13070E-03   -0.30347E-04 21807   0.460E-02    0.147E-01
DAV:  15    -0.504122727830E+03    0.60719E-04   -0.14597E-04 19584   0.630E-02    0.748E-02
DAV:  16    -0.504122728124E+03   -0.29368E-06   -0.64462E-05 11097   0.372E-02
   7 F= -.50412273E+03 E0= -.50412075E+03  d E =-.753118E-01  mag=   107.5001
 curvature:  -4.65 expect dE=-0.841E-01 dE for cont linesearch -0.237E-01
 ZBRENT: increasing intervall
 opt :   8.0543  next Energy=  -504.159199 (dE=-0.112E+00)
 bond charge predicted
       N       E                     dE             d eps       ncg     rms          rms(c)
DAV:   1    -0.502201659142E+03    0.19211E+01   -0.60801E+02 16659   0.343E+01    0.609E+00
DAV:   2    -0.503923566834E+03   -0.17219E+01   -0.16471E+01 15408   0.767E+00    0.429E+00
DAV:   3    -0.504598702081E+03   -0.67514E+00   -0.21690E+00 27738   0.629E+00    0.990E+00
DAV:   4    -0.504077836201E+03    0.52087E+00   -0.21625E+00 27189   0.670E+00    0.400E+00
DAV:   5    -0.504110173335E+03   -0.32337E-01   -0.15772E-01 24210   0.176E+00    0.246E+00
DAV:   6    -0.504150433282E+03   -0.40260E-01   -0.58338E-02 23094   0.153E+00    0.195E+00
DAV:   7    -0.504163828496E+03   -0.13395E-01   -0.53556E-02 25371   0.129E+00    0.105E+00
DAV:   8    -0.504161747755E+03    0.20807E-02   -0.25219E-02 23517   0.779E-01    0.767E-01
DAV:   9    -0.504161493591E+03    0.25416E-03   -0.46324E-03 18288   0.237E-01    0.694E-01
DAV:  10    -0.504160287220E+03    0.12064E-02   -0.19947E-03 26982   0.223E-01    0.528E-01
DAV:  11    -0.504159497462E+03    0.78976E-03   -0.33973E-03 23553   0.190E-01    0.411E-01
DAV:  12    -0.504159470596E+03    0.26866E-04   -0.20321E-03 23274   0.148E-01    0.389E-01
DAV:  13    -0.504159209448E+03    0.26115E-03   -0.12819E-03 23607   0.171E-01    0.245E-01
DAV:  14    -0.504159573842E+03   -0.36439E-03   -0.13611E-03 25209   0.144E-01    0.235E-01
DAV:  15    -0.504159649440E+03   -0.75598E-04   -0.33760E-04 18180   0.668E-02    0.205E-01
DAV:  16    -0.504159530171E+03    0.11927E-03   -0.38440E-04 23751   0.914E-02    0.107E-01
DAV:  17    -0.504159575286E+03   -0.45115E-04   -0.14276E-04 21627   0.411E-02    0.998E-02
DAV:  18    -0.504159618213E+03   -0.42926E-04   -0.73531E-05 17064   0.308E-02    0.101E-01
DAV:  19    -0.504159607449E+03    0.10764E-04   -0.16252E-04 22788   0.497E-02    0.471E-02
DAV:  20    -0.504159614524E+03   -0.70748E-05   -0.39823E-05 12618   0.235E-02
   8 F= -.50415961E+03 E0= -.50415757E+03  d E =-.112198E+00  mag=   107.4483
 curvature:  -7.16 expect dE=-0.334E+00 dE for cont linesearch -0.897E-03
 trial: gam= 1.68386 g(F)=  0.466E-01 g(S)=  0.000E+00 ort =-0.270E-02 (trialstep = 0.648E+00)
 search vector abs. value=  0.203E+00
 bond charge predicted
       N       E                     dE             d eps       ncg     rms          rms(c)
DAV:   1    -0.504009426722E+03    0.15018E+00   -0.29674E+01 18657   0.748E+00    0.142E+00
DAV:   2    -0.504176429374E+03   -0.16700E+00   -0.16327E+00 15840   0.182E+00    0.103E+00
DAV:   3    -0.504248685229E+03   -0.72256E-01   -0.26978E-01 26046   0.235E+00    0.336E+00
DAV:   4    -0.504178405094E+03    0.70280E-01   -0.21566E-01 27495   0.196E+00    0.727E-01
DAV:   5    -0.504182945875E+03   -0.45408E-02   -0.62573E-03 25767   0.338E-01    0.629E-01
DAV:   6    -0.504186028655E+03   -0.30828E-02   -0.62059E-03 24840   0.450E-01    0.551E-01
DAV:   7    -0.504185337916E+03    0.69074E-03   -0.39501E-03 23364   0.296E-01    0.201E-01
DAV:   8    -0.504185318338E+03    0.19579E-04   -0.55473E-04 22122   0.791E-02    0.153E-01
DAV:   9    -0.504185312259E+03    0.60789E-05   -0.14272E-04 17811   0.416E-02    0.135E-01
DAV:  10    -0.504185296559E+03    0.15700E-04   -0.21214E-04 22329   0.523E-02    0.110E-01
DAV:  11    -0.504185269139E+03    0.27420E-04   -0.18288E-04 21852   0.482E-02    0.757E-02
DAV:  12    -0.504185275408E+03   -0.62693E-05   -0.46051E-05 13914   0.233E-02
   9 F= -.50418528E+03 E0= -.50418326E+03  d E =-.256609E-01  mag=   107.4463
 ZBRENT: can't locate minimum, use default step
 trial-energy change:   -0.025661  1 .order   -0.025721   -0.027271   -0.024171
 step:   2.5919(harm=  5.7004)  dis= 0.19055  next Energy=  -504.279570 (dE=-0.120E+00)
 bond charge predicted
       N       E                     dE             d eps       ncg     rms          rms(c)
DAV:   1    -0.503225940442E+03    0.95933E+00   -0.32271E+02 18783   0.251E+01    0.414E+00
DAV:   2    -0.504139419089E+03   -0.91348E+00   -0.88444E+00 15561   0.500E+00    0.267E+00
DAV:   3    -0.504199510042E+03   -0.60091E-01   -0.35197E-01 26667   0.131E+00    0.213E+00
DAV:   4    -0.504259244777E+03   -0.59735E-01   -0.16934E-01 27360   0.181E+00    0.322E+00
DAV:   5    -0.504241102385E+03    0.18142E-01   -0.33571E-01 27504   0.252E+00    0.237E+00
DAV:   6    -0.504238343244E+03    0.27591E-02   -0.13070E-01 27333   0.178E+00    0.155E+00
DAV:   7    -0.504241717017E+03   -0.33738E-02   -0.34076E-02 24885   0.884E-01    0.535E-01
DAV:   8    -0.504241877153E+03   -0.16014E-03   -0.67074E-03 19998   0.281E-01    0.439E-01
DAV:   9    -0.504241686410E+03    0.19074E-03   -0.12091E-03 23436   0.127E-01    0.395E-01
DAV:  10    -0.504241348909E+03    0.33750E-03   -0.89500E-04 23265   0.128E-01    0.311E-01
DAV:  11    -0.504241130568E+03    0.21834E-03   -0.17395E-03 22419   0.125E-01    0.218E-01
DAV:  12    -0.504241245024E+03   -0.11446E-03   -0.65179E-04 21087   0.665E-02    0.209E-01
DAV:  13    -0.504241288003E+03   -0.42979E-04   -0.28546E-04 23184   0.785E-02    0.130E-01
DAV:  14    -0.504241436118E+03   -0.14812E-03   -0.43706E-04 17343   0.936E-02    0.147E-01
DAV:  15    -0.504241429771E+03    0.63476E-05   -0.18021E-04 21771   0.497E-02    0.998E-02
DAV:  16    -0.504241414849E+03    0.14922E-04   -0.76352E-05 11646   0.416E-02    0.585E-02
DAV:  17    -0.504241437460E+03   -0.22611E-04   -0.71575E-05 16965   0.259E-02    0.654E-02
DAV:  18    -0.504241446869E+03   -0.94092E-05   -0.45721E-05 14094   0.233E-02
  10 F= -.50424145E+03 E0= -.50423937E+03  d E =-.818323E-01  mag=   107.4460
 curvature:  -8.53 expect dE=-0.326E+00 dE for cont linesearch -0.175E-01
 ZBRENT: increasing intervall
 opt :   6.4797  next Energy=  -504.255018 (dE=-0.954E-01)
 bond charge predicted
       N       E                     dE             d eps       ncg     rms          rms(c)
DAV:   1    -0.488858860711E+03    0.15383E+02   -0.19297E+03 19287   0.615E+01    0.124E+01
DAV:   2    -0.503166859162E+03   -0.14308E+02   -0.14193E+02 15723   0.126E+01    0.790E+00
DAV:   3    -0.509680130709E+03   -0.65133E+01   -0.18710E+01 27297   0.208E+01    0.290E+01
DAV:   4    -0.504109378268E+03    0.55708E+01   -0.10654E+01 27765   0.186E+01    0.575E+00
DAV:   5    -0.504148721784E+03   -0.39344E-01   -0.67663E-01 25155   0.302E+00    0.374E+00
DAV:   6    -0.504189750989E+03   -0.41029E-01   -0.10734E-01 21618   0.174E+00    0.321E+00
DAV:   7    -0.504260468671E+03   -0.70718E-01   -0.10207E-01 26172   0.150E+00    0.217E+00
DAV:   8    -0.504267422949E+03   -0.69543E-02   -0.52393E-02 24669   0.124E+00    0.162E+00
DAV:   9    -0.504264366544E+03    0.30564E-02   -0.20122E-02 23967   0.724E-01    0.101E+00
DAV:  10    -0.504263441694E+03    0.92485E-03   -0.79350E-03 24696   0.352E-01    0.852E-01
DAV:  11    -0.504262915980E+03    0.52571E-03   -0.23174E-03 23913   0.206E-01    0.775E-01
DAV:  12    -0.504261019963E+03    0.18960E-02   -0.41180E-03 22959   0.253E-01    0.512E-01
DAV:  13    -0.504260421282E+03    0.59868E-03   -0.37647E-03 22437   0.171E-01    0.351E-01
DAV:  14    -0.504260665713E+03   -0.24443E-03   -0.15445E-03 24138   0.140E-01    0.335E-01
DAV:  15    -0.504260839484E+03   -0.17377E-03   -0.47549E-04 23373   0.847E-02    0.255E-01
DAV:  16    -0.504260999477E+03   -0.15999E-03   -0.53996E-04 24435   0.978E-02    0.156E-01
DAV:  17    -0.504261093820E+03   -0.94343E-04   -0.17324E-04 22563   0.479E-02    0.144E-01
DAV:  18    -0.504261130231E+03   -0.36411E-04   -0.83015E-05 18576   0.399E-02    0.114E-01
DAV:  19    -0.504261178482E+03   -0.48251E-04   -0.17366E-04 22158   0.419E-02    0.773E-02
DAV:  20    -0.504261206832E+03   -0.28350E-04   -0.59558E-05 15975   0.313E-02    0.556E-02
DAV:  21    -0.504261214792E+03   -0.79601E-05   -0.18937E-05  9801   0.181E-02
  11 F= -.50426121E+03 E0= -.50425882E+03  d E =-.101600E+00  mag=   107.5107
 curvature:  -6.61 expect dE=-0.602E+00 dE for cont linesearch -0.337E-02
 trial: gam= 1.51741 g(F)=  0.910E-01 g(S)=  0.000E+00 ort =-0.102E-01 (trialstep = 0.698E+00)
 search vector abs. value=  0.527E+00
 bond charge predicted
       N       E                     dE             d eps       ncg     rms          rms(c)
DAV:   1    -0.504095063788E+03    0.16614E+00   -0.93525E+01 17037   0.108E+01    0.201E+00
DAV:   2    -0.504287143709E+03   -0.19208E+00   -0.17672E+00 16020   0.245E+00    0.176E+00
DAV:   3    -0.504391410036E+03   -0.10427E+00   -0.45832E-01 25956   0.311E+00    0.413E+00
DAV:   4    -0.504296686366E+03    0.94724E-01   -0.29990E-01 26361   0.245E+00    0.110E+00
DAV:   5    -0.504309063066E+03   -0.12377E-01   -0.13435E-02 22977   0.435E-01    0.615E-01
DAV:   6    -0.504312974410E+03   -0.39113E-02   -0.67760E-03 25569   0.444E-01    0.638E-01
DAV:   7    -0.504311382222E+03    0.15922E-02   -0.42597E-03 23985   0.393E-01    0.319E-01
DAV:   8    -0.504311212421E+03    0.16980E-03   -0.86240E-04 22689   0.125E-01    0.238E-01
DAV:   9    -0.504311164719E+03    0.47702E-04   -0.31691E-04 23742   0.764E-02    0.216E-01
DAV:  10    -0.504311033204E+03    0.13151E-03   -0.50703E-04 21726   0.694E-02    0.163E-01
DAV:  11    -0.504310991703E+03    0.41501E-04   -0.39365E-04 22257   0.637E-02    0.126E-01
DAV:  12    -0.504310998353E+03   -0.66497E-05   -0.81223E-05 17487   0.319E-02
  12 F= -.50431100E+03 E0= -.50430861E+03  d E =-.497836E-01  mag=   107.5863
 ZBRENT: can't locate minimum, use default step
 trial-energy change:   -0.049784  1 .order   -0.049901   -0.052771   -0.047031
 step:   2.7916(harm=  6.4160)  dis= 0.27706  next Energy=  -504.503785 (dE=-0.243E+00)
 bond charge predicted
       N       E                     dE             d eps       ncg     rms          rms(c)
DAV:   1    -0.498105465251E+03    0.62055E+01   -0.13478E+03 16875   0.440E+01    0.696E+00
DAV:   2    -0.504021137455E+03   -0.59157E+01   -0.57382E+01 17937   0.924E+00    0.650E+00
DAV:   3    -0.505450520208E+03   -0.14294E+01   -0.72240E+00 26532   0.119E+01    0.143E+01
DAV:   4    -0.504288610478E+03    0.11619E+01   -0.32196E+00 27441   0.852E+00    0.368E+00
DAV:   5    -0.504356467018E+03   -0.67857E-01   -0.12476E-01 23184   0.157E+00    0.287E+00
DAV:   6    -0.504407271675E+03   -0.50805E-01   -0.12216E-01 24993   0.202E+00    0.249E+00
DAV:   7    -0.504422339128E+03   -0.15067E-01   -0.54397E-02 23634   0.122E+00    0.117E+00
DAV:   8    -0.504420698681E+03    0.16404E-02   -0.16053E-02 22806   0.530E-01    0.786E-01
DAV:   9    -0.504420079261E+03    0.61942E-03   -0.40235E-03 23895   0.264E-01    0.692E-01
DAV:  10    -0.504419405850E+03    0.67341E-03   -0.20611E-03 21114   0.183E-01    0.582E-01
DAV:  11    -0.504418498749E+03    0.90710E-03   -0.25790E-03 23364   0.192E-01    0.423E-01
DAV:  12    -0.504418302595E+03    0.19615E-03   -0.20665E-03 22932   0.147E-01    0.366E-01
DAV:  13    -0.504418344218E+03   -0.41622E-04   -0.10232E-03 22707   0.102E-01    0.312E-01
DAV:  14    -0.504418443990E+03   -0.99773E-04   -0.14293E-03 25740   0.191E-01    0.185E-01
DAV:  15    -0.504418745199E+03   -0.30121E-03   -0.46654E-04 23517   0.830E-02    0.228E-01
DAV:  16    -0.504418578350E+03    0.16685E-03   -0.35819E-04 21645   0.956E-02    0.118E-01
DAV:  17    -0.504418563819E+03    0.14532E-04   -0.15258E-04 19206   0.521E-02    0.760E-02
DAV:  18    -0.504418577379E+03   -0.13560E-04   -0.62950E-05 16128   0.233E-02    0.758E-02
DAV:  19    -0.504418582373E+03   -0.49941E-05   -0.53829E-05 14499   0.239E-02
  13 F= -.50441858E+03 E0= -.50441579E+03  d E =-.157368E+00  mag=   107.7787
 curvature: -13.37 expect dE=-0.104E+01 dE for cont linesearch -0.309E-01
 ZBRENT: increasing intervall
 opt :   6.9790  next Energy=  -504.428645 (dE=-0.167E+00)
 bond charge predicted
       N       E                     dE             d eps       ncg     rms          rms(c)
DAV:   1    -0.437394638913E+03    0.67024E+02   -0.35969E+03 16020   0.752E+01    0.214E+01
DAV:   2    -0.501510263745E+03   -0.64116E+02   -0.61930E+02 16227   0.274E+01    0.215E+01
DAV:   3    -0.517333004481E+03   -0.15823E+02   -0.62984E+01 23580   0.428E+01    0.456E+01
DAV:   4    -0.503895473223E+03    0.13438E+02   -0.19783E+01 25947   0.288E+01    0.103E+01
DAV:   5    -0.504073174676E+03   -0.17770E+00   -0.21042E+00 20574   0.538E+00    0.723E+00
DAV:   6    -0.504135523665E+03   -0.62349E-01   -0.62014E-01 23679   0.379E+00    0.611E+00
DAV:   7    -0.504353208276E+03   -0.21768E+00   -0.32299E-01 26226   0.259E+00    0.474E+00
DAV:   8    -0.504438926815E+03   -0.85719E-01   -0.21651E-01 23049   0.237E+00    0.291E+00
DAV:   9    -0.504437192707E+03    0.17341E-02   -0.64501E-02 24534   0.125E+00    0.200E+00
DAV:  10    -0.504445994272E+03   -0.88016E-02   -0.41721E-02 23778   0.736E-01    0.154E+00
DAV:  11    -0.504445254267E+03    0.74000E-03   -0.80007E-03 21420   0.382E-01    0.141E+00
DAV:  12    -0.504442163492E+03    0.30908E-02   -0.60252E-03 23778   0.332E-01    0.115E+00
DAV:  13    -0.504438854676E+03    0.33088E-02   -0.96404E-03 23247   0.372E-01    0.808E-01
DAV:  14    -0.504437991156E+03    0.86352E-03   -0.88158E-03 23274   0.351E-01    0.685E-01
DAV:  15    -0.504438127869E+03   -0.13671E-03   -0.32351E-03 23157   0.195E-01    0.507E-01
DAV:  16    -0.504438588352E+03   -0.46048E-03   -0.15607E-03 24147   0.153E-01    0.329E-01
DAV:  17    -0.504438921697E+03   -0.33335E-03   -0.61580E-04 22302   0.908E-02    0.251E-01
DAV:  18    -0.504438950127E+03   -0.28429E-04   -0.27808E-04 23004   0.716E-02    0.208E-01
DAV:  19    -0.504439000743E+03   -0.50617E-04   -0.43188E-04 24327   0.706E-02    0.159E-01
DAV:  20    -0.504439077369E+03   -0.76626E-04   -0.31958E-04 22491   0.551E-02    0.138E-01
DAV:  21    -0.504439054468E+03    0.22901E-04   -0.78613E-05 19143   0.403E-02    0.988E-02
DAV:  22    -0.504439056573E+03   -0.21044E-05   -0.19470E-04 16659   0.644E-02    0.753E-02
DAV:  23    -0.504439075303E+03   -0.18730E-04   -0.10441E-04 18972   0.249E-02    0.631E-02
DAV:  24    -0.504439073217E+03    0.20859E-05   -0.21960E-05  9081   0.268E-02
  14 F= -.50443907E+03 E0= -.50443515E+03  d E =-.177858E+00  mag=   108.0146
 curvature:  -4.35 expect dE=-0.141E+01 dE for cont linesearch -0.653E-02
 ZBRENT: bracketing found
 ZBRENT: interpolating
 opt :   5.1105  next Energy=  -504.465343 (dE=-0.204E+00)
 bond charge predicted
       N       E                     dE             d eps       ncg     rms          rms(c)
DAV:   1    -0.501526304689E+03    0.29128E+01   -0.99519E+02 16812   0.376E+01    0.579E+00
DAV:   2    -0.504196911520E+03   -0.26706E+01   -0.25709E+01 16776   0.736E+00    0.444E+00
DAV:   3    -0.505424415723E+03   -0.12275E+01   -0.39432E+00 27477   0.939E+00    0.136E+01
DAV:   4    -0.504350661713E+03    0.10738E+01   -0.28291E+00 27720   0.779E+00    0.325E+00
DAV:   5    -0.504417069474E+03   -0.66408E-01   -0.10170E-01 24894   0.150E+00    0.249E+00
DAV:   6    -0.504460075254E+03   -0.43006E-01   -0.96717E-02 24543   0.175E+00    0.190E+00
DAV:   7    -0.504463218450E+03   -0.31432E-02   -0.51439E-02 23598   0.112E+00    0.826E-01
DAV:   8    -0.504463916443E+03   -0.69799E-03   -0.10265E-02 23004   0.375E-01    0.744E-01
DAV:   9    -0.504463452004E+03    0.46444E-03   -0.30590E-03 17973   0.270E-01    0.657E-01
DAV:  10    -0.504462431661E+03    0.10203E-02   -0.19223E-03 25497   0.183E-01    0.510E-01
DAV:  11    -0.504462178270E+03    0.25339E-03   -0.34464E-03 25209   0.228E-01    0.453E-01
DAV:  12    -0.504461809245E+03    0.36903E-03   -0.19287E-03 20709   0.141E-01    0.358E-01
DAV:  13    -0.504461560967E+03    0.24828E-03   -0.85039E-04 24993   0.126E-01    0.223E-01
DAV:  14    -0.504461805915E+03   -0.24495E-03   -0.87252E-04 24363   0.118E-01    0.187E-01
DAV:  15    -0.504461893751E+03   -0.87835E-04   -0.24310E-04 18999   0.602E-02    0.168E-01
DAV:  16    -0.504461850388E+03    0.43363E-04   -0.88905E-05 18684   0.477E-02    0.112E-01
DAV:  17    -0.504461837858E+03    0.12529E-04   -0.20855E-04 16218   0.632E-02    0.711E-02
DAV:  18    -0.504461863355E+03   -0.25497E-04   -0.11889E-04 19989   0.262E-02    0.749E-02
DAV:  19    -0.504461852755E+03    0.10600E-04   -0.19410E-05  9108   0.234E-02    0.487E-02
DAV:  20    -0.504461849820E+03    0.29352E-05   -0.35655E-05 11439   0.206E-02
  15 F= -.50446185E+03 E0= -.50445821E+03  d E =-.200635E+00  mag=   107.9744
 curvature: -17.50 expect dE=-0.298E+01 dE for cont linesearch -0.252E-03
 trial: gam= 1.64910 g(F)=  0.170E+00 g(S)=  0.000E+00 ort = 0.275E-02 (trialstep = 0.516E+00)
 search vector abs. value=  0.161E+01
 bond charge predicted
       N       E                     dE             d eps       ncg     rms          rms(c)
DAV:   1    -0.504248771238E+03    0.21308E+00   -0.16855E+02 17469   0.116E+01    0.198E+00
DAV:   2    -0.504521357608E+03   -0.27259E+00   -0.26240E+00 16623   0.239E+00    0.148E+00
DAV:   3    -0.504637348198E+03   -0.11599E+00   -0.38650E-01 27576   0.270E+00    0.418E+00
DAV:   4    -0.504536653836E+03    0.10069E+00   -0.30961E-01 27594   0.247E+00    0.112E+00
DAV:   5    -0.504549480543E+03   -0.12827E-01   -0.13301E-02 22374   0.400E-01    0.598E-01
DAV:   6    -0.504552411071E+03   -0.29305E-02   -0.69055E-03 25056   0.471E-01    0.556E-01
DAV:   7    -0.504551445356E+03    0.96572E-03   -0.32691E-03 22572   0.349E-01    0.323E-01
DAV:   8    -0.504551285803E+03    0.15955E-03   -0.88587E-04 21744   0.129E-01    0.248E-01
DAV:   9    -0.504551258202E+03    0.27601E-04   -0.30984E-04 22968   0.610E-02    0.225E-01
DAV:  10    -0.504551141659E+03    0.11654E-03   -0.60685E-04 21888   0.861E-02    0.150E-01
DAV:  11    -0.504551121135E+03    0.20524E-04   -0.31792E-04 21825   0.620E-02    0.115E-01
DAV:  12    -0.504551129184E+03   -0.80488E-05   -0.60720E-05 16200   0.351E-02
  16 F= -.50455113E+03 E0= -.50454736E+03  d E =-.892794E-01  mag=   108.0614
 ZBRENT: can't locate minimum, use default step
 trial-energy change:   -0.089279  1 .order   -0.090141   -0.090374   -0.089908
 step:   2.0656(harm=100.0934)  dis= 0.33250  next Energy=  -513.220579 (dE=-0.876E+01)
 bond charge predicted
       N       E                     dE             d eps       ncg     rms          rms(c)
DAV:   1    -0.475102381701E+03    0.29449E+02   -0.26815E+03 16272   0.502E+01    0.107E+01
DAV:   2    -0.502661991448E+03   -0.27560E+02   -0.27651E+02 17010   0.113E+01    0.569E+00
DAV:   3    -0.508534830770E+03   -0.58728E+01   -0.26247E+01 26721   0.179E+01    0.246E+01
DAV:   4    -0.504627596566E+03    0.39072E+01   -0.81748E+00 27639   0.149E+01    0.396E+00
DAV:   5    -0.504727583154E+03   -0.99987E-01   -0.29470E-01 21789   0.174E+00    0.282E+00
DAV:   6    -0.504795012016E+03   -0.67429E-01   -0.99603E-02 26028   0.133E+00    0.257E+00
DAV:   7    -0.504807761452E+03   -0.12749E-01   -0.87501E-02 23571   0.179E+00    0.156E+00
DAV:   8    -0.504803812162E+03    0.39493E-02   -0.23395E-02 23094   0.813E-01    0.948E-01
DAV:   9    -0.504803084146E+03    0.72802E-03   -0.67465E-03 24390   0.349E-01    0.843E-01
DAV:  10    -0.504802608958E+03    0.47519E-03   -0.27146E-03 23319   0.217E-01    0.738E-01
DAV:  11    -0.504802005567E+03    0.60339E-03   -0.17148E-03 23319   0.182E-01    0.611E-01
DAV:  12    -0.504800972732E+03    0.10328E-02   -0.42919E-03 22581   0.249E-01    0.394E-01
DAV:  13    -0.504801030623E+03   -0.57891E-04   -0.16638E-03 21627   0.121E-01    0.320E-01
DAV:  14    -0.504801345340E+03   -0.31472E-03   -0.79260E-04 22752   0.949E-02    0.261E-01
DAV:  15    -0.504801580946E+03   -0.23561E-03   -0.58523E-04 21888   0.931E-02    0.146E-01
DAV:  16    -0.504801663335E+03   -0.82389E-04   -0.24190E-04 22995   0.698E-02    0.129E-01
DAV:  17    -0.504801669006E+03   -0.56708E-05   -0.76997E-05 17901   0.377E-02
  17 F= -.50480167E+03 E0= -.50479814E+03  d E =-.339819E+00  mag=   108.1929
 curvature: -14.23 expect dE=-0.223E+01 dE for cont linesearch -0.164E+00
 ZBRENT: increasing intervall
 opt :   5.1639  next Energy=  -505.107850 (dE=-0.646E+00)
 bond charge predicted
       N       E                     dE             d eps       ncg     rms          rms(c)
DAV:   1    -0.425033849241E+03    0.79768E+02   -0.38391E+03 15885   0.753E+01    0.213E+01
DAV:   2    -0.499141569076E+03   -0.74108E+02   -0.73944E+02 15345   0.251E+01    0.139E+01
DAV:   3    -0.520396334179E+03   -0.21255E+02   -0.70035E+01 24660   0.379E+01    0.514E+01
DAV:   4    -0.503865872719E+03    0.16530E+02   -0.20466E+01 27234   0.301E+01    0.907E+00
DAV:   5    -0.504144968236E+03   -0.27910E+00   -0.22630E+00 21627   0.470E+00    0.638E+00
DAV:   6    -0.504306225609E+03   -0.16126E+00   -0.35095E-01 21285   0.215E+00    0.478E+00
DAV:   7    -0.504471952934E+03   -0.16573E+00   -0.17150E-01 25227   0.146E+00    0.303E+00
DAV:   8    -0.504501256721E+03   -0.29304E-01   -0.74359E-02 24615   0.126E+00    0.240E+00
DAV:   9    -0.504498283605E+03    0.29731E-02   -0.53959E-02 25335   0.145E+00    0.185E+00
DAV:  10    -0.504491115699E+03    0.71679E-02   -0.31615E-02 24867   0.961E-01    0.157E+00
DAV:  11    -0.504489140876E+03    0.19748E-02   -0.97887E-03 23202   0.372E-01    0.142E+00
DAV:  12    -0.504484057269E+03    0.50836E-02   -0.78980E-03 22680   0.362E-01    0.106E+00
DAV:  13    -0.504479803897E+03    0.42534E-02   -0.23816E-02 22608   0.442E-01    0.660E-01
DAV:  14    -0.504481149769E+03   -0.13459E-02   -0.53952E-03 22716   0.257E-01    0.742E-01
DAV:  15    -0.504481073415E+03    0.76354E-04   -0.20997E-03 20763   0.222E-01    0.516E-01
DAV:  16    -0.504481393329E+03   -0.31991E-03   -0.24458E-03 25488   0.203E-01    0.296E-01
DAV:  17    -0.504481697305E+03   -0.30398E-03   -0.87109E-04 23715   0.107E-01    0.247E-01
DAV:  18    -0.504481859155E+03   -0.16185E-03   -0.30757E-04 22545   0.685E-02    0.224E-01
DAV:  19    -0.504481904175E+03   -0.45020E-04   -0.35937E-04 22986   0.717E-02    0.175E-01
DAV:  20    -0.504481862066E+03    0.42110E-04   -0.44140E-04 24984   0.102E-01    0.131E-01
DAV:  21    -0.504481873269E+03   -0.11204E-04   -0.99933E-05 18918   0.352E-02    0.103E-01
DAV:  22    -0.504481910385E+03   -0.37116E-04   -0.10578E-04 20547   0.323E-02    0.734E-02
DAV:  23    -0.504481942758E+03   -0.32373E-04   -0.78869E-05 19710   0.325E-02    0.500E-02
DAV:  24    -0.504481946297E+03   -0.35398E-05   -0.13469E-05  9243   0.136E-02
  18 F= -.50448195E+03 E0= -.50447822E+03  d E =-.200965E-01  mag=   108.1681
 curvature: -26.50 expect dE=-0.184E+02 dE for cont linesearch -0.578E+01
 ZBRENT: bracketing found
 ZBRENT: interpolating
 opt :   2.6454  next Energy=  -504.841231 (dE=-0.379E+00)
 bond charge predicted
       N       E                     dE             d eps       ncg     rms          rms(c)
DAV:   1    -0.435891195647E+03    0.68591E+02   -0.33670E+03 15732   0.673E+01    0.186E+01
DAV:   2    -0.502990504424E+03   -0.67099E+02   -0.64478E+02 16209   0.296E+01    0.237E+01
DAV:   3    -0.513385940331E+03   -0.10395E+02   -0.61439E+01 20223   0.411E+01    0.381E+01
DAV:   4    -0.504497244782E+03    0.88887E+01   -0.15687E+01 25038   0.246E+01    0.885E+00
DAV:   5    -0.504629430769E+03   -0.13219E+00   -0.18955E+00 18288   0.539E+00    0.590E+00
DAV:   6    -0.504718300850E+03   -0.88870E-01   -0.56074E-01 23094   0.340E+00    0.548E+00
DAV:   7    -0.504846615442E+03   -0.12831E+00   -0.21262E-01 24039   0.219E+00    0.467E+00
DAV:   8    -0.504898165742E+03   -0.51550E-01   -0.18001E-01 24075   0.209E+00    0.296E+00
DAV:   9    -0.504885770690E+03    0.12395E-01   -0.66184E-02 24219   0.114E+00    0.190E+00
DAV:  10    -0.504881386280E+03    0.43844E-02   -0.46114E-02 24471   0.787E-01    0.147E+00
DAV:  11    -0.504879717930E+03    0.16684E-02   -0.79695E-03 18414   0.347E-01    0.137E+00
DAV:  12    -0.504874991139E+03    0.47268E-02   -0.53954E-03 24156   0.334E-01    0.109E+00
DAV:  13    -0.504870364461E+03    0.46267E-02   -0.10691E-02 23553   0.365E-01    0.723E-01
DAV:  14    -0.504869670816E+03    0.69365E-03   -0.91463E-03 23913   0.348E-01    0.652E-01
DAV:  15    -0.504869744996E+03   -0.74181E-04   -0.35252E-03 21501   0.208E-01    0.491E-01
DAV:  16    -0.504870359866E+03   -0.61487E-03   -0.18398E-03 23121   0.146E-01    0.326E-01
DAV:  17    -0.504870851855E+03   -0.49199E-03   -0.10981E-03 24237   0.133E-01    0.230E-01
DAV:  18    -0.504870975698E+03   -0.12384E-03   -0.36670E-04 20331   0.784E-02    0.198E-01
DAV:  19    -0.504870897002E+03    0.78696E-04   -0.28193E-04 23670   0.711E-02    0.153E-01
DAV:  20    -0.504870817044E+03    0.79958E-04   -0.49579E-04 22293   0.661E-02    0.117E-01
DAV:  21    -0.504870836834E+03   -0.19790E-04   -0.83944E-05 18261   0.290E-02    0.110E-01
DAV:  22    -0.504870835279E+03    0.15542E-05   -0.60818E-05 15831   0.401E-02
  19 F= -.50487084E+03 E0= -.50486742E+03  d E =-.408985E+00  mag=   108.1943
 curvature:  -0.18 expect dE=-0.296E-01 dE for cont linesearch -0.108E-02
 ZBRENT: interpolating
 opt :   3.9202  next Energy=  -504.942294 (dE=-0.480E+00)
 bond charge predicted
       N       E                     dE             d eps       ncg     rms          rms(c)
DAV:   1    -0.494534154564E+03    0.10337E+02   -0.17086E+03 17055   0.432E+01    0.695E+00
DAV:   2    -0.504241880386E+03   -0.97077E+01   -0.97498E+01 17208   0.821E+00    0.393E+00
DAV:   3    -0.505347793621E+03   -0.11059E+01   -0.64170E+00 26478   0.734E+00    0.963E+00
DAV:   4    -0.504805012709E+03    0.54278E+00   -0.20429E+00 26784   0.676E+00    0.339E+00
DAV:   5    -0.504841667704E+03   -0.36655E-01   -0.16222E-01 25011   0.166E+00    0.251E+00
DAV:   6    -0.504873636230E+03   -0.31969E-01   -0.51815E-02 24129   0.144E+00    0.199E+00
DAV:   7    -0.504882514601E+03   -0.88784E-02   -0.49138E-02 23634   0.123E+00    0.881E-01
DAV:   8    -0.504883491069E+03   -0.97647E-03   -0.10397E-02 22662   0.377E-01    0.754E-01
DAV:   9    -0.504882864288E+03    0.62678E-03   -0.23383E-03 19656   0.203E-01    0.654E-01
DAV:  10    -0.504881538728E+03    0.13256E-02   -0.23221E-03 23454   0.168E-01    0.467E-01
DAV:  11    -0.504881032263E+03    0.50647E-03   -0.31172E-03 24201   0.246E-01    0.395E-01
DAV:  12    -0.504880817141E+03    0.21512E-03   -0.15210E-03 20646   0.147E-01    0.303E-01
DAV:  13    -0.504880814913E+03    0.22278E-05   -0.54227E-04 23094   0.809E-02    0.241E-01
DAV:  14    -0.504880875792E+03   -0.60878E-04   -0.37666E-04 23958   0.847E-02    0.150E-01
DAV:  15    -0.504881009469E+03   -0.13368E-03   -0.39456E-04 23157   0.772E-02    0.128E-01
DAV:  16    -0.504881019438E+03   -0.99689E-05   -0.10248E-04 16677   0.375E-02    0.110E-01
DAV:  17    -0.504880987991E+03    0.31447E-04   -0.72197E-05 12393   0.425E-02    0.673E-02
DAV:  18    -0.504881008083E+03   -0.20092E-04   -0.17971E-04 21303   0.465E-02    0.757E-02
DAV:  19    -0.504881014896E+03   -0.68134E-05   -0.38993E-05 13338   0.191E-02
  20 F= -.50488101E+03 E0= -.50487765E+03  d E =-.419165E+00  mag=   108.1827
 curvature: -11.95 expect dE=-0.267E+01 dE for cont linesearch -0.955E-01
 ZBRENT: interpolating
 opt :   3.2367  next Energy=  -504.899859 (dE=-0.438E+00)
 bond charge predicted
       N       E                     dE             d eps       ncg     rms          rms(c)
DAV:   1    -0.504289214489E+03    0.59179E+00   -0.32486E+02 17352   0.169E+01    0.283E+00
DAV:   2    -0.504877766718E+03   -0.58855E+00   -0.55807E+00 20007   0.384E+00    0.282E+00
DAV:   3    -0.505065138871E+03   -0.18737E+00   -0.98394E-01 26343   0.467E+00    0.589E+00
DAV:   4    -0.504880470968E+03    0.18467E+00   -0.56035E-01 27180   0.328E+00    0.166E+00
DAV:   5    -0.504896348637E+03   -0.15878E-01   -0.24120E-02 25002   0.822E-01    0.131E+00
DAV:   6    -0.504909521347E+03   -0.13173E-01   -0.31125E-02 23841   0.941E-01    0.893E-01
DAV:   7    -0.504908475582E+03    0.10458E-02   -0.95873E-03 22590   0.460E-01    0.437E-01
DAV:   8    -0.504908205487E+03    0.27010E-03   -0.23002E-03 24057   0.177E-01    0.353E-01
DAV:   9    -0.504908135527E+03    0.69960E-04   -0.93298E-04 17397   0.126E-01    0.321E-01
DAV:  10    -0.504907809823E+03    0.32570E-03   -0.81226E-04 22338   0.962E-02    0.221E-01
DAV:  11    -0.504907709817E+03    0.10001E-03   -0.76937E-04 21987   0.851E-02    0.162E-01
DAV:  12    -0.504907715173E+03   -0.53563E-05   -0.27143E-04 20124   0.773E-02    0.126E-01
DAV:  13    -0.504907768579E+03   -0.53405E-04   -0.12164E-04 20835   0.391E-02    0.961E-02
DAV:  14    -0.504907806858E+03   -0.38280E-04   -0.84344E-05 17910   0.374E-02    0.571E-02
DAV:  15    -0.504907824790E+03   -0.17932E-04   -0.29557E-05 11898   0.195E-02    0.479E-02
DAV:  16    -0.504907828119E+03   -0.33290E-05   -0.11983E-05  8496   0.122E-02
  21 F= -.50490783E+03 E0= -.50490449E+03  d E =-.445978E+00  mag=   108.1940
 curvature:  -3.63 expect dE=-0.647E+00 dE for cont linesearch -0.132E-02
 trial: gam= 0.35541 g(F)=  0.178E+00 g(S)=  0.000E+00 ort = 0.242E-01 (trialstep = 0.106E+01)
 search vector abs. value=  0.399E+00
 bond charge predicted
       N       E                     dE             d eps       ncg     rms          rms(c)
DAV:   1    -0.504541538208E+03    0.36629E+00   -0.16269E+02 16425   0.178E+01    0.367E+00
DAV:   2    -0.504989243612E+03   -0.44771E+00   -0.41295E+00 15588   0.408E+00    0.259E+00
DAV:   3    -0.505086044250E+03   -0.96801E-01   -0.30992E-01 27567   0.205E+00    0.339E+00
DAV:   4    -0.505075805502E+03    0.10239E-01   -0.42767E-01 26694   0.297E+00    0.300E+00
DAV:   5    -0.505075833131E+03   -0.27628E-04   -0.12028E-01 26199   0.155E+00    0.105E+00
DAV:   6    -0.505084519354E+03   -0.86862E-02   -0.20134E-02 24111   0.689E-01    0.815E-01
DAV:   7    -0.505083066947E+03    0.14524E-02   -0.95946E-03 23823   0.590E-01    0.475E-01
DAV:   8    -0.505082835413E+03    0.23153E-03   -0.16428E-03 21195   0.206E-01    0.410E-01
DAV:   9    -0.505082544008E+03    0.29140E-03   -0.71644E-04 23130   0.119E-01    0.357E-01
DAV:  10    -0.505081971172E+03    0.57284E-03   -0.11953E-03 22572   0.115E-01    0.253E-01
DAV:  11    -0.505081784301E+03    0.18687E-03   -0.62381E-04 22914   0.843E-02    0.205E-01
DAV:  12    -0.505081753182E+03    0.31119E-04   -0.13186E-04 21564   0.471E-02    0.161E-01
DAV:  13    -0.505081805176E+03   -0.51994E-04   -0.29800E-04 23526   0.695E-02    0.101E-01
DAV:  14    -0.505081843318E+03   -0.38142E-04   -0.11821E-04 19998   0.360E-02    0.734E-02
DAV:  15    -0.505081839602E+03    0.37154E-05   -0.25298E-05  9270   0.271E-02
  22 F= -.50508184E+03 E0= -.50507901E+03  d E =-.174011E+00  mag=   108.2387
 trial-energy change:   -0.174011  1 .order   -0.173135   -0.197781   -0.148489
 step:   3.4346(harm=  4.2551)  dis= 0.14350  next Energy=  -505.257892 (dE=-0.350E+00)
 bond charge predicted
       N       E                     dE             d eps       ncg     rms          rms(c)
DAV:   1    -0.500919632025E+03    0.41622E+01   -0.11388E+03 16686   0.486E+01    0.924E+00
DAV:   2    -0.504703515156E+03   -0.37839E+01   -0.36160E+01 15777   0.102E+01    0.618E+00
DAV:   3    -0.505390780819E+03   -0.68727E+00   -0.26424E+00 27900   0.586E+00    0.904E+00
DAV:   4    -0.505251710110E+03    0.13907E+00   -0.26993E+00 26964   0.796E+00    0.719E+00
DAV:   5    -0.505143099559E+03    0.10861E+00   -0.54430E-01 24615   0.338E+00    0.335E+00
DAV:   6    -0.505260254472E+03   -0.11715E+00   -0.12643E-01 24372   0.162E+00    0.248E+00
DAV:   7    -0.505270705956E+03   -0.10451E-01   -0.97505E-02 24336   0.198E+00    0.157E+00
DAV:   8    -0.505266649888E+03    0.40561E-02   -0.21033E-02 23805   0.849E-01    0.101E+00
DAV:   9    -0.505265673890E+03    0.97600E-03   -0.67245E-03 20088   0.329E-01    0.901E-01
DAV:  10    -0.505264590382E+03    0.10835E-02   -0.37374E-03 25542   0.223E-01    0.810E-01
DAV:  11    -0.505261961492E+03    0.26289E-02   -0.45081E-03 22221   0.262E-01    0.550E-01
DAV:  12    -0.505260954396E+03    0.10071E-02   -0.30715E-03 24075   0.208E-01    0.449E-01
DAV:  13    -0.505260859373E+03    0.95023E-04   -0.10323E-03 21843   0.118E-01    0.352E-01
DAV:  14    -0.505261107126E+03   -0.24775E-03   -0.13486E-03 23337   0.152E-01    0.204E-01
DAV:  15    -0.505261232444E+03   -0.12532E-03   -0.44211E-04 22950   0.904E-02    0.141E-01
DAV:  16    -0.505261231427E+03    0.10174E-05   -0.91276E-05 18450   0.474E-02
  23 F= -.50526123E+03 E0= -.50525929E+03  d E =-.353403E+00  mag=   108.2816
 curvature:  -4.25 expect dE=-0.680E+00 dE for cont linesearch -0.218E-04
 trial: gam= 0.42955 g(F)=  0.160E+00 g(S)=  0.000E+00 ort =-0.143E-02 (trialstep = 0.154E+01)
 search vector abs. value=  0.232E+00
 bond charge predicted
       N       E                     dE             d eps       ncg     rms          rms(c)
DAV:   1    -0.504160081390E+03    0.11012E+01   -0.16775E+02 16245   0.266E+01    0.637E+00
DAV:   2    -0.505249121818E+03   -0.10890E+01   -0.96330E+00 15759   0.727E+00    0.521E+00
DAV:   3    -0.506351777824E+03   -0.11027E+01   -0.33084E+00 26460   0.942E+00    0.135E+01
DAV:   4    -0.505323510042E+03    0.10283E+01   -0.29163E+00 27486   0.810E+00    0.391E+00
DAV:   5    -0.505407073062E+03   -0.83563E-01   -0.10968E-01 26091   0.165E+00    0.300E+00
DAV:   6    -0.505458718096E+03   -0.51645E-01   -0.15629E-01 24669   0.226E+00    0.202E+00
DAV:   7    -0.505463835696E+03   -0.51176E-02   -0.50102E-02 22923   0.109E+00    0.900E-01
DAV:   8    -0.505463142196E+03    0.69350E-03   -0.88868E-03 22248   0.336E-01    0.683E-01
DAV:   9    -0.505462693033E+03    0.44916E-03   -0.28078E-03 18459   0.227E-01    0.619E-01
DAV:  10    -0.505461490047E+03    0.12030E-02   -0.16827E-03 24507   0.140E-01    0.499E-01
DAV:  11    -0.505460275359E+03    0.12147E-02   -0.18821E-03 23112   0.174E-01    0.347E-01
DAV:  12    -0.505459749187E+03    0.52617E-03   -0.12105E-03 22842   0.117E-01    0.283E-01
DAV:  13    -0.505459688282E+03    0.60905E-04   -0.46745E-04 22662   0.777E-02    0.219E-01
DAV:  14    -0.505459787736E+03   -0.99454E-04   -0.48345E-04 22158   0.766E-02    0.111E-01
DAV:  15    -0.505459839641E+03   -0.51905E-04   -0.12312E-04 20412   0.477E-02    0.938E-02
DAV:  16    -0.505459842314E+03   -0.26728E-05   -0.24596E-05 11079   0.255E-02
  24 F= -.50545984E+03 E0= -.50545872E+03  d E =-.198611E+00  mag=   108.2071
 trial-energy change:   -0.198611  1 .order   -0.196487   -0.244703   -0.148271
 step:   3.3656(harm=  3.8959)  dis= 0.11792  next Energy=  -505.551823 (dE=-0.291E+00)
 bond charge predicted
       N       E                     dE             d eps       ncg     rms          rms(c)
DAV:   1    -0.503875950538E+03    0.15839E+01   -0.24243E+02 16263   0.320E+01    0.784E+00
DAV:   2    -0.505252651173E+03   -0.13767E+01   -0.12086E+01 15804   0.851E+00    0.598E+00
DAV:   3    -0.506863563139E+03   -0.16109E+01   -0.41157E+00 27315   0.108E+01    0.161E+01
DAV:   4    -0.505394917275E+03    0.14686E+01   -0.39939E+00 27828   0.997E+00    0.484E+00
DAV:   5    -0.505489480047E+03   -0.94563E-01   -0.16871E-01 25470   0.198E+00    0.357E+00
DAV:   6    -0.505550083540E+03   -0.60603E-01   -0.18397E-01 24561   0.251E+00    0.246E+00
DAV:   7    -0.505575403392E+03   -0.25320E-01   -0.68538E-02 22644   0.121E+00    0.113E+00
DAV:   8    -0.505574563344E+03    0.84005E-03   -0.12976E-02 21528   0.433E-01    0.850E-01
DAV:   9    -0.505573761761E+03    0.80158E-03   -0.40291E-03 19458   0.270E-01    0.756E-01
DAV:  10    -0.505572337096E+03    0.14247E-02   -0.24171E-03 25587   0.170E-01    0.637E-01
DAV:  11    -0.505570484481E+03    0.18526E-02   -0.28585E-03 23481   0.228E-01    0.452E-01
DAV:  12    -0.505569517476E+03    0.96701E-03   -0.22614E-03 22626   0.162E-01    0.352E-01
DAV:  13    -0.505569349439E+03    0.16804E-03   -0.75067E-04 22968   0.995E-02    0.292E-01
DAV:  14    -0.505569428363E+03   -0.78925E-04   -0.70126E-04 22410   0.925E-02    0.153E-01
DAV:  15    -0.505569540942E+03   -0.11258E-03   -0.27189E-04 23166   0.693E-02    0.117E-01
DAV:  16    -0.505569552550E+03   -0.11608E-04   -0.59667E-05 17091   0.372E-02    0.101E-01
DAV:  17    -0.505569547693E+03    0.48575E-05   -0.21205E-05  9765   0.216E-02
  25 F= -.50556955E+03 E0= -.50556955E+03  d E =-.308316E+00  mag=   108.0295
 curvature:  -2.70 expect dE=-0.168E+00 dE for cont linesearch -0.472E-02
 ZBRENT: extrapolating
 opt :   3.8489  next Energy=  -505.574423 (dE=-0.313E+00)
 bond charge predicted
       N       E                     dE             d eps       ncg     rms          rms(c)
DAV:   1    -0.505428473130E+03    0.14108E+00   -0.15952E+01 16011   0.829E+00    0.196E+00
DAV:   2    -0.505551447862E+03   -0.12297E+00   -0.11302E+00 15642   0.221E+00    0.144E+00
DAV:   3    -0.505634065771E+03   -0.82618E-01   -0.25632E-01 26640   0.236E+00    0.357E+00
DAV:   4    -0.505561771065E+03    0.72295E-01   -0.24617E-01 27288   0.227E+00    0.116E+00
DAV:   5    -0.505572708487E+03   -0.10937E-01   -0.18236E-02 26721   0.747E-01    0.887E-01
DAV:   6    -0.505574846705E+03   -0.21382E-02   -0.99696E-03 24201   0.621E-01    0.405E-01
DAV:   7    -0.505575282761E+03   -0.43606E-03   -0.28205E-03 21762   0.249E-01    0.249E-01
DAV:   8    -0.505575239858E+03    0.42903E-04   -0.54407E-04 22815   0.939E-02    0.218E-01
DAV:   9    -0.505575191216E+03    0.48642E-04   -0.18129E-04 23004   0.556E-02    0.198E-01
DAV:  10    -0.505575001041E+03    0.19018E-03   -0.50575E-04 23535   0.944E-02    0.120E-01
DAV:  11    -0.505574981867E+03    0.19174E-04   -0.12745E-04 20133   0.351E-02    0.104E-01
DAV:  12    -0.505574993120E+03   -0.11253E-04   -0.35626E-05 12348   0.237E-02    0.945E-02
DAV:  13    -0.505575004237E+03   -0.11118E-04   -0.18337E-04 22662   0.519E-02    0.459E-02
DAV:  14    -0.505575029828E+03   -0.25591E-04   -0.31190E-05 10413   0.273E-02    0.584E-02
DAV:  15    -0.505575036075E+03   -0.62471E-05   -0.21400E-05 10854   0.135E-02
  26 F= -.50557504E+03 E0= -.50557535E+03  d E =-.313805E+00  mag=   107.9665
 curvature:  -2.78 expect dE=-0.209E+00 dE for cont linesearch -0.301E-05
 trial: gam= 0.38307 g(F)=  0.750E-01 g(S)=  0.000E+00 ort = 0.502E-03 (trialstep = 0.200E+01)
 search vector abs. value=  0.110E+00
 bond charge predicted
       N       E                     dE             d eps       ncg     rms          rms(c)
DAV:   1    -0.504347643408E+03    0.12274E+01   -0.12552E+02 15831   0.256E+01    0.636E+00
DAV:   2    -0.505550651202E+03   -0.12030E+01   -0.10471E+01 16578   0.794E+00    0.601E+00
DAV:   3    -0.506501075655E+03   -0.95042E+00   -0.35842E+00 25227   0.103E+01    0.131E+01
DAV:   4    -0.505550371119E+03    0.95070E+00   -0.25256E+00 26550   0.775E+00    0.384E+00
DAV:   5    -0.505609035587E+03   -0.58664E-01   -0.10127E-01 26316   0.161E+00    0.295E+00
DAV:   6    -0.505673426285E+03   -0.64391E-01   -0.14646E-01 23913   0.208E+00    0.219E+00
DAV:   7    -0.505682643220E+03   -0.92169E-02   -0.50298E-02 22941   0.107E+00    0.999E-01
DAV:   8    -0.505682456686E+03    0.18653E-03   -0.11236E-02 23499   0.426E-01    0.693E-01
DAV:   9    -0.505682170938E+03    0.28575E-03   -0.43755E-03 18081   0.299E-01    0.634E-01
DAV:  10    -0.505681437340E+03    0.73360E-03   -0.11721E-03 24354   0.131E-01    0.555E-01
DAV:  11    -0.505680129858E+03    0.13075E-02   -0.25038E-03 25128   0.220E-01    0.405E-01
DAV:  12    -0.505679309960E+03    0.81990E-03   -0.16786E-03 23031   0.150E-01    0.296E-01
DAV:  13    -0.505679230884E+03    0.79076E-04   -0.48246E-04 22212   0.781E-02    0.249E-01
DAV:  14    -0.505679265264E+03   -0.34380E-04   -0.47976E-04 22338   0.777E-02    0.143E-01
DAV:  15    -0.505679389463E+03   -0.12420E-03   -0.26650E-04 22851   0.565E-02    0.979E-02
DAV:  16    -0.505679398609E+03   -0.91461E-05   -0.31949E-05 12420   0.297E-02
  27 F= -.50567940E+03 E0= -.50568029E+03  d E =-.104363E+00  mag=   107.9021
 trial-energy change:   -0.104363  1 .order   -0.103008   -0.150315   -0.055701
 step:   3.0384(harm=  3.1743)  dis= 0.03730  next Energy=  -505.694092 (dE=-0.119E+00)
 bond charge predicted
       N       E                     dE             d eps       ncg     rms          rms(c)
DAV:   1    -0.505341724158E+03    0.33767E+00   -0.33794E+01 15939   0.133E+01    0.315E+00
DAV:   2    -0.505647424418E+03   -0.30570E+00   -0.27549E+00 15714   0.381E+00    0.264E+00
DAV:   3    -0.505901954976E+03   -0.25453E+00   -0.92059E-01 24930   0.480E+00    0.652E+00
DAV:   4    -0.505660463036E+03    0.24149E+00   -0.73609E-01 26487   0.396E+00    0.195E+00
DAV:   5    -0.505680052957E+03   -0.19590E-01   -0.26673E-02 26361   0.831E-01    0.150E+00
DAV:   6    -0.505697813093E+03   -0.17760E-01   -0.40738E-02 24381   0.111E+00    0.103E+00
DAV:   7    -0.505697052118E+03    0.76098E-03   -0.14079E-02 22797   0.569E-01    0.462E-01
DAV:   8    -0.505696941351E+03    0.11077E-03   -0.24556E-03 23904   0.197E-01    0.358E-01
DAV:   9    -0.505696909948E+03    0.31403E-04   -0.97170E-04 17037   0.135E-01    0.332E-01
DAV:  10    -0.505696573297E+03    0.33665E-03   -0.57204E-04 23544   0.857E-02    0.241E-01
DAV:  11    -0.505696378903E+03    0.19439E-03   -0.52612E-04 23229   0.887E-02    0.180E-01
DAV:  12    -0.505696334564E+03    0.44339E-04   -0.19196E-04 22212   0.562E-02    0.152E-01
DAV:  13    -0.505696362335E+03   -0.27771E-04   -0.16753E-04 22113   0.403E-02    0.104E-01
DAV:  14    -0.505696425732E+03   -0.63397E-04   -0.12978E-04 21366   0.386E-02    0.594E-02
DAV:  15    -0.505696433292E+03   -0.75606E-05   -0.19277E-05  9819   0.240E-02
  28 F= -.50569643E+03 E0= -.50569758E+03  d E =-.121397E+00  mag=   107.8472
 curvature:  -2.28 expect dE=-0.522E-01 dE for cont linesearch -0.242E-03
 trial: gam= 0.23716 g(F)=  0.229E-01 g(S)=  0.000E+00 ort = 0.341E-02 (trialstep = 0.221E+01)
 search vector abs. value=  0.307E-01
 bond charge predicted
       N       E                     dE             d eps       ncg     rms          rms(c)
DAV:   1    -0.505232600148E+03    0.46383E+00   -0.41885E+01 16056   0.155E+01    0.392E+00
DAV:   2    -0.505639349802E+03   -0.40675E+00   -0.36986E+00 15705   0.379E+00    0.273E+00
DAV:   3    -0.505752436935E+03   -0.11309E+00   -0.31795E-01 27801   0.236E+00    0.401E+00
DAV:   4    -0.505708566940E+03    0.43870E-01   -0.44844E-01 27369   0.309E+00    0.277E+00
DAV:   5    -0.505726259124E+03   -0.17692E-01   -0.13001E-01 27135   0.191E+00    0.175E+00
DAV:   6    -0.505731898417E+03   -0.56393E-02   -0.39729E-02 25560   0.122E+00    0.871E-01
DAV:   7    -0.505734585579E+03   -0.26872E-02   -0.11932E-02 22374   0.486E-01    0.471E-01
DAV:   8    -0.505734455707E+03    0.12987E-03   -0.20694E-03 19296   0.182E-01    0.403E-01
DAV:   9    -0.505734259792E+03    0.19591E-03   -0.50585E-04 22446   0.853E-02    0.356E-01
DAV:  10    -0.505733630108E+03    0.62968E-03   -0.12532E-03 22905   0.119E-01    0.230E-01
DAV:  11    -0.505733461964E+03    0.16814E-03   -0.49645E-04 22527   0.734E-02    0.189E-01
DAV:  12    -0.505733449054E+03    0.12910E-04   -0.12820E-04 21024   0.415E-02    0.157E-01
DAV:  13    -0.505733501174E+03   -0.52120E-04   -0.26061E-04 22428   0.523E-02    0.100E-01
DAV:  14    -0.505733532989E+03   -0.31815E-04   -0.11960E-04 20682   0.462E-02    0.635E-02
DAV:  15    -0.505733535935E+03   -0.29454E-05   -0.15677E-05  9522   0.202E-02
  29 F= -.50573354E+03 E0= -.50573521E+03  d E =-.371026E-01  mag=   107.6781
 trial-energy change:   -0.037103  1 .order   -0.036508   -0.052282   -0.020734
 step:   3.4387(harm=  3.6559)  dis= 0.03671  next Energy=  -505.739432 (dE=-0.430E-01)
 bond charge predicted
       N       E                     dE             d eps       ncg     rms          rms(c)
DAV:   1    -0.505584155773E+03    0.14938E+00   -0.13019E+01 16011   0.867E+00    0.214E+00
DAV:   2    -0.505713155735E+03   -0.12900E+00   -0.11592E+00 15534   0.212E+00    0.165E+00
DAV:   3    -0.505846054134E+03   -0.13290E+00   -0.44650E-01 25875   0.312E+00    0.460E+00
DAV:   4    -0.505721933903E+03    0.12412E+00   -0.36436E-01 27756   0.275E+00    0.117E+00
DAV:   5    -0.505739243424E+03   -0.17310E-01   -0.19562E-02 26442   0.760E-01    0.966E-01
DAV:   6    -0.505740315760E+03   -0.10723E-02   -0.96500E-03 24570   0.619E-01    0.529E-01
DAV:   7    -0.505740545694E+03   -0.22993E-03   -0.35352E-03 23040   0.281E-01    0.274E-01
DAV:   8    -0.505740505640E+03    0.40054E-04   -0.75180E-04 20826   0.100E-01    0.235E-01
DAV:   9    -0.505740486926E+03    0.18714E-04   -0.22267E-04 19287   0.501E-02    0.216E-01
DAV:  10    -0.505740291388E+03    0.19554E-03   -0.56889E-04 24138   0.946E-02    0.133E-01
DAV:  11    -0.505740258063E+03    0.33324E-04   -0.13793E-04 20943   0.374E-02    0.109E-01
DAV:  12    -0.505740262678E+03   -0.46145E-05   -0.30237E-05 12177   0.238E-02
  30 F= -.50574026E+03 E0= -.50574225E+03  d E =-.438294E-01  mag=   107.5721
 curvature:  -2.31 expect dE=-0.220E-01 dE for cont linesearch -0.282E-03
 ZBRENT: extrapolating
 opt :   3.7577  next Energy=  -505.740571 (dE=-0.441E-01)
 bond charge predicted
       N       E                     dE             d eps       ncg     rms          rms(c)
DAV:   1    -0.505729801477E+03    0.10457E-01   -0.87096E-01 15993   0.225E+00    0.559E-01
DAV:   2    -0.505738357882E+03   -0.85564E-02   -0.78674E-02 15660   0.541E-01    0.388E-01
DAV:   3    -0.505739341215E+03   -0.98333E-03   -0.22266E-03 24390   0.136E-01    0.327E-01
DAV:   4    -0.505743678472E+03   -0.43373E-02   -0.13467E-02 27108   0.540E-01    0.829E-01
DAV:   5    -0.505740147216E+03    0.35313E-02   -0.12096E-02 27108   0.483E-01    0.169E-01
DAV:   6    -0.505740375165E+03   -0.22795E-03   -0.53805E-04 25218   0.108E-01    0.114E-01
DAV:   7    -0.505740356748E+03    0.18417E-04   -0.18366E-04 22473   0.793E-02    0.830E-02
DAV:   8    -0.505740359203E+03   -0.24553E-05   -0.27316E-05 11709   0.195E-02
  31 F= -.50574036E+03 E0= -.50574241E+03  d E =-.439259E-01  mag=   107.5516
 curvature:  -2.53 expect dE=-0.288E-01 dE for cont linesearch -0.181E-04
 trial: gam= 0.54938 g(F)=  0.114E-01 g(S)=  0.000E+00 ort =-0.469E-03 (trialstep = 0.252E+01)
 search vector abs. value=  0.201E-01
 bond charge predicted
       N       E                     dE             d eps       ncg     rms          rms(c)
DAV:   1    -0.505340165788E+03    0.40019E+00   -0.35043E+01 15975   0.145E+01    0.353E+00
DAV:   2    -0.505712285462E+03   -0.37212E+00   -0.32049E+00 16164   0.427E+00    0.340E+00
DAV:   3    -0.505973108108E+03   -0.26082E+00   -0.11899E+00 24732   0.557E+00    0.692E+00
DAV:   4    -0.505712560742E+03    0.26055E+00   -0.75141E-01 26181   0.409E+00    0.217E+00
DAV:   5    -0.505736523884E+03   -0.23963E-01   -0.30762E-02 26298   0.952E-01    0.172E+00
DAV:   6    -0.505761970200E+03   -0.25446E-01   -0.59458E-02 24831   0.130E+00    0.122E+00
DAV:   7    -0.505759068158E+03    0.29020E-02   -0.20169E-02 22995   0.683E-01    0.485E-01
DAV:   8    -0.505758987217E+03    0.80941E-04   -0.32070E-03 23112   0.198E-01    0.389E-01
DAV:   9    -0.505758860919E+03    0.12630E-03   -0.97134E-04 17208   0.148E-01    0.356E-01
DAV:  10    -0.505758390138E+03    0.47078E-03   -0.65649E-04 23355   0.860E-02    0.274E-01
DAV:  11    -0.505758028001E+03    0.36214E-03   -0.10497E-03 22950   0.115E-01    0.198E-01
DAV:  12    -0.505757941343E+03    0.86657E-04   -0.37119E-04 23085   0.805E-02    0.158E-01
DAV:  13    -0.505757958261E+03   -0.16918E-04   -0.18863E-04 22374   0.436E-02    0.114E-01
DAV:  14    -0.505758015717E+03   -0.57456E-04   -0.14112E-04 22050   0.422E-02    0.662E-02
DAV:  15    -0.505758036465E+03   -0.20748E-04   -0.22344E-05 11592   0.231E-02    0.579E-02
DAV:  16    -0.505758035640E+03    0.82499E-06   -0.11982E-05  8838   0.156E-02
  32 F= -.50575804E+03 E0= -.50576057E+03  d E =-.176764E-01  mag=   107.4697
 trial-energy change:   -0.017676  1 .order   -0.017573   -0.027952   -0.007194
 step:   3.3549(harm=  3.3885)  dis= 0.02720  next Energy=  -505.759238 (dE=-0.189E-01)
 bond charge predicted
       N       E                     dE             d eps       ncg     rms          rms(c)
DAV:   1    -0.505712892214E+03    0.45144E-01   -0.38736E+00 15930   0.484E+00    0.115E+00
DAV:   2    -0.505753376669E+03   -0.40484E-01   -0.35483E-01 15678   0.134E+00    0.105E+00
DAV:   3    -0.505783470460E+03   -0.30094E-01   -0.13118E-01 24453   0.180E+00    0.231E+00
DAV:   4    -0.505754220823E+03    0.29250E-01   -0.86787E-02 26406   0.138E+00    0.704E-01
DAV:   5    -0.505757329206E+03   -0.31084E-02   -0.35019E-03 26181   0.315E-01    0.549E-01
DAV:   6    -0.505760153589E+03   -0.28244E-02   -0.64105E-03 25002   0.429E-01    0.410E-01
DAV:   7    -0.505759515722E+03    0.63787E-03   -0.25935E-03 22950   0.248E-01    0.148E-01
DAV:   8    -0.505759540435E+03   -0.24713E-04   -0.34145E-04 22563   0.630E-02    0.129E-01
DAV:   9    -0.505759532301E+03    0.81341E-05   -0.10482E-04 16326   0.501E-02    0.115E-01
DAV:  10    -0.505759486345E+03    0.45955E-04   -0.14718E-04 21807   0.369E-02    0.722E-02
DAV:  11    -0.505759480572E+03    0.57731E-05   -0.55578E-05 15426   0.243E-02
  33 F= -.50575948E+03 E0= -.50576215E+03  d E =-.191214E-01  mag=   107.4398
 curvature:  -3.06 expect dE=-0.900E-02 dE for cont linesearch -0.787E-04
 ZBRENT: extrapolating
 opt :   3.6367  next Energy=  -505.759582 (dE=-0.192E-01)
 bond charge predicted
       N       E                     dE             d eps       ncg     rms          rms(c)
DAV:   1    -0.505754259804E+03    0.52265E-02   -0.43742E-01 15867   0.163E+00    0.388E-01
DAV:   2    -0.505758708068E+03   -0.44483E-02   -0.40021E-02 15624   0.437E-01    0.329E-01
DAV:   3    -0.505762374611E+03   -0.36665E-02   -0.13847E-02 25011   0.576E-01    0.789E-01
DAV:   4    -0.505758893678E+03    0.34809E-02   -0.10785E-02 26946   0.480E-01    0.241E-01
DAV:   5    -0.505759281995E+03   -0.38832E-03   -0.43480E-04 25254   0.106E-01    0.194E-01
DAV:   6    -0.505759558425E+03   -0.27643E-03   -0.70699E-04 24858   0.146E-01    0.147E-01
DAV:   7    -0.505759483708E+03    0.74717E-04   -0.31724E-04 22032   0.873E-02    0.675E-02
DAV:   8    -0.505759488876E+03   -0.51682E-05   -0.33100E-05 12204   0.221E-02
  34 F= -.50575949E+03 E0= -.50576222E+03  d E =-.191297E-01  mag=   107.4320
 curvature:  -3.94 expect dE=-0.125E-01 dE for cont linesearch -0.444E-05
 trial: gam= 0.18799 g(F)=  0.318E-02 g(S)=  0.000E+00 ort =-0.151E-03 (trialstep = 0.274E+01)
 search vector abs. value=  0.384E-02
 bond charge predicted
       N       E                     dE             d eps       ncg     rms          rms(c)
DAV:   1    -0.505683965986E+03    0.75518E-01   -0.73642E+00 15777   0.666E+00    0.152E+00
DAV:   2    -0.505750587491E+03   -0.66622E-01   -0.60554E-01 15453   0.172E+00    0.107E+00
DAV:   3    -0.505758786095E+03   -0.81986E-02   -0.19131E-02 26694   0.458E-01    0.963E-01
DAV:   4    -0.505778800924E+03   -0.20015E-01   -0.80732E-02 27432   0.131E+00    0.189E+00
DAV:   5    -0.505764749634E+03    0.14051E-01   -0.51137E-02 27225   0.999E-01    0.462E-01
DAV:   6    -0.505765511321E+03   -0.76169E-03   -0.41444E-03 26568   0.348E-01    0.297E-01
DAV:   7    -0.505765389039E+03    0.12228E-03   -0.12853E-03 22293   0.180E-01    0.206E-01
DAV:   8    -0.505765321843E+03    0.67195E-04   -0.20634E-04 20583   0.587E-02    0.185E-01
DAV:   9    -0.505765191582E+03    0.13026E-03   -0.20647E-04 22689   0.488E-02    0.150E-01
DAV:  10    -0.505765035722E+03    0.15586E-03   -0.39998E-04 22707   0.714E-02    0.922E-02
DAV:  11    -0.505765030195E+03    0.55262E-05   -0.85927E-05 18036   0.321E-02
  35 F= -.50576503E+03 E0= -.50576790E+03  d E =-.554132E-02  mag=   107.4163
 trial-energy change:   -0.005541  1 .order   -0.005834   -0.008642   -0.003027
 step:   4.2177(harm=  4.2177)  dis= 0.01424  next Energy=  -505.766139 (dE=-0.665E-02)
 bond charge predicted
       N       E                     dE             d eps       ncg     rms          rms(c)
DAV:   1    -0.505742151246E+03    0.22884E-01   -0.21384E+00 15759   0.359E+00    0.824E-01
DAV:   2    -0.505761456139E+03   -0.19305E-01   -0.17548E-01 15453   0.930E-01    0.599E-01
DAV:   3    -0.505775079628E+03   -0.13623E-01   -0.38946E-02 27504   0.941E-01    0.145E+00
DAV:   4    -0.505763284607E+03    0.11795E-01   -0.38139E-02 27819   0.910E-01    0.484E-01
DAV:   5    -0.505765616755E+03   -0.23321E-02   -0.27339E-03 23526   0.216E-01    0.260E-01
DAV:   6    -0.505765799361E+03   -0.18261E-03   -0.92452E-04 24822   0.194E-01    0.214E-01
DAV:   7    -0.505765639020E+03    0.16034E-03   -0.50690E-04 22923   0.130E-01    0.125E-01
DAV:   8    -0.505765629174E+03    0.98467E-05   -0.78736E-05 17343   0.340E-02
  36 F= -.50576563E+03 E0= -.50576858E+03  d E =-.614030E-02  mag=   107.4092
 curvature:  -2.57 expect dE=-0.478E-02 dE for cont linesearch -0.117E-04
 trial: gam= 0.52238 g(F)=  0.186E-02 g(S)=  0.000E+00 ort = 0.132E-03 (trialstep = 0.304E+01)
 search vector abs. value=  0.305E-02
 bond charge predicted
       N       E                     dE             d eps       ncg     rms          rms(c)
DAV:   1    -0.505663399069E+03    0.10224E+00   -0.82135E+00 16443   0.746E+00    0.161E+00
DAV:   2    -0.505754279324E+03   -0.90880E-01   -0.84665E-01 15480   0.187E+00    0.113E+00
DAV:   3    -0.505798323887E+03   -0.44045E-01   -0.13633E-01 27018   0.173E+00    0.258E+00
DAV:   4    -0.505761054594E+03    0.37269E-01   -0.13244E-01 27774   0.167E+00    0.951E-01
DAV:   5    -0.505768171739E+03   -0.71171E-02   -0.99661E-03 25353   0.449E-01    0.658E-01
DAV:   6    -0.505769427417E+03   -0.12557E-02   -0.51754E-03 25101   0.463E-01    0.417E-01
DAV:   7    -0.505769007164E+03    0.42025E-03   -0.28602E-03 23319   0.279E-01    0.203E-01
DAV:   8    -0.505769005112E+03    0.20521E-05   -0.39262E-04 18198   0.647E-02    0.192E-01
DAV:   9    -0.505768931216E+03    0.73896E-04   -0.13921E-04 20502   0.404E-02    0.172E-01
DAV:  10    -0.505768741592E+03    0.18962E-03   -0.40122E-04 22635   0.689E-02    0.101E-01
DAV:  11    -0.505768716605E+03    0.24987E-04   -0.15155E-04 19566   0.516E-02    0.892E-02
DAV:  12    -0.505768714926E+03    0.16784E-05   -0.51326E-05 14634   0.248E-02
  37 F= -.50576871E+03 E0= -.50577163E+03  d E =-.308575E-02  mag=   107.4320
 trial-energy change:   -0.003086  1 .order   -0.003587   -0.005866   -0.001308
 step:   3.9074(harm=  3.9074)  dis= 0.00909  next Energy=  -505.769404 (dE=-0.378E-02)
 bond charge predicted
       N       E                     dE             d eps       ncg     rms          rms(c)
DAV:   1    -0.505760166627E+03    0.85500E-02   -0.67737E-01 16425   0.214E+00    0.469E-01
DAV:   2    -0.505767596011E+03   -0.74294E-02   -0.69173E-02 15444   0.535E-01    0.334E-01
DAV:   3    -0.505772775675E+03   -0.51797E-02   -0.15947E-02 26424   0.611E-01    0.891E-01
DAV:   4    -0.505768053260E+03    0.47224E-02   -0.15083E-02 27792   0.566E-01    0.271E-01
DAV:   5    -0.505768689538E+03   -0.63628E-03   -0.78737E-04 25902   0.131E-01    0.209E-01
DAV:   6    -0.505768855679E+03   -0.16614E-03   -0.58656E-04 24858   0.150E-01    0.130E-01
DAV:   7    -0.505768801628E+03    0.54051E-04   -0.29155E-04 22473   0.854E-02    0.628E-02
DAV:   8    -0.505768807834E+03   -0.62067E-05   -0.30152E-05 12240   0.203E-02
  38 F= -.50576881E+03 E0= -.50577171E+03  d E =-.317866E-02  mag=   107.4345
 curvature:  -3.08 expect dE=-0.267E-02 dE for cont linesearch -0.296E-07
 trial: gam= 0.39340 g(F)=  0.867E-03 g(S)=  0.000E+00 ort = 0.541E-05 (trialstep = 0.321E+01)
 search vector abs. value=  0.134E-02
 bond charge predicted
       N       E                     dE             d eps       ncg     rms          rms(c)
DAV:   1    -0.505735876611E+03    0.32925E-01   -0.36021E+00 15516   0.397E+00    0.103E+00
DAV:   2    -0.505763078602E+03   -0.27202E-01   -0.24280E-01 15480   0.109E+00    0.779E-01
DAV:   3    -0.505780555487E+03   -0.17477E-01   -0.50020E-02 26946   0.107E+00    0.166E+00
DAV:   4    -0.505766523928E+03    0.14032E-01   -0.54190E-02 26766   0.111E+00    0.678E-01
DAV:   5    -0.505769507751E+03   -0.29838E-02   -0.65960E-03 26793   0.451E-01    0.495E-01
DAV:   6    -0.505770011173E+03   -0.50342E-03   -0.31884E-03 24579   0.348E-01    0.211E-01
DAV:   7    -0.505770099661E+03   -0.88488E-04   -0.91869E-04 21033   0.144E-01    0.152E-01
DAV:   8    -0.505770072236E+03    0.27425E-04   -0.14937E-04 19341   0.480E-02    0.129E-01
DAV:   9    -0.505770032047E+03    0.40189E-04   -0.45396E-05 12033   0.388E-02    0.108E-01
DAV:  10    -0.505769982946E+03    0.49101E-04   -0.17749E-04 21159   0.326E-02    0.757E-02
DAV:  11    -0.505769964307E+03    0.18639E-04   -0.44421E-05 12447   0.261E-02    0.589E-02
DAV:  12    -0.505769968240E+03   -0.39331E-05   -0.27913E-05 10746   0.184E-02
  39 F= -.50576997E+03 E0= -.50577289E+03  d E =-.116041E-02  mag=   107.4441
 trial-energy change:   -0.001160  1 .order   -0.001366   -0.002790    0.000057
 step:   3.0991(harm=  3.1456)  dis= 0.00590  next Energy=  -505.769969 (dE=-0.116E-02)
 bond charge predicted
       N       E                     dE             d eps       ncg     rms          rms(c)
DAV:   1    -0.505769943811E+03    0.20496E-04   -0.43773E-03 15507   0.139E-01    0.448E-02
DAV:   2    -0.505770098806E+03   -0.15499E-03   -0.63557E-04 23355   0.108E-01    0.143E-01
DAV:   3    -0.505769969548E+03    0.12926E-03   -0.39103E-04 14688   0.981E-02    0.406E-02
DAV:   4    -0.505769982556E+03   -0.13008E-04   -0.31964E-05 12294   0.204E-02    0.317E-02
DAV:   5    -0.505769985592E+03   -0.30364E-05   -0.83909E-06  8325   0.151E-02
  40 F= -.50576999E+03 E0= -.50577291E+03  d E =-.117776E-02  mag=   107.4426
 curvature:  -1.17 expect dE=-0.260E-03 dE for cont linesearch -0.284E-06
 trial: gam= 0.22092 g(F)=  0.223E-03 g(S)=  0.000E+00 ort =-0.181E-04 (trialstep = 0.319E+01)
 search vector abs. value=  0.280E-03
 bond charge predicted
       N       E                     dE             d eps       ncg     rms          rms(c)
DAV:   1    -0.505762448436E+03    0.75341E-02   -0.81891E-01 16191   0.209E+00    0.445E-01
DAV:   2    -0.505769102389E+03   -0.66540E-02   -0.61641E-02 15417   0.525E-01    0.310E-01
DAV:   3    -0.505770717968E+03   -0.16156E-02   -0.44060E-03 27621   0.291E-01    0.469E-01
DAV:   4    -0.505769992910E+03    0.72506E-03   -0.60790E-03 27045   0.367E-01    0.315E-01
DAV:   5    -0.505770358998E+03   -0.36609E-03   -0.12576E-03 24759   0.160E-01    0.104E-01
DAV:   6    -0.505770415266E+03   -0.56267E-04   -0.23798E-04 24003   0.796E-02    0.854E-02
DAV:   7    -0.505770390735E+03    0.24531E-04   -0.95054E-05 17937   0.596E-02    0.520E-02
DAV:   8    -0.505770390068E+03    0.66697E-06   -0.11620E-05  8937   0.136E-02
  41 F= -.50577039E+03 E0= -.50577331E+03  d E =-.404476E-03  mag=   107.4420
 trial-energy change:   -0.000404  1 .order   -0.000483   -0.000698   -0.000269
 step:   5.1823(harm=  5.1823)  dis= 0.00472  next Energy=  -505.770553 (dE=-0.567E-03)
 reached required accuracy - stopping structural energy minimisation
