  63  63   0   0
  0.2718825E+02  0.8509700E-09  0.8539300E-09  0.2357140E-08  0.5000000E-15
  1.000000000000000E-004
  CAR 
 INCAR-For-OPT                           
      5.33718353    -45.61844682  301      0.94208213      1.00000000
    -45.618  0.0000E+00  0.0000E+00  0.0000E+00  0.0000E+00
    -45.449  0.0000E+00  0.0000E+00  0.0000E+00  0.0000E+00
    -45.279  0.0000E+00  0.0000E+00  0.0000E+00  0.0000E+00
    -45.109  0.0000E+00  0.0000E+00  0.0000E+00  0.0000E+00
    -44.939  0.0000E+00  0.0000E+00  0.0000E+00  0.0000E+00
    -44.769  0.0000E+00  0.0000E+00  0.0000E+00  0.0000E+00
    -44.599  0.0000E+00 -0.1611E-33  0.0000E+00 -0.2736E-34
    -44.429  0.0000E+00 -0.1243E-25  0.0000E+00 -0.2111E-26
    -44.260 -0.5272E-32 -0.7226E-19 -0.8954E-33 -0.1227E-19
    -44.090 -0.2542E-24 -0.3036E-13 -0.4318E-25 -0.5156E-14
    -43.920 -0.9208E-18 -0.9645E-09 -0.1564E-18 -0.1638E-09
    -43.750 -0.2385E-12 -0.2242E-05 -0.4051E-13 -0.3809E-06
    -43.580 -0.4580E-08 -0.3788E-03 -0.7779E-09 -0.6472E-04
    -43.410 -0.5999E-05 -0.3168E-02 -0.1020E-05 -0.6028E-03
    -43.241 -0.4390E-03  0.4518E-01 -0.7559E-04  0.7071E-02
    -43.071  0.1327E-02  0.1989E+00  0.1498E-03  0.4085E-01
    -42.901  0.2578E-01  0.1644E+00  0.4529E-02  0.6878E-01
    -42.731  0.7163E-01  0.3094E-01  0.1670E-01  0.7404E-01
    -42.561  0.2152E-01  0.6227E-01  0.2035E-01  0.8461E-01
    -42.391 -0.2438E-02  0.3785E-01  0.1994E-01  0.9104E-01
    -42.221  0.1413E-01  0.3723E-01  0.2234E-01  0.9737E-01
    -42.052  0.5533E-01  0.2234E-01  0.3174E-01  0.1012E+00
    -41.882  0.1236E+00  0.4029E-01  0.5273E-01  0.1080E+00
    -41.712  0.1968E+00  0.1318E-01  0.8615E-01  0.1102E+00
    -41.542  0.1234E+00 -0.1387E-02  0.1071E+00  0.1100E+00
    -41.372  0.1972E-01 -0.4626E-04  0.1105E+00  0.1100E+00
    -41.202 -0.2583E-02 -0.7032E-07  0.1100E+00  0.1100E+00
    -41.032 -0.1058E-03 -0.1518E-06  0.1100E+00  0.1100E+00
    -40.863 -0.4529E-06 -0.6534E-04  0.1100E+00  0.1100E+00
    -40.693 -0.9551E-04 -0.1154E-02  0.1100E+00  0.1098E+00
    -40.523 -0.1692E-02  0.1371E-01  0.1097E+00  0.1121E+00
    -40.353  0.1943E-01  0.3267E-01  0.1130E+00  0.1177E+00
    -40.183  0.5183E-01  0.1418E-01  0.1218E+00  0.1201E+00
    -40.013  0.4177E-01 -0.7412E-03  0.1289E+00  0.1200E+00
    -39.843  0.7512E-02  0.1519E-02  0.1302E+00  0.1202E+00
    -39.674 -0.9666E-03  0.2515E-01  0.1300E+00  0.1245E+00
    -39.504 -0.3348E-04  0.3151E-01  0.1300E+00  0.1298E+00
    -39.334 -0.5931E-07  0.1452E-02  0.1300E+00  0.1301E+00
    -39.164 -0.7084E-11 -0.4740E-03  0.1300E+00  0.1300E+00
    -38.994 -0.6101E-16 -0.4424E-05  0.1300E+00  0.1300E+00
    -38.824  0.0000E+00 -0.2499E-08  0.1300E+00  0.1300E+00
    -38.655  0.0000E+00 -0.1005E-12  0.1300E+00  0.1300E+00
    -38.485  0.0000E+00  0.0000E+00  0.1300E+00  0.1300E+00
    -38.315  0.0000E+00  0.0000E+00  0.1300E+00  0.1300E+00
    -38.145  0.0000E+00  0.0000E+00  0.1300E+00  0.1300E+00
    -37.975  0.0000E+00  0.0000E+00  0.1300E+00  0.1300E+00
    -37.805  0.0000E+00  0.0000E+00  0.1300E+00  0.1300E+00
    -37.635  0.0000E+00  0.0000E+00  0.1300E+00  0.1300E+00
    -37.466  0.0000E+00  0.0000E+00  0.1300E+00  0.1300E+00
    -37.296  0.0000E+00  0.0000E+00  0.1300E+00  0.1300E+00
    -37.126  0.0000E+00  0.0000E+00  0.1300E+00  0.1300E+00
    -36.956  0.0000E+00  0.0000E+00  0.1300E+00  0.1300E+00
    -36.786  0.0000E+00  0.0000E+00  0.1300E+00  0.1300E+00
    -36.616  0.0000E+00  0.0000E+00  0.1300E+00  0.1300E+00
    -36.446  0.0000E+00  0.0000E+00  0.1300E+00  0.1300E+00
    -36.277  0.0000E+00  0.0000E+00  0.1300E+00  0.1300E+00
    -36.107  0.0000E+00  0.0000E+00  0.1300E+00  0.1300E+00
    -35.937  0.0000E+00  0.0000E+00  0.1300E+00  0.1300E+00
    -35.767  0.0000E+00  0.0000E+00  0.1300E+00  0.1300E+00
    -35.597  0.0000E+00  0.0000E+00  0.1300E+00  0.1300E+00
    -35.427  0.0000E+00  0.0000E+00  0.1300E+00  0.1300E+00
    -35.257  0.0000E+00  0.0000E+00  0.1300E+00  0.1300E+00
    -35.088  0.0000E+00  0.0000E+00  0.1300E+00  0.1300E+00
    -34.918  0.0000E+00  0.0000E+00  0.1300E+00  0.1300E+00
    -34.748  0.0000E+00  0.0000E+00  0.1300E+00  0.1300E+00
    -34.578  0.0000E+00  0.0000E+00  0.1300E+00  0.1300E+00
    -34.408  0.0000E+00  0.0000E+00  0.1300E+00  0.1300E+00
    -34.238  0.0000E+00  0.0000E+00  0.1300E+00  0.1300E+00
    -34.069  0.0000E+00  0.0000E+00  0.1300E+00  0.1300E+00
    -33.899  0.0000E+00  0.0000E+00  0.1300E+00  0.1300E+00
    -33.729  0.0000E+00  0.0000E+00  0.1300E+00  0.1300E+00
    -33.559  0.0000E+00  0.0000E+00  0.1300E+00  0.1300E+00
    -33.389  0.0000E+00  0.0000E+00  0.1300E+00  0.1300E+00
    -33.219  0.0000E+00  0.0000E+00  0.1300E+00  0.1300E+00
    -33.049  0.0000E+00  0.0000E+00  0.1300E+00  0.1300E+00
    -32.880  0.0000E+00  0.0000E+00  0.1300E+00  0.1300E+00
    -32.710  0.0000E+00  0.0000E+00  0.1300E+00  0.1300E+00
    -32.540  0.0000E+00  0.0000E+00  0.1300E+00  0.1300E+00
    -32.370  0.0000E+00  0.0000E+00  0.1300E+00  0.1300E+00
    -32.200  0.0000E+00  0.0000E+00  0.1300E+00  0.1300E+00
    -32.030  0.0000E+00  0.0000E+00  0.1300E+00  0.1300E+00
    -31.860  0.0000E+00  0.0000E+00  0.1300E+00  0.1300E+00
    -31.691  0.0000E+00  0.0000E+00  0.1300E+00  0.1300E+00
    -31.521  0.0000E+00  0.0000E+00  0.1300E+00  0.1300E+00
    -31.351  0.0000E+00  0.0000E+00  0.1300E+00  0.1300E+00
    -31.181  0.0000E+00  0.0000E+00  0.1300E+00  0.1300E+00
    -31.011  0.0000E+00  0.0000E+00  0.1300E+00  0.1300E+00
    -30.841  0.0000E+00  0.0000E+00  0.1300E+00  0.1300E+00
    -30.671  0.0000E+00  0.0000E+00  0.1300E+00  0.1300E+00
    -30.502  0.0000E+00  0.0000E+00  0.1300E+00  0.1300E+00
    -30.332  0.0000E+00  0.0000E+00  0.1300E+00  0.1300E+00
    -30.162  0.0000E+00  0.0000E+00  0.1300E+00  0.1300E+00
    -29.992  0.0000E+00  0.0000E+00  0.1300E+00  0.1300E+00
    -29.822  0.0000E+00  0.0000E+00  0.1300E+00  0.1300E+00
    -29.652  0.0000E+00  0.0000E+00  0.1300E+00  0.1300E+00
    -29.482  0.0000E+00  0.0000E+00  0.1300E+00  0.1300E+00
    -29.313  0.0000E+00  0.0000E+00  0.1300E+00  0.1300E+00
    -29.143  0.0000E+00  0.0000E+00  0.1300E+00  0.1300E+00
    -28.973  0.0000E+00  0.0000E+00  0.1300E+00  0.1300E+00
    -28.803  0.0000E+00  0.0000E+00  0.1300E+00  0.1300E+00
    -28.633  0.0000E+00  0.0000E+00  0.1300E+00  0.1300E+00
    -28.463  0.0000E+00  0.0000E+00  0.1300E+00  0.1300E+00
    -28.294  0.0000E+00  0.0000E+00  0.1300E+00  0.1300E+00
    -28.124  0.0000E+00  0.0000E+00  0.1300E+00  0.1300E+00
    -27.954  0.0000E+00  0.0000E+00  0.1300E+00  0.1300E+00
    -27.784  0.0000E+00  0.0000E+00  0.1300E+00  0.1300E+00
    -27.614  0.0000E+00  0.0000E+00  0.1300E+00  0.1300E+00
    -27.444  0.0000E+00  0.0000E+00  0.1300E+00  0.1300E+00
    -27.274  0.0000E+00  0.0000E+00  0.1300E+00  0.1300E+00
    -27.105  0.0000E+00  0.0000E+00  0.1300E+00  0.1300E+00
    -26.935  0.0000E+00  0.0000E+00  0.1300E+00  0.1300E+00
    -26.765  0.0000E+00  0.0000E+00  0.1300E+00  0.1300E+00
    -26.595  0.0000E+00  0.0000E+00  0.1300E+00  0.1300E+00
    -26.425  0.0000E+00  0.0000E+00  0.1300E+00  0.1300E+00
    -26.255  0.0000E+00  0.0000E+00  0.1300E+00  0.1300E+00
    -26.085  0.0000E+00  0.0000E+00  0.1300E+00  0.1300E+00
    -25.916  0.0000E+00  0.0000E+00  0.1300E+00  0.1300E+00
    -25.746  0.0000E+00  0.0000E+00  0.1300E+00  0.1300E+00
    -25.576  0.0000E+00  0.0000E+00  0.1300E+00  0.1300E+00
    -25.406  0.0000E+00  0.0000E+00  0.1300E+00  0.1300E+00
    -25.236  0.0000E+00  0.0000E+00  0.1300E+00  0.1300E+00
    -25.066  0.0000E+00  0.0000E+00  0.1300E+00  0.1300E+00
    -24.896  0.0000E+00  0.0000E+00  0.1300E+00  0.1300E+00
    -24.727  0.0000E+00  0.0000E+00  0.1300E+00  0.1300E+00
    -24.557  0.0000E+00  0.0000E+00  0.1300E+00  0.1300E+00
    -24.387  0.0000E+00  0.0000E+00  0.1300E+00  0.1300E+00
    -24.217  0.0000E+00  0.0000E+00  0.1300E+00  0.1300E+00
    -24.047  0.0000E+00  0.0000E+00  0.1300E+00  0.1300E+00
    -23.877  0.0000E+00  0.0000E+00  0.1300E+00  0.1300E+00
    -23.708  0.0000E+00  0.0000E+00  0.1300E+00  0.1300E+00
    -23.538  0.0000E+00  0.0000E+00  0.1300E+00  0.1300E+00
    -23.368  0.0000E+00  0.0000E+00  0.1300E+00  0.1300E+00
    -23.198  0.0000E+00  0.0000E+00  0.1300E+00  0.1300E+00
    -23.028  0.0000E+00  0.0000E+00  0.1300E+00  0.1300E+00
    -22.858  0.0000E+00  0.0000E+00  0.1300E+00  0.1300E+00
    -22.688  0.0000E+00  0.0000E+00  0.1300E+00  0.1300E+00
    -22.519  0.0000E+00  0.0000E+00  0.1300E+00  0.1300E+00
    -22.349  0.0000E+00  0.0000E+00  0.1300E+00  0.1300E+00
    -22.179  0.0000E+00  0.0000E+00  0.1300E+00  0.1300E+00
    -22.009  0.0000E+00  0.0000E+00  0.1300E+00  0.1300E+00
    -21.839  0.0000E+00  0.0000E+00  0.1300E+00  0.1300E+00
    -21.669  0.0000E+00  0.0000E+00  0.1300E+00  0.1300E+00
    -21.499  0.0000E+00  0.0000E+00  0.1300E+00  0.1300E+00
    -21.330  0.0000E+00  0.0000E+00  0.1300E+00  0.1300E+00
    -21.160  0.0000E+00  0.0000E+00  0.1300E+00  0.1300E+00
    -20.990  0.0000E+00  0.0000E+00  0.1300E+00  0.1300E+00
    -20.820  0.0000E+00  0.0000E+00  0.1300E+00  0.1300E+00
    -20.650  0.0000E+00  0.0000E+00  0.1300E+00  0.1300E+00
    -20.480  0.0000E+00  0.0000E+00  0.1300E+00  0.1300E+00
    -20.310  0.0000E+00  0.0000E+00  0.1300E+00  0.1300E+00
    -20.141  0.0000E+00  0.0000E+00  0.1300E+00  0.1300E+00
    -19.971  0.0000E+00  0.0000E+00  0.1300E+00  0.1300E+00
    -19.801  0.0000E+00  0.0000E+00  0.1300E+00  0.1300E+00
    -19.631  0.0000E+00  0.0000E+00  0.1300E+00  0.1300E+00
    -19.461  0.0000E+00  0.0000E+00  0.1300E+00  0.1300E+00
    -19.291  0.0000E+00  0.0000E+00  0.1300E+00  0.1300E+00
    -19.122  0.0000E+00  0.0000E+00  0.1300E+00  0.1300E+00
    -18.952  0.0000E+00  0.0000E+00  0.1300E+00  0.1300E+00
    -18.782  0.0000E+00  0.0000E+00  0.1300E+00  0.1300E+00
    -18.612  0.0000E+00  0.0000E+00  0.1300E+00  0.1300E+00
    -18.442  0.0000E+00  0.0000E+00  0.1300E+00  0.1300E+00
    -18.272  0.0000E+00  0.0000E+00  0.1300E+00  0.1300E+00
    -18.102  0.0000E+00  0.0000E+00  0.1300E+00  0.1300E+00
    -17.933  0.0000E+00  0.0000E+00  0.1300E+00  0.1300E+00
    -17.763  0.0000E+00  0.0000E+00  0.1300E+00  0.1300E+00
    -17.593  0.0000E+00  0.0000E+00  0.1300E+00  0.1300E+00
    -17.423  0.0000E+00  0.0000E+00  0.1300E+00  0.1300E+00
    -17.253  0.0000E+00  0.0000E+00  0.1300E+00  0.1300E+00
    -17.083  0.0000E+00  0.0000E+00  0.1300E+00  0.1300E+00
    -16.913  0.0000E+00  0.0000E+00  0.1300E+00  0.1300E+00
    -16.744 -0.2889E-29 -0.9521E-29  0.1300E+00  0.1300E+00
    -16.574 -0.6661E-22 -0.1896E-21  0.1300E+00  0.1300E+00
    -16.404 -0.1139E-15 -0.2774E-15  0.1300E+00  0.1300E+00
    -16.234 -0.1492E-10 -0.3099E-10  0.1300E+00  0.1300E+00
    -16.064 -0.1432E-06 -0.2509E-06  0.1300E+00  0.1300E+00
    -15.894 -0.9358E-04 -0.1360E-03  0.1300E+00  0.1300E+00
    -15.724 -0.2786E-02 -0.3031E-02  0.1295E+00  0.1295E+00
    -15.555  0.2810E-01  0.3489E-01  0.1343E+00  0.1354E+00
    -15.385  0.7138E-01  0.6705E-01  0.1464E+00  0.1468E+00
    -15.215  0.2506E-02  0.8301E-04  0.1468E+00  0.1468E+00
    -15.045 -0.9762E-03 -0.7251E-03  0.1467E+00  0.1467E+00
    -14.875 -0.8475E-05 -0.4568E-05  0.1467E+00  0.1467E+00
    -14.705 -0.4886E-08 -0.1921E-08  0.1467E+00  0.1467E+00
    -14.536 -0.2137E-12 -0.6110E-13  0.1467E+00  0.1467E+00
    -14.366  0.0000E+00  0.0000E+00  0.1467E+00  0.1467E+00
    -14.196  0.0000E+00  0.0000E+00  0.1467E+00  0.1467E+00
    -14.026  0.0000E+00  0.0000E+00  0.1467E+00  0.1467E+00
    -13.856  0.0000E+00  0.0000E+00  0.1467E+00  0.1467E+00
    -13.686  0.0000E+00  0.0000E+00  0.1467E+00  0.1467E+00
    -13.516  0.0000E+00  0.0000E+00  0.1467E+00  0.1467E+00
    -13.347  0.0000E+00  0.0000E+00  0.1467E+00  0.1467E+00
    -13.177  0.0000E+00  0.0000E+00  0.1467E+00  0.1467E+00
    -13.007  0.0000E+00  0.0000E+00  0.1467E+00  0.1467E+00
    -12.837  0.0000E+00  0.0000E+00  0.1467E+00  0.1467E+00
    -12.667  0.0000E+00  0.0000E+00  0.1467E+00  0.1467E+00
    -12.497  0.0000E+00  0.0000E+00  0.1467E+00  0.1467E+00
    -12.327  0.0000E+00  0.0000E+00  0.1467E+00  0.1467E+00
    -12.158  0.0000E+00  0.0000E+00  0.1467E+00  0.1467E+00
    -11.988  0.0000E+00  0.0000E+00  0.1467E+00  0.1467E+00
    -11.818  0.0000E+00  0.0000E+00  0.1467E+00  0.1467E+00
    -11.648  0.0000E+00  0.0000E+00  0.1467E+00  0.1467E+00
    -11.478  0.0000E+00  0.0000E+00  0.1467E+00  0.1467E+00
    -11.308  0.0000E+00  0.0000E+00  0.1467E+00  0.1467E+00
    -11.138  0.0000E+00  0.0000E+00  0.1467E+00  0.1467E+00
    -10.969  0.0000E+00  0.0000E+00  0.1467E+00  0.1467E+00
    -10.799  0.0000E+00  0.0000E+00  0.1467E+00  0.1467E+00
    -10.629  0.0000E+00  0.0000E+00  0.1467E+00  0.1467E+00
    -10.459  0.0000E+00  0.0000E+00  0.1467E+00  0.1467E+00
    -10.289  0.0000E+00  0.0000E+00  0.1467E+00  0.1467E+00
    -10.119  0.0000E+00  0.0000E+00  0.1467E+00  0.1467E+00
     -9.950  0.0000E+00  0.0000E+00  0.1467E+00  0.1467E+00
     -9.780  0.0000E+00  0.0000E+00  0.1467E+00  0.1467E+00
     -9.610  0.0000E+00  0.0000E+00  0.1467E+00  0.1467E+00
     -9.440  0.0000E+00  0.0000E+00  0.1467E+00  0.1467E+00
     -9.270 -0.6002E-37 -0.3305E-38  0.1467E+00  0.1467E+00
     -9.100 -0.1006E-28 -0.1068E-29  0.1467E+00  0.1467E+00
     -8.930 -0.1304E-21 -0.2028E-22  0.1467E+00  0.1467E+00
     -8.761 -0.1292E-15 -0.2958E-16  0.1467E+00  0.1467E+00
     -8.591 -0.1034E-10 -0.3390E-11  0.1467E+00  0.1467E+00
     -8.421 -0.6446E-07 -0.2992E-07  0.1467E+00  0.1467E+00
     -8.251 -0.2924E-04 -0.1881E-04  0.1467E+00  0.1467E+00
     -8.081 -0.5813E-03 -0.5601E-03  0.1466E+00  0.1466E+00
     -7.911  0.6949E-02  0.5653E-02  0.1477E+00  0.1475E+00
     -7.741  0.1338E-01  0.1436E-01  0.1500E+00  0.1500E+00
     -7.572  0.5713E-04  0.3792E-03  0.1500E+00  0.1500E+00
     -7.402 -0.1769E-03 -0.1889E-03  0.1500E+00  0.1500E+00
     -7.232 -0.3276E-04 -0.6851E-04  0.1500E+00  0.1500E+00
     -7.062  0.2502E-02  0.3394E-03  0.1504E+00  0.1500E+00
     -6.892  0.6332E-02  0.4192E-02  0.1515E+00  0.1508E+00
     -6.722  0.3249E-02  0.5743E-02  0.1520E+00  0.1517E+00
     -6.552  0.6854E-02  0.2905E-02  0.1532E+00  0.1522E+00
     -6.383  0.6553E-02  0.8357E-02  0.1543E+00  0.1536E+00
     -6.213  0.1443E-02  0.4270E-02  0.1546E+00  0.1544E+00
     -6.043  0.9605E-02  0.2223E-02  0.1562E+00  0.1547E+00
     -5.873  0.1349E-01  0.1070E-01  0.1585E+00  0.1566E+00
     -5.703  0.1108E-01  0.1375E-01  0.1604E+00  0.1589E+00
     -5.533  0.1122E-01  0.9255E-02  0.1623E+00  0.1605E+00
     -5.363  0.7029E-02  0.1174E-01  0.1635E+00  0.1625E+00
     -5.194  0.1284E-01  0.6471E-02  0.1656E+00  0.1636E+00
     -5.024  0.1945E-01  0.9912E-02  0.1690E+00  0.1653E+00
     -4.854  0.1347E-01  0.1985E-01  0.1712E+00  0.1686E+00
     -4.684  0.1813E-01  0.1188E-01  0.1743E+00  0.1706E+00
     -4.514  0.2086E-01  0.1516E-01  0.1779E+00  0.1732E+00
     -4.344  0.2513E-01  0.1496E-01  0.1821E+00  0.1758E+00
     -4.175  0.3187E-01  0.1745E-01  0.1875E+00  0.1787E+00
     -4.005  0.4912E-01  0.2651E-01  0.1959E+00  0.1832E+00
     -3.835  0.7348E-01  0.2417E-01  0.2084E+00  0.1873E+00
     -3.665  0.1072E+00  0.2274E-01  0.2266E+00  0.1912E+00
     -3.495  0.1236E+00  0.2167E-01  0.2476E+00  0.1949E+00
     -3.325  0.1346E+00  0.3506E-01  0.2704E+00  0.2008E+00
     -3.155  0.1844E+00  0.4040E-01  0.3017E+00  0.2077E+00
     -2.986  0.1601E+00  0.6434E-01  0.3289E+00  0.2186E+00
     -2.816  0.1374E+00  0.6895E-01  0.3523E+00  0.2303E+00
     -2.646  0.1676E+00  0.7342E-01  0.3807E+00  0.2428E+00
     -2.476  0.2502E+00  0.6477E-01  0.4232E+00  0.2538E+00
     -2.306  0.2473E+00  0.9731E-01  0.4652E+00  0.2703E+00
     -2.136  0.2379E+00  0.1176E+00  0.5056E+00  0.2903E+00
     -1.966  0.2399E+00  0.1217E+00  0.5464E+00  0.3110E+00
     -1.797  0.2371E+00  0.1276E+00  0.5867E+00  0.3326E+00
     -1.627  0.2349E+00  0.1172E+00  0.6266E+00  0.3526E+00
     -1.457  0.2323E+00  0.1086E+00  0.6660E+00  0.3710E+00
     -1.287  0.2076E+00  0.1344E+00  0.7013E+00  0.3938E+00
     -1.117  0.1787E+00  0.1623E+00  0.7316E+00  0.4214E+00
     -0.947  0.1412E+00  0.1830E+00  0.7556E+00  0.4525E+00
     -0.777  0.1697E+00  0.1991E+00  0.7844E+00  0.4863E+00
     -0.608  0.2220E+00  0.2029E+00  0.8221E+00  0.5208E+00
     -0.438  0.2804E+00  0.2112E+00  0.8698E+00  0.5566E+00
     -0.268  0.3223E+00  0.2072E+00  0.9245E+00  0.5918E+00
     -0.098  0.2843E+00  0.1893E+00  0.9728E+00  0.6240E+00
      0.072  0.2028E+00  0.1691E+00  0.1007E+01  0.6527E+00
      0.242  0.1531E+00  0.1414E+00  0.1033E+01  0.6767E+00
      0.411  0.1338E+00  0.1188E+00  0.1056E+01  0.6969E+00
      0.581  0.1322E+00  0.1254E+00  0.1078E+01  0.7182E+00
      0.751  0.1089E+00  0.1139E+00  0.1097E+01  0.7375E+00
      0.921  0.9829E-01  0.1032E+00  0.1114E+01  0.7551E+00
      1.091  0.1022E+00  0.1400E+00  0.1131E+01  0.7789E+00
      1.261  0.9418E-01  0.1636E+00  0.1147E+01  0.8067E+00
      1.431  0.8958E-01  0.1604E+00  0.1162E+01  0.8339E+00
      1.600  0.9237E-01  0.1807E+00  0.1178E+01  0.8646E+00
      1.770  0.1091E+00  0.2171E+00  0.1196E+01  0.9015E+00
      1.940  0.1117E+00  0.2555E+00  0.1215E+01  0.9449E+00
      2.110  0.7591E-01  0.2932E+00  0.1228E+01  0.9947E+00
      2.280  0.1185E-01  0.2935E+00  0.1230E+01  0.1045E+01
      2.450 -0.1651E-02  0.3039E+00  0.1230E+01  0.1096E+01
      2.620 -0.5524E-04  0.3349E+00  0.1230E+01  0.1153E+01
      2.789 -0.1059E-06  0.2507E+00  0.1230E+01  0.1196E+01
      2.959 -0.1499E-10  0.1654E+00  0.1230E+01  0.1224E+01
      3.129 -0.1623E-15  0.4106E-01  0.1230E+01  0.1231E+01
      3.299  0.0000E+00 -0.3653E-02  0.1230E+01  0.1230E+01
      3.469  0.0000E+00 -0.2728E-03  0.1230E+01  0.1230E+01
      3.639  0.0000E+00 -0.1043E-05  0.1230E+01  0.1230E+01
      3.809  0.0000E+00 -0.3028E-09  0.1230E+01  0.1230E+01
      3.978  0.0000E+00 -0.6879E-14  0.1230E+01  0.1230E+01
      4.148  0.0000E+00  0.0000E+00  0.1230E+01  0.1230E+01
      4.318  0.0000E+00  0.0000E+00  0.1230E+01  0.1230E+01
      4.488  0.0000E+00  0.0000E+00  0.1230E+01  0.1230E+01
      4.658  0.0000E+00  0.0000E+00  0.1230E+01  0.1230E+01
      4.828  0.0000E+00  0.0000E+00  0.1230E+01  0.1230E+01
      4.997  0.0000E+00  0.0000E+00  0.1230E+01  0.1230E+01
      5.167  0.0000E+00  0.0000E+00  0.1230E+01  0.1230E+01
      5.337  0.0000E+00  0.0000E+00  0.1230E+01  0.1230E+01
