Generated by VASPKIT code
 1.000000
    8.5097000000000005    0.0000000000000000    0.0000000000000000
   -0.0037259700000000    8.5392991899999995    0.0000000000000000
    0.0000000000000000    0.0000000000000000   23.5714000000000006
   Fe   Pb   Cr
    49     1    13
Selective Dynamics
Direct
    0.8331000000000000    0.4987100000000000    0.0600100000000000    F  F  F    Fe001
    0.8347200000000000    0.8319200000000000    0.0602700000000000    F  F  F    Fe002
    0.0008100000000000    0.6642500000000000    0.0003400000000000    F  F  F    Fe003
    0.1557700000000000    0.8273800000000000    0.2996400000000000    T  T  T    Fe004
    0.6647999999999999    0.3315600000000000    0.3584900000000000    T  T  T    Fe005
    0.6655900000000000    0.3313800000000000    0.0004400000000000    F  F  F    Fe006
    0.4996800000000000    0.8332200000000000    0.0604600000000000    F  F  F    Fe007
    0.6672100000000000    0.3332100000000000    0.2406700000000000    F  F  F    Fe008
    0.5005800000000000    0.4995000000000000    0.1802400000000000    F  F  F    Fe009
    0.3359500000000000    0.3319600000000000    0.1191200000000000    F  F  F    Fe010
    0.3346200000000000    0.3337600000000000    0.2405900000000000    F  F  F    Fe011
    0.5035900000000000    0.5009100000000000    0.3005300000000000    T  T  T    Fe012
    0.0005500000000000    0.3319000000000000    0.1200600000000000    F  F  F    Fe013
    0.1675200000000000    0.4994500000000000    0.1806500000000000    F  F  F    Fe014
    0.0002100000000000    0.3314500000000000    0.0003800000000000    F  F  F    Fe015
    0.3351000000000000    0.3317000000000000    0.0002900000000000    F  F  F    Fe016
    0.0062100000000000    0.3311600000000000    0.3601900000000000    T  T  T    Fe017
    0.0007700000000000    0.9995900000000000    0.1203600000000000    F  F  F    Fe018
    0.1681400000000000    0.1663400000000000    0.1804800000000000    F  F  F    Fe019
    0.3340500000000000    0.6659300000000000    0.1209500000000000    F  F  F    Fe020
    0.5007800000000000    0.8324200000000000    0.1812100000000000    F  F  F    Fe021
    0.9984100000000000    0.6670500000000000    0.3582100000000000    T  T  T    Fe022
    0.9998200000000000    0.3335900000000000    0.2403000000000000    F  F  F    Fe023
    0.0002500000000000    0.6656900000000000    0.1205100000000000    F  F  F    Fe024
    0.1658100000000000    0.8321700000000000    0.1811400000000000    F  F  F    Fe025
    0.6656600000000000    0.3312300000000000    0.1197000000000000    F  F  F    Fe026
    0.8287500000000000    0.8337500000000000    0.3029700000000000    T  T  T    Fe027
    0.1679700000000000    0.4986200000000000    0.3014900000000000    T  T  T    Fe028
    0.1665700000000000    0.1685500000000000    0.3019300000000000    T  T  T    Fe029
    0.0016100000000000    0.9989100000000000    0.0002400000000000    F  F  F    Fe030
    0.0088400000000000    0.9969100000000000    0.3603600000000000    T  T  T    Fe031
    0.1680700000000000    0.1653900000000000    0.0600400000000000    F  F  F    Fe032
    0.5104500000000000    0.8295200000000000    0.2990700000000000    T  T  T    Fe033
    0.8347599999999999    0.8330300000000000    0.1813200000000000    F  F  F    Fe034
    0.6671500000000000    0.6655900000000000    0.0000000000000000    F  F  F    Fe035
    0.6671899999999999    0.6664000000000000    0.1203200000000000    F  F  F    Fe036
    0.8330200000000000    0.4993700000000000    0.1799500000000000    F  F  F    Fe037
    0.1676900000000000    0.8338900000000000    0.0602900000000000    F  F  F    Fe038
    0.5008600000000000    0.1674300000000000    0.3022100000000000    T  T  T    Fe039
    0.3328900000000000    0.9982400000000000    0.2413000000000000    F  F  F    Fe040
    0.6667900000000000    0.9991400000000000    0.2409700000000000    F  F  F    Fe041
    0.3346600000000000    0.0002300000000000    0.1208200000000000    F  F  F    Fe042
    0.6674600000000001    0.9981500000000000    0.0000100000000000    F  F  F    Fe043
    0.8347500000000000    0.1656900000000000    0.3022400000000000    T  T  T    Fe044
    0.8335800000000000    0.1645600000000000    0.0601300000000000    F  F  F    Fe045
    0.6624700000000000    0.0034300000000000    0.3598100000000000    T  T  T    Fe046
    0.8336400000000000    0.1659300000000000    0.1806200000000000    F  F  F    Fe047
    0.6665300000000000    0.9997200000000001    0.1204400000000000    F  F  F    Fe048
    0.3358900000000000    0.3324000000000000    0.3593400000000000    T  T  T    Fe049
    0.4484400000000000    0.8928400000000000    0.4427300000000000    T  T  T    Pb001
    0.3348700000000000    0.0016700000000000    0.0006600000000000    F  F  F    Cr001
    0.3323200000000000    0.9914300000000000    0.3593700000000000    T  T  T    Cr002
    0.0012200000000000    0.0021700000000000    0.2408000000000000    F  F  F    Cr003
    0.1672200000000000    0.5017900000000000    0.0590300000000000    F  F  F    Cr004
    0.5000000000000000    0.5034400000000000    0.0594900000000000    F  F  F    Cr005
    0.4986100000000000    0.1611500000000000    0.0586800000000000    F  F  F    Cr006
    0.4996800000000000    0.1644400000000000    0.1818200000000000    F  F  F    Cr007
    0.8353200000000000    0.5074900000000000    0.2999100000000000    T  T  T    Cr008
    0.9972200000000000    0.6613500000000000    0.2415100000000000    F  F  F    Cr009
    0.3341900000000000    0.6657300000000000    0.2404000000000000    F  F  F    Cr010
    0.3341400000000000    0.6585500000000000    0.0027800000000000    F  F  F    Cr011
    0.3346700000000000    0.6754599999999999    0.3675300000000000    T  T  T    Cr012
    0.6692300000000000    0.6633700000000000    0.2409700000000000    F  F  F    Cr013
