 
:: initializing oneAPI environment ...
   slurm_script: BASH_VERSION = 4.4.20(1)-release
   args: Using "$@" for setvars.sh arguments: --force
:: advisor -- latest
:: ccl -- latest
:: compiler -- latest
:: dal -- latest
:: debugger -- latest
:: dev-utilities -- latest
:: dnnl -- latest
:: dpcpp-ct -- latest
:: dpl -- latest
:: ipp -- latest
:: ippcp -- latest
:: mkl -- latest
:: mpi -- latest
:: pti -- latest
:: tbb -- latest
:: umf -- latest
:: vtune -- latest
:: oneAPI environment initialized ::
 
 running   96 mpi-ranks, on    1 nodes
 distrk:  each k-point on   12 cores,    8 groups
 distr:  one band on    4 cores,    3 groups
 vasp.6.5.1 10Mar25 (build Oct 09 2025 23:55:08) complex                        
  
 POSCAR found type information on POSCAR FeCr
 POSCAR found :  2 types and      63 ions
 -----------------------------------------------------------------------------
|                                                                             |
|           W    W    AA    RRRRR   N    N  II  N    N   GGGG   !!!           |
|           W    W   A  A   R    R  NN   N  II  NN   N  G    G  !!!           |
|           W    W  A    A  R    R  N N  N  II  N N  N  G       !!!           |
|           W WW W  AAAAAA  RRRRR   N  N N  II  N  N N  G  GGG   !            |
|           WW  WW  A    A  R   R   N   NN  II  N   NN  G    G                |
|           W    W  A    A  R    R  N    N  II  N    N   GGGG   !!!           |
|                                                                             |
|     You requested a magnetic or noncollinear calculation, but did not       |
|     specify the initial magnetic moment with the MAGMOM tag. Note that      |
|     a default of 1 will be used for all atoms. This ferromagnetic setup     |
|     may break the symmetry of the crystal, in particular it may rule        |
|     out finding an antiferromagnetic solution. Thence, we recommend         |
|     setting the initial magnetic moment manually or verifying carefully     |
|     that this magnetic setup is desired.                                    |
|                                                                             |
 -----------------------------------------------------------------------------

 scaLAPACK will be used
 -----------------------------------------------------------------------------
|                                                                             |
|           W    W    AA    RRRRR   N    N  II  N    N   GGGG   !!!           |
|           W    W   A  A   R    R  NN   N  II  NN   N  G    G  !!!           |
|           W    W  A    A  R    R  N N  N  II  N N  N  G       !!!           |
|           W WW W  AAAAAA  RRRRR   N  N N  II  N  N N  G  GGG   !            |
|           WW  WW  A    A  R   R   N   NN  II  N   NN  G    G                |
|           W    W  A    A  R    R  N    N  II  N    N   GGGG   !!!           |
|                                                                             |
|     For optimal performance we recommend to set                             |
|       NCORE = 2 up to number-of-cores-per-socket                            |
|     NCORE specifies how many cores store one orbital (NPAR=cpu/NCORE).      |
|     This setting can greatly improve the performance of VASP for DFT.       |
|     The default, NCORE=1 might be grossly inefficient on modern             |
|     multi-core architectures or massively parallel machines. Do your        |
|     own testing! More info at https://www.vasp.at/wiki/index.php/NCORE      |
|     Unfortunately you need to use the default for GW and RPA                |
|     calculations (for HF NCORE is supported but not extensively tested      |
|     yet).                                                                   |
|                                                                             |
 -----------------------------------------------------------------------------

 LDA part: xc-table for (Slater+PW92), standard interpolation
 POSCAR, INCAR and KPOINTS ok, starting setup
 FFT: planning ... GRIDC
 FFT: planning ... GRID_SOFT
 FFT: planning ... GRID
 WAVECAR not read
 WARNING: chargedensity file is incomplete
 WARNING: random wavefunctions but no delay for mixing, default for NELMDL
 entering main loop
       N       E                     dE             d eps       ncg     rms          rms(c)
DAV:   1     0.544845986619E+04    0.54485E+04   -0.23871E+05 15588   0.143E+03
DAV:   2    -0.981999558004E+02   -0.55467E+04   -0.53482E+04 14760   0.419E+02
DAV:   3    -0.529891790886E+03   -0.43169E+03   -0.38090E+03 15273   0.158E+02
DAV:   4    -0.586236744478E+03   -0.56345E+02   -0.52803E+02 26127   0.438E+01
DAV:   5    -0.589095578950E+03   -0.28588E+01   -0.27253E+01 23796   0.957E+00    0.932E+01
RMM:   6    -0.669709471591E+03   -0.80614E+02   -0.24003E+02 19157   0.277E+01    0.134E+02
RMM:   7    -0.560655551112E+03    0.10905E+03   -0.31772E+01 14899   0.160E+01    0.882E+01
RMM:   8    -0.635298313461E+03   -0.74643E+02   -0.56003E+01 19255   0.110E+01    0.127E+02
RMM:   9    -0.540472909628E+03    0.94825E+02   -0.21491E+01 15622   0.119E+01    0.762E+01
RMM:  10    -0.511333787782E+03    0.29139E+02   -0.58529E+01 18627   0.193E+01    0.565E+01
RMM:  11    -0.495866388184E+03    0.15467E+02   -0.52548E+01 19048   0.178E+01    0.388E+01
RMM:  12    -0.495599155785E+03    0.26723E+00   -0.14273E+01 18133   0.674E+00    0.367E+01
RMM:  13    -0.495692138950E+03   -0.92983E-01   -0.52123E+00 20978   0.287E+00    0.350E+01
RMM:  14    -0.496303553879E+03   -0.61141E+00   -0.13621E+00 22763   0.131E+00    0.350E+01
RMM:  15    -0.498948887460E+03   -0.26453E+01   -0.20420E+00 19680   0.259E+00    0.334E+01
RMM:  16    -0.503145799473E+03   -0.41969E+01   -0.64811E+00 23793   0.406E+00    0.297E+01
RMM:  17    -0.503857191951E+03   -0.71139E+00   -0.57311E+00 24122   0.393E+00    0.219E+01
RMM:  18    -0.504954773517E+03   -0.10976E+01   -0.30764E+00 21530   0.233E+00    0.207E+01
RMM:  19    -0.505342162588E+03   -0.38739E+00   -0.15697E+00 21813   0.160E+00    0.193E+01
RMM:  20    -0.505461089585E+03   -0.11893E+00   -0.88082E-01 21143   0.111E+00    0.180E+01
RMM:  21    -0.505855686150E+03   -0.39460E+00   -0.12672E+00 21189   0.158E+00    0.157E+01
RMM:  22    -0.506504844516E+03   -0.64916E+00   -0.20980E+00 23159   0.201E+00    0.133E+01
RMM:  23    -0.506949289013E+03   -0.44444E+00   -0.13580E+00 22304   0.122E+00    0.127E+01
RMM:  24    -0.507164206642E+03   -0.21492E+00   -0.66880E-01 21764   0.919E-01    0.123E+01
RMM:  25    -0.507374460050E+03   -0.21025E+00   -0.53336E-01 22504   0.594E-01    0.124E+01
RMM:  26    -0.507325198386E+03    0.49262E-01   -0.14474E-01 21969   0.341E-01    0.127E+01
RMM:  27    -0.508193672147E+03   -0.86847E+00   -0.12381E+00 25385   0.151E+00    0.118E+01
RMM:  28    -0.509069932027E+03   -0.87626E+00   -0.26214E+00 25506   0.178E+00    0.949E+00
RMM:  29    -0.509457406189E+03   -0.38747E+00   -0.15913E+00 25004   0.971E-01    0.919E+00
RMM:  30    -0.509542329607E+03   -0.84923E-01   -0.24749E-01 23063   0.485E-01    0.901E+00
RMM:  31    -0.509681301830E+03   -0.13897E+00   -0.34443E-01 22512   0.512E-01    0.833E+00
RMM:  32    -0.510101790846E+03   -0.42049E+00   -0.12510E+00 25697   0.141E+00    0.536E+00
RMM:  33    -0.510233418583E+03   -0.13163E+00   -0.98543E-01 25289   0.106E+00    0.412E+00
RMM:  34    -0.510251400409E+03   -0.17982E-01   -0.18546E-01 23441   0.465E-01    0.384E+00
RMM:  35    -0.510247546947E+03    0.38535E-02   -0.24805E-01 24777   0.676E-01    0.336E+00
RMM:  36    -0.510158932371E+03    0.88615E-01   -0.77063E-01 25609   0.118E+00    0.446E+00
RMM:  37    -0.510239251312E+03   -0.80319E-01   -0.12558E-01 23175   0.470E-01    0.348E+00
RMM:  38    -0.510293379200E+03   -0.54128E-01   -0.10615E-01 22295   0.538E-01    0.179E+00
RMM:  39    -0.510291333460E+03    0.20457E-02   -0.58098E-02 20741   0.352E-01    0.166E+00
RMM:  40    -0.510293941298E+03   -0.26078E-02   -0.25550E-02 20978   0.187E-01    0.150E+00
RMM:  41    -0.510299395321E+03   -0.54540E-02   -0.14424E-02 18750   0.202E-01    0.106E+00
RMM:  42    -0.510297893343E+03    0.15020E-02   -0.12213E-02 20061   0.151E-01    0.104E+00
RMM:  43    -0.510302713961E+03   -0.48206E-02   -0.56913E-03 19471   0.112E-01    0.716E-01
RMM:  44    -0.510303499234E+03   -0.78527E-03   -0.41147E-03 20660   0.718E-02    0.616E-01
RMM:  45    -0.510305285189E+03   -0.17860E-02   -0.37476E-03 20172   0.892E-02    0.344E-01
RMM:  46    -0.510306041889E+03   -0.75670E-03   -0.36516E-03 20073   0.659E-02    0.232E-01
RMM:  47    -0.510306413088E+03   -0.37120E-03   -0.22994E-03 20587   0.562E-02    0.185E-01
RMM:  48    -0.510306532966E+03   -0.11988E-03   -0.97345E-04 21354   0.333E-02    0.170E-01
RMM:  49    -0.510306588867E+03   -0.55901E-04   -0.54625E-04 20144   0.308E-02    0.151E-01
RMM:  50    -0.510306670547E+03   -0.81680E-04   -0.35474E-04 18268   0.275E-02    0.884E-02
RMM:  51    -0.510306697890E+03   -0.27343E-04   -0.22221E-04 17503   0.178E-02    0.836E-02
RMM:  52    -0.510306753643E+03   -0.55753E-04   -0.15667E-04 16543   0.169E-02    0.717E-02
RMM:  53    -0.510306781808E+03   -0.28166E-04   -0.14472E-04 15540   0.143E-02    0.605E-02
RMM:  54    -0.510306781292E+03    0.51657E-06   -0.11158E-04 15783   0.148E-02    0.597E-02
RMM:  55    -0.510306802441E+03   -0.21149E-04   -0.97486E-05 14207   0.129E-02    0.498E-02
RMM:  56    -0.510306821294E+03   -0.18853E-04   -0.58305E-05 12494   0.115E-02    0.346E-02
RMM:  57    -0.510306828262E+03   -0.69682E-05   -0.32914E-05 10903   0.983E-03
   1 F= -.51030683E+03 E0= -.51031441E+03  d E =-.510307E+03  mag=   100.6720
 curvature:   0.00 expect dE= 0.000E+00 dE for cont linesearch  0.000E+00
 trial: gam= 0.00000 g(F)=  0.212E-01 g(S)=  0.000E+00 ort = 0.000E+00 (trialstep = 0.100E+01)
 search vector abs. value=  0.212E-01
 bond charge predicted
       N       E                     dE             d eps       ncg     rms          rms(c)
DAV:   1    -0.510206024228E+03    0.10080E+00   -0.62441E+00 18549   0.713E+00    0.154E+00
RMM:   2    -0.510284678379E+03   -0.78654E-01   -0.73017E-01 16444   0.174E+00    0.111E+00
RMM:   3    -0.510373428299E+03   -0.88750E-01   -0.28482E-01 22006   0.654E-01    0.284E+00
RMM:   4    -0.510322150140E+03    0.51278E-01   -0.21414E-02 15731   0.309E-01    0.971E-01
RMM:   5    -0.510322652412E+03   -0.50227E-03   -0.55582E-03 20086   0.142E-01    0.583E-01
RMM:   6    -0.510323611619E+03   -0.95921E-03   -0.17587E-03 19579   0.664E-02    0.448E-01
RMM:   7    -0.510325051676E+03   -0.14401E-02   -0.14678E-03 17487   0.657E-02    0.230E-01
RMM:   8    -0.510325023558E+03    0.28118E-04   -0.54040E-04 20229   0.343E-02    0.193E-01
RMM:   9    -0.510324954894E+03    0.68664E-04   -0.21380E-04 18169   0.206E-02    0.153E-01
RMM:  10    -0.510324870804E+03    0.84090E-04   -0.21373E-04 17343   0.233E-02    0.109E-01
RMM:  11    -0.510324861341E+03    0.94626E-05   -0.12221E-04 15830   0.166E-02    0.959E-02
RMM:  12    -0.510324860173E+03    0.11683E-05   -0.69308E-05 13627   0.143E-02
   2 F= -.51032486E+03 E0= -.51033242E+03  d E =-.180319E-01  mag=   100.7739
 trial-energy change:   -0.018032  1 .order   -0.018157   -0.021234   -0.015081
 step:   3.4511(harm=  3.4511)  dis= 0.04450  next Energy=  -510.343468 (dE=-0.366E-01)
 bond charge predicted
       N       E                     dE             d eps       ncg     rms          rms(c)
DAV:   1    -0.509785448754E+03    0.53941E+00   -0.39926E+01 16785   0.174E+01    0.375E+00
RMM:   2    -0.510203942381E+03   -0.41849E+00   -0.38468E+00 16526   0.416E+00    0.285E+00
RMM:   3    -0.510624908774E+03   -0.42097E+00   -0.81731E-01 22344   0.147E+00    0.698E+00
RMM:   4    -0.510308089508E+03    0.31682E+00   -0.86285E-02 15929   0.694E-01    0.228E+00
RMM:   5    -0.510324173690E+03   -0.16084E-01   -0.35870E-02 21002   0.330E-01    0.167E+00
RMM:   6    -0.510333749143E+03   -0.95755E-02   -0.14758E-02 18563   0.201E-01    0.105E+00
RMM:   7    -0.510341691731E+03   -0.79426E-02   -0.10276E-02 19100   0.166E-01    0.518E-01
RMM:   8    -0.510342006523E+03   -0.31479E-03   -0.39886E-03 21263   0.779E-02    0.457E-01
RMM:   9    -0.510341710718E+03    0.29580E-03   -0.13841E-03 21827   0.506E-02    0.360E-01
RMM:  10    -0.510341410448E+03    0.30027E-03   -0.10822E-03 20600   0.454E-02    0.270E-01
RMM:  11    -0.510341255928E+03    0.15452E-03   -0.78628E-04 20203   0.399E-02    0.215E-01
RMM:  12    -0.510341226111E+03    0.29816E-04   -0.36753E-04 19672   0.240E-02    0.185E-01
RMM:  13    -0.510341232956E+03   -0.68453E-05   -0.23400E-04 18421   0.272E-02    0.128E-01
RMM:  14    -0.510341286984E+03   -0.54027E-04   -0.21016E-04 17379   0.261E-02    0.810E-02
RMM:  15    -0.510341298964E+03   -0.11980E-04   -0.66288E-05 13393   0.126E-02    0.742E-02
RMM:  16    -0.510341295382E+03    0.35819E-05   -0.21197E-05  9974   0.946E-03
   3 F= -.51034130E+03 E0= -.51034860E+03  d E =-.344671E-01  mag=   100.9677
 curvature:  -1.73 expect dE=-0.186E-01 dE for cont linesearch -0.251E-03
 trial: gam= 0.59002 g(F)=  0.108E-01 g(S)=  0.000E+00 ort =-0.176E-02 (trialstep = 0.149E+01)
 search vector abs. value=  0.161E-01
 bond charge predicted
       N       E                     dE             d eps       ncg     rms          rms(c)
DAV:   1    -0.510185488724E+03    0.15581E+00   -0.11989E+01 17928   0.968E+00    0.199E+00
RMM:   2    -0.510307519972E+03   -0.12203E+00   -0.11329E+00 16656   0.210E+00    0.140E+00
RMM:   3    -0.510397415724E+03   -0.89896E-01   -0.25913E-01 20715   0.741E-01    0.297E+00
RMM:   4    -0.510345733271E+03    0.51682E-01   -0.23781E-02 16264   0.354E-01    0.114E+00
RMM:   5    -0.510349285488E+03   -0.35522E-02   -0.70937E-03 21771   0.162E-01    0.665E-01
RMM:   6    -0.510353352683E+03   -0.40672E-02   -0.40034E-03 19406   0.963E-02    0.450E-01
RMM:   7    -0.510353813506E+03   -0.46082E-03   -0.20647E-03 18439   0.738E-02    0.296E-01
RMM:   8    -0.510353668106E+03    0.14540E-03   -0.72756E-04 20309   0.403E-02    0.228E-01
RMM:   9    -0.510353567150E+03    0.10096E-03   -0.43639E-04 20005   0.274E-02    0.168E-01
RMM:  10    -0.510353485949E+03    0.81201E-04   -0.44559E-04 18959   0.308E-02    0.114E-01
RMM:  11    -0.510353484359E+03    0.15898E-05   -0.20450E-04 17662   0.175E-02    0.994E-02
RMM:  12    -0.510353489465E+03   -0.51063E-05   -0.72430E-05 13912   0.134E-02
   4 F= -.51035349E+03 E0= -.51036060E+03  d E =-.121941E-01  mag=   101.0910
 trial-energy change:   -0.012194  1 .order   -0.012234   -0.014504   -0.009963
 step:   4.7599(harm=  4.7599)  dis= 0.04673  next Energy=  -510.364459 (dE=-0.232E-01)
 bond charge predicted
       N       E                     dE             d eps       ncg     rms          rms(c)
DAV:   1    -0.509566816364E+03    0.78667E+00   -0.58011E+01 17712   0.212E+01    0.452E+00
RMM:   2    -0.510146388799E+03   -0.57957E+00   -0.52644E+00 16817   0.473E+00    0.348E+00
RMM:   3    -0.510846664212E+03   -0.70028E+00   -0.13620E+00 21933   0.173E+00    0.899E+00
RMM:   4    -0.510308440113E+03    0.53822E+00   -0.13301E-01 16054   0.833E-01    0.240E+00
RMM:   5    -0.510335610509E+03   -0.27170E-01   -0.50035E-02 21697   0.371E-01    0.167E+00
RMM:   6    -0.510355881226E+03   -0.20271E-01   -0.25983E-02 20202   0.231E-01    0.134E+00
RMM:   7    -0.510361493625E+03   -0.56124E-02   -0.14349E-02 19232   0.190E-01    0.736E-01
RMM:   8    -0.510362962403E+03   -0.14688E-02   -0.71487E-03 21393   0.112E-01    0.569E-01
RMM:   9    -0.510362695233E+03    0.26717E-03   -0.34919E-03 21891   0.683E-02    0.423E-01
RMM:  10    -0.510362430450E+03    0.26478E-03   -0.20432E-03 21651   0.568E-02    0.316E-01
RMM:  11    -0.510362325525E+03    0.10492E-03   -0.11682E-03 21619   0.411E-02    0.275E-01
RMM:  12    -0.510362312364E+03    0.13161E-04   -0.63619E-04 21116   0.313E-02    0.234E-01
RMM:  13    -0.510362384197E+03   -0.71832E-04   -0.65627E-04 19434   0.436E-02    0.144E-01
RMM:  14    -0.510362463682E+03   -0.79486E-04   -0.41062E-04 18974   0.310E-02    0.112E-01
RMM:  15    -0.510362486245E+03   -0.22562E-04   -0.14243E-04 16223   0.159E-02    0.105E-01
RMM:  16    -0.510362488675E+03   -0.24302E-05   -0.54864E-05 12362   0.116E-02
   5 F= -.51036249E+03 E0= -.51036946E+03  d E =-.211933E-01  mag=   101.3512
 curvature:  -3.93 expect dE=-0.173E-01 dE for cont linesearch -0.466E-03
 ZBRENT: interpolating
 opt :   4.2002  next Energy=  -510.362875 (dE=-0.216E-01)
 bond charge predicted
       N       E                     dE             d eps       ncg     rms          rms(c)
DAV:   1    -0.510339072295E+03    0.23414E-01   -0.16965E+00 18144   0.366E+00    0.719E-01
RMM:   2    -0.510356389595E+03   -0.17317E-01   -0.16042E-01 16644   0.782E-01    0.523E-01
RMM:   3    -0.510375517000E+03   -0.19127E-01   -0.39039E-02 20441   0.288E-01    0.147E+00
RMM:   4    -0.510361012764E+03    0.14504E-01   -0.34429E-03 15171   0.145E-01    0.362E-01
RMM:   5    -0.510362151764E+03   -0.11390E-02   -0.12117E-03 20796   0.634E-02    0.270E-01
RMM:   6    -0.510362660545E+03   -0.50878E-03   -0.57851E-04 18278   0.386E-02    0.221E-01
RMM:   7    -0.510362780259E+03   -0.11971E-03   -0.31203E-04 16257   0.332E-02    0.109E-01
RMM:   8    -0.510362771627E+03    0.86316E-05   -0.13243E-04 16450   0.177E-02    0.931E-02
RMM:   9    -0.510362743639E+03    0.27988E-04   -0.53006E-05 11794   0.121E-02    0.707E-02
RMM:  10    -0.510362722665E+03    0.20974E-04   -0.10313E-04 14389   0.169E-02    0.439E-02
RMM:  11    -0.510362721932E+03    0.73387E-06   -0.34622E-05 10336   0.103E-02
   6 F= -.51036272E+03 E0= -.51036971E+03  d E =-.214265E-01  mag=   101.3074
 curvature:  -3.26 expect dE=-0.118E-01 dE for cont linesearch -0.164E-05
 trial: gam= 0.14960 g(F)=  0.363E-02 g(S)=  0.000E+00 ort = 0.899E-04 (trialstep = 0.203E+01)
 search vector abs. value=  0.401E-02
 bond charge predicted
       N       E                     dE             d eps       ncg     rms          rms(c)
DAV:   1    -0.510340180708E+03    0.22542E-01   -0.33331E+00 15093   0.381E+00    0.116E+00
RMM:   2    -0.510357923146E+03   -0.17742E-01   -0.11863E-01 15907   0.939E-01    0.100E+00
RMM:   3    -0.510388670290E+03   -0.30747E-01   -0.31130E-02 23893   0.334E-01    0.212E+00
RMM:   4    -0.510363941191E+03    0.24729E-01   -0.46746E-03 15168   0.162E-01    0.579E-01
RMM:   5    -0.510367925962E+03   -0.39848E-02   -0.27737E-03 16462   0.100E-01    0.299E-01
RMM:   6    -0.510368480279E+03   -0.55432E-03   -0.13664E-03 17782   0.672E-02    0.218E-01
RMM:   7    -0.510368424949E+03    0.55330E-04   -0.41237E-04 18097   0.348E-02    0.163E-01
RMM:   8    -0.510368422070E+03    0.28785E-05   -0.11182E-04 15420   0.171E-02    0.155E-01
RMM:   9    -0.510368293807E+03    0.12826E-03   -0.23904E-04 16811   0.290E-02    0.929E-02
RMM:  10    -0.510368259966E+03    0.33841E-04   -0.23665E-04 16414   0.269E-02    0.646E-02
RMM:  11    -0.510368265413E+03   -0.54474E-05   -0.60854E-05 13420   0.139E-02
   7 F= -.51036827E+03 E0= -.51037536E+03  d E =-.554348E-02  mag=   101.3622
 trial-energy change:   -0.005543  1 .order   -0.005660   -0.007394   -0.003926
 step:   4.3322(harm=  4.3322)  dis= 0.02169  next Energy=  -510.370604 (dE=-0.788E-02)
 bond charge predicted
       N       E                     dE             d eps       ncg     rms          rms(c)
DAV:   1    -0.510334576151E+03    0.33684E-01   -0.42722E+00 15012   0.432E+00    0.131E+00
RMM:   2    -0.510355605864E+03   -0.21030E-01   -0.14664E-01 15860   0.106E+00    0.107E+00
RMM:   3    -0.510406475756E+03   -0.50870E-01   -0.40060E-02 23849   0.379E-01    0.262E+00
RMM:   4    -0.510364269341E+03    0.42206E-01   -0.68186E-03 15170   0.196E-01    0.677E-01
RMM:   5    -0.510369572559E+03   -0.53032E-02   -0.37849E-03 16597   0.115E-01    0.330E-01
RMM:   6    -0.510370243253E+03   -0.67069E-03   -0.17330E-03 18151   0.731E-02    0.251E-01
RMM:   7    -0.510370173836E+03    0.69417E-04   -0.48703E-04 18430   0.370E-02    0.197E-01
RMM:   8    -0.510370176262E+03   -0.24258E-05   -0.13623E-04 16065   0.188E-02    0.190E-01
RMM:   9    -0.510370025460E+03    0.15080E-03   -0.37220E-04 17833   0.356E-02    0.107E-01
RMM:  10    -0.510370007182E+03    0.18278E-04   -0.28717E-04 16741   0.298E-02    0.794E-02
RMM:  11    -0.510370012114E+03   -0.49315E-05   -0.77954E-05 14156   0.151E-02
   8 F= -.51037001E+03 E0= -.51037732E+03  d E =-.729018E-02  mag=   101.4130
 curvature:  -2.39 expect dE=-0.780E-02 dE for cont linesearch -0.155E-04
 trial: gam= 0.97672 g(F)=  0.326E-02 g(S)=  0.000E+00 ort =-0.161E-03 (trialstep = 0.148E+01)
 search vector abs. value=  0.678E-02
 bond charge predicted
       N       E                     dE             d eps       ncg     rms          rms(c)
DAV:   1    -0.510343626266E+03    0.26381E-01   -0.31145E+00 15075   0.381E+00    0.118E+00
RMM:   2    -0.510360817427E+03   -0.17191E-01   -0.12215E-01 16037   0.912E-01    0.916E-01
RMM:   3    -0.510379711298E+03   -0.18894E-01   -0.32197E-02 22828   0.314E-01    0.136E+00
RMM:   4    -0.510375300151E+03    0.44111E-02   -0.55755E-03 15959   0.167E-01    0.970E-01
RMM:   5    -0.510373502415E+03    0.17977E-02   -0.20252E-03 15515   0.110E-01    0.346E-01
RMM:   6    -0.510373966792E+03   -0.46438E-03   -0.12172E-03 17156   0.672E-02    0.232E-01
RMM:   7    -0.510373955747E+03    0.11045E-04   -0.42440E-04 18101   0.361E-02    0.172E-01
RMM:   8    -0.510373939096E+03    0.16651E-04   -0.12761E-04 15820   0.178E-02    0.148E-01
RMM:   9    -0.510373882338E+03    0.56758E-04   -0.21259E-04 16418   0.270E-02    0.101E-01
RMM:  10    -0.510373859649E+03    0.22689E-04   -0.22112E-04 16193   0.251E-02    0.697E-02
RMM:  11    -0.510373866772E+03   -0.71237E-05   -0.65513E-05 13546   0.137E-02
   9 F= -.51037387E+03 E0= -.51038141E+03  d E =-.385466E-02  mag=   101.4392
 ZBRENT: can't locate minimum, use default step
 trial-energy change:   -0.003855  1 .order   -0.004013   -0.004584   -0.003442
 step:   5.9022(harm=  5.9202)  dis= 0.05028  next Energy=  -510.379208 (dE=-0.920E-02)
 bond charge predicted
       N       E                     dE             d eps       ncg     rms          rms(c)
DAV:   1    -0.510094673995E+03    0.27919E+00   -0.28081E+01 14994   0.115E+01    0.365E+00
RMM:   2    -0.510260669452E+03   -0.16600E+00   -0.11935E+00 16067   0.298E+00    0.283E+00
RMM:   3    -0.510510771108E+03   -0.25010E+00   -0.33425E-01 24256   0.104E+00    0.543E+00
RMM:   4    -0.510352031077E+03    0.15874E+00   -0.51891E-02 15763   0.498E-01    0.256E+00
RMM:   5    -0.510367909442E+03   -0.15878E-01   -0.20151E-02 16741   0.306E-01    0.124E+00
RMM:   6    -0.510378091275E+03   -0.10182E-01   -0.12820E-02 17272   0.218E-01    0.842E-01
RMM:   7    -0.510378178699E+03   -0.87424E-04   -0.54268E-03 17283   0.146E-01    0.496E-01
RMM:   8    -0.510378171290E+03    0.74088E-05   -0.22652E-03 19950   0.710E-02    0.440E-01
RMM:   9    -0.510377638365E+03    0.53293E-03   -0.11809E-03 17728   0.570E-02    0.331E-01
RMM:  10    -0.510377078141E+03    0.56022E-03   -0.20740E-03 18199   0.758E-02    0.211E-01
RMM:  11    -0.510377011813E+03    0.66328E-04   -0.66902E-04 19274   0.393E-02    0.172E-01
RMM:  12    -0.510377058047E+03   -0.46234E-04   -0.18805E-04 17663   0.197E-02    0.141E-01
RMM:  13    -0.510377111140E+03   -0.53093E-04   -0.91033E-05 15083   0.194E-02    0.872E-02
RMM:  14    -0.510377134288E+03   -0.23149E-04   -0.69042E-05 14144   0.143E-02    0.664E-02
RMM:  15    -0.510377135218E+03   -0.92935E-06   -0.22711E-05  9912   0.901E-03
  10 F= -.51037714E+03 E0= -.51038534E+03  d E =-.712310E-02  mag=   101.4691
 curvature:  -6.46 expect dE=-0.178E-01 dE for cont linesearch -0.131E-02
 ZBRENT: interpolating
 opt :   4.4215  next Energy=  -510.378003 (dE=-0.799E-02)
 bond charge predicted
       N       E                     dE             d eps       ncg     rms          rms(c)
DAV:   1    -0.510347504392E+03    0.29630E-01   -0.31419E+00 15066   0.383E+00    0.118E+00
RMM:   2    -0.510364954691E+03   -0.17450E-01   -0.12258E-01 16083   0.915E-01    0.923E-01
RMM:   3    -0.510400561373E+03   -0.35607E-01   -0.36716E-02 23895   0.334E-01    0.204E+00
RMM:   4    -0.510375365512E+03    0.25196E-01   -0.58745E-03 15273   0.175E-01    0.741E-01
RMM:   5    -0.510377541988E+03   -0.21765E-02   -0.27275E-03 16382   0.108E-01    0.384E-01
RMM:   6    -0.510377831685E+03   -0.28970E-03   -0.11222E-03 16254   0.696E-02    0.224E-01
RMM:   7    -0.510377846638E+03   -0.14952E-04   -0.55838E-04 18374   0.404E-02    0.158E-01
RMM:   8    -0.510377814548E+03    0.32090E-04   -0.14042E-04 15955   0.180E-02    0.144E-01
RMM:   9    -0.510377668374E+03    0.14617E-03   -0.20745E-04 16419   0.263E-02    0.901E-02
RMM:  10    -0.510377622539E+03    0.45835E-04   -0.19551E-04 15880   0.235E-02    0.696E-02
RMM:  11    -0.510377614577E+03    0.79623E-05   -0.53936E-05 12765   0.132E-02
  11 F= -.51037761E+03 E0= -.51038561E+03  d E =-.760246E-02  mag=   101.4666
 curvature:  -4.28 expect dE=-0.774E-02 dE for cont linesearch -0.955E-06
 trial: gam= 0.25460 g(F)=  0.181E-02 g(S)=  0.000E+00 ort = 0.389E-04 (trialstep = 0.206E+01)
 search vector abs. value=  0.227E-02
 bond charge predicted
       N       E                     dE             d eps       ncg     rms          rms(c)
DAV:   1    -0.510358094682E+03    0.19528E-01   -0.20593E+00 15462   0.348E+00    0.917E-01
RMM:   2    -0.510373008929E+03   -0.14914E-01   -0.11673E-01 16188   0.849E-01    0.770E-01
RMM:   3    -0.510394150002E+03   -0.21141E-01   -0.27511E-02 23331   0.305E-01    0.168E+00
RMM:   4    -0.510377346153E+03    0.16804E-01   -0.37081E-03 15206   0.152E-01    0.539E-01
RMM:   5    -0.510379239574E+03   -0.18934E-02   -0.17456E-03 16864   0.841E-02    0.371E-01
RMM:   6    -0.510380148360E+03   -0.90879E-03   -0.94745E-04 16400   0.623E-02    0.201E-01
RMM:   7    -0.510380177840E+03   -0.29481E-04   -0.47604E-04 18480   0.391E-02    0.127E-01
RMM:   8    -0.510380187693E+03   -0.98529E-05   -0.11324E-04 15542   0.157E-02    0.115E-01
RMM:   9    -0.510380156173E+03    0.31520E-04   -0.16428E-04 15707   0.255E-02    0.658E-02
RMM:  10    -0.510380163370E+03   -0.71968E-05   -0.15895E-04 15502   0.219E-02    0.513E-02
RMM:  11    -0.510380167248E+03   -0.38781E-05   -0.33542E-05 10684   0.106E-02
  12 F= -.51038017E+03 E0= -.51038834E+03  d E =-.255267E-02  mag=   101.4962
 trial-energy change:   -0.002553  1 .order   -0.002571   -0.003754   -0.001388
 step:   3.2754(harm=  3.2754)  dis= 0.01316  next Energy=  -510.380592 (dE=-0.298E-02)
 bond charge predicted
       N       E                     dE             d eps       ncg     rms          rms(c)
DAV:   1    -0.510373187897E+03    0.69755E-02   -0.70992E-01 15633   0.204E+00    0.532E-01
RMM:   2    -0.510377858043E+03   -0.46701E-02   -0.37030E-02 16075   0.493E-01    0.433E-01
RMM:   3    -0.510385717788E+03   -0.78597E-02   -0.88041E-03 23074   0.177E-01    0.101E+00
RMM:   4    -0.510379443865E+03    0.62739E-02   -0.13918E-03 14948   0.916E-02    0.314E-01
RMM:   5    -0.510380174013E+03   -0.73015E-03   -0.65984E-04 16734   0.513E-02    0.211E-01
RMM:   6    -0.510380379151E+03   -0.20514E-03   -0.32679E-04 16461   0.362E-02    0.111E-01
RMM:   7    -0.510380397806E+03   -0.18654E-04   -0.14034E-04 16243   0.206E-02    0.812E-02
RMM:   8    -0.510380409555E+03   -0.11749E-04   -0.28613E-05 10464   0.100E-02    0.744E-02
RMM:   9    -0.510380415822E+03   -0.62671E-05   -0.66604E-05 13975   0.158E-02
  13 F= -.51038042E+03 E0= -.51038868E+03  d E =-.280125E-02  mag=   101.5092
 curvature:  -2.04 expect dE=-0.907E-03 dE for cont linesearch -0.545E-06
 trial: gam= 0.29222 g(F)=  0.444E-03 g(S)=  0.000E+00 ort =-0.246E-04 (trialstep = 0.231E+01)
 search vector abs. value=  0.624E-03
 bond charge predicted
       N       E                     dE             d eps       ncg     rms          rms(c)
DAV:   1    -0.510373107873E+03    0.73017E-02   -0.71162E-01 15642   0.213E+00    0.542E-01
RMM:   2    -0.510378323213E+03   -0.52153E-02   -0.41691E-02 16662   0.519E-01    0.430E-01
RMM:   3    -0.510388086701E+03   -0.97635E-02   -0.10247E-02 23139   0.192E-01    0.110E+00
RMM:   4    -0.510379999968E+03    0.80867E-02   -0.13948E-03 14955   0.935E-02    0.271E-01
RMM:   5    -0.510380933573E+03   -0.93361E-03   -0.70700E-04 16691   0.477E-02    0.168E-01
RMM:   6    -0.510381073222E+03   -0.13965E-03   -0.31799E-04 17498   0.332E-02    0.110E-01
RMM:   7    -0.510381063163E+03    0.10059E-04   -0.96228E-05 15056   0.181E-02    0.784E-02
RMM:   8    -0.510381058433E+03    0.47300E-05   -0.27069E-05 10309   0.997E-03
  14 F= -.51038106E+03 E0= -.51038951E+03  d E =-.642611E-03  mag=   101.5129
 trial-energy change:   -0.000643  1 .order   -0.000758   -0.001008   -0.000507
 step:   4.6386(harm=  4.6386)  dis= 0.00934  next Energy=  -510.381430 (dE=-0.101E-02)
 bond charge predicted
       N       E                     dE             d eps       ncg     rms          rms(c)
DAV:   1    -0.510373142343E+03    0.79208E-02   -0.72832E-01 15606   0.216E+00    0.543E-01
RMM:   2    -0.510378183714E+03   -0.50414E-02   -0.41744E-02 16596   0.522E-01    0.419E-01
RMM:   3    -0.510382872358E+03   -0.46886E-02   -0.85043E-03 21285   0.182E-01    0.686E-01
RMM:   4    -0.510380482784E+03    0.23896E-02   -0.13687E-03 15786   0.930E-02    0.356E-01
RMM:   5    -0.510380925928E+03   -0.44314E-03   -0.57343E-04 18017   0.482E-02    0.181E-01
RMM:   6    -0.510381086758E+03   -0.16083E-03   -0.30213E-04 17296   0.319E-02    0.131E-01
RMM:   7    -0.510381077110E+03    0.96472E-05   -0.10838E-04 15533   0.195E-02    0.995E-02
RMM:   8    -0.510381073970E+03    0.31401E-05   -0.41311E-05 11498   0.117E-02
  15 F= -.51038107E+03 E0= -.51038972E+03  d E =-.658148E-03  mag=   101.5174
 curvature:  -3.31 expect dE=-0.733E-03 dE for cont linesearch -0.182E-05
 trial: gam= 0.39367 g(F)=  0.221E-03 g(S)=  0.000E+00 ort =-0.185E-04 (trialstep = 0.277E+01)
 search vector abs. value=  0.303E-03
 bond charge predicted
       N       E                     dE             d eps       ncg     rms          rms(c)
DAV:   1    -0.510375718277E+03    0.53588E-02   -0.51084E-01 15426   0.180E+00    0.445E-01
RMM:   2    -0.510379356611E+03   -0.36383E-02   -0.30835E-02 16309   0.445E-01    0.340E-01
RMM:   3    -0.510384080082E+03   -0.47235E-02   -0.68557E-03 22202   0.157E-01    0.732E-01
RMM:   4    -0.510380632097E+03    0.34480E-02   -0.86876E-04 14941   0.777E-02    0.252E-01
RMM:   5    -0.510381127435E+03   -0.49534E-03   -0.43847E-04 18070   0.394E-02    0.153E-01
RMM:   6    -0.510381271527E+03   -0.14409E-03   -0.21716E-04 16960   0.268E-02    0.110E-01
RMM:   7    -0.510381260296E+03    0.11231E-04   -0.73083E-05 14365   0.175E-02    0.825E-02
RMM:   8    -0.510381250197E+03    0.10099E-04   -0.30890E-05 10636   0.105E-02    0.718E-02
RMM:   9    -0.510381232046E+03    0.18150E-04   -0.55150E-05 12624   0.146E-02    0.460E-02
RMM:  10    -0.510381234198E+03   -0.21518E-05   -0.77996E-05 14251   0.167E-02
  16 F= -.51038123E+03 E0= -.51038996E+03  d E =-.160228E-03  mag=   101.5065
 trial-energy change:   -0.000160  1 .order   -0.000264   -0.000594    0.000066
 step:   1.9498(harm=  2.4944)  dis= 0.00262  next Energy=  -510.381247 (dE=-0.173E-03)
 reached required accuracy - stopping structural energy minimisation
