Generated by VASPKIT code
 1.000000
    8.5261999999999993    0.0000000000000000    0.0000000000000000
   -0.0017666500000000    8.5045998199999993    0.0000000000000000
    0.0000000000000000    0.0000000000000000   23.5557990000000004
   Fe   Cr
    49    14
Selective Dynamics
Direct
    0.0024500000000000    0.9986500000000000    0.1211700000000000    F  F  F    Fe001
    0.1698000000000000    0.1658700000000000    0.1809900000000000    F  F  F    Fe002
    0.3362300000000000    0.9985200000000000    0.1211000000000000    F  F  F    Fe003
    0.5016400000000000    0.1659400000000000    0.1813500000000000    F  F  F    Fe004
    0.8361499999999999    0.1655900000000000    0.1809900000000000    F  F  F    Fe005
    0.0026000000000000    0.3328400000000000    0.1210100000000000    F  F  F    Fe006
    0.1699400000000000    0.4992500000000000    0.1810400000000000    F  F  F    Fe007
    0.3365100000000000    0.3328700000000000    0.1208600000000000    F  F  F    Fe008
    0.5018000000000000    0.4993700000000000    0.1812300000000000    F  F  F    Fe009
    0.6696500000000000    0.3330400000000000    0.1210300000000000    F  F  F    Fe010
    0.8362600000000000    0.4996300000000000    0.1811700000000000    F  F  F    Fe011
    0.1689900000000000    0.8332900000000000    0.1817700000000000    F  F  F    Fe012
    0.3358200000000000    0.6668900000000000    0.1209500000000000    F  F  F    Fe013
    0.6691400000000000    0.6672200000000000    0.1211700000000000    F  F  F    Fe014
    0.8368000000000000    0.8322000000000001    0.1811400000000000    F  F  F    Fe015
    0.0017200000000000    0.9994400000000000    0.2415100000000000    F  F  F    Fe016
    0.1684410000000000    0.1602600000000000    0.3026160000000000    T  T  T    Fe017
    0.5037390000000000    0.1643360000000000    0.3021550000000000    T  T  T    Fe018
    0.6698800000000000    0.9992400000000000    0.2414200000000000    F  F  F    Fe019
    0.8347710000000000    0.1650540000000000    0.3025200000000000    T  T  T    Fe020
    0.1654820000000000    0.4979060000000000    0.3009320000000000    T  T  T    Fe021
    0.3352400000000000    0.3324600000000000    0.2418300000000000    F  F  F    Fe022
    0.5037070000000000    0.5009690000000000    0.3024400000000000    T  T  T    Fe023
    0.6690199999999999    0.3331700000000000    0.2412300000000000    F  F  F    Fe024
    0.8342480000000000    0.4997070000000000    0.3025720000000000    T  T  T    Fe025
    0.0031800000000000    0.6659800000000000    0.2417700000000000    F  F  F    Fe026
    0.3360500000000000    0.6658800000000000    0.2414600000000000    F  F  F    Fe027
    0.5025680000000000    0.8343469999999999    0.3016820000000000    T  T  T    Fe028
    0.6691800000000000    0.6667400000000000    0.2413100000000000    F  F  F    Fe029
    0.0027100000000000    0.9986900000000000    0.0003400000000000    F  F  F    Fe030
    0.9952620000000000    0.9993649999999999    0.3597940000000000    T  T  T    Fe031
    0.1692900000000000    0.1669400000000000    0.0607100000000000    F  F  F    Fe032
    0.3365700000000000    0.0007500000000000    0.0006700000000000    F  F  F    Fe033
    0.3442190000000000    0.0036200000000000    0.3605130000000000    T  T  T    Fe034
    0.5034300000000000    0.1652000000000000    0.0610500000000000    F  F  F    Fe035
    0.6694800000000000    0.9988300000000000    0.0005300000000000    F  F  F    Fe036
    0.6708490000000000    0.9922370000000000    0.3630800000000000    T  T  T    Fe037
    0.8357000000000000    0.1655600000000000    0.0609400000000000    F  F  F    Fe038
    0.1706100000000000    0.4974600000000000    0.0603200000000000    F  F  F    Fe039
    0.5021500000000000    0.4999200000000000    0.0608600000000000    F  F  F    Fe040
    0.6693000000000000    0.3335800000000000    0.0005000000000000    F  F  F    Fe041
    0.6675900000000000    0.3326450000000000    0.3590470000000000    T  T  T    Fe042
    0.0023900000000000    0.6644099999999999    0.0005100000000000    F  F  F    Fe043
    0.0025530000000000    0.6606480000000000    0.3589700000000000    T  T  T    Fe044
    0.1689400000000000    0.8330400000000000    0.0606200000000000    F  F  F    Fe045
    0.5022200000000000    0.8331800000000000    0.0607700000000000    F  F  F    Fe046
    0.6688200000000000    0.6665500000000000    0.0006800000000000    F  F  F    Fe047
    0.6655530000000000    0.6722980000000000    0.3605910000000000    T  T  T    Fe048
    0.8362000000000001    0.8320600000000000    0.0608600000000000    F  F  F    Fe049
    0.6687900000000000    0.9968900000000001    0.1222500000000000    F  F  F    Cr001
    0.0012700000000000    0.6647600000000000    0.1204600000000000    F  F  F    Cr002
    0.5027199999999999    0.8339100000000000    0.1809800000000000    F  F  F    Cr003
    0.3366200000000000    0.9978399999999999    0.2417200000000000    F  F  F    Cr004
    0.0024000000000000    0.3333200000000000    0.2407900000000000    F  F  F    Cr005
    0.1718790000000000    0.8306260000000000    0.3039390000000000    T  T  T    Cr006
    0.8335300000000000    0.8331910000000000    0.3019810000000000    T  T  T    Cr007
    0.9996200000000000    0.3343100000000000    0.0019900000000000    F  F  F    Cr008
    0.0052120000000000    0.3308420000000000    0.3678980000000000    T  T  T    Cr009
    0.3392200000000000    0.3307200000000000    0.0000000000000000    F  F  F    Cr010
    0.3338040000000000    0.3348030000000000    0.3628270000000000    T  T  T    Cr011
    0.8377900000000000    0.4999900000000000    0.0613500000000000    F  F  F    Cr012
    0.3352400000000000    0.6703700000000000    0.0002300000000000    F  F  F    Cr013
    0.3307870000000000    0.6715020000000000    0.3670640000000000    T  T  T    Cr014
