INCAR-For-OPT                           
           1
     8.526200    0.000000    0.000000
    -0.001767    8.504600    0.000000
     0.000000    0.000000   23.555799
   Fe   Cr
    49    14
Direct configuration=     1
   0.00245000  0.99865000  0.12117000
   0.16980000  0.16587000  0.18099000
   0.33623000  0.99852000  0.12110000
   0.50164000  0.16594000  0.18135000
   0.83615000  0.16559000  0.18099000
   0.00260000  0.33284000  0.12101000
   0.16994000  0.49925000  0.18104000
   0.33651000  0.33287000  0.12086000
   0.50180000  0.49937000  0.18123000
   0.66965000  0.33304000  0.12103000
   0.83626000  0.49963000  0.18117000
   0.16899000  0.83329000  0.18177000
   0.33582000  0.66689000  0.12095000
   0.66914000  0.66722000  0.12117000
   0.83680000  0.83220000  0.18114000
   0.00172000  0.99944000  0.24151000
   0.16844100  0.16026000  0.30261600
   0.50373900  0.16433600  0.30215500
   0.66988000  0.99924000  0.24142000
   0.83477100  0.16505400  0.30252000
   0.16548200  0.49790600  0.30093200
   0.33524000  0.33246000  0.24183000
   0.50370700  0.50096900  0.30244000
   0.66902000  0.33317000  0.24123000
   0.83424800  0.49970700  0.30257200
   0.00318000  0.66598000  0.24177000
   0.33605000  0.66588000  0.24146000
   0.50256800  0.83434700  0.30168200
   0.66918000  0.66674000  0.24131000
   0.00271000  0.99869000  0.00034000
   0.99526200  0.99936500  0.35979400
   0.16929000  0.16694000  0.06071000
   0.33657000  0.00075000  0.00067000
   0.34421900  0.00362000  0.36051300
   0.50343000  0.16520000  0.06105000
   0.66948000  0.99883000  0.00053000
   0.67084900  0.99223700  0.36308000
   0.83570000  0.16556000  0.06094000
   0.17061000  0.49746000  0.06032000
   0.50215000  0.49992000  0.06086000
   0.66930000  0.33358000  0.00050000
   0.66759000  0.33264500  0.35904700
   0.00239000  0.66441000  0.00051000
   0.00255300  0.66064800  0.35897000
   0.16894000  0.83304000  0.06062000
   0.50222000  0.83318000  0.06077000
   0.66882000  0.66655000  0.00068000
   0.66555300  0.67229800  0.36059100
   0.83620000  0.83206000  0.06086000
   0.66879000  0.99689000  0.12225000
   0.00127000  0.66476000  0.12046000
   0.50272000  0.83391000  0.18098000
   0.33662000  0.99784000  0.24172000
   0.00240000  0.33332000  0.24079000
   0.17187900  0.83062600  0.30393900
   0.83353000  0.83319100  0.30198100
   0.99962000  0.33431000  0.00199000
   0.00521200  0.33084200  0.36789800
   0.33922000  0.33072000  0.00000000
   0.33380400  0.33480300  0.36282700
   0.83779000  0.49999000  0.06135000
   0.33524000  0.67037000  0.00023000
   0.33078700  0.67150200  0.36706400
Direct configuration=     2
   0.00245000  0.99865000  0.12117000
   0.16980000  0.16587000  0.18099000
   0.33623000  0.99852000  0.12110000
   0.50164000  0.16594000  0.18135000
   0.83615000  0.16559000  0.18099000
   0.00260000  0.33284000  0.12101000
   0.16994000  0.49925000  0.18104000
   0.33651000  0.33287000  0.12086000
   0.50180000  0.49937000  0.18123000
   0.66965000  0.33304000  0.12103000
   0.83626000  0.49963000  0.18117000
   0.16899000  0.83329000  0.18177000
   0.33582000  0.66689000  0.12095000
   0.66914000  0.66722000  0.12117000
   0.83680000  0.83220000  0.18114000
   0.00172000  0.99944000  0.24151000
   0.16840821  0.15887070  0.30270299
   0.50413070  0.16416462  0.30231370
   0.66988000  0.99924000  0.24142000
   0.83429288  0.16516893  0.30223102
   0.16528265  0.49866984  0.30086206
   0.33524000  0.33246000  0.24183000
   0.50418605  0.50087717  0.30257067
   0.66902000  0.33317000  0.24123000
   0.83409873  0.49961511  0.30247984
   0.00318000  0.66598000  0.24177000
   0.33605000  0.66588000  0.24146000
   0.50266682  0.83468064  0.30152801
   0.66918000  0.66674000  0.24131000
   0.00271000  0.99869000  0.00034000
   0.99618439  0.99941732  0.35963377
   0.16929000  0.16694000  0.06071000
   0.33657000  0.00075000  0.00067000
   0.34370448  0.00433278  0.36069309
   0.50343000  0.16520000  0.06105000
   0.66948000  0.99883000  0.00053000
   0.67039972  0.99262484  0.36301003
   0.83570000  0.16556000  0.06094000
   0.17061000  0.49746000  0.06032000
   0.50215000  0.49992000  0.06086000
   0.66930000  0.33358000  0.00050000
   0.66743816  0.33263650  0.35913210
   0.00239000  0.66441000  0.00051000
   0.00280684  0.66053123  0.35880291
   0.16894000  0.83304000  0.06062000
   0.50222000  0.83318000  0.06077000
   0.66882000  0.66655000  0.00068000
   0.66538734  0.67174941  0.36049774
   0.83620000  0.83206000  0.06086000
   0.66879000  0.99689000  0.12225000
   0.00127000  0.66476000  0.12046000
   0.50272000  0.83391000  0.18098000
   0.33662000  0.99784000  0.24172000
   0.00240000  0.33332000  0.24079000
   0.17226908  0.83079883  0.30385055
   0.83363424  0.83309616  0.30192636
   0.99962000  0.33431000  0.00199000
   0.00578110  0.33085277  0.36844537
   0.33922000  0.33072000  0.00000000
   0.33341522  0.33483888  0.36241997
   0.83779000  0.49999000  0.06135000
   0.33524000  0.67037000  0.00023000
   0.33016247  0.67140113  0.36750787
Direct configuration=     3
   0.00245000  0.99865000  0.12117000
   0.16980000  0.16587000  0.18099000
   0.33623000  0.99852000  0.12110000
   0.50164000  0.16594000  0.18135000
   0.83615000  0.16559000  0.18099000
   0.00260000  0.33284000  0.12101000
   0.16994000  0.49925000  0.18104000
   0.33651000  0.33287000  0.12086000
   0.50180000  0.49937000  0.18123000
   0.66965000  0.33304000  0.12103000
   0.83626000  0.49963000  0.18117000
   0.16899000  0.83329000  0.18177000
   0.33582000  0.66689000  0.12095000
   0.66914000  0.66722000  0.12117000
   0.83680000  0.83220000  0.18114000
   0.00172000  0.99944000  0.24151000
   0.16832786  0.15546542  0.30291622
   0.50509079  0.16374455  0.30270269
   0.66988000  0.99924000  0.24142000
   0.83312097  0.16545062  0.30152271
   0.16479403  0.50054208  0.30069062
   0.33524000  0.33246000  0.24183000
   0.50536024  0.50065208  0.30289093
   0.66902000  0.33317000  0.24123000
   0.83373285  0.49938988  0.30225395
   0.00318000  0.66598000  0.24177000
   0.33605000  0.66588000  0.24146000
   0.50290905  0.83549841  0.30115056
   0.66918000  0.66674000  0.24131000
   0.00271000  0.99869000  0.00034000
   0.99844523  0.99954558  0.35924105
   0.16929000  0.16694000  0.06071000
   0.33657000  0.00075000  0.00067000
   0.34244335  0.00607985  0.36113449
   0.50343000  0.16520000  0.06105000
   0.66948000  0.99883000  0.00053000
   0.66929849  0.99357547  0.36283854
   0.83570000  0.16556000  0.06094000
   0.17061000  0.49746000  0.06032000
   0.50215000  0.49992000  0.06086000
   0.66930000  0.33358000  0.00050000
   0.66706601  0.33261566  0.35934067
   0.00239000  0.66441000  0.00051000
   0.00342903  0.66024503  0.35839336
   0.16894000  0.83304000  0.06062000
   0.50222000  0.83318000  0.06077000
   0.66882000  0.66655000  0.00068000
   0.66498130  0.67040477  0.36026915
   0.83620000  0.83206000  0.06086000
   0.66879000  0.99689000  0.12225000
   0.00127000  0.66476000  0.12046000
   0.50272000  0.83391000  0.18098000
   0.33662000  0.99784000  0.24172000
   0.00240000  0.33332000  0.24079000
   0.17322518  0.83122246  0.30363375
   0.83388974  0.83286369  0.30179243
   0.99962000  0.33431000  0.00199000
   0.00717599  0.33087916  0.36978701
   0.33922000  0.33072000  0.00000000
   0.33246230  0.33492684  0.36142232
   0.83779000  0.49999000  0.06135000
   0.33524000  0.67037000  0.00023000
   0.32863171  0.67115389  0.36859583
Direct configuration=     4
   0.00245000  0.99865000  0.12117000
   0.16980000  0.16587000  0.18099000
   0.33623000  0.99852000  0.12110000
   0.50164000  0.16594000  0.18135000
   0.83615000  0.16559000  0.18099000
   0.00260000  0.33284000  0.12101000
   0.16994000  0.49925000  0.18104000
   0.33651000  0.33287000  0.12086000
   0.50180000  0.49937000  0.18123000
   0.66965000  0.33304000  0.12103000
   0.83626000  0.49963000  0.18117000
   0.16899000  0.83329000  0.18177000
   0.33582000  0.66689000  0.12095000
   0.66914000  0.66722000  0.12117000
   0.83680000  0.83220000  0.18114000
   0.00172000  0.99944000  0.24151000
   0.16817831  0.15565091  0.30291426
   0.50491429  0.16375332  0.30282408
   0.66988000  0.99924000  0.24142000
   0.83385136  0.16577357  0.30172980
   0.16476613  0.50015828  0.30067521
   0.33524000  0.33246000  0.24183000
   0.50503279  0.50084761  0.30303612
   0.66902000  0.33317000  0.24123000
   0.83415385  0.49877415  0.30240081
   0.00318000  0.66598000  0.24177000
   0.33605000  0.66588000  0.24146000
   0.50258003  0.83523489  0.30144969
   0.66918000  0.66674000  0.24131000
   0.00271000  0.99869000  0.00034000
   0.99969114  0.99898431  0.35900505
   0.16929000  0.16694000  0.06071000
   0.33657000  0.00075000  0.00067000
   0.34198178  0.00697541  0.36155075
   0.50343000  0.16520000  0.06105000
   0.66948000  0.99883000  0.00053000
   0.66841195  0.99439045  0.36258705
   0.83570000  0.16556000  0.06094000
   0.17061000  0.49746000  0.06032000
   0.50215000  0.49992000  0.06086000
   0.66930000  0.33358000  0.00050000
   0.66730718  0.33241832  0.35954716
   0.00239000  0.66441000  0.00051000
   0.00320315  0.66071946  0.35818194
   0.16894000  0.83304000  0.06062000
   0.50222000  0.83318000  0.06077000
   0.66882000  0.66655000  0.00068000
   0.66490293  0.66963519  0.36006661
   0.83620000  0.83206000  0.06086000
   0.66879000  0.99689000  0.12225000
   0.00127000  0.66476000  0.12046000
   0.50272000  0.83391000  0.18098000
   0.33662000  0.99784000  0.24172000
   0.00240000  0.33332000  0.24079000
   0.17368034  0.83094691  0.30349736
   0.83407324  0.83288203  0.30180913
   0.99962000  0.33431000  0.00199000
   0.00811616  0.33069280  0.37030805
   0.33922000  0.33072000  0.00000000
   0.33136292  0.33517792  0.36067409
   0.83779000  0.49999000  0.06135000
   0.33524000  0.67037000  0.00023000
   0.32838808  0.67123922  0.36921693
Direct configuration=     5
   0.00245000  0.99865000  0.12117000
   0.16980000  0.16587000  0.18099000
   0.33623000  0.99852000  0.12110000
   0.50164000  0.16594000  0.18135000
   0.83615000  0.16559000  0.18099000
   0.00260000  0.33284000  0.12101000
   0.16994000  0.49925000  0.18104000
   0.33651000  0.33287000  0.12086000
   0.50180000  0.49937000  0.18123000
   0.66965000  0.33304000  0.12103000
   0.83626000  0.49963000  0.18117000
   0.16899000  0.83329000  0.18177000
   0.33582000  0.66689000  0.12095000
   0.66914000  0.66722000  0.12117000
   0.83680000  0.83220000  0.18114000
   0.00172000  0.99944000  0.24151000
   0.16785021  0.15605789  0.30290996
   0.50452703  0.16377258  0.30309043
   0.66988000  0.99924000  0.24142000
   0.83545391  0.16648215  0.30218417
   0.16470491  0.49931621  0.30064139
   0.33524000  0.33246000  0.24183000
   0.50431433  0.50127664  0.30335466
   0.66902000  0.33317000  0.24123000
   0.83507755  0.49742318  0.30272303
   0.00318000  0.66598000  0.24177000
   0.33605000  0.66588000  0.24146000
   0.50185814  0.83465670  0.30210602
   0.66918000  0.66674000  0.24131000
   0.00271000  0.99869000  0.00034000
   0.00242479  0.99775283  0.35848724
   0.16929000  0.16694000  0.06071000
   0.33657000  0.00075000  0.00067000
   0.34096903  0.00894036  0.36246407
   0.50343000  0.16520000  0.06105000
   0.66948000  0.99883000  0.00053000
   0.66646680  0.99617861  0.36203525
   0.83570000  0.16556000  0.06094000
   0.17061000  0.49746000  0.06032000
   0.50215000  0.49992000  0.06086000
   0.66930000  0.33358000  0.00050000
   0.66783633  0.33198534  0.36000020
   0.00239000  0.66441000  0.00051000
   0.00270753  0.66176040  0.35771806
   0.16894000  0.83304000  0.06062000
   0.50222000  0.83318000  0.06077000
   0.66882000  0.66655000  0.00068000
   0.66473100  0.66794666  0.35962222
   0.83620000  0.83206000  0.06086000
   0.66879000  0.99689000  0.12225000
   0.00127000  0.66476000  0.12046000
   0.50272000  0.83391000  0.18098000
   0.33662000  0.99784000  0.24172000
   0.00240000  0.33332000  0.24079000
   0.17467902  0.83034235  0.30319812
   0.83447587  0.83292229  0.30184578
   0.99962000  0.33431000  0.00199000
   0.01017898  0.33028390  0.37145126
   0.33922000  0.33072000  0.00000000
   0.32895077  0.33572880  0.35903241
   0.83779000  0.49999000  0.06135000
   0.33524000  0.67037000  0.00023000
   0.32785354  0.67142643  0.37057967
Direct configuration=     6
   0.00245000  0.99865000  0.12117000
   0.16980000  0.16587000  0.18099000
   0.33623000  0.99852000  0.12110000
   0.50164000  0.16594000  0.18135000
   0.83615000  0.16559000  0.18099000
   0.00260000  0.33284000  0.12101000
   0.16994000  0.49925000  0.18104000
   0.33651000  0.33287000  0.12086000
   0.50180000  0.49937000  0.18123000
   0.66965000  0.33304000  0.12103000
   0.83626000  0.49963000  0.18117000
   0.16899000  0.83329000  0.18177000
   0.33582000  0.66689000  0.12095000
   0.66914000  0.66722000  0.12117000
   0.83680000  0.83220000  0.18114000
   0.00172000  0.99944000  0.24151000
   0.16790637  0.15598822  0.30291070
   0.50459332  0.16376929  0.30304484
   0.66988000  0.99924000  0.24142000
   0.83517960  0.16636087  0.30210640
   0.16471539  0.49946035  0.30064718
   0.33524000  0.33246000  0.24183000
   0.50443731  0.50120320  0.30330014
   0.66902000  0.33317000  0.24123000
   0.83491944  0.49765443  0.30266788
   0.00318000  0.66598000  0.24177000
   0.33605000  0.66588000  0.24146000
   0.50198171  0.83475567  0.30199368
   0.66918000  0.66674000  0.24131000
   0.00271000  0.99869000  0.00034000
   0.00195687  0.99796362  0.35857587
   0.16929000  0.16694000  0.06071000
   0.33657000  0.00075000  0.00067000
   0.34114238  0.00860402  0.36230773
   0.50343000  0.16520000  0.06105000
   0.66948000  0.99883000  0.00053000
   0.66679975  0.99587253  0.36212970
   0.83570000  0.16556000  0.06094000
   0.17061000  0.49746000  0.06032000
   0.50215000  0.49992000  0.06086000
   0.66930000  0.33358000  0.00050000
   0.66774576  0.33205945  0.35992265
   0.00239000  0.66441000  0.00051000
   0.00279237  0.66158222  0.35779746
   0.16894000  0.83304000  0.06062000
   0.50222000  0.83318000  0.06077000
   0.66882000  0.66655000  0.00068000
   0.66476043  0.66823569  0.35969829
   0.83620000  0.83206000  0.06086000
   0.66879000  0.99689000  0.12225000
   0.00127000  0.66476000  0.12046000
   0.50272000  0.83391000  0.18098000
   0.33662000  0.99784000  0.24172000
   0.00240000  0.33332000  0.24079000
   0.17450807  0.83044583  0.30324934
   0.83440695  0.83291540  0.30183951
   0.99962000  0.33431000  0.00199000
   0.00982588  0.33035389  0.37125557
   0.33922000  0.33072000  0.00000000
   0.32936366  0.33563451  0.35931342
   0.83779000  0.49999000  0.06135000
   0.33524000  0.67037000  0.00023000
   0.32794504  0.67139438  0.37034641
Direct configuration=     7
   0.00245000  0.99865000  0.12117000
   0.16980000  0.16587000  0.18099000
   0.33623000  0.99852000  0.12110000
   0.50164000  0.16594000  0.18135000
   0.83615000  0.16559000  0.18099000
   0.00260000  0.33284000  0.12101000
   0.16994000  0.49925000  0.18104000
   0.33651000  0.33287000  0.12086000
   0.50180000  0.49937000  0.18123000
   0.66965000  0.33304000  0.12103000
   0.83626000  0.49963000  0.18117000
   0.16899000  0.83329000  0.18177000
   0.33582000  0.66689000  0.12095000
   0.66914000  0.66722000  0.12117000
   0.83680000  0.83220000  0.18114000
   0.00172000  0.99944000  0.24151000
   0.16821028  0.15718444  0.30254204
   0.50441340  0.16402793  0.30286982
   0.66988000  0.99924000  0.24142000
   0.83531990  0.16600989  0.30245654
   0.16466376  0.49974129  0.30082856
   0.33524000  0.33246000  0.24183000
   0.50410092  0.50089551  0.30320748
   0.66902000  0.33317000  0.24123000
   0.83488041  0.49744783  0.30276177
   0.00318000  0.66598000  0.24177000
   0.33605000  0.66588000  0.24146000
   0.50185975  0.83494606  0.30213482
   0.66918000  0.66674000  0.24131000
   0.00271000  0.99869000  0.00034000
   0.00276477  0.99694889  0.35873627
   0.16929000  0.16694000  0.06071000
   0.33657000  0.00075000  0.00067000
   0.34104436  0.00862389  0.36238013
   0.50343000  0.16520000  0.06105000
   0.66948000  0.99883000  0.00053000
   0.66584099  0.99682334  0.36201186
   0.83570000  0.16556000  0.06094000
   0.17061000  0.49746000  0.06032000
   0.50215000  0.49992000  0.06086000
   0.66930000  0.33358000  0.00050000
   0.66843430  0.33173310  0.35994500
   0.00239000  0.66441000  0.00051000
   0.00249374  0.66204855  0.35787513
   0.16894000  0.83304000  0.06062000
   0.50222000  0.83318000  0.06077000
   0.66882000  0.66655000  0.00068000
   0.66533542  0.66780069  0.35975053
   0.83620000  0.83206000  0.06086000
   0.66879000  0.99689000  0.12225000
   0.00127000  0.66476000  0.12046000
   0.50272000  0.83391000  0.18098000
   0.33662000  0.99784000  0.24172000
   0.00240000  0.33332000  0.24079000
   0.17450407  0.83020465  0.30328091
   0.83399469  0.83304105  0.30191766
   0.99962000  0.33431000  0.00199000
   0.01001948  0.33039779  0.37127920
   0.33922000  0.33072000  0.00000000
   0.32914526  0.33616268  0.35942616
   0.83779000  0.49999000  0.06135000
   0.33524000  0.67037000  0.00023000
   0.32801804  0.67126467  0.37036278
Direct configuration=     8
   0.00245000  0.99865000  0.12117000
   0.16980000  0.16587000  0.18099000
   0.33623000  0.99852000  0.12110000
   0.50164000  0.16594000  0.18135000
   0.83615000  0.16559000  0.18099000
   0.00260000  0.33284000  0.12101000
   0.16994000  0.49925000  0.18104000
   0.33651000  0.33287000  0.12086000
   0.50180000  0.49937000  0.18123000
   0.66965000  0.33304000  0.12103000
   0.83626000  0.49963000  0.18117000
   0.16899000  0.83329000  0.18177000
   0.33582000  0.66689000  0.12095000
   0.66914000  0.66722000  0.12117000
   0.83680000  0.83220000  0.18114000
   0.00172000  0.99944000  0.24151000
   0.16855424  0.15853829  0.30212480
   0.50420977  0.16432065  0.30267174
   0.66988000  0.99924000  0.24142000
   0.83547869  0.16561266  0.30285282
   0.16460533  0.50005926  0.30103385
   0.33524000  0.33246000  0.24183000
   0.50372019  0.50054727  0.30310262
   0.66902000  0.33317000  0.24123000
   0.83483624  0.49721400  0.30286803
   0.00318000  0.66598000  0.24177000
   0.33605000  0.66588000  0.24146000
   0.50172173  0.83516154  0.30229457
   0.66918000  0.66674000  0.24131000
   0.00271000  0.99869000  0.00034000
   0.00367912  0.99580045  0.35891779
   0.16929000  0.16694000  0.06071000
   0.33657000  0.00075000  0.00067000
   0.34093341  0.00864638  0.36246207
   0.50343000  0.16520000  0.06105000
   0.66948000  0.99883000  0.00053000
   0.66475589  0.99789944  0.36187850
   0.83570000  0.16556000  0.06094000
   0.17061000  0.49746000  0.06032000
   0.50215000  0.49992000  0.06086000
   0.66930000  0.33358000  0.00050000
   0.66921358  0.33136375  0.35997030
   0.00239000  0.66441000  0.00051000
   0.00215575  0.66257633  0.35796304
   0.16894000  0.83304000  0.06062000
   0.50222000  0.83318000  0.06077000
   0.66882000  0.66655000  0.00068000
   0.66598619  0.66730837  0.35980967
   0.83620000  0.83206000  0.06086000
   0.66879000  0.99689000  0.12225000
   0.00127000  0.66476000  0.12046000
   0.50272000  0.83391000  0.18098000
   0.33662000  0.99784000  0.24172000
   0.00240000  0.33332000  0.24079000
   0.17449955  0.82993169  0.30331664
   0.83352810  0.83318326  0.30200612
   0.99962000  0.33431000  0.00199000
   0.01023858  0.33044748  0.37130594
   0.33922000  0.33072000  0.00000000
   0.32889809  0.33676044  0.35955375
   0.83779000  0.49999000  0.06135000
   0.33524000  0.67037000  0.00023000
   0.32810065  0.67111786  0.37038131
Direct configuration=     9
   0.00245000  0.99865000  0.12117000
   0.16980000  0.16587000  0.18099000
   0.33623000  0.99852000  0.12110000
   0.50164000  0.16594000  0.18135000
   0.83615000  0.16559000  0.18099000
   0.00260000  0.33284000  0.12101000
   0.16994000  0.49925000  0.18104000
   0.33651000  0.33287000  0.12086000
   0.50180000  0.49937000  0.18123000
   0.66965000  0.33304000  0.12103000
   0.83626000  0.49963000  0.18117000
   0.16899000  0.83329000  0.18177000
   0.33582000  0.66689000  0.12095000
   0.66914000  0.66722000  0.12117000
   0.83680000  0.83220000  0.18114000
   0.00172000  0.99944000  0.24151000
   0.16855876  0.15862041  0.30203002
   0.50397472  0.16466955  0.30263996
   0.66988000  0.99924000  0.24142000
   0.83572293  0.16513545  0.30293442
   0.16440192  0.50044214  0.30106206
   0.33524000  0.33246000  0.24183000
   0.50391690  0.50051620  0.30310816
   0.66902000  0.33317000  0.24123000
   0.83485293  0.49723154  0.30286415
   0.00318000  0.66598000  0.24177000
   0.33605000  0.66588000  0.24146000
   0.50174142  0.83511157  0.30231362
   0.66918000  0.66674000  0.24131000
   0.00271000  0.99869000  0.00034000
   0.00515337  0.99512021  0.35892982
   0.16929000  0.16694000  0.06071000
   0.33657000  0.00075000  0.00067000
   0.34054757  0.00893086  0.36236184
   0.50343000  0.16520000  0.06105000
   0.66948000  0.99883000  0.00053000
   0.66332408  0.99916888  0.36188632
   0.83570000  0.16556000  0.06094000
   0.17061000  0.49746000  0.06032000
   0.50215000  0.49992000  0.06086000
   0.66930000  0.33358000  0.00050000
   0.66966532  0.33095453  0.35999357
   0.00239000  0.66441000  0.00051000
   0.00178250  0.66298833  0.35806959
   0.16894000  0.83304000  0.06062000
   0.50222000  0.83318000  0.06077000
   0.66882000  0.66655000  0.00068000
   0.66643247  0.66665490  0.35978877
   0.83620000  0.83206000  0.06086000
   0.66879000  0.99689000  0.12225000
   0.00127000  0.66476000  0.12046000
   0.50272000  0.83391000  0.18098000
   0.33662000  0.99784000  0.24172000
   0.00240000  0.33332000  0.24079000
   0.17442564  0.83014396  0.30330908
   0.83327488  0.83321899  0.30210403
   0.99962000  0.33431000  0.00199000
   0.01044178  0.33042363  0.37139293
   0.33922000  0.33072000  0.00000000
   0.32889883  0.33718314  0.35979041
   0.83779000  0.49999000  0.06135000
   0.33524000  0.67037000  0.00023000
   0.32833314  0.67102746  0.37040717
Direct configuration=    10
   0.00245000  0.99865000  0.12117000
   0.16980000  0.16587000  0.18099000
   0.33623000  0.99852000  0.12110000
   0.50164000  0.16594000  0.18135000
   0.83615000  0.16559000  0.18099000
   0.00260000  0.33284000  0.12101000
   0.16994000  0.49925000  0.18104000
   0.33651000  0.33287000  0.12086000
   0.50180000  0.49937000  0.18123000
   0.66965000  0.33304000  0.12103000
   0.83626000  0.49963000  0.18117000
   0.16899000  0.83329000  0.18177000
   0.33582000  0.66689000  0.12095000
   0.66914000  0.66722000  0.12117000
   0.83680000  0.83220000  0.18114000
   0.00172000  0.99944000  0.24151000
   0.16857232  0.15886678  0.30174567
   0.50326955  0.16571626  0.30254464
   0.66988000  0.99924000  0.24142000
   0.83645567  0.16370383  0.30317923
   0.16379168  0.50159077  0.30114670
   0.33524000  0.33246000  0.24183000
   0.50450701  0.50042298  0.30312478
   0.66902000  0.33317000  0.24123000
   0.83490299  0.49728415  0.30285251
   0.00318000  0.66598000  0.24177000
   0.33605000  0.66588000  0.24146000
   0.50180050  0.83496165  0.30237078
   0.66918000  0.66674000  0.24131000
   0.00271000  0.99869000  0.00034000
   0.00957615  0.99307949  0.35896590
   0.16929000  0.16694000  0.06071000
   0.33657000  0.00075000  0.00067000
   0.33939005  0.00978430  0.36206117
   0.50343000  0.16520000  0.06105000
   0.66948000  0.99883000  0.00053000
   0.65902864  0.00297717  0.36190978
   0.83570000  0.16556000  0.06094000
   0.17061000  0.49746000  0.06032000
   0.50215000  0.49992000  0.06086000
   0.66930000  0.33358000  0.00050000
   0.67102052  0.32972686  0.36006338
   0.00239000  0.66441000  0.00051000
   0.00066273  0.66422433  0.35838925
   0.16894000  0.83304000  0.06062000
   0.50222000  0.83318000  0.06077000
   0.66882000  0.66655000  0.00068000
   0.66777132  0.66469449  0.35972608
   0.83620000  0.83206000  0.06086000
   0.66879000  0.99689000  0.12225000
   0.00127000  0.66476000  0.12046000
   0.50272000  0.83391000  0.18098000
   0.33662000  0.99784000  0.24172000
   0.00240000  0.33332000  0.24079000
   0.17420391  0.83078079  0.30328638
   0.83251522  0.83332620  0.30239777
   0.99962000  0.33431000  0.00199000
   0.01105139  0.33035210  0.37165387
   0.33922000  0.33072000  0.00000000
   0.32890106  0.33845122  0.36050040
   0.83779000  0.49999000  0.06135000
   0.33524000  0.67037000  0.00023000
   0.32903063  0.67075628  0.37048476
Direct configuration=    11
   0.00245000  0.99865000  0.12117000
   0.16980000  0.16587000  0.18099000
   0.33623000  0.99852000  0.12110000
   0.50164000  0.16594000  0.18135000
   0.83615000  0.16559000  0.18099000
   0.00260000  0.33284000  0.12101000
   0.16994000  0.49925000  0.18104000
   0.33651000  0.33287000  0.12086000
   0.50180000  0.49937000  0.18123000
   0.66965000  0.33304000  0.12103000
   0.83626000  0.49963000  0.18117000
   0.16899000  0.83329000  0.18177000
   0.33582000  0.66689000  0.12095000
   0.66914000  0.66722000  0.12117000
   0.83680000  0.83220000  0.18114000
   0.00172000  0.99944000  0.24151000
   0.16856779  0.15878437  0.30184078
   0.50350543  0.16536614  0.30257652
   0.66988000  0.99924000  0.24142000
   0.83621057  0.16418270  0.30309734
   0.16399581  0.50120656  0.30111839
   0.33524000  0.33246000  0.24183000
   0.50430962  0.50045416  0.30311922
   0.66902000  0.33317000  0.24123000
   0.83488625  0.49726656  0.30285640
   0.00318000  0.66598000  0.24177000
   0.33605000  0.66588000  0.24146000
   0.50178074  0.83501180  0.30235166
   0.66918000  0.66674000  0.24131000
   0.00271000  0.99869000  0.00034000
   0.00809675  0.99376210  0.35895383
   0.16929000  0.16694000  0.06071000
   0.33657000  0.00075000  0.00067000
   0.33977723  0.00949883  0.36216174
   0.50343000  0.16520000  0.06105000
   0.66948000  0.99883000  0.00053000
   0.66046544  0.00170331  0.36190193
   0.83570000  0.16556000  0.06094000
   0.17061000  0.49746000  0.06032000
   0.50215000  0.49992000  0.06086000
   0.66930000  0.33358000  0.00050000
   0.67056721  0.33013751  0.36004003
   0.00239000  0.66441000  0.00051000
   0.00103729  0.66381089  0.35828232
   0.16894000  0.83304000  0.06062000
   0.50222000  0.83318000  0.06077000
   0.66882000  0.66655000  0.00068000
   0.66732348  0.66535024  0.35974705
   0.83620000  0.83206000  0.06086000
   0.66879000  0.99689000  0.12225000
   0.00127000  0.66476000  0.12046000
   0.50272000  0.83391000  0.18098000
   0.33662000  0.99784000  0.24172000
   0.00240000  0.33332000  0.24079000
   0.17427808  0.83056777  0.30329397
   0.83276933  0.83329034  0.30229952
   0.99962000  0.33431000  0.00199000
   0.01084748  0.33037603  0.37156659
   0.33922000  0.33072000  0.00000000
   0.32890031  0.33802705  0.36026291
   0.83779000  0.49999000  0.06135000
   0.33524000  0.67037000  0.00023000
   0.32879732  0.67084699  0.37045881
Direct configuration=    12
   0.00245000  0.99865000  0.12117000
   0.16980000  0.16587000  0.18099000
   0.33623000  0.99852000  0.12110000
   0.50164000  0.16594000  0.18135000
   0.83615000  0.16559000  0.18099000
   0.00260000  0.33284000  0.12101000
   0.16994000  0.49925000  0.18104000
   0.33651000  0.33287000  0.12086000
   0.50180000  0.49937000  0.18123000
   0.66965000  0.33304000  0.12103000
   0.83626000  0.49963000  0.18117000
   0.16899000  0.83329000  0.18177000
   0.33582000  0.66689000  0.12095000
   0.66914000  0.66722000  0.12117000
   0.83680000  0.83220000  0.18114000
   0.00172000  0.99944000  0.24151000
   0.16850541  0.15859681  0.30205837
   0.50340674  0.16575138  0.30261717
   0.66988000  0.99924000  0.24142000
   0.83614495  0.16445073  0.30281126
   0.16420514  0.50078579  0.30101709
   0.33524000  0.33246000  0.24183000
   0.50448498  0.50042056  0.30319726
   0.66902000  0.33317000  0.24123000
   0.83530084  0.49699841  0.30281161
   0.00318000  0.66598000  0.24177000
   0.33605000  0.66588000  0.24146000
   0.50200766  0.83490698  0.30221796
   0.66918000  0.66674000  0.24131000
   0.00271000  0.99869000  0.00034000
   0.00907011  0.99407003  0.35895843
   0.16929000  0.16694000  0.06071000
   0.33657000  0.00075000  0.00067000
   0.33919691  0.00954861  0.36225644
   0.50343000  0.16520000  0.06105000
   0.66948000  0.99883000  0.00053000
   0.65954028  0.00253074  0.36202541
   0.83570000  0.16556000  0.06094000
   0.17061000  0.49746000  0.06032000
   0.50215000  0.49992000  0.06086000
   0.66930000  0.33358000  0.00050000
   0.67045297  0.32996203  0.36012301
   0.00239000  0.66441000  0.00051000
   0.00074643  0.66381047  0.35827607
   0.16894000  0.83304000  0.06062000
   0.50222000  0.83318000  0.06077000
   0.66882000  0.66655000  0.00068000
   0.66736553  0.66505464  0.35969854
   0.83620000  0.83206000  0.06086000
   0.66879000  0.99689000  0.12225000
   0.00127000  0.66476000  0.12046000
   0.50272000  0.83391000  0.18098000
   0.33662000  0.99784000  0.24172000
   0.00240000  0.33332000  0.24079000
   0.17448231  0.83038113  0.30302750
   0.83301622  0.83322987  0.30235867
   0.99962000  0.33431000  0.00199000
   0.01100348  0.33016841  0.37161242
   0.33922000  0.33072000  0.00000000
   0.32902057  0.33795263  0.36025594
   0.83779000  0.49999000  0.06135000
   0.33524000  0.67037000  0.00023000
   0.32891469  0.67110284  0.37051721
Direct configuration=    13
   0.00245000  0.99865000  0.12117000
   0.16980000  0.16587000  0.18099000
   0.33623000  0.99852000  0.12110000
   0.50164000  0.16594000  0.18135000
   0.83615000  0.16559000  0.18099000
   0.00260000  0.33284000  0.12101000
   0.16994000  0.49925000  0.18104000
   0.33651000  0.33287000  0.12086000
   0.50180000  0.49937000  0.18123000
   0.66965000  0.33304000  0.12103000
   0.83626000  0.49963000  0.18117000
   0.16899000  0.83329000  0.18177000
   0.33582000  0.66689000  0.12095000
   0.66914000  0.66722000  0.12117000
   0.83680000  0.83220000  0.18114000
   0.00172000  0.99944000  0.24151000
   0.16846884  0.15848683  0.30218595
   0.50334888  0.16597727  0.30264101
   0.66988000  0.99924000  0.24142000
   0.83610647  0.16460790  0.30264351
   0.16432789  0.50053906  0.30095769
   0.33524000  0.33246000  0.24183000
   0.50458781  0.50040086  0.30324303
   0.66902000  0.33317000  0.24123000
   0.83554395  0.49684118  0.30278534
   0.00318000  0.66598000  0.24177000
   0.33605000  0.66588000  0.24146000
   0.50214072  0.83484552  0.30213956
   0.66918000  0.66674000  0.24131000
   0.00271000  0.99869000  0.00034000
   0.00964086  0.99425058  0.35896113
   0.16929000  0.16694000  0.06071000
   0.33657000  0.00075000  0.00067000
   0.33885663  0.00957780  0.36231196
   0.50343000  0.16520000  0.06105000
   0.66948000  0.99883000  0.00053000
   0.65899779  0.00301592  0.36209781
   0.83570000  0.16556000  0.06094000
   0.17061000  0.49746000  0.06032000
   0.50215000  0.49992000  0.06086000
   0.66930000  0.33358000  0.00050000
   0.67038599  0.32985913  0.36017166
   0.00239000  0.66441000  0.00051000
   0.00057588  0.66381021  0.35827241
   0.16894000  0.83304000  0.06062000
   0.50222000  0.83318000  0.06077000
   0.66882000  0.66655000  0.00068000
   0.66739019  0.66488131  0.35967009
   0.83620000  0.83206000  0.06086000
   0.66879000  0.99689000  0.12225000
   0.00127000  0.66476000  0.12046000
   0.50272000  0.83391000  0.18098000
   0.33662000  0.99784000  0.24172000
   0.00240000  0.33332000  0.24079000
   0.17460207  0.83027168  0.30287125
   0.83316099  0.83319441  0.30239336
   0.99962000  0.33431000  0.00199000
   0.01109495  0.33004668  0.37163929
   0.33922000  0.33072000  0.00000000
   0.32909108  0.33790899  0.36025185
   0.83779000  0.49999000  0.06135000
   0.33524000  0.67037000  0.00023000
   0.32898350  0.67125287  0.37055146
Direct configuration=    14
   0.00245000  0.99865000  0.12117000
   0.16980000  0.16587000  0.18099000
   0.33623000  0.99852000  0.12110000
   0.50164000  0.16594000  0.18135000
   0.83615000  0.16559000  0.18099000
   0.00260000  0.33284000  0.12101000
   0.16994000  0.49925000  0.18104000
   0.33651000  0.33287000  0.12086000
   0.50180000  0.49937000  0.18123000
   0.66965000  0.33304000  0.12103000
   0.83626000  0.49963000  0.18117000
   0.16899000  0.83329000  0.18177000
   0.33582000  0.66689000  0.12095000
   0.66914000  0.66722000  0.12117000
   0.83680000  0.83220000  0.18114000
   0.00172000  0.99944000  0.24151000
   0.16863905  0.15865122  0.30207316
   0.50312485  0.16588906  0.30264724
   0.66988000  0.99924000  0.24142000
   0.83600612  0.16462684  0.30266997
   0.16455624  0.50042012  0.30101250
   0.33524000  0.33246000  0.24183000
   0.50455173  0.50033430  0.30325902
   0.66902000  0.33317000  0.24123000
   0.83562020  0.49668407  0.30281394
   0.00318000  0.66598000  0.24177000
   0.33605000  0.66588000  0.24146000
   0.50227901  0.83505416  0.30219741
   0.66918000  0.66674000  0.24131000
   0.00271000  0.99869000  0.00034000
   0.01008231  0.99447750  0.35895700
   0.16929000  0.16694000  0.06071000
   0.33657000  0.00075000  0.00067000
   0.33858431  0.00932758  0.36246940
   0.50343000  0.16520000  0.06105000
   0.66948000  0.99883000  0.00053000
   0.65847396  0.00356225  0.36206427
   0.83570000  0.16556000  0.06094000
   0.17061000  0.49746000  0.06032000
   0.50215000  0.49992000  0.06086000
   0.66930000  0.33358000  0.00050000
   0.67041707  0.32980444  0.36024560
   0.00239000  0.66441000  0.00051000
   0.00051210  0.66362842  0.35814703
   0.16894000  0.83304000  0.06062000
   0.50222000  0.83318000  0.06077000
   0.66882000  0.66655000  0.00068000
   0.66755598  0.66488334  0.35960613
   0.83620000  0.83206000  0.06086000
   0.66879000  0.99689000  0.12225000
   0.00127000  0.66476000  0.12046000
   0.50272000  0.83391000  0.18098000
   0.33662000  0.99784000  0.24172000
   0.00240000  0.33332000  0.24079000
   0.17470459  0.83013602  0.30274957
   0.83334362  0.83332965  0.30244646
   0.99962000  0.33431000  0.00199000
   0.01109267  0.32986259  0.37166046
   0.33922000  0.33072000  0.00000000
   0.32922490  0.33776448  0.36022613
   0.83779000  0.49999000  0.06135000
   0.33524000  0.67037000  0.00023000
   0.32895977  0.67144017  0.37051662
Direct configuration=    15
   0.00245000  0.99865000  0.12117000
   0.16980000  0.16587000  0.18099000
   0.33623000  0.99852000  0.12110000
   0.50164000  0.16594000  0.18135000
   0.83615000  0.16559000  0.18099000
   0.00260000  0.33284000  0.12101000
   0.16994000  0.49925000  0.18104000
   0.33651000  0.33287000  0.12086000
   0.50180000  0.49937000  0.18123000
   0.66965000  0.33304000  0.12103000
   0.83626000  0.49963000  0.18117000
   0.16899000  0.83329000  0.18177000
   0.33582000  0.66689000  0.12095000
   0.66914000  0.66722000  0.12117000
   0.83680000  0.83220000  0.18114000
   0.00172000  0.99944000  0.24151000
   0.16881111  0.15881738  0.30195916
   0.50289841  0.16579990  0.30265353
   0.66988000  0.99924000  0.24142000
   0.83590469  0.16464598  0.30269671
   0.16478705  0.50029989  0.30106790
   0.33524000  0.33246000  0.24183000
   0.50451527  0.50026703  0.30327518
   0.66902000  0.33317000  0.24123000
   0.83569727  0.49652526  0.30284284
   0.00318000  0.66598000  0.24177000
   0.33605000  0.66588000  0.24146000
   0.50241878  0.83526504  0.30225588
   0.66918000  0.66674000  0.24131000
   0.00271000  0.99869000  0.00034000
   0.01052852  0.99470686  0.35895282
   0.16929000  0.16694000  0.06071000
   0.33657000  0.00075000  0.00067000
   0.33830905  0.00907465  0.36262854
   0.50343000  0.16520000  0.06105000
   0.66948000  0.99883000  0.00053000
   0.65794448  0.00411448  0.36203038
   0.83570000  0.16556000  0.06094000
   0.17061000  0.49746000  0.06032000
   0.50215000  0.49992000  0.06086000
   0.66930000  0.33358000  0.00050000
   0.67044849  0.32974916  0.36032033
   0.00239000  0.66441000  0.00051000
   0.00044764  0.66344466  0.35802031
   0.16894000  0.83304000  0.06062000
   0.50222000  0.83318000  0.06077000
   0.66882000  0.66655000  0.00068000
   0.66772357  0.66488540  0.35954147
   0.83620000  0.83206000  0.06086000
   0.66879000  0.99689000  0.12225000
   0.00127000  0.66476000  0.12046000
   0.50272000  0.83391000  0.18098000
   0.33662000  0.99784000  0.24172000
   0.00240000  0.33332000  0.24079000
   0.17480821  0.82999889  0.30262659
   0.83352822  0.83346634  0.30250012
   0.99962000  0.33431000  0.00199000
   0.01109036  0.32967653  0.37168185
   0.33922000  0.33072000  0.00000000
   0.32936016  0.33761841  0.36020013
   0.83779000  0.49999000  0.06135000
   0.33524000  0.67037000  0.00023000
   0.32893578  0.67162948  0.37048141
Direct configuration=    16
   0.00245000  0.99865000  0.12117000
   0.16980000  0.16587000  0.18099000
   0.33623000  0.99852000  0.12110000
   0.50164000  0.16594000  0.18135000
   0.83615000  0.16559000  0.18099000
   0.00260000  0.33284000  0.12101000
   0.16994000  0.49925000  0.18104000
   0.33651000  0.33287000  0.12086000
   0.50180000  0.49937000  0.18123000
   0.66965000  0.33304000  0.12103000
   0.83626000  0.49963000  0.18117000
   0.16899000  0.83329000  0.18177000
   0.33582000  0.66689000  0.12095000
   0.66914000  0.66722000  0.12117000
   0.83680000  0.83220000  0.18114000
   0.00172000  0.99944000  0.24151000
   0.16892926  0.15892097  0.30181710
   0.50263246  0.16586599  0.30262420
   0.66988000  0.99924000  0.24142000
   0.83602005  0.16444553  0.30285464
   0.16469225  0.50032337  0.30111069
   0.33524000  0.33246000  0.24183000
   0.50456180  0.50028748  0.30324289
   0.66902000  0.33317000  0.24123000
   0.83551350  0.49642697  0.30280105
   0.00318000  0.66598000  0.24177000
   0.33605000  0.66588000  0.24146000
   0.50221387  0.83515698  0.30229300
   0.66918000  0.66674000  0.24131000
   0.00271000  0.99869000  0.00034000
   0.01094159  0.99476465  0.35889326
   0.16929000  0.16694000  0.06071000
   0.33657000  0.00075000  0.00067000
   0.33797194  0.00892963  0.36268040
   0.50343000  0.16520000  0.06105000
   0.66948000  0.99883000  0.00053000
   0.65780104  0.00444979  0.36205188
   0.83570000  0.16556000  0.06094000
   0.17061000  0.49746000  0.06032000
   0.50215000  0.49992000  0.06086000
   0.66930000  0.33358000  0.00050000
   0.67042592  0.32974428  0.36034497
   0.00239000  0.66441000  0.00051000
   0.00064683  0.66334646  0.35796688
   0.16894000  0.83304000  0.06062000
   0.50222000  0.83318000  0.06077000
   0.66882000  0.66655000  0.00068000
   0.66795044  0.66504436  0.35952324
   0.83620000  0.83206000  0.06086000
   0.66879000  0.99689000  0.12225000
   0.00127000  0.66476000  0.12046000
   0.50272000  0.83391000  0.18098000
   0.33662000  0.99784000  0.24172000
   0.00240000  0.33332000  0.24079000
   0.17485090  0.83022690  0.30266440
   0.83345020  0.83366668  0.30251412
   0.99962000  0.33431000  0.00199000
   0.01118278  0.32952237  0.37165749
   0.33922000  0.33072000  0.00000000
   0.32947378  0.33743536  0.36025417
   0.83779000  0.49999000  0.06135000
   0.33524000  0.67037000  0.00023000
   0.32892666  0.67167332  0.37042610
