Generated by VASPKIT code
 1.000000
    8.5262002945000006    0.0000000000000000    0.0000000000000000
   -0.0017666312000000    8.5045993877000008    0.0000000000000000
    0.0000000000000000    0.0000000000000000   23.5557994842999996
   Fe   Cr
    49    13
Selective Dynamics
Direct
    0.0024500000000032    0.9986499999999978    0.1211699999999993    F  F  F            Fe1
    0.1698000000000022    0.1658699999999982    0.1809900000000013    F  F  F            Fe2
    0.3362300000000005    0.9985199999999992    0.1210999999999984    F  F  F            Fe3
    0.5016400000000019    0.1659399999999991    0.1813500000000019    F  F  F            Fe4
    0.8361500000000035    0.1655900000000017    0.1809900000000013    F  F  F            Fe5
    0.0026000000000010    0.3328399999999974    0.1210099999999983    F  F  F            Fe6
    0.1699399999999969    0.4992500000000035    0.1810400000000030    F  F  F            Fe7
    0.3365099999999970    0.3328699999999998    0.1208600000000004    F  F  F            Fe8
    0.5018000000000029    0.4993699999999990    0.1812299999999993    F  F  F            Fe9
    0.6696499999999972    0.3330399999999969    0.1210299999999975    F  F  F           Fe10
    0.8362600000000029    0.4996300000000033    0.1811700000000016    F  F  F           Fe11
    0.1689900000000009    0.8332899999999981    0.1817700000000002    F  F  F           Fe12
    0.3358199999999982    0.6668900000000022    0.1209500000000006    F  F  F           Fe13
    0.6691399999999987    0.6672200000000004    0.1211699999999993    F  F  F           Fe14
    0.8367999999999967    0.8322000000000003    0.1811399999999992    F  F  F           Fe15
    0.0017199999999988    0.9994399999999999    0.2415099999999981    F  F  F           Fe16
    0.1684407154325295    0.1602603273881053    0.3026156513481681    T  T  T           Fe17
    0.5037388975143778    0.1643362600648581    0.3021553079927385    T  T  T           Fe18
    0.6698799999999991    0.9992400000000004    0.2414199999999980    F  F  F           Fe19
    0.8347711981856010    0.1650534965171183    0.3025196388608334    T  T  T           Fe20
    0.1654821953904356    0.4979059070891434    0.3009322486650290    T  T  T           Fe21
    0.3352399999999989    0.3324599999999975    0.2418300000000002    F  F  F           Fe22
    0.5037069173887818    0.5009691697303296    0.3024403662358475    T  T  T           Fe23
    0.6690200000000033    0.3331700000000026    0.2412300000000016    F  F  F           Fe24
    0.8342475318011546    0.4997074120293031    0.3025722367495974    T  T  T           Fe25
    0.0031800000000004    0.6659799999999976    0.2417700000000025    F  F  F           Fe26
    0.3360500000000002    0.6658800000000014    0.2414600000000036    F  F  F           Fe27
    0.5025678484959326    0.8343469682299486    0.3016821780563433    T  T  T           Fe28
    0.6691799999999972    0.6667399999999972    0.2413099999999986    F  F  F           Fe29
    0.0027100000000004    0.9986900000000034    0.0003400000000013    F  F  F           Fe30
   -0.0047380995621848    0.9993650087790518    0.3597936064257776    T  T  T           Fe31
    0.1692899999999966    0.1669399999999968    0.0607100000000003    F  F  F           Fe32
    0.3365700000000018    0.0007499999999965    0.0006699999999995    F  F  F           Fe33
    0.3442186920699717    0.0036204176403244    0.3605132737319495    T  T  T           Fe34
    0.5034300000000016    0.1651999999999987    0.0610500000000016    F  F  F           Fe35
    0.6694800000000001    0.9988299999999981    0.0005299999999977    F  F  F           Fe36
    0.6708491254863094    0.9922367978932380    0.3630798411273193    T  T  T           Fe37
    0.8357000000000028    0.1655599999999993    0.0609400000000022    F  F  F           Fe38
    0.1706100000000035    0.4974599999999967    0.0603199999999973    F  F  F           Fe39
    0.5021500000000003    0.4999200000000030    0.0608599999999981    F  F  F           Fe40
    0.6692999999999998    0.3335799999999978    0.0005000000000024    F  F  F           Fe41
    0.6675898453253496    0.3326452584467672    0.3590471024211318    T  T  T           Fe42
    0.0023899999999983    0.6644099999999966    0.0005099999999985    F  F  F           Fe43
    0.0025525980279577    0.6606476357793232    0.3589704941928837    T  T  T           Fe44
    0.1689399999999992    0.8330399999999969    0.0606200000000001    F  F  F           Fe45
    0.5022200000000012    0.8331799999999987    0.0607699999999980    F  F  F           Fe46
    0.6688199999999966    0.6665500000000009    0.0006800000000027    F  F  F           Fe47
    0.6655527755415702    0.6722977282964746    0.3605907556213989    T  T  T           Fe48
    0.8361999999999981    0.8320599999999985    0.0608599999999981    F  F  F           Fe49
    0.6687900000000013    0.9968900000000005    0.1222500000000011    F  F  F            Cr1
    0.0012699999999981    0.6647600000000011    0.1204600000000013    F  F  F            Cr2
    0.5027199999999965    0.8339100000000030    0.1809799999999981    F  F  F            Cr3
    0.3366200000000035    0.9978399999999965    0.2417200000000008    F  F  F            Cr4
    0.0024000000000015    0.3333200000000005    0.2407899999999970    F  F  F            Cr5
    0.1718794481676019    0.8306261948426157    0.3039391354272478    T  T  T            Cr6
    0.8335298714772083    0.8331912330736541    0.3019806332834444    T  T  T            Cr7
    0.9996200000000002    0.3343100000000021    0.0019899999999993    F  F  F            Cr8
    0.0052122494094563    0.3308421033449105    0.3678975121896524    T  T  T            Cr9
    0.3392199999999974    0.3307199999999995    0.0000000000000000    F  F  F           Cr10
    0.8377899999999983    0.4999899999999968    0.0613499999999974    F  F  F           Cr11
    0.3352399999999989    0.6703699999999984    0.0002300000000020    F  F  F           Cr12
    0.3307872350298241    0.6715021691646896    0.3670640689515929    T  T  T           Cr13
