srun: ROUTE: split_hostlist: hl=b17r3n05 tree_width 0
 running on    4 total cores
 distrk:  each k-point on    1 cores,    4 groups
 distr:  one band on    1 cores,    1 groups
 HIP runtime initialized ...    4 DCUs will be used
 Created    4 streams on each DCU
 vasp.6.3.2 27Jun22 (build Mar 15 2023 15:45:48) complex                        
  
 POSCAR found type information on POSCAR PbCrFe
 POSCAR found :  3 types and      63 ions
 Reading from existing POTCAR
 -----------------------------------------------------------------------------
|                                                                             |
|           W    W    AA    RRRRR   N    N  II  N    N   GGGG   !!!           |
|           W    W   A  A   R    R  NN   N  II  NN   N  G    G  !!!           |
|           W    W  A    A  R    R  N N  N  II  N N  N  G       !!!           |
|           W WW W  AAAAAA  RRRRR   N  N N  II  N  N N  G  GGG   !            |
|           WW  WW  A    A  R   R   N   NN  II  N   NN  G    G                |
|           W    W  A    A  R    R  N    N  II  N    N   GGGG   !!!           |
|                                                                             |
|     You use a magnetic or noncollinear calculation, but did not specify     |
|     the initial magnetic moment with the MAGMOM tag. Note that a            |
|     default of 1 will be used for all atoms. This ferromagnetic setup       |
|     may break the symmetry of the crystal, in particular it may rule        |
|     out finding an antiferromagnetic solution. Thence, we recommend         |
|     setting the initial magnetic moment manually or verifying carefully     |
|     that this magnetic setup is desired.                                    |
|                                                                             |
 -----------------------------------------------------------------------------

 scaLAPACK will be used selectively (only on CPU)
 Reading from existing POTCAR
 LDA part: xc-table for Pade appr. of Perdew
 POSCAR found type information on POSCAR PbCrFe
 POSCAR found :  3 types and      63 ions
 Optimize memory usage for KPAR
 POSCAR, INCAR and KPOINTS ok, starting setup
 FFT: planning ... GRIDC
 FFT: planning ... GRID_SOFT
 FFT: planning ... GRID
 WAVECAR not read
 WARNING: chargedensity file is incomplete
 WARNING: random wavefunctions but no delay for mixing, default for NELMDL
 entering main loop
       N       E                     dE             d eps       ncg     rms          rms(c)
DAV:   1     0.561100670621E+04    0.56110E+04   -0.24148E+05 12624   0.144E+03
DAV:   2    -0.593283742102E+02   -0.56703E+04   -0.54735E+04 11872   0.424E+02
DAV:   3    -0.518860950002E+03   -0.45953E+03   -0.40785E+03 12227   0.164E+02
DAV:   4    -0.578672312996E+03   -0.59811E+02   -0.55879E+02 20984   0.452E+01
DAV:   5    -0.582079520583E+03   -0.34072E+01   -0.32265E+01 19432   0.107E+01    0.928E+01
DAV:   6    -0.687285628551E+03   -0.10521E+03   -0.26775E+02 21440   0.776E+01    0.147E+02
DAV:   7    -0.658266931395E+03    0.29019E+02   -0.28421E+02 21968   0.106E+02    0.141E+02
DAV:   8    -0.556314057376E+03    0.10195E+03   -0.15109E+02 21680   0.759E+01    0.921E+01
DAV:   9    -0.529615918805E+03    0.26698E+02   -0.68103E+01 20256   0.404E+01    0.711E+01
DAV:  10    -0.509680650609E+03    0.19935E+02   -0.54466E+01 19480   0.302E+01    0.542E+01
DAV:  11    -0.497219182042E+03    0.12461E+02   -0.69044E+01 17104   0.312E+01    0.490E+01
DAV:  12    -0.492328397623E+03    0.48908E+01   -0.24067E+01 17688   0.202E+01    0.356E+01
DAV:  13    -0.492145952035E+03    0.18245E+00   -0.48602E+00 16544   0.961E+00    0.333E+01
DAV:  14    -0.492056792374E+03    0.89160E-01   -0.89868E-01 16824   0.307E+00    0.341E+01
DAV:  15    -0.493952949646E+03   -0.18962E+01   -0.11217E+00 21384   0.407E+00    0.365E+01
DAV:  16    -0.494886061607E+03   -0.93311E+00   -0.39462E+00 21008   0.765E+00    0.321E+01
DAV:  17    -0.498774762744E+03   -0.38887E+01   -0.61895E+00 19880   0.947E+00    0.296E+01
DAV:  18    -0.500184978499E+03   -0.14102E+01   -0.19013E+00 18976   0.433E+00    0.287E+01
DAV:  19    -0.501077607297E+03   -0.89263E+00   -0.49379E-01 19576   0.231E+00    0.286E+01
DAV:  20    -0.501326507664E+03   -0.24890E+00   -0.30700E-01 20456   0.228E+00    0.269E+01
DAV:  21    -0.501867345441E+03   -0.54084E+00   -0.13961E+00 20704   0.569E+00    0.220E+01
DAV:  22    -0.502508117535E+03   -0.64077E+00   -0.17171E+00 20088   0.539E+00    0.180E+01
DAV:  23    -0.502530635121E+03   -0.22518E-01   -0.63887E-01 19936   0.294E+00    0.151E+01
DAV:  24    -0.502625693381E+03   -0.95058E-01   -0.24806E-01 19952   0.201E+00    0.144E+01
DAV:  25    -0.502832535735E+03   -0.20684E+00   -0.48485E-01 21280   0.241E+00    0.129E+01
DAV:  26    -0.503274154602E+03   -0.44162E+00   -0.98303E-01 20640   0.286E+00    0.114E+01
DAV:  27    -0.503600171564E+03   -0.32602E+00   -0.68392E-01 20600   0.270E+00    0.104E+01
DAV:  28    -0.503880020201E+03   -0.27985E+00   -0.56500E-01 20160   0.216E+00    0.915E+00
DAV:  29    -0.504172730951E+03   -0.29271E+00   -0.51446E-01 20880   0.220E+00    0.792E+00
DAV:  30    -0.504346384090E+03   -0.17365E+00   -0.59789E-01 20144   0.198E+00    0.631E+00
DAV:  31    -0.504419723365E+03   -0.73339E-01   -0.58830E-01 19728   0.212E+00    0.463E+00
DAV:  32    -0.504422755823E+03   -0.30325E-02   -0.86075E-02 18512   0.118E+00    0.425E+00
DAV:  33    -0.504428910266E+03   -0.61544E-02   -0.11598E-01 20720   0.121E+00    0.324E+00
DAV:  34    -0.504430453906E+03   -0.15436E-02   -0.20779E-01 19912   0.111E+00    0.285E+00
DAV:  35    -0.504443973331E+03   -0.13519E-01   -0.30369E-02 17448   0.667E-01    0.262E+00
DAV:  36    -0.504452725369E+03   -0.87520E-02   -0.39378E-02 21288   0.644E-01    0.240E+00
DAV:  37    -0.504457537468E+03   -0.48121E-02   -0.17443E-02 19840   0.407E-01    0.217E+00
DAV:  38    -0.504462578428E+03   -0.50410E-02   -0.77852E-03 19384   0.272E-01    0.211E+00
DAV:  39    -0.504461821960E+03    0.75647E-03   -0.11761E-03 14272   0.117E-01    0.210E+00
DAV:  40    -0.504458955800E+03    0.28662E-02   -0.52459E-03 20328   0.245E-01    0.215E+00
DAV:  41    -0.504456512921E+03    0.24429E-02   -0.20033E-03 20312   0.146E-01    0.213E+00
DAV:  42    -0.504440053795E+03    0.16459E-01   -0.30396E-02 20704   0.387E-01    0.215E+00
DAV:  43    -0.504431078932E+03    0.89749E-02   -0.24093E-02 20552   0.408E-01    0.199E+00
DAV:  44    -0.504432324313E+03   -0.12454E-02   -0.24555E-02 19752   0.405E-01    0.174E+00
DAV:  45    -0.504431862695E+03    0.46162E-03   -0.10640E-02 20848   0.423E-01    0.157E+00
DAV:  46    -0.504433827513E+03   -0.19648E-02   -0.60527E-03 19768   0.276E-01    0.128E+00
DAV:  47    -0.504434304222E+03   -0.47671E-03   -0.54410E-03 20376   0.255E-01    0.925E-01
DAV:  48    -0.504435519594E+03   -0.12154E-02   -0.58956E-03 19112   0.268E-01    0.729E-01
DAV:  49    -0.504437407503E+03   -0.18879E-02   -0.59567E-03 19720   0.241E-01    0.527E-01
DAV:  50    -0.504437730478E+03   -0.32297E-03   -0.22806E-03 19408   0.165E-01    0.415E-01
DAV:  51    -0.504437699815E+03    0.30662E-04   -0.11041E-03 19728   0.141E-01    0.280E-01
DAV:  52    -0.504437798015E+03   -0.98199E-04   -0.46151E-04 19688   0.711E-02    0.214E-01
DAV:  53    -0.504437951655E+03   -0.15364E-03   -0.31048E-04 19944   0.633E-02    0.172E-01
DAV:  54    -0.504438048114E+03   -0.96458E-04   -0.40562E-04 19688   0.665E-02    0.117E-01
DAV:  55    -0.504438086669E+03   -0.38555E-04   -0.15028E-04 17976   0.410E-02    0.101E-01
DAV:  56    -0.504438098371E+03   -0.11702E-04   -0.72800E-05 14048   0.407E-02    0.748E-02
DAV:  57    -0.504438132081E+03   -0.33710E-04   -0.11756E-04 17336   0.305E-02    0.553E-02
DAV:  58    -0.504438139257E+03   -0.71766E-05   -0.20369E-05  9480   0.151E-02
   1 F= -.50443814E+03 E0= -.50444700E+03  d E =-.504438E+03  mag=   101.7065
 curvature:   0.00 expect dE= 0.000E+00 dE for cont linesearch  0.000E+00
 trial: gam= 0.00000 g(F)=  0.397E+00 g(S)=  0.000E+00 ort = 0.000E+00 (trialstep = 0.100E+01)
 search vector abs. value=  0.397E+00
 bond charge predicted
       N       E                     dE             d eps       ncg     rms          rms(c)
DAV:   1    -0.502700811256E+03    0.17373E+01   -0.13023E+02 15287   0.366E+01    0.816E+00
DAV:   2    -0.504595031798E+03   -0.18942E+01   -0.18240E+01 12640   0.848E+00    0.498E+00
DAV:   3    -0.506931963301E+03   -0.23369E+01   -0.48612E+00 22416   0.121E+01    0.184E+01
DAV:   4    -0.504685924450E+03    0.22460E+01   -0.46237E+00 22440   0.118E+01    0.386E+00
DAV:   5    -0.504698324881E+03   -0.12400E-01   -0.22747E-01 19776   0.205E+00    0.250E+00
DAV:   6    -0.504717119051E+03   -0.18794E-01   -0.47635E-02 16152   0.770E-01    0.221E+00
DAV:   7    -0.504749635415E+03   -0.32516E-01   -0.31991E-02 20944   0.958E-01    0.196E+00
DAV:   8    -0.504760183073E+03   -0.10548E-01   -0.23139E-02 21112   0.880E-01    0.173E+00
DAV:   9    -0.504750037108E+03    0.10146E-01   -0.25893E-02 19208   0.904E-01    0.102E+00
DAV:  10    -0.504749961478E+03    0.75630E-04   -0.71161E-03 20544   0.376E-01    0.870E-01
DAV:  11    -0.504750391049E+03   -0.42957E-03   -0.16988E-03 16240   0.154E-01    0.815E-01
DAV:  12    -0.504751899661E+03   -0.15086E-02   -0.29104E-03 21464   0.169E-01    0.784E-01
DAV:  13    -0.504753571670E+03   -0.16720E-02   -0.17794E-03 19760   0.109E-01    0.792E-01
DAV:  14    -0.504753361612E+03    0.21006E-03   -0.22268E-04 13776   0.461E-02    0.792E-01
DAV:  15    -0.504753095276E+03    0.26634E-03   -0.27126E-05 11976   0.140E-02    0.788E-01
DAV:  16    -0.504749560415E+03    0.35349E-02   -0.34026E-03 20616   0.156E-01    0.774E-01
DAV:  17    -0.504747889859E+03    0.16706E-02   -0.17171E-03 20256   0.109E-01    0.774E-01
DAV:  18    -0.504744477095E+03    0.34128E-02   -0.64079E-03 20704   0.236E-01    0.651E-01
DAV:  19    -0.504741195967E+03    0.32811E-02   -0.25349E-02 21024   0.444E-01    0.540E-01
DAV:  20    -0.504741374198E+03   -0.17823E-03   -0.56664E-03 17648   0.175E-01    0.501E-01
DAV:  21    -0.504741289319E+03    0.84879E-04   -0.12287E-03 20712   0.129E-01    0.373E-01
DAV:  22    -0.504741583573E+03   -0.29425E-03   -0.10021E-03 20416   0.130E-01    0.305E-01
DAV:  23    -0.504741675442E+03   -0.91869E-04   -0.69608E-04 17800   0.829E-02    0.245E-01
DAV:  24    -0.504741714974E+03   -0.39532E-04   -0.63511E-04 20040   0.937E-02    0.165E-01
DAV:  25    -0.504741807961E+03   -0.92987E-04   -0.39442E-04 20208   0.745E-02    0.137E-01
DAV:  26    -0.504741858972E+03   -0.51011E-04   -0.18720E-04 17800   0.485E-02    0.119E-01
DAV:  27    -0.504741834057E+03    0.24915E-04   -0.23028E-04 18808   0.755E-02    0.613E-02
DAV:  28    -0.504741856850E+03   -0.22794E-04   -0.89149E-05 15368   0.240E-02    0.558E-02
DAV:  29    -0.504741866763E+03   -0.99126E-05   -0.14413E-05  8712   0.170E-02
   2 F= -.50474187E+03 E0= -.50475044E+03  d E =-.303728E+00  mag=   101.7302
 trial-energy change:   -0.303728  1 .order   -0.302336   -0.397389   -0.207282
 step:   2.0022(harm=  2.0903)  dis= 0.07612  next Energy=  -504.847135 (dE=-0.409E+00)
 bond charge predicted
       N       E                     dE             d eps       ncg     rms          rms(c)
DAV:   1    -0.502812497585E+03    0.19294E+01   -0.13200E+02 15427   0.369E+01    0.816E+00
DAV:   2    -0.504704546332E+03   -0.18920E+01   -0.18338E+01 12696   0.843E+00    0.466E+00
DAV:   3    -0.506817268411E+03   -0.21127E+01   -0.43470E+00 22368   0.113E+01    0.174E+01
DAV:   4    -0.504790569475E+03    0.20267E+01   -0.41855E+00 22400   0.111E+01    0.361E+00
DAV:   5    -0.504814424424E+03   -0.23855E-01   -0.18979E-01 18832   0.179E+00    0.246E+00
DAV:   6    -0.504837966082E+03   -0.23542E-01   -0.43936E-02 18944   0.730E-01    0.224E+00
DAV:   7    -0.504871886321E+03   -0.33920E-01   -0.31174E-02 20192   0.869E-01    0.202E+00
DAV:   8    -0.504876721157E+03   -0.48348E-02   -0.22291E-02 20504   0.874E-01    0.172E+00
DAV:   9    -0.504866375477E+03    0.10346E-01   -0.25965E-02 19096   0.902E-01    0.106E+00
DAV:  10    -0.504866820728E+03   -0.44525E-03   -0.55188E-03 20616   0.298E-01    0.948E-01
DAV:  11    -0.504867765443E+03   -0.94472E-03   -0.18148E-03 18736   0.148E-01    0.883E-01
DAV:  12    -0.504870828799E+03   -0.30634E-02   -0.53046E-03 21080   0.214E-01    0.827E-01
DAV:  13    -0.504874377296E+03   -0.35485E-02   -0.46777E-03 20976   0.190E-01    0.830E-01
DAV:  14    -0.504876275819E+03   -0.18985E-02   -0.15405E-03 20240   0.992E-02    0.828E-01
DAV:  15    -0.504875753991E+03    0.52183E-03   -0.16000E-04 15160   0.432E-02    0.832E-01
DAV:  16    -0.504876212223E+03   -0.45823E-03   -0.30005E-05 11800   0.218E-02    0.825E-01
DAV:  17    -0.504889021707E+03   -0.12809E-01   -0.29867E-02 20600   0.444E-01    0.838E-01
DAV:  18    -0.504887145815E+03    0.18759E-02   -0.20333E-03 15768   0.143E-01    0.856E-01
DAV:  19    -0.504898960466E+03   -0.11815E-01   -0.18461E-02 20736   0.377E-01    0.913E-01
DAV:  20    -0.504901851754E+03   -0.28913E-02   -0.28248E-03 16928   0.123E-01    0.933E-01
DAV:  21    -0.504890641521E+03    0.11210E-01   -0.14828E-02 20264   0.354E-01    0.878E-01
DAV:  22    -0.504883788123E+03    0.68534E-02   -0.10007E-02 19712   0.239E-01    0.827E-01
DAV:  23    -0.504844604791E+03    0.39183E-01   -0.32259E-01 20296   0.141E+00    0.743E-01
DAV:  24    -0.504844638194E+03   -0.33403E-04   -0.35491E-02 15672   0.412E-01    0.728E-01
DAV:  25    -0.504845190157E+03   -0.55196E-03   -0.32470E-03 18688   0.982E-02    0.715E-01
DAV:  26    -0.504846092047E+03   -0.90189E-03   -0.43302E-04 20752   0.510E-02    0.687E-01
DAV:  27    -0.504845431046E+03    0.66100E-03   -0.27997E-04 19968   0.592E-02    0.719E-01
DAV:  28    -0.504848124606E+03   -0.26936E-02   -0.37243E-03 19736   0.142E-01    0.693E-01
DAV:  29    -0.504852479421E+03   -0.43548E-02   -0.99971E-03 19672   0.217E-01    0.728E-01
DAV:  30    -0.504855890570E+03   -0.34111E-02   -0.62167E-03 20104   0.165E-01    0.756E-01
DAV:  31    -0.504866443769E+03   -0.10553E-01   -0.49620E-02 19920   0.509E-01    0.975E-01
DAV:  32    -0.504884301947E+03   -0.17858E-01   -0.88553E-02 19848   0.690E-01    0.126E+00
DAV:  33    -0.504876053410E+03    0.82485E-02   -0.23983E-02 19977   0.494E-01    0.122E+00
DAV:  34    -0.504865638644E+03    0.10415E-01   -0.31582E-02 20472   0.423E-01    0.106E+00
DAV:  35    -0.504842907377E+03    0.22731E-01   -0.17848E-01 20312   0.100E+00    0.772E-01
DAV:  36    -0.504831605787E+03    0.11302E-01   -0.11735E-01 20040   0.671E-01    0.939E-01
DAV:  37    -0.504839365315E+03   -0.77595E-02   -0.38180E-02 20086   0.540E-01    0.783E-01
DAV:  38    -0.504834133771E+03    0.52315E-02   -0.16753E-02 20632   0.326E-01    0.932E-01
DAV:  39    -0.504842506709E+03   -0.83729E-02   -0.32333E-02 20636   0.434E-01    0.665E-01
DAV:  40    -0.504840681226E+03    0.18255E-02   -0.59628E-03 20784   0.207E-01    0.645E-01
DAV:  41    -0.504837192802E+03    0.34884E-02   -0.99236E-03 20248   0.208E-01    0.668E-01
DAV:  42    -0.504835733065E+03    0.14597E-02   -0.20826E-03 19152   0.891E-02    0.695E-01
DAV:  43    -0.504835759476E+03   -0.26412E-04   -0.14873E-04 13720   0.303E-02    0.687E-01
DAV:  44    -0.504840487687E+03   -0.47282E-02   -0.16921E-02 20400   0.285E-01    0.616E-01
DAV:  45    -0.504845179101E+03   -0.46914E-02   -0.19126E-02 19896   0.285E-01    0.656E-01
DAV:  46    -0.504846342439E+03   -0.11633E-02   -0.35103E-03 17600   0.118E-01    0.739E-01
DAV:  47    -0.504847479970E+03   -0.11375E-02   -0.68922E-04 19232   0.486E-02    0.732E-01
DAV:  48    -0.504847557215E+03   -0.77245E-04   -0.14875E-04 17536   0.248E-02    0.759E-01
DAV:  49    -0.504848725280E+03   -0.11681E-02   -0.65226E-04 20168   0.550E-02    0.743E-01
DAV:  50    -0.504848878476E+03   -0.15320E-03   -0.87958E-05 14352   0.220E-02    0.756E-01
DAV:  51    -0.504849114427E+03   -0.23595E-03   -0.36819E-05 12368   0.112E-02    0.754E-01
DAV:  52    -0.504849766117E+03   -0.65169E-03   -0.17497E-04 19232   0.262E-02    0.734E-01
DAV:  53    -0.504850471192E+03   -0.70507E-03   -0.26815E-04 19128   0.344E-02    0.727E-01
DAV:  54    -0.504850618121E+03   -0.14693E-03   -0.54179E-04 19368   0.513E-02    0.786E-01
DAV:  55    -0.504850759222E+03   -0.14110E-03   -0.13567E-04 15064   0.252E-02    0.810E-01
DAV:  56    -0.504850981981E+03   -0.22276E-03   -0.49263E-05 11784   0.114E-02    0.813E-01
DAV:  57    -0.504858674455E+03   -0.76925E-02   -0.19882E-02 20344   0.324E-01    0.759E-01
DAV:  58    -0.504861460277E+03   -0.27858E-02   -0.33333E-03 17360   0.125E-01    0.749E-01
DAV:  59    -0.504856312388E+03    0.51479E-02   -0.65746E-03 19776   0.231E-01    0.765E-01
DAV:  60    -0.504852295555E+03    0.40168E-02   -0.70370E-03 20352   0.182E-01    0.751E-01
DAV:  61    -0.504849891017E+03    0.24045E-02   -0.32944E-03 19792   0.116E-01    0.735E-01
DAV:  62    -0.504844605799E+03    0.52852E-02   -0.97690E-03 20096   0.216E-01    0.789E-01
DAV:  63    -0.504839459302E+03    0.51465E-02   -0.21971E-02 19984   0.311E-01    0.790E-01
DAV:  64    -0.504836593911E+03    0.28654E-02   -0.14046E-02 19848   0.220E-01    0.753E-01
DAV:  65    -0.504829156041E+03    0.74379E-02   -0.46726E-02 20392   0.441E-01    0.814E-01
DAV:  66    -0.504829081235E+03    0.74806E-04   -0.37979E-03 14352   0.154E-01    0.809E-01
DAV:  67    -0.504816783026E+03    0.12298E-01   -0.65915E-02 20344   0.531E-01    0.115E+00
DAV:  68    -0.504821552454E+03   -0.47694E-02   -0.61112E-03 19629   0.226E-01    0.947E-01
DAV:  69    -0.504826168863E+03   -0.46164E-02   -0.10558E-02 20568   0.198E-01    0.788E-01
DAV:  70    -0.504826914942E+03   -0.74608E-03   -0.79307E-04 15456   0.651E-02    0.762E-01
DAV:  71    -0.504830662277E+03   -0.37473E-02   -0.12386E-02 20264   0.216E-01    0.672E-01
DAV:  72    -0.504832159821E+03   -0.14975E-02   -0.22118E-03 18688   0.965E-02    0.627E-01
DAV:  73    -0.504831584001E+03    0.57582E-03   -0.10023E-03 19432   0.812E-02    0.613E-01
DAV:  74    -0.504829615527E+03    0.19685E-02   -0.29959E-03 20328   0.112E-01    0.659E-01
DAV:  75    -0.504831540049E+03   -0.19245E-02   -0.36678E-03 20848   0.141E-01    0.644E-01
DAV:  76    -0.504833737408E+03   -0.21974E-02   -0.39151E-03 20224   0.126E-01    0.606E-01
DAV:  77    -0.504836557733E+03   -0.28203E-02   -0.51716E-03 20112   0.143E-01    0.519E-01
DAV:  78    -0.504836667978E+03   -0.11024E-03   -0.33297E-04 13400   0.481E-02    0.516E-01
DAV:  79    -0.504837330711E+03   -0.66273E-03   -0.40769E-04 19576   0.411E-02    0.509E-01
DAV:  80    -0.504837334736E+03   -0.40252E-05   -0.20878E-05 10608   0.122E-02
   3 F= -.50483733E+03 E0= -.50484558E+03  d E =-.399195E+00  mag=   101.8722
 curvature:  -1.04 expect dE=-0.459E-01 dE for cont linesearch -0.321E-03
 ZBRENT: interpolating
 opt :   1.9513  next Energy=  -504.837617 (dE=-0.399E+00)
 bond charge predicted
       N       E                     dE             d eps       ncg     rms          rms(c)
DAV:   1    -0.504832351232E+03    0.49795E-02   -0.34459E-01 15520   0.188E+00    0.563E-01
DAV:   2    -0.504837804243E+03   -0.54530E-02   -0.49546E-02 12474   0.415E-01    0.481E-01
DAV:   3    -0.504839525855E+03   -0.17216E-02   -0.44034E-03 22424   0.302E-01    0.623E-01
DAV:   4    -0.504838486319E+03    0.10395E-02   -0.37488E-03 21728   0.291E-01    0.443E-01
DAV:   5    -0.504839896103E+03   -0.14098E-02   -0.19729E-03 20720   0.160E-01    0.446E-01
DAV:   6    -0.504840747699E+03   -0.85160E-03   -0.13320E-03 20192   0.117E-01    0.401E-01
DAV:   7    -0.504841286416E+03   -0.53872E-03   -0.62936E-04 20152   0.102E-01    0.433E-01
DAV:   8    -0.504841594582E+03   -0.30817E-03   -0.42033E-04 20216   0.734E-02    0.422E-01
DAV:   9    -0.504841624401E+03   -0.29820E-04   -0.52134E-05 13664   0.207E-02    0.422E-01
DAV:  10    -0.504841656346E+03   -0.31945E-04   -0.34183E-06  8264   0.428E-03    0.422E-01
DAV:  11    -0.504842795131E+03   -0.11388E-02   -0.11765E-03 20416   0.782E-02    0.463E-01
DAV:  12    -0.504842670817E+03    0.12431E-03   -0.75591E-05 13648   0.271E-02    0.465E-01
DAV:  13    -0.504843462611E+03   -0.79179E-03   -0.85140E-04 20736   0.827E-02    0.441E-01
DAV:  14    -0.504845498419E+03   -0.20358E-02   -0.50488E-03 20344   0.165E-01    0.449E-01
DAV:  15    -0.504845883183E+03   -0.38476E-03   -0.49509E-04 14616   0.520E-02    0.452E-01
DAV:  16    -0.504846526415E+03   -0.64323E-03   -0.50367E-04 20048   0.437E-02    0.464E-01
DAV:  17    -0.504844747622E+03    0.17788E-02   -0.23461E-03 20432   0.113E-01    0.437E-01
DAV:  18    -0.504839644962E+03    0.51027E-02   -0.23384E-02 20600   0.333E-01    0.382E-01
DAV:  19    -0.504840666167E+03   -0.10212E-02   -0.14986E-03 14408   0.119E-01    0.359E-01
DAV:  20    -0.504842550047E+03   -0.18839E-02   -0.47409E-03 19368   0.133E-01    0.355E-01
DAV:  21    -0.504843772526E+03   -0.12225E-02   -0.20133E-03 19624   0.912E-02    0.370E-01
DAV:  22    -0.504841511380E+03    0.22611E-02   -0.51674E-03 20272   0.174E-01    0.362E-01
DAV:  23    -0.504841451293E+03    0.60087E-04   -0.32823E-04 14632   0.394E-02    0.356E-01
DAV:  24    -0.504839372397E+03    0.20789E-02   -0.54149E-03 20784   0.164E-01    0.355E-01
DAV:  25    -0.504835359590E+03    0.40128E-02   -0.19292E-02 20432   0.287E-01    0.350E-01
DAV:  26    -0.504835319472E+03    0.40117E-04   -0.17044E-03 14984   0.923E-02    0.355E-01
DAV:  27    -0.504841020088E+03   -0.57006E-02   -0.50453E-02 20320   0.487E-01    0.372E-01
DAV:  28    -0.504843852160E+03   -0.28321E-02   -0.95672E-03 18280   0.200E-01    0.419E-01
DAV:  29    -0.504844237562E+03   -0.38540E-03   -0.10747E-03 14584   0.618E-02    0.408E-01
DAV:  30    -0.504844326608E+03   -0.89045E-04   -0.71411E-05 15008   0.134E-02    0.414E-01
DAV:  31    -0.504845394571E+03   -0.10680E-02   -0.10901E-03 20040   0.694E-02    0.426E-01
DAV:  32    -0.504838733715E+03    0.66609E-02   -0.36811E-02 20536   0.429E-01    0.395E-01
DAV:  33    -0.504837554918E+03    0.11788E-02   -0.70587E-03 18792   0.163E-01    0.367E-01
DAV:  34    -0.504837993349E+03   -0.43843E-03   -0.47806E-04 13484   0.632E-02    0.373E-01
DAV:  35    -0.504840956906E+03   -0.29636E-02   -0.11798E-02 20368   0.230E-01    0.371E-01
DAV:  36    -0.504845576862E+03   -0.46200E-02   -0.28048E-02 20088   0.341E-01    0.411E-01
DAV:  37    -0.504845777246E+03   -0.20038E-03   -0.19024E-03 13928   0.122E-01    0.407E-01
DAV:  38    -0.504845573671E+03    0.20358E-03   -0.23552E-04 17400   0.227E-02    0.404E-01
DAV:  39    -0.504846641999E+03   -0.10683E-02   -0.94628E-04 19904   0.718E-02    0.408E-01
DAV:  40    -0.504855027233E+03   -0.83852E-02   -0.53425E-02 20512   0.506E-01    0.512E-01
DAV:  41    -0.504846601877E+03    0.84254E-02   -0.44714E-02 21048   0.541E-01    0.462E-01
DAV:  42    -0.504843433481E+03    0.31684E-02   -0.13551E-02 19984   0.237E-01    0.440E-01
DAV:  43    -0.504841271954E+03    0.21615E-02   -0.58378E-03 19968   0.146E-01    0.465E-01
DAV:  44    -0.504844572587E+03   -0.33006E-02   -0.96393E-03 20256   0.242E-01    0.419E-01
DAV:  45    -0.504845559927E+03   -0.98734E-03   -0.20599E-03 16880   0.113E-01    0.443E-01
DAV:  46    -0.504836191025E+03    0.93689E-02   -0.71492E-02 20576   0.613E-01    0.434E-01
DAV:  47    -0.504825786098E+03    0.10405E-01   -0.11469E-01 20120   0.668E-01    0.535E-01
DAV:  48    -0.504827032758E+03   -0.12467E-02   -0.10011E-02 15432   0.220E-01    0.501E-01
DAV:  49    -0.504827275957E+03   -0.24320E-03   -0.56210E-04 19216   0.393E-02    0.477E-01
DAV:  50    -0.504827203596E+03    0.72361E-04   -0.32310E-05 12080   0.961E-03    0.478E-01
DAV:  51    -0.504827202752E+03    0.84444E-06   -0.30510E-06  8592   0.456E-03
   4 F= -.50482720E+03 E0= -.50483444E+03  d E =-.389063E+00  mag=   102.2402
 curvature:  -0.91 expect dE=-0.510E-01 dE for cont linesearch -0.409E-02
 ZBRENT: bisectioning
 opt :   1.4757  next Energy=  -504.916533 (dE=-0.478E+00)
 bond charge predicted
       N       E                     dE             d eps       ncg     rms          rms(c)
DAV:   1    -0.504351679327E+03    0.47552E+00   -0.30506E+01 15488   0.174E+01    0.310E+00
DAV:   2    -0.504809743747E+03   -0.45806E+00   -0.43369E+00 12592   0.416E+00    0.270E+00
DAV:   3    -0.505145176505E+03   -0.33543E+00   -0.11613E+00 21304   0.527E+00    0.734E+00
DAV:   4    -0.504807783909E+03    0.33739E+00   -0.90514E-01 22264   0.445E+00    0.169E+00
DAV:   5    -0.504816736254E+03   -0.89523E-02   -0.27233E-02 20616   0.770E-01    0.145E+00
DAV:   6    -0.504822962519E+03   -0.62263E-02   -0.17852E-02 18856   0.723E-01    0.102E+00
DAV:   7    -0.504827765857E+03   -0.48033E-02   -0.96822E-03 19192   0.527E-01    0.611E-01
DAV:   8    -0.504828665502E+03   -0.89964E-03   -0.41133E-03 18904   0.248E-01    0.585E-01
DAV:   9    -0.504828956253E+03   -0.29075E-03   -0.89910E-04 19048   0.998E-02    0.589E-01
DAV:  10    -0.504828976075E+03   -0.19822E-04   -0.11570E-03 20152   0.120E-01    0.487E-01
DAV:  11    -0.504828953358E+03    0.22716E-04   -0.21823E-03 21232   0.196E-01    0.319E-01
DAV:  12    -0.504829455326E+03   -0.50197E-03   -0.12714E-03 19864   0.954E-02    0.306E-01
DAV:  13    -0.504829761721E+03   -0.30639E-03   -0.79523E-04 21168   0.112E-01    0.292E-01
DAV:  14    -0.504830263155E+03   -0.50143E-03   -0.79139E-04 20040   0.714E-02    0.311E-01
DAV:  15    -0.504830680380E+03   -0.41723E-03   -0.58481E-04 19688   0.562E-02    0.323E-01
DAV:  16    -0.504830766979E+03   -0.86599E-04   -0.77548E-04 20640   0.911E-02    0.233E-01
DAV:  17    -0.504830894689E+03   -0.12771E-03   -0.61756E-04 20312   0.711E-02    0.173E-01
DAV:  18    -0.504831102765E+03   -0.20808E-03   -0.74386E-04 19816   0.649E-02    0.144E-01
DAV:  19    -0.504831268475E+03   -0.16571E-03   -0.83776E-04 20104   0.645E-02    0.117E-01
DAV:  20    -0.504831334778E+03   -0.66303E-04   -0.46240E-04 20096   0.522E-02    0.912E-02
DAV:  21    -0.504831354688E+03   -0.19910E-04   -0.10724E-04 15984   0.303E-02    0.764E-02
DAV:  22    -0.504831377278E+03   -0.22590E-04   -0.15053E-04 18560   0.335E-02    0.647E-02
DAV:  23    -0.504831385524E+03   -0.82454E-05   -0.94169E-05 16096   0.225E-02
   5 F= -.50483139E+03 E0= -.50483746E+03  d E =-.393246E+00  mag=   102.8733
 curvature: -19.91 expect dE=-0.985E+00 dE for cont linesearch -0.167E-02
 trial: gam= 0.11002 g(F)=  0.495E-01 g(S)=  0.000E+00 ort = 0.577E-02 (trialstep = 0.110E+01)
 search vector abs. value=  0.556E-01
 bond charge predicted
       N       E                     dE             d eps       ncg     rms          rms(c)
DAV:   1    -0.504636953774E+03    0.19442E+00   -0.19564E+01 13479   0.119E+01    0.235E+00
DAV:   2    -0.504864835986E+03   -0.22788E+00   -0.20520E+00 12734   0.325E+00    0.232E+00
DAV:   3    -0.505002563939E+03   -0.13773E+00   -0.58436E-01 20232   0.389E+00    0.488E+00
DAV:   4    -0.504860009858E+03    0.14255E+00   -0.40637E-01 21728   0.296E+00    0.135E+00
DAV:   5    -0.504869383804E+03   -0.93739E-02   -0.15689E-02 20104   0.630E-01    0.112E+00
DAV:   6    -0.504876032322E+03   -0.66485E-02   -0.15806E-02 20368   0.693E-01    0.817E-01
DAV:   7    -0.504876992884E+03   -0.96056E-03   -0.67511E-03 19128   0.417E-01    0.414E-01
DAV:   8    -0.504876843223E+03    0.14966E-03   -0.22951E-03 19408   0.193E-01    0.332E-01
DAV:   9    -0.504876848560E+03   -0.53373E-05   -0.54884E-04 16736   0.782E-02    0.317E-01
DAV:  10    -0.504876663996E+03    0.18456E-03   -0.63215E-04 20344   0.914E-02    0.236E-01
DAV:  11    -0.504876618060E+03    0.45936E-04   -0.11543E-03 20208   0.100E-01    0.177E-01
DAV:  12    -0.504876641065E+03   -0.23005E-04   -0.18375E-04 15896   0.437E-02    0.157E-01
DAV:  13    -0.504876700420E+03   -0.59355E-04   -0.20084E-04 18792   0.409E-02    0.116E-01
DAV:  14    -0.504876777077E+03   -0.76657E-04   -0.25399E-04 19592   0.410E-02    0.891E-02
DAV:  15    -0.504876793966E+03   -0.16889E-04   -0.37186E-05 12632   0.215E-02    0.830E-02
DAV:  16    -0.504876792066E+03    0.19000E-05   -0.21696E-05  9480   0.227E-02
   6 F= -.50487679E+03 E0= -.50488313E+03  d E =-.454065E-01  mag=   103.0310
 trial-energy change:   -0.045407  1 .order   -0.044818   -0.054892   -0.034744
 step:   2.4517(harm=  2.9836)  dis= 0.04902  next Energy=  -504.899430 (dE=-0.680E-01)
 bond charge predicted
       N       E                     dE             d eps       ncg     rms          rms(c)
DAV:   1    -0.504533567134E+03    0.34323E+00   -0.30040E+01 13455   0.148E+01    0.294E+00
DAV:   2    -0.504884579152E+03   -0.35101E+00   -0.31701E+00 12742   0.408E+00    0.282E+00
DAV:   3    -0.505112286260E+03   -0.22771E+00   -0.89077E-01 20384   0.492E+00    0.617E+00
DAV:   4    -0.504878972854E+03    0.23331E+00   -0.64694E-01 21856   0.375E+00    0.165E+00
DAV:   5    -0.504894054927E+03   -0.15082E-01   -0.23830E-02 20008   0.758E-01    0.138E+00
DAV:   6    -0.504903152338E+03   -0.90974E-02   -0.23077E-02 20160   0.859E-01    0.974E-01
DAV:   7    -0.504905538691E+03   -0.23864E-02   -0.92189E-03 19288   0.476E-01    0.539E-01
DAV:   8    -0.504905218734E+03    0.31996E-03   -0.34366E-03 19368   0.250E-01    0.389E-01
DAV:   9    -0.504905245852E+03   -0.27117E-04   -0.78564E-04 18712   0.990E-02    0.381E-01
DAV:  10    -0.504904984402E+03    0.26145E-03   -0.69176E-04 19536   0.979E-02    0.297E-01
DAV:  11    -0.504904742493E+03    0.24191E-03   -0.18290E-03 20336   0.132E-01    0.196E-01
DAV:  12    -0.504904762355E+03   -0.19862E-04   -0.29396E-04 16200   0.540E-02    0.168E-01
DAV:  13    -0.504904808511E+03   -0.46156E-04   -0.17323E-04 18560   0.407E-02    0.125E-01
DAV:  14    -0.504904878734E+03   -0.70223E-04   -0.25513E-04 19536   0.445E-02    0.846E-02
DAV:  15    -0.504904896816E+03   -0.18081E-04   -0.42033E-05 12848   0.273E-02    0.776E-02
DAV:  16    -0.504904895795E+03    0.10206E-05   -0.16297E-05  8408   0.197E-02
   7 F= -.50490490E+03 E0= -.50491167E+03  d E =-.735103E-01  mag=   103.1876
 curvature:  -1.52 expect dE=-0.217E-01 dE for cont linesearch -0.193E-02
 ZBRENT: extrapolating
 opt :   2.9398  next Energy=  -504.906944 (dE=-0.756E-01)
 bond charge predicted
       N       E                     dE             d eps       ncg     rms          rms(c)
DAV:   1    -0.504860337037E+03    0.44560E-01   -0.38960E+00 13478   0.533E+00    0.103E+00
DAV:   2    -0.504902267526E+03   -0.41930E-01   -0.39348E-01 12540   0.136E+00    0.789E-01
DAV:   3    -0.504936326286E+03   -0.34059E-01   -0.10431E-01 21896   0.159E+00    0.226E+00
DAV:   4    -0.504903485617E+03    0.32841E-01   -0.86586E-02 22448   0.138E+00    0.570E-01
DAV:   5    -0.504906189381E+03   -0.27038E-02   -0.31414E-03 19456   0.247E-01    0.434E-01
DAV:   6    -0.504907196917E+03   -0.10075E-02   -0.25006E-03 20296   0.293E-01    0.309E-01
DAV:   7    -0.504907153621E+03    0.43297E-04   -0.10662E-03 19208   0.183E-01    0.165E-01
DAV:   8    -0.504907128046E+03    0.25575E-04   -0.30662E-04 19024   0.758E-02    0.138E-01
DAV:   9    -0.504907120740E+03    0.73053E-05   -0.98995E-05 15264   0.361E-02
   8 F= -.50490712E+03 E0= -.50491410E+03  d E =-.757352E-01  mag=   103.2190
 curvature:  -1.62 expect dE=-0.243E-01 dE for cont linesearch -0.648E-04
 trial: gam= 0.17430 g(F)=  0.150E-01 g(S)=  0.000E+00 ort = 0.149E-02 (trialstep = 0.146E+01)
 search vector abs. value=  0.172E-01
 bond charge predicted
       N       E                     dE             d eps       ncg     rms          rms(c)
DAV:   1    -0.504776881323E+03    0.13025E+00   -0.11456E+01 14633   0.980E+00    0.167E+00
DAV:   2    -0.504912109194E+03   -0.13523E+00   -0.12952E+00 12584   0.241E+00    0.129E+00
DAV:   3    -0.504997773575E+03   -0.85664E-01   -0.26851E-01 21520   0.256E+00    0.357E+00
DAV:   4    -0.504915243281E+03    0.82530E-01   -0.22361E-01 22456   0.222E+00    0.978E-01
DAV:   5    -0.504919860793E+03   -0.46175E-02   -0.78460E-03 20872   0.420E-01    0.878E-01
DAV:   6    -0.504922821465E+03   -0.29607E-02   -0.68425E-03 19376   0.455E-01    0.480E-01
DAV:   7    -0.504924041031E+03   -0.12196E-02   -0.31798E-03 19256   0.261E-01    0.313E-01
DAV:   8    -0.504924295078E+03   -0.25405E-03   -0.78926E-04 19416   0.965E-02    0.345E-01
DAV:   9    -0.504924308098E+03   -0.13020E-04   -0.37172E-04 17384   0.729E-02    0.286E-01
DAV:  10    -0.504924356608E+03   -0.48510E-04   -0.18645E-03 21448   0.168E-01    0.176E-01
DAV:  11    -0.504924426035E+03   -0.69427E-04   -0.48186E-04 18712   0.613E-02    0.160E-01
DAV:  12    -0.504924401008E+03    0.25027E-04   -0.15072E-04 18280   0.519E-02    0.113E-01
DAV:  13    -0.504924437734E+03   -0.36726E-04   -0.17051E-04 14496   0.547E-02    0.906E-02
DAV:  14    -0.504924478143E+03   -0.40408E-04   -0.13821E-04 17232   0.287E-02    0.936E-02
DAV:  15    -0.504924473174E+03    0.49686E-05   -0.24600E-05  9440   0.249E-02
   9 F= -.50492447E+03 E0= -.50493105E+03  d E =-.173524E-01  mag=   103.3374
 trial-energy change:   -0.017352  1 .order   -0.017200   -0.022394   -0.012005
 step:   2.9040(harm=  3.1560)  dis= 0.02662  next Energy=  -504.930522 (dE=-0.234E-01)
 bond charge predicted
       N       E                     dE             d eps       ncg     rms          rms(c)
DAV:   1    -0.504788660662E+03    0.13582E+00   -0.11137E+01 14574   0.961E+00    0.165E+00
DAV:   2    -0.504919492190E+03   -0.13083E+00   -0.12481E+00 12592   0.238E+00    0.129E+00
DAV:   3    -0.505007125747E+03   -0.87634E-01   -0.27785E-01 21208   0.264E+00    0.361E+00
DAV:   4    -0.504922202957E+03    0.84923E-01   -0.22252E-01 22496   0.224E+00    0.936E-01
DAV:   5    -0.504927272204E+03   -0.50692E-02   -0.76590E-03 20944   0.416E-01    0.842E-01
DAV:   6    -0.504929796663E+03   -0.25245E-02   -0.66476E-03 19472   0.463E-01    0.458E-01
DAV:   7    -0.504930944796E+03   -0.11481E-02   -0.28485E-03 19032   0.246E-01    0.273E-01
DAV:   8    -0.504931141217E+03   -0.19642E-03   -0.69754E-04 19408   0.931E-02    0.298E-01
DAV:   9    -0.504931138238E+03    0.29791E-05   -0.30304E-04 17096   0.705E-02    0.245E-01
DAV:  10    -0.504931142369E+03   -0.41308E-05   -0.12706E-03 21416   0.142E-01    0.155E-01
DAV:  11    -0.504931197727E+03   -0.55358E-04   -0.34099E-04 18504   0.527E-02    0.145E-01
DAV:  12    -0.504931182824E+03    0.14902E-04   -0.93632E-05 16728   0.433E-02    0.105E-01
DAV:  13    -0.504931203270E+03   -0.20446E-04   -0.14595E-04 12296   0.569E-02    0.743E-02
DAV:  14    -0.504931240736E+03   -0.37466E-04   -0.13327E-04 16952   0.257E-02    0.798E-02
DAV:  15    -0.504931234433E+03    0.63027E-05   -0.18587E-05  7648   0.237E-02
  10 F= -.50493123E+03 E0= -.50493746E+03  d E =-.241137E-01  mag=   103.4149
 curvature:  -1.74 expect dE=-0.851E-02 dE for cont linesearch -0.902E-04
 trial: gam= 0.22481 g(F)=  0.489E-02 g(S)=  0.000E+00 ort = 0.945E-03 (trialstep = 0.175E+01)
 search vector abs. value=  0.619E-02
 bond charge predicted
       N       E                     dE             d eps       ncg     rms          rms(c)
DAV:   1    -0.504853052338E+03    0.78188E-01   -0.57678E+00 14158   0.679E+00    0.135E+00
DAV:   2    -0.504928404307E+03   -0.75352E-01   -0.71992E-01 12576   0.155E+00    0.884E-01
DAV:   3    -0.504945465432E+03   -0.17061E-01   -0.49483E-02 22320   0.963E-01    0.152E+00
DAV:   4    -0.504934486113E+03    0.10979E-01   -0.52555E-02 21912   0.110E+00    0.864E-01
DAV:   5    -0.504937224398E+03   -0.27383E-02   -0.50949E-03 20440   0.361E-01    0.574E-01
DAV:   6    -0.504938001895E+03   -0.77750E-03   -0.37462E-03 20752   0.364E-01    0.303E-01
DAV:   7    -0.504938268804E+03   -0.26691E-03   -0.13019E-03 18536   0.173E-01    0.171E-01
DAV:   8    -0.504938263414E+03    0.53906E-05   -0.25458E-04 16536   0.622E-02    0.159E-01
DAV:   9    -0.504938258200E+03    0.52140E-05   -0.87560E-05 14968   0.352E-02
  11 F= -.50493826E+03 E0= -.50494424E+03  d E =-.702377E-02  mag=   103.4339
 trial-energy change:   -0.007024  1 .order   -0.007417   -0.008947   -0.005888
 step:   5.1240(harm=  5.1240)  dis= 0.03699  next Energy=  -504.944317 (dE=-0.131E-01)
 bond charge predicted
       N       E                     dE             d eps       ncg     rms          rms(c)
DAV:   1    -0.504625244062E+03    0.31302E+00   -0.21484E+01 14032   0.130E+01    0.270E+00
DAV:   2    -0.504903166951E+03   -0.27792E+00   -0.26565E+00 12576   0.305E+00    0.174E+00
DAV:   3    -0.504920775122E+03   -0.17608E-01   -0.80174E-02 21208   0.677E-01    0.141E+00
DAV:   4    -0.504940102393E+03   -0.19327E-01   -0.36107E-02 22256   0.969E-01    0.178E+00
DAV:   5    -0.504961395867E+03   -0.21293E-01   -0.15680E-01 22072   0.188E+00    0.231E+00
DAV:   6    -0.504936790218E+03    0.24606E-01   -0.74305E-02 22000   0.137E+00    0.817E-01
DAV:   7    -0.504940749825E+03   -0.39596E-02   -0.83794E-03 18600   0.373E-01    0.374E-01
DAV:   8    -0.504940746368E+03    0.34573E-05   -0.16307E-03 17944   0.149E-01    0.341E-01
DAV:   9    -0.504940598328E+03    0.14804E-03   -0.45126E-04 19312   0.826E-02    0.295E-01
DAV:  10    -0.504940374461E+03    0.22387E-03   -0.86628E-04 19832   0.101E-01    0.201E-01
DAV:  11    -0.504940327821E+03    0.46640E-04   -0.82632E-04 19288   0.803E-02    0.151E-01
DAV:  12    -0.504940352139E+03   -0.24318E-04   -0.17249E-04 17840   0.450E-02    0.129E-01
DAV:  13    -0.504940365858E+03   -0.13719E-04   -0.91038E-05 12408   0.489E-02    0.917E-02
DAV:  14    -0.504940419036E+03   -0.53178E-04   -0.10715E-04 16400   0.314E-02    0.959E-02
DAV:  15    -0.504940408212E+03    0.10825E-04   -0.43867E-05  9416   0.332E-02    0.632E-02
DAV:  16    -0.504940414162E+03   -0.59503E-05   -0.48385E-05  7576   0.348E-02
  12 F= -.50494041E+03 E0= -.50494589E+03  d E =-.917973E-02  mag=   103.4848
 curvature:  -3.11 expect dE=-0.154E-01 dE for cont linesearch -0.131E-02
 ZBRENT: interpolating
 opt :   4.0299  next Energy=  -504.941297 (dE=-0.101E-01)
 bond charge predicted
       N       E                     dE             d eps       ncg     rms          rms(c)
DAV:   1    -0.504908075108E+03    0.32333E-01   -0.22862E+00 14087   0.424E+00    0.833E-01
DAV:   2    -0.504938000044E+03   -0.29925E-01   -0.28196E-01 12582   0.977E-01    0.625E-01
DAV:   3    -0.504959888794E+03   -0.21889E-01   -0.65229E-02 21304   0.126E+00    0.180E+00
DAV:   4    -0.504939008465E+03    0.20880E-01   -0.51412E-02 22360   0.110E+00    0.467E-01
DAV:   5    -0.504941100667E+03   -0.20922E-02   -0.24343E-03 19096   0.216E-01    0.271E-01
DAV:   6    -0.504941568276E+03   -0.46761E-03   -0.10545E-03 20208   0.172E-01    0.203E-01
DAV:   7    -0.504941415829E+03    0.15245E-03   -0.72936E-04 19480   0.161E-01    0.115E-01
DAV:   8    -0.504941418942E+03   -0.31138E-05   -0.10559E-04 14344   0.376E-02    0.109E-01
DAV:   9    -0.504941389827E+03    0.29115E-04   -0.31620E-05 10488   0.306E-02    0.847E-02
DAV:  10    -0.504941354034E+03    0.35793E-04   -0.18044E-04 17648   0.437E-02    0.493E-02
DAV:  11    -0.504941353637E+03    0.39666E-06   -0.51425E-05 11048   0.189E-02
  13 F= -.50494135E+03 E0= -.50494698E+03  d E =-.101192E-01  mag=   103.4734
 curvature:  -2.10 expect dE=-0.584E-02 dE for cont linesearch -0.221E-04
 trial: gam= 0.64152 g(F)=  0.278E-02 g(S)=  0.000E+00 ort =-0.255E-03 (trialstep = 0.221E+01)
 search vector abs. value=  0.500E-02
 bond charge predicted
       N       E                     dE             d eps       ncg     rms          rms(c)
DAV:   1    -0.504843069610E+03    0.98284E-01   -0.73185E+00 13984   0.768E+00    0.146E+00
DAV:   2    -0.504934141412E+03   -0.91072E-01   -0.86922E-01 12640   0.181E+00    0.956E-01
DAV:   3    -0.504954364314E+03   -0.20223E-01   -0.57884E-02 22408   0.107E+00    0.164E+00
DAV:   4    -0.504941438969E+03    0.12925E-01   -0.61368E-02 22112   0.120E+00    0.935E-01
DAV:   5    -0.504944665012E+03   -0.32260E-02   -0.60135E-03 20632   0.384E-01    0.626E-01
DAV:   6    -0.504945518480E+03   -0.85347E-03   -0.44647E-03 20664   0.403E-01    0.317E-01
DAV:   7    -0.504945817674E+03   -0.29919E-03   -0.15274E-03 18584   0.188E-01    0.181E-01
DAV:   8    -0.504945794556E+03    0.23118E-04   -0.28525E-04 17072   0.704E-02    0.162E-01
DAV:   9    -0.504945757075E+03    0.37481E-04   -0.10020E-04 15688   0.353E-02    0.147E-01
DAV:  10    -0.504945656274E+03    0.10080E-03   -0.34275E-04 19656   0.563E-02    0.921E-02
DAV:  11    -0.504945637109E+03    0.19166E-04   -0.15792E-04 17464   0.435E-02    0.667E-02
DAV:  12    -0.504945645405E+03   -0.82963E-05   -0.28749E-05  9840   0.182E-02
  14 F= -.50494565E+03 E0= -.50495110E+03  d E =-.429177E-02  mag=   103.4939
 trial-energy change:   -0.004292  1 .order   -0.004357   -0.005778   -0.002936
 step:   5.7719(harm=  4.4874)  dis= 0.03195  next Energy=  -504.947740 (dE=-0.639E-02)
 bond charge predicted
       N       E                     dE             d eps       ncg     rms          rms(c)
DAV:   1    -0.504676733808E+03    0.26890E+00   -0.19133E+01 13936   0.124E+01    0.243E+00
DAV:   2    -0.504919437106E+03   -0.24270E+00   -0.22812E+00 12576   0.306E+00    0.182E+00
DAV:   3    -0.505108535175E+03   -0.18910E+00   -0.53357E-01 21648   0.372E+00    0.525E+00
DAV:   4    -0.504927986742E+03    0.18055E+00   -0.47361E-01 22480   0.330E+00    0.136E+00
DAV:   5    -0.504939643511E+03   -0.11657E-01   -0.15001E-02 20184   0.571E-01    0.107E+00
DAV:   6    -0.504944628936E+03   -0.49854E-02   -0.12431E-02 20472   0.674E-01    0.722E-01
DAV:   7    -0.504946156718E+03   -0.15278E-02   -0.66337E-03 18848   0.417E-01    0.312E-01
DAV:   8    -0.504946183158E+03   -0.26439E-04   -0.13000E-03 14904   0.119E-01    0.281E-01
DAV:   9    -0.504946104520E+03    0.78638E-04   -0.31567E-04 19480   0.671E-02    0.262E-01
DAV:  10    -0.504945858665E+03    0.24585E-03   -0.59773E-04 20280   0.917E-02    0.170E-01
DAV:  11    -0.504945775497E+03    0.83168E-04   -0.64364E-04 19512   0.870E-02    0.133E-01
DAV:  12    -0.504945792104E+03   -0.16607E-04   -0.11435E-04 14920   0.388E-02    0.122E-01
DAV:  13    -0.504945803706E+03   -0.11602E-04   -0.61589E-05 13200   0.358E-02    0.816E-02
DAV:  14    -0.504945833324E+03   -0.29618E-04   -0.91784E-05 16128   0.283E-02    0.537E-02
DAV:  15    -0.504945842291E+03   -0.89665E-05   -0.14930E-05  7720   0.146E-02
  15 F= -.50494584E+03 E0= -.50495115E+03  d E =-.448865E-02  mag=   103.5201
 curvature:  -2.93 expect dE=-0.737E-02 dE for cont linesearch -0.866E-03
 ZBRENT: interpolating
 opt :   4.0687  next Energy=  -504.946879 (dE=-0.553E-02)
 bond charge predicted
       N       E                     dE             d eps       ncg     rms          rms(c)
DAV:   1    -0.504885624787E+03    0.60209E-01   -0.43987E+00 14002   0.593E+00    0.112E+00
DAV:   2    -0.504939944394E+03   -0.54320E-01   -0.51897E-01 12640   0.139E+00    0.727E-01
DAV:   3    -0.504945428887E+03   -0.54845E-02   -0.17813E-02 22432   0.485E-01    0.822E-01
DAV:   4    -0.504946518314E+03   -0.10894E-02   -0.22890E-02 21888   0.752E-01    0.887E-01
DAV:   5    -0.504946465506E+03    0.52807E-04   -0.69313E-03 21096   0.406E-01    0.268E-01
DAV:   6    -0.504947012350E+03   -0.54684E-03   -0.15615E-03 18928   0.156E-01    0.172E-01
DAV:   7    -0.504946974669E+03    0.37681E-04   -0.41332E-04 18512   0.117E-01    0.144E-01
DAV:   8    -0.504946938844E+03    0.35825E-04   -0.74064E-05 14784   0.479E-02    0.126E-01
DAV:   9    -0.504946885069E+03    0.53775E-04   -0.86864E-05 16040   0.320E-02    0.103E-01
DAV:  10    -0.504946814294E+03    0.70775E-04   -0.19760E-04 18864   0.451E-02    0.573E-02
DAV:  11    -0.504946809012E+03    0.52815E-05   -0.58003E-05 12264   0.205E-02
  16 F= -.50494681E+03 E0= -.50495218E+03  d E =-.545538E-02  mag=   103.5076
 curvature:  -3.50 expect dE=-0.414E-02 dE for cont linesearch -0.124E-04
 trial: gam= 0.35449 g(F)=  0.118E-02 g(S)=  0.000E+00 ort =-0.133E-03 (trialstep = 0.258E+01)
 search vector abs. value=  0.172E-02
 bond charge predicted
       N       E                     dE             d eps       ncg     rms          rms(c)
DAV:   1    -0.504916453135E+03    0.30361E-01   -0.29489E+00 12675   0.438E+00    0.900E-01
DAV:   2    -0.504943572551E+03   -0.27119E-01   -0.25049E-01 12656   0.118E+00    0.637E-01
DAV:   3    -0.504953179424E+03   -0.96069E-02   -0.23573E-02 22416   0.740E-01    0.115E+00
DAV:   4    -0.504946564033E+03    0.66154E-02   -0.27013E-02 21928   0.799E-01    0.578E-01
DAV:   5    -0.504948723191E+03   -0.21592E-02   -0.36357E-03 19304   0.288E-01    0.283E-01
DAV:   6    -0.504948907287E+03   -0.18410E-03   -0.12420E-03 20008   0.205E-01    0.202E-01
DAV:   7    -0.504948767990E+03    0.13930E-03   -0.54676E-04 18624   0.131E-01    0.118E-01
DAV:   8    -0.504948753563E+03    0.14427E-04   -0.90629E-05 14384   0.386E-02    0.105E-01
DAV:   9    -0.504948731920E+03    0.21643E-04   -0.41022E-05  9752   0.248E-02    0.941E-02
DAV:  10    -0.504948677997E+03    0.53923E-04   -0.18680E-04 17992   0.478E-02    0.518E-02
DAV:  11    -0.504948675114E+03    0.28829E-05   -0.32338E-05  8576   0.210E-02
  17 F= -.50494868E+03 E0= -.50495400E+03  d E =-.186610E-02  mag=   103.5283
 trial-energy change:   -0.001866  1 .order   -0.001878   -0.002931   -0.000824
 step:   3.5886(harm=  3.5886)  dis= 0.01134  next Energy=  -504.948848 (dE=-0.204E-02)
 bond charge predicted
       N       E                     dE             d eps       ncg     rms          rms(c)
DAV:   1    -0.504943907962E+03    0.47700E-02   -0.45123E-01 12685   0.171E+00    0.359E-01
DAV:   2    -0.504948282859E+03   -0.43749E-02   -0.38232E-02 12796   0.492E-01    0.354E-01
DAV:   3    -0.504950618998E+03   -0.23361E-02   -0.10679E-02 19072   0.550E-01    0.646E-01
DAV:   4    -0.504948332201E+03    0.22868E-02   -0.69327E-03 21416   0.405E-01    0.213E-01
DAV:   5    -0.504948863084E+03   -0.53088E-03   -0.10521E-03 20328   0.162E-01    0.190E-01
DAV:   6    -0.504948789139E+03    0.73945E-04   -0.45528E-04 19792   0.115E-01    0.969E-02
DAV:   7    -0.504948772425E+03    0.16714E-04   -0.10765E-04 15776   0.544E-02    0.594E-02
DAV:   8    -0.504948774240E+03   -0.18152E-05   -0.26595E-05  9664   0.215E-02
  18 F= -.50494877E+03 E0= -.50495409E+03  d E =-.196523E-02  mag=   103.5338
 curvature:  -2.71 expect dE=-0.119E-02 dE for cont linesearch -0.778E-06
 trial: gam= 0.37314 g(F)=  0.437E-03 g(S)=  0.000E+00 ort = 0.222E-04 (trialstep = 0.278E+01)
 search vector abs. value=  0.693E-03
 bond charge predicted
       N       E                     dE             d eps       ncg     rms          rms(c)
DAV:   1    -0.504935397762E+03    0.13375E-01   -0.13439E+00 12633   0.285E+00    0.641E-01
DAV:   2    -0.504946900132E+03   -0.11502E-01   -0.10186E-01 12662   0.763E-01    0.508E-01
DAV:   3    -0.504958596832E+03   -0.11697E-01   -0.32221E-02 20840   0.912E-01    0.133E+00
DAV:   4    -0.504947828299E+03    0.10769E-01   -0.27902E-02 22320   0.821E-01    0.380E-01
DAV:   5    -0.504949341383E+03   -0.15131E-02   -0.18949E-03 20632   0.205E-01    0.267E-01
DAV:   6    -0.504949616992E+03   -0.27561E-03   -0.83447E-04 19944   0.176E-01    0.208E-01
DAV:   7    -0.504949429525E+03    0.18747E-03   -0.57070E-04 18856   0.134E-01    0.973E-02
DAV:   8    -0.504949436436E+03   -0.69110E-05   -0.81345E-05 13720   0.290E-02
  19 F= -.50494944E+03 E0= -.50495467E+03  d E =-.662196E-03  mag=   103.5373
 trial-energy change:   -0.000662  1 .order   -0.000834   -0.001238   -0.000431
 step:   4.2642(harm=  4.2642)  dis= 0.00770  next Energy=  -504.949723 (dE=-0.949E-03)
 bond charge predicted
       N       E                     dE             d eps       ncg     rms          rms(c)
DAV:   1    -0.504945411647E+03    0.40179E-02   -0.38177E-01 12639   0.152E+00    0.347E-01
DAV:   2    -0.504948604855E+03   -0.31932E-02   -0.28877E-02 12688   0.403E-01    0.271E-01
DAV:   3    -0.504950618851E+03   -0.20140E-02   -0.50364E-03 22288   0.354E-01    0.549E-01
DAV:   4    -0.504948997325E+03    0.16215E-02   -0.56335E-03 21888   0.366E-01    0.244E-01
DAV:   5    -0.504949336561E+03   -0.33924E-03   -0.67937E-04 20424   0.134E-01    0.156E-01
DAV:   6    -0.504949355742E+03   -0.19181E-04   -0.29936E-04 19368   0.100E-01    0.105E-01
DAV:   7    -0.504949343291E+03    0.12451E-04   -0.87680E-05 15096   0.508E-02    0.845E-02
DAV:   8    -0.504949333307E+03    0.99837E-05   -0.25274E-05  7912   0.282E-02
  20 F= -.50494933E+03 E0= -.50495454E+03  d E =-.559067E-03  mag=   103.5394
 curvature:  -3.32 expect dE=-0.888E-03 dE for cont linesearch -0.539E-05
 trial: gam= 0.67874 g(F)=  0.268E-03 g(S)=  0.000E+00 ort =-0.336E-04 (trialstep = 0.308E+01)
 search vector abs. value=  0.541E-03
 bond charge predicted
       N       E                     dE             d eps       ncg     rms          rms(c)
DAV:   1    -0.504936198195E+03    0.13145E-01   -0.12681E+00 12606   0.278E+00    0.633E-01
DAV:   2    -0.504947765060E+03   -0.11567E-01   -0.97070E-02 12864   0.767E-01    0.620E-01
DAV:   3    -0.504954403423E+03   -0.66384E-02   -0.30179E-02 18840   0.922E-01    0.110E+00
DAV:   4    -0.504948112920E+03    0.62905E-02   -0.18574E-02 21872   0.672E-01    0.374E-01
DAV:   5    -0.504949651413E+03   -0.15385E-02   -0.23723E-03 20351   0.235E-01    0.288E-01
DAV:   6    -0.504949646928E+03    0.44847E-05   -0.92525E-04 19896   0.172E-01    0.182E-01
DAV:   7    -0.504949569853E+03    0.77075E-04   -0.33526E-04 18952   0.102E-01    0.102E-01
DAV:   8    -0.504949571484E+03   -0.16310E-05   -0.73839E-05 13520   0.319E-02
  21 F= -.50494957E+03 E0= -.50495468E+03  d E =-.238177E-03  mag=   103.5575
 trial-energy change:   -0.000238  1 .order   -0.000474   -0.000754   -0.000194
 step:   4.1454(harm=  4.1454)  dis= 0.00688  next Energy=  -504.949841 (dE=-0.508E-03)
 bond charge predicted
       N       E                     dE             d eps       ncg     rms          rms(c)
DAV:   1    -0.504947897595E+03    0.16723E-02   -0.15252E-01 12640   0.969E-01    0.228E-01
DAV:   2    -0.504949170079E+03   -0.12725E-02   -0.11671E-02 12738   0.249E-01    0.178E-01
DAV:   3    -0.504949811027E+03   -0.64095E-03   -0.15215E-03 20520   0.190E-01    0.316E-01
DAV:   4    -0.504949301658E+03    0.50937E-03   -0.15155E-03 15720   0.194E-01    0.152E-01
DAV:   5    -0.504949484703E+03   -0.18305E-03   -0.21674E-04 18552   0.687E-02    0.105E-01
DAV:   6    -0.504949487884E+03   -0.31815E-05   -0.12228E-04 17536   0.662E-02    0.736E-02
DAV:   7    -0.504949483952E+03    0.39318E-05   -0.29140E-05  9048   0.339E-02
  22 F= -.50494948E+03 E0= -.50495456E+03  d E =-.150645E-03  mag=   103.5667
 curvature:  -4.58 expect dE=-0.840E-03 dE for cont linesearch -0.112E-04
 trial: gam= 0.38357 g(F)=  0.183E-03 g(S)=  0.000E+00 ort =-0.364E-04 (trialstep = 0.329E+01)
 search vector abs. value=  0.235E-03
 bond charge predicted
       N       E                     dE             d eps       ncg     rms          rms(c)
DAV:   1    -0.504940556538E+03    0.89313E-02   -0.66710E-01 13364   0.235E+00    0.461E-01
DAV:   2    -0.504948648352E+03   -0.80918E-02   -0.75298E-02 12652   0.584E-01    0.346E-01
DAV:   3    -0.504955112621E+03   -0.64643E-02   -0.18512E-02 21408   0.690E-01    0.985E-01
DAV:   4    -0.504948941235E+03    0.61714E-02   -0.14577E-02 22440   0.590E-01    0.255E-01
DAV:   5    -0.504949710620E+03   -0.76938E-03   -0.92990E-04 19720   0.141E-01    0.196E-01
DAV:   6    -0.504949731589E+03   -0.20969E-04   -0.42339E-04 19256   0.106E-01    0.107E-01
DAV:   7    -0.504949712563E+03    0.19026E-04   -0.10754E-04 15816   0.590E-02    0.786E-02
DAV:   8    -0.504949707798E+03    0.47643E-05   -0.24875E-05  8952   0.248E-02
  23 F= -.50494971E+03 E0= -.50495474E+03  d E =-.223846E-03  mag=   103.5751
 trial-energy change:   -0.000224  1 .order   -0.000325   -0.000558   -0.000093
 step:   3.9492(harm=  3.9492)  dis= 0.00376  next Energy=  -504.949819 (dE=-0.335E-03)
 bond charge predicted
       N       E                     dE             d eps       ncg     rms          rms(c)
DAV:   1    -0.504949312560E+03    0.40000E-03   -0.26756E-02 13415   0.476E-01    0.105E-01
DAV:   2    -0.504949705927E+03   -0.39337E-03   -0.31930E-03 15480   0.152E-01    0.144E-01
DAV:   3    -0.504949715844E+03   -0.99168E-05   -0.81008E-04 18792   0.149E-01    0.139E-01
DAV:   4    -0.504949636916E+03    0.78928E-04   -0.23818E-04  9925   0.806E-02    0.792E-02
DAV:   5    -0.504949657561E+03   -0.20645E-04   -0.27084E-05  9680   0.262E-02    0.802E-02
DAV:   6    -0.504949663783E+03   -0.62223E-05   -0.48166E-05 11264   0.371E-02
  24 F= -.50494966E+03 E0= -.50495468E+03  d E =-.179831E-03  mag=   103.5779
 curvature:  -2.74 expect dE=-0.349E-03 dE for cont linesearch -0.298E-04
 ZBRENT: interpolating
 opt :   3.5272  next Energy=  -504.949711 (dE=-0.227E-03)
 bond charge predicted
       N       E                     dE             d eps       ncg     rms          rms(c)
DAV:   1    -0.504949526130E+03    0.13143E-03   -0.10948E-02 13348   0.300E-01    0.747E-02
DAV:   2    -0.504949801088E+03   -0.27496E-03   -0.15473E-03 19528   0.123E-01    0.154E-01
DAV:   3    -0.504949679807E+03    0.12128E-03   -0.63389E-04 17904   0.131E-01    0.758E-02
DAV:   4    -0.504949676465E+03    0.33418E-05   -0.48735E-05  9504   0.378E-02
  25 F= -.50494968E+03 E0= -.50495469E+03  d E =-.192513E-03  mag=   103.5779
 curvature:  -0.31 expect dE=-0.316E-04 dE for cont linesearch -0.559E-06
 ZBRENT: bisectioning
 opt :   3.7382  next Energy=  -504.949680 (dE=-0.196E-03)
 bond charge predicted
       N       E                     dE             d eps       ncg     rms          rms(c)
DAV:   1    -0.504949649939E+03    0.29868E-04   -0.27186E-03 13328   0.153E-01    0.358E-02
DAV:   2    -0.504949681618E+03   -0.31678E-04   -0.31271E-04 13050   0.437E-02    0.363E-02
DAV:   3    -0.504949680541E+03    0.10769E-05   -0.22959E-05  7176   0.287E-02
  26 F= -.50494968E+03 E0= -.50495471E+03  d E =-.196588E-03  mag=   103.5780
 curvature:  -2.01 expect dE=-0.271E-03 dE for cont linesearch -0.430E-04
 ZBRENT: interpolating
 opt :   3.5749  next Energy=  -504.949677 (dE=-0.193E-03)
 bond charge predicted
       N       E                     dE             d eps       ncg     rms          rms(c)
DAV:   1    -0.504949673065E+03    0.85523E-05   -0.16373E-03 14848   0.123E-01    0.469E-02
DAV:   2    -0.504950513900E+03   -0.84083E-03   -0.21009E-03 12864   0.222E-01    0.347E-01
DAV:   3    -0.504949649563E+03    0.86434E-03   -0.16394E-03 13632   0.204E-01    0.261E-02
DAV:   4    -0.504949685745E+03   -0.36182E-04   -0.57648E-05 12984   0.197E-02    0.250E-02
DAV:   5    -0.504949688684E+03   -0.29389E-05   -0.37856E-06  7952   0.117E-02
  27 F= -.50494969E+03 E0= -.50495470E+03  d E =-.204731E-03  mag=   103.5781
 curvature:  -0.02 expect dE=-0.254E-05 dE for cont linesearch -0.538E-07
 ZBRENT: interpolating
 opt :   3.5496  next Energy=  -504.949677 (dE=-0.193E-03)
 bond charge predicted
       N       E                     dE             d eps       ncg     rms          rms(c)
DAV:   1    -0.504949690642E+03   -0.48974E-05   -0.40118E-05  9616   0.191E-02    0.175E-02
DAV:   2    -0.504949709467E+03   -0.18825E-04   -0.44883E-05  7490   0.337E-02    0.549E-02
DAV:   3    -0.504949689969E+03    0.19497E-04   -0.41404E-05  6992   0.347E-02    0.162E-02
DAV:   4    -0.504949691931E+03   -0.19620E-05   -0.26182E-06  6672   0.797E-03
  28 F= -.50494969E+03 E0= -.50495471E+03  d E =-.207979E-03  mag=   103.5781
 curvature:  -0.10 expect dE=-0.108E-04 dE for cont linesearch -0.128E-06
 trial: gam= 0.43880 g(F)=  0.109E-03 g(S)=  0.000E+00 ort =-0.174E-04 (trialstep = 0.334E+01)
 search vector abs. value=  0.139E-03
 bond charge predicted
       N       E                     dE             d eps       ncg     rms          rms(c)
DAV:   1    -0.504945585992E+03    0.41040E-02   -0.36861E-01 12609   0.160E+00    0.341E-01
DAV:   2    -0.504949045053E+03   -0.34591E-02   -0.31727E-02 12654   0.416E-01    0.242E-01
DAV:   3    -0.504949961590E+03   -0.91654E-03   -0.21443E-03 22296   0.210E-01    0.344E-01
DAV:   4    -0.504949581706E+03    0.37988E-03   -0.29935E-03 21016   0.270E-01    0.246E-01
DAV:   5    -0.504949847761E+03   -0.26605E-03   -0.59774E-04 20232   0.121E-01    0.134E-01
DAV:   6    -0.504949814385E+03    0.33376E-04   -0.23378E-04 19360   0.913E-02    0.571E-02
DAV:   7    -0.504949815959E+03   -0.15746E-05   -0.60006E-05 12728   0.346E-02
  29 F= -.50494982E+03 E0= -.50495488E+03  d E =-.124028E-03  mag=   103.5690
 trial-energy change:   -0.000124  1 .order   -0.000182   -0.000338   -0.000026
 step:   3.6166(harm=  3.6166)  dis= 0.00229  next Energy=  -504.949875 (dE=-0.183E-03)
 reached required accuracy - stopping structural energy minimisation
 PROFILE, used timers:     231
