ni3al                                   
           1
     8.526200    0.000000    0.000000
    -0.001766    8.504600    0.000000
     0.000000    0.000000   23.555800
   Pb   Cr   Fe
     1    14    48
Direct configuration=     1
   0.16536000  0.48636000  0.44692000
   0.99962000  0.33431000  0.00199000
   0.00571000  0.33336000  0.36759000
   0.33524000  0.67037000  0.00023000
   0.66879000  0.99689000  0.12225000
   0.17190000  0.83019000  0.30312000
   0.83050000  0.83114000  0.30257000
   0.33400000  0.67005000  0.36590000
   0.33662000  0.99784000  0.24172000
   0.00240000  0.33332000  0.24079000
   0.00127000  0.66476000  0.12046000
   0.33922000  0.33072000  0.00000000
   0.83779000  0.49999000  0.06135000
   0.50272000  0.83391000  0.18098000
   0.33453000  0.33727000  0.36149000
   0.66882000  0.66655000  0.00068000
   0.50222000  0.83318000  0.06077000
   0.16894000  0.83304000  0.06062000
   0.00025000  0.66620000  0.35852000
   0.00239000  0.66441000  0.00051000
   0.66778000  0.33380000  0.35915000
   0.66930000  0.33358000  0.00050000
   0.50215000  0.49992000  0.06086000
   0.83620000  0.83206000  0.06086000
   0.66948000  0.99883000  0.00053000
   0.66871000  0.00194000  0.36011000
   0.33328000  0.00016000  0.36004000
   0.50343000  0.16520000  0.06105000
   0.16929000  0.16694000  0.06071000
   0.33657000  0.00075000  0.00067000
   0.00271000  0.99869000  0.00034000
   0.01340000  0.00202000  0.36109000
   0.83570000  0.16556000  0.06094000
   0.17061000  0.49746000  0.06032000
   0.50321000  0.16472000  0.30210000
   0.66988000  0.99924000  0.24142000
   0.66965000  0.33304000  0.12103000
   0.83626000  0.49963000  0.18117000
   0.16899000  0.83329000  0.18177000
   0.33582000  0.66689000  0.12095000
   0.66914000  0.66722000  0.12117000
   0.83680000  0.83220000  0.18114000
   0.00172000  0.99944000  0.24151000
   0.16914000  0.16380000  0.30140000
   0.00260000  0.33284000  0.12101000
   0.16994000  0.49925000  0.18104000
   0.50164000  0.16594000  0.18135000
   0.83615000  0.16559000  0.18099000
   0.16980000  0.16587000  0.18099000
   0.33623000  0.99852000  0.12110000
   0.00245000  0.99865000  0.12117000
   0.33651000  0.33287000  0.12086000
   0.50180000  0.49937000  0.18123000
   0.16547000  0.49948000  0.30065000
   0.83607000  0.16469000  0.30250000
   0.50605000  0.50177000  0.30125000
   0.33524000  0.33246000  0.24183000
   0.83248000  0.50217000  0.30266000
   0.66902000  0.33317000  0.24123000
   0.33605000  0.66588000  0.24146000
   0.00318000  0.66598000  0.24177000
   0.66918000  0.66674000  0.24131000
   0.50354000  0.83540000  0.30121000
Direct configuration=     2
   0.16709278  0.49065344  0.44758024
   0.99962000  0.33431000  0.00199000
   0.00092066  0.33072364  0.36577605
   0.33524000  0.67037000  0.00023000
   0.66879000  0.99689000  0.12225000
   0.17345185  0.82806486  0.30391884
   0.83123024  0.83114324  0.30248087
   0.33115319  0.67187741  0.36305642
   0.33662000  0.99784000  0.24172000
   0.00240000  0.33332000  0.24079000
   0.00127000  0.66476000  0.12046000
   0.33922000  0.33072000  0.00000000
   0.83779000  0.49999000  0.06135000
   0.50272000  0.83391000  0.18098000
   0.33815526  0.33505031  0.36096897
   0.66882000  0.66655000  0.00068000
   0.50222000  0.83318000  0.06077000
   0.16894000  0.83304000  0.06062000
   0.00309740  0.66641848  0.35907157
   0.00239000  0.66441000  0.00051000
   0.66796422  0.33269229  0.35903902
   0.66930000  0.33358000  0.00050000
   0.50215000  0.49992000  0.06086000
   0.83620000  0.83206000  0.06086000
   0.66948000  0.99883000  0.00053000
   0.66862740  0.00262220  0.35978917
   0.33350079 -0.00027380  0.36012711
   0.50343000  0.16520000  0.06105000
   0.16929000  0.16694000  0.06071000
   0.33657000  0.00075000  0.00067000
   0.00271000  0.99869000  0.00034000
   0.01305280  0.00191145  0.36095898
   0.83570000  0.16556000  0.06094000
   0.17061000  0.49746000  0.06032000
   0.50376485  0.16515270  0.30254369
   0.66988000  0.99924000  0.24142000
   0.66965000  0.33304000  0.12103000
   0.83626000  0.49963000  0.18117000
   0.16899000  0.83329000  0.18177000
   0.33582000  0.66689000  0.12095000
   0.66914000  0.66722000  0.12117000
   0.83680000  0.83220000  0.18114000
   0.00172000  0.99944000  0.24151000
   0.16803641  0.16528963  0.30225827
   0.00260000  0.33284000  0.12101000
   0.16994000  0.49925000  0.18104000
   0.50164000  0.16594000  0.18135000
   0.83615000  0.16559000  0.18099000
   0.16980000  0.16587000  0.18099000
   0.33623000  0.99852000  0.12110000
   0.00245000  0.99865000  0.12117000
   0.33651000  0.33287000  0.12086000
   0.50180000  0.49937000  0.18123000
   0.16623486  0.50062681  0.30226397
   0.83622439  0.16572284  0.30312350
   0.50454468  0.50334993  0.30216878
   0.33524000  0.33246000  0.24183000
   0.83246929  0.50066816  0.30247240
   0.66902000  0.33317000  0.24123000
   0.33605000  0.66588000  0.24146000
   0.00318000  0.66598000  0.24177000
   0.66918000  0.66674000  0.24131000
   0.50214922  0.83311081  0.30217343
Direct configuration=     3
   0.16882934  0.49495626  0.44824192
   0.99962000  0.33431000  0.00199000
  -0.00387914  0.32808153  0.36395815
   0.33524000  0.67037000  0.00023000
   0.66879000  0.99689000  0.12225000
   0.17500710  0.82593508  0.30471943
   0.83196208  0.83114648  0.30239154
   0.32830016  0.67370882  0.36020662
   0.33662000  0.99784000  0.24172000
   0.00240000  0.33332000  0.24079000
   0.00127000  0.66476000  0.12046000
   0.33922000  0.33072000  0.00000000
   0.83779000  0.49999000  0.06135000
   0.50272000  0.83391000  0.18098000
   0.34178843  0.33282577  0.36044680
   0.66882000  0.66655000  0.00068000
   0.50222000  0.83318000  0.06077000
   0.16894000  0.83304000  0.06062000
   0.00595101  0.66663744  0.35962434
   0.00239000  0.66441000  0.00051000
   0.66814884  0.33158216  0.35892780
   0.66930000  0.33358000  0.00050000
   0.50215000  0.49992000  0.06086000
   0.83620000  0.83206000  0.06086000
   0.66948000  0.99883000  0.00053000
   0.66854463  0.00330588  0.35946765
   0.33372207 -0.00070855  0.36021440
   0.50343000  0.16520000  0.06105000
   0.16929000  0.16694000  0.06071000
   0.33657000  0.00075000  0.00067000
   0.00271000  0.99869000  0.00034000
   0.01270483  0.00180265  0.36082768
   0.83570000  0.16556000  0.06094000
   0.17061000  0.49746000  0.06032000
   0.50432092  0.16558634  0.30298834
   0.66988000  0.99924000  0.24142000
   0.66965000  0.33304000  0.12103000
   0.83626000  0.49963000  0.18117000
   0.16899000  0.83329000  0.18177000
   0.33582000  0.66689000  0.12095000
   0.66914000  0.66722000  0.12117000
   0.83680000  0.83220000  0.18114000
   0.00172000  0.99944000  0.24151000
   0.16693040  0.16678250  0.30311841
   0.00260000  0.33284000  0.12101000
   0.16994000  0.49925000  0.18104000
   0.50164000  0.16594000  0.18135000
   0.83615000  0.16559000  0.18099000
   0.16980000  0.16587000  0.18099000
   0.33623000  0.99852000  0.12110000
   0.00245000  0.99865000  0.12117000
   0.33651000  0.33287000  0.12086000
   0.50180000  0.49937000  0.18123000
   0.16700139  0.50177613  0.30388147
   0.83637911  0.16675794  0.30374835
   0.50303607  0.50493332  0.30308957
   0.33524000  0.33246000  0.24183000
   0.83245855  0.49916305  0.30228439
   0.66902000  0.33317000  0.24123000
   0.33605000  0.66588000  0.24146000
   0.00318000  0.66598000  0.24177000
   0.66918000  0.66674000  0.24131000
   0.50075541  0.83081661  0.30313896
Direct configuration=     4
   0.16874119  0.49473785  0.44820833
   0.99962000  0.33431000  0.00199000
  -0.00363551  0.32821564  0.36405042
   0.33524000  0.67037000  0.00023000
   0.66879000  0.99689000  0.12225000
   0.17492815  0.82604319  0.30467879
   0.83192493  0.83114632  0.30239607
   0.32844497  0.67361586  0.36035128
   0.33662000  0.99784000  0.24172000
   0.00240000  0.33332000  0.24079000
   0.00127000  0.66476000  0.12046000
   0.33922000  0.33072000  0.00000000
   0.83779000  0.49999000  0.06135000
   0.50272000  0.83391000  0.18098000
   0.34160402  0.33293869  0.36047330
   0.66882000  0.66655000  0.00068000
   0.50222000  0.83318000  0.06077000
   0.16894000  0.83304000  0.06062000
   0.00580616  0.66662632  0.35959628
   0.00239000  0.66441000  0.00051000
   0.66813947  0.33163851  0.35893344
   0.66930000  0.33358000  0.00050000
   0.50215000  0.49992000  0.06086000
   0.83620000  0.83206000  0.06086000
   0.66948000  0.99883000  0.00053000
   0.66854883  0.00327118  0.35948397
   0.33371084 -0.00068648  0.36020997
   0.50343000  0.16520000  0.06105000
   0.16929000  0.16694000  0.06071000
   0.33657000  0.00075000  0.00067000
   0.00271000  0.99869000  0.00034000
   0.01272250  0.00180818  0.36083434
   0.83570000  0.16556000  0.06094000
   0.17061000  0.49746000  0.06032000
   0.50429269  0.16556433  0.30296577
   0.66988000  0.99924000  0.24142000
   0.66965000  0.33304000  0.12103000
   0.83626000  0.49963000  0.18117000
   0.16899000  0.83329000  0.18177000
   0.33582000  0.66689000  0.12095000
   0.66914000  0.66722000  0.12117000
   0.83680000  0.83220000  0.18114000
   0.00172000  0.99944000  0.24151000
   0.16698654  0.16670673  0.30307475
   0.00260000  0.33284000  0.12101000
   0.16994000  0.49925000  0.18104000
   0.50164000  0.16594000  0.18135000
   0.83615000  0.16559000  0.18099000
   0.16980000  0.16587000  0.18099000
   0.33623000  0.99852000  0.12110000
   0.00245000  0.99865000  0.12117000
   0.33651000  0.33287000  0.12086000
   0.50180000  0.49937000  0.18123000
   0.16696249  0.50171779  0.30379936
   0.83637125  0.16670540  0.30371664
   0.50311265  0.50485295  0.30304283
   0.33524000  0.33246000  0.24183000
   0.83245909  0.49923945  0.30229393
   0.66902000  0.33317000  0.24123000
   0.33605000  0.66588000  0.24146000
   0.00318000  0.66598000  0.24177000
   0.66918000  0.66674000  0.24131000
   0.50082616  0.83093307  0.30308995
Direct configuration=     5
   0.16791699  0.49269565  0.44789429
   0.99962000  0.33431000  0.00199000
  -0.00135743  0.32946964  0.36491324
   0.33524000  0.67037000  0.00023000
   0.66879000  0.99689000  0.12225000
   0.17419000  0.82705402  0.30429882
   0.83157759  0.83114478  0.30243847
   0.32979908  0.67274664  0.36170385
   0.33662000  0.99784000  0.24172000
   0.00240000  0.33332000  0.24079000
   0.00127000  0.66476000  0.12046000
   0.33922000  0.33072000  0.00000000
   0.83779000  0.49999000  0.06135000
   0.50272000  0.83391000  0.18098000
   0.33987964  0.33399450  0.36072114
   0.66882000  0.66655000  0.00068000
   0.50222000  0.83318000  0.06077000
   0.16894000  0.83304000  0.06062000
   0.00445178  0.66652240  0.35933392
   0.00239000  0.66441000  0.00051000
   0.66805184  0.33216540  0.35898623
   0.66930000  0.33358000  0.00050000
   0.50215000  0.49992000  0.06086000
   0.83620000  0.83206000  0.06086000
   0.66948000  0.99883000  0.00053000
   0.66858812  0.00294669  0.35963657
   0.33360582 -0.00048014  0.36016854
   0.50343000  0.16520000  0.06105000
   0.16929000  0.16694000  0.06071000
   0.33657000  0.00075000  0.00067000
   0.00271000  0.99869000  0.00034000
   0.01288765  0.00185981  0.36089666
   0.83570000  0.16556000  0.06094000
   0.17061000  0.49746000  0.06032000
   0.50402877  0.16535851  0.30275473
   0.66988000  0.99924000  0.24142000
   0.66965000  0.33304000  0.12103000
   0.83626000  0.49963000  0.18117000
   0.16899000  0.83329000  0.18177000
   0.33582000  0.66689000  0.12095000
   0.66914000  0.66722000  0.12117000
   0.83680000  0.83220000  0.18114000
   0.00172000  0.99944000  0.24151000
   0.16751148  0.16599818  0.30266651
   0.00260000  0.33284000  0.12101000
   0.16994000  0.49925000  0.18104000
   0.50164000  0.16594000  0.18135000
   0.83615000  0.16559000  0.18099000
   0.16980000  0.16587000  0.18099000
   0.33623000  0.99852000  0.12110000
   0.00245000  0.99865000  0.12117000
   0.33651000  0.33287000  0.12086000
   0.50180000  0.49937000  0.18123000
   0.16659867  0.50117230  0.30303167
   0.83629782  0.16621412  0.30342007
   0.50382866  0.50410144  0.30260580
   0.33524000  0.33246000  0.24183000
   0.83246419  0.49995381  0.30238316
   0.66902000  0.33317000  0.24123000
   0.33605000  0.66588000  0.24146000
   0.00318000  0.66598000  0.24177000
   0.66918000  0.66674000  0.24131000
   0.50148769  0.83202194  0.30263169
Direct configuration=     6
   0.16849428  0.49527052  0.44751931
   0.99962000  0.33431000  0.00199000
  -0.00307344  0.32920373  0.36428747
   0.33524000  0.67037000  0.00023000
   0.66879000  0.99689000  0.12225000
   0.17312820  0.82772034  0.30406101
   0.83185531  0.83101930  0.30237453
   0.32901207  0.67389565  0.36187309
   0.33662000  0.99784000  0.24172000
   0.00240000  0.33332000  0.24079000
   0.00127000  0.66476000  0.12046000
   0.33922000  0.33072000  0.00000000
   0.83779000  0.49999000  0.06135000
   0.50272000  0.83391000  0.18098000
   0.34160637  0.33287903  0.36069760
   0.66882000  0.66655000  0.00068000
   0.50222000  0.83318000  0.06077000
   0.16894000  0.83304000  0.06062000
   0.00552444  0.66623159  0.35987297
   0.00239000  0.66441000  0.00051000
   0.66826896  0.33126556  0.35910686
   0.66930000  0.33358000  0.00050000
   0.50215000  0.49992000  0.06086000
   0.83620000  0.83206000  0.06086000
   0.66948000  0.99883000  0.00053000
   0.66884252  0.00338764  0.35954911
   0.33363470  0.00021223  0.36022144
   0.50343000  0.16520000  0.06105000
   0.16929000  0.16694000  0.06071000
   0.33657000  0.00075000  0.00067000
   0.00271000  0.99869000  0.00034000
   0.01213941  0.00160122  0.36099562
   0.83570000  0.16556000  0.06094000
   0.17061000  0.49746000  0.06032000
   0.50441419  0.16485518  0.30269160
   0.66988000  0.99924000  0.24142000
   0.66965000  0.33304000  0.12103000
   0.83626000  0.49963000  0.18117000
   0.16899000  0.83329000  0.18177000
   0.33582000  0.66689000  0.12095000
   0.66914000  0.66722000  0.12117000
   0.83680000  0.83220000  0.18114000
   0.00172000  0.99944000  0.24151000
   0.16746433  0.16637146  0.30301749
   0.00260000  0.33284000  0.12101000
   0.16994000  0.49925000  0.18104000
   0.50164000  0.16594000  0.18135000
   0.83615000  0.16559000  0.18099000
   0.16980000  0.16587000  0.18099000
   0.33623000  0.99852000  0.12110000
   0.00245000  0.99865000  0.12117000
   0.33651000  0.33287000  0.12086000
   0.50180000  0.49937000  0.18123000
   0.16516498  0.49872561  0.30353429
   0.83578075  0.16598571  0.30340461
   0.50460470  0.50409699  0.30228469
   0.33524000  0.33246000  0.24183000
   0.83240058  0.49987734  0.30218437
   0.66902000  0.33317000  0.24123000
   0.33605000  0.66588000  0.24146000
   0.00318000  0.66598000  0.24177000
   0.66918000  0.66674000  0.24131000
   0.50256231  0.83247476  0.30227806
Direct configuration=     7
   0.16920939  0.49846012  0.44705482
   0.99962000  0.33431000  0.00199000
  -0.00519914  0.32887434  0.36351230
   0.33524000  0.67037000  0.00023000
   0.66879000  0.99689000  0.12225000
   0.17181290  0.82854572  0.30376643
   0.83219934  0.83086386  0.30229533
   0.32803718  0.67531899  0.36208274
   0.33662000  0.99784000  0.24172000
   0.00240000  0.33332000  0.24079000
   0.00127000  0.66476000  0.12046000
   0.33922000  0.33072000  0.00000000
   0.83779000  0.49999000  0.06135000
   0.50272000  0.83391000  0.18098000
   0.34374533  0.33149725  0.36066843
   0.66882000  0.66655000  0.00068000
   0.50222000  0.83318000  0.06077000
   0.16894000  0.83304000  0.06062000
   0.00685319  0.66587134  0.36054070
   0.00239000  0.66441000  0.00051000
   0.66853790  0.33015090  0.35925629
   0.66930000  0.33358000  0.00050000
   0.50215000  0.49992000  0.06086000
   0.83620000  0.83206000  0.06086000
   0.66948000  0.99883000  0.00053000
   0.66915766  0.00393387  0.35944076
   0.33367048  0.00106990  0.36028698
   0.50343000  0.16520000  0.06105000
   0.16929000  0.16694000  0.06071000
   0.33657000  0.00075000  0.00067000
   0.00271000  0.99869000  0.00034000
   0.01121254  0.00128089  0.36111820
   0.83570000  0.16556000  0.06094000
   0.17061000  0.49746000  0.06032000
   0.50489162  0.16423168  0.30261340
   0.66988000  0.99924000  0.24142000
   0.66965000  0.33304000  0.12103000
   0.83626000  0.49963000  0.18117000
   0.16899000  0.83329000  0.18177000
   0.33582000  0.66689000  0.12095000
   0.66914000  0.66722000  0.12117000
   0.83680000  0.83220000  0.18114000
   0.00172000  0.99944000  0.24151000
   0.16740593  0.16683385  0.30345226
   0.00260000  0.33284000  0.12101000
   0.16994000  0.49925000  0.18104000
   0.50164000  0.16594000  0.18135000
   0.83615000  0.16559000  0.18099000
   0.16980000  0.16587000  0.18099000
   0.33623000  0.99852000  0.12110000
   0.00245000  0.99865000  0.12117000
   0.33651000  0.33287000  0.12086000
   0.50180000  0.49937000  0.18123000
   0.16338901  0.49569481  0.30415691
   0.83514023  0.16570277  0.30338545
   0.50556601  0.50409148  0.30188692
   0.33524000  0.33246000  0.24183000
   0.83232179  0.49978262  0.30193811
   0.66902000  0.33317000  0.24123000
   0.33605000  0.66588000  0.24146000
   0.00318000  0.66598000  0.24177000
   0.66918000  0.66674000  0.24131000
   0.50389347  0.83303569  0.30184000
Direct configuration=     8
   0.16946666  0.49960762  0.44688771
   0.99962000  0.33431000  0.00199000
  -0.00596389  0.32875584  0.36323342
   0.33524000  0.67037000  0.00023000
   0.66879000  0.99689000  0.12225000
   0.17133971  0.82884267  0.30366045
   0.83232310  0.83080794  0.30226684
   0.32768645  0.67583105  0.36215817
   0.33662000  0.99784000  0.24172000
   0.00240000  0.33332000  0.24079000
   0.00127000  0.66476000  0.12046000
   0.33922000  0.33072000  0.00000000
   0.83779000  0.49999000  0.06135000
   0.50272000  0.83391000  0.18098000
   0.34451485  0.33100014  0.36065794
   0.66882000  0.66655000  0.00068000
   0.50222000  0.83318000  0.06077000
   0.16894000  0.83304000  0.06062000
   0.00733122  0.66574174  0.36078092
   0.00239000  0.66441000  0.00051000
   0.66863466  0.32974989  0.35931005
   0.66930000  0.33358000  0.00050000
   0.50215000  0.49992000  0.06086000
   0.83620000  0.83206000  0.06086000
   0.66948000  0.99883000  0.00053000
   0.66927104  0.00413038  0.35940178
   0.33368335  0.00137845  0.36031056
   0.50343000  0.16520000  0.06105000
   0.16929000  0.16694000  0.06071000
   0.33657000  0.00075000  0.00067000
   0.00271000  0.99869000  0.00034000
   0.01087909  0.00116564  0.36116230
   0.83570000  0.16556000  0.06094000
   0.17061000  0.49746000  0.06032000
   0.50506339  0.16400737  0.30258526
   0.66988000  0.99924000  0.24142000
   0.66965000  0.33304000  0.12103000
   0.83626000  0.49963000  0.18117000
   0.16899000  0.83329000  0.18177000
   0.33582000  0.66689000  0.12095000
   0.66914000  0.66722000  0.12117000
   0.83680000  0.83220000  0.18114000
   0.00172000  0.99944000  0.24151000
   0.16738491  0.16700021  0.30360867
   0.00260000  0.33284000  0.12101000
   0.16994000  0.49925000  0.18104000
   0.50164000  0.16594000  0.18135000
   0.83615000  0.16559000  0.18099000
   0.16980000  0.16587000  0.18099000
   0.33623000  0.99852000  0.12110000
   0.00245000  0.99865000  0.12117000
   0.33651000  0.33287000  0.12086000
   0.50180000  0.49937000  0.18123000
   0.16275008  0.49460445  0.30438091
   0.83490980  0.16560098  0.30337856
   0.50591185  0.50408950  0.30174381
   0.33524000  0.33246000  0.24183000
   0.83229344  0.49974854  0.30184951
   0.66902000  0.33317000  0.24123000
   0.33605000  0.66588000  0.24146000
   0.00318000  0.66598000  0.24177000
   0.66918000  0.66674000  0.24131000
   0.50437238  0.83323749  0.30168240
Direct configuration=     9
   0.16968981  0.50094528  0.44617961
   0.99962000  0.33431000  0.00199000
  -0.00631903  0.32920429  0.36370923
   0.33524000  0.67037000  0.00023000
   0.66879000  0.99689000  0.12225000
   0.17053672  0.82950128  0.30318019
   0.83257472  0.83052807  0.30227396
   0.32810421  0.67665780  0.36272784
   0.33662000  0.99784000  0.24172000
   0.00240000  0.33332000  0.24079000
   0.00127000  0.66476000  0.12046000
   0.33922000  0.33072000  0.00000000
   0.83779000  0.49999000  0.06135000
   0.50272000  0.83391000  0.18098000
   0.34529108  0.33116859  0.36093965
   0.66882000  0.66655000  0.00068000
   0.50222000  0.83318000  0.06077000
   0.16894000  0.83304000  0.06062000
   0.00714454  0.66538769  0.36077737
   0.00239000  0.66441000  0.00051000
   0.66877139  0.32939073  0.35923555
   0.66930000  0.33358000  0.00050000
   0.50215000  0.49992000  0.06086000
   0.83620000  0.83206000  0.06086000
   0.66948000  0.99883000  0.00053000
   0.66953433  0.00412876  0.35959924
   0.33378533  0.00214400  0.36024029
   0.50343000  0.16520000  0.06105000
   0.16929000  0.16694000  0.06071000
   0.33657000  0.00075000  0.00067000
   0.00271000  0.99869000  0.00034000
   0.00994587  0.00066916  0.36131286
   0.83570000  0.16556000  0.06094000
   0.17061000  0.49746000  0.06032000
   0.50508874  0.16372407  0.30229873
   0.66988000  0.99924000  0.24142000
   0.66965000  0.33304000  0.12103000
   0.83626000  0.49963000  0.18117000
   0.16899000  0.83329000  0.18177000
   0.33582000  0.66689000  0.12095000
   0.66914000  0.66722000  0.12117000
   0.83680000  0.83220000  0.18114000
   0.00172000  0.99944000  0.24151000
   0.16730811  0.16592212  0.30348409
   0.00260000  0.33284000  0.12101000
   0.16994000  0.49925000  0.18104000
   0.50164000  0.16594000  0.18135000
   0.83615000  0.16559000  0.18099000
   0.16980000  0.16587000  0.18099000
   0.33623000  0.99852000  0.12110000
   0.00245000  0.99865000  0.12117000
   0.33651000  0.33287000  0.12086000
   0.50180000  0.49937000  0.18123000
   0.16261760  0.49460089  0.30435176
   0.83487757  0.16496462  0.30299335
   0.50628935  0.50354794  0.30152932
   0.33524000  0.33246000  0.24183000
   0.83193529  0.50053794  0.30187025
   0.66902000  0.33317000  0.24123000
   0.33605000  0.66588000  0.24146000
   0.00318000  0.66598000  0.24177000
   0.66918000  0.66674000  0.24131000
   0.50427265  0.83384025  0.30128958
Direct configuration=    10
   0.16990929  0.50226091  0.44548317
   0.99962000  0.33431000  0.00199000
  -0.00666832  0.32964536  0.36417720
   0.33524000  0.67037000  0.00023000
   0.66879000  0.99689000  0.12225000
   0.16974697  0.83014906  0.30270784
   0.83282219  0.83025281  0.30228095
   0.32851510  0.67747094  0.36328812
   0.33662000  0.99784000  0.24172000
   0.00240000  0.33332000  0.24079000
   0.00127000  0.66476000  0.12046000
   0.33922000  0.33072000  0.00000000
   0.83779000  0.49999000  0.06135000
   0.50272000  0.83391000  0.18098000
   0.34605453  0.33133427  0.36121671
   0.66882000  0.66655000  0.00068000
   0.50222000  0.83318000  0.06077000
   0.16894000  0.83304000  0.06062000
   0.00696094  0.66503947  0.36077388
   0.00239000  0.66441000  0.00051000
   0.66890587  0.32903748  0.35916228
   0.66930000  0.33358000  0.00050000
   0.50215000  0.49992000  0.06086000
   0.83620000  0.83206000  0.06086000
   0.66948000  0.99883000  0.00053000
   0.66979329  0.00412716  0.35979345
   0.33388562  0.00289695  0.36017119
   0.50343000  0.16520000  0.06105000
   0.16929000  0.16694000  0.06071000
   0.33657000  0.00075000  0.00067000
   0.00271000  0.99869000  0.00034000
   0.00902803  0.00018086  0.36146093
   0.83570000  0.16556000  0.06094000
   0.17061000  0.49746000  0.06032000
   0.50511368  0.16344544  0.30201692
   0.66988000  0.99924000  0.24142000
   0.66965000  0.33304000  0.12103000
   0.83626000  0.49963000  0.18117000
   0.16899000  0.83329000  0.18177000
   0.33582000  0.66689000  0.12095000
   0.66914000  0.66722000  0.12117000
   0.83680000  0.83220000  0.18114000
   0.00172000  0.99944000  0.24151000
   0.16723258  0.16486179  0.30336156
   0.00260000  0.33284000  0.12101000
   0.16994000  0.49925000  0.18104000
   0.50164000  0.16594000  0.18135000
   0.83615000  0.16559000  0.18099000
   0.16980000  0.16587000  0.18099000
   0.33623000  0.99852000  0.12110000
   0.00245000  0.99865000  0.12117000
   0.33651000  0.33287000  0.12086000
   0.50180000  0.49937000  0.18123000
   0.16248731  0.49459739  0.30432310
   0.83484587  0.16433874  0.30261449
   0.50666062  0.50301529  0.30131835
   0.33524000  0.33246000  0.24183000
   0.83158304  0.50131434  0.30189064
   0.66902000  0.33317000  0.24123000
   0.33605000  0.66588000  0.24146000
   0.00318000  0.66598000  0.24177000
   0.66918000  0.66674000  0.24131000
   0.50417456  0.83443309  0.30090324
Direct configuration=    11
   0.16994628  0.50299683  0.44531260
   0.99962000  0.33431000  0.00199000
  -0.00711723  0.32921838  0.36444012
   0.33524000  0.67037000  0.00023000
   0.66879000  0.99689000  0.12225000
   0.16970430  0.83036567  0.30259100
   0.83255614  0.83016128  0.30230509
   0.32999869  0.67850370  0.36370531
   0.33662000  0.99784000  0.24172000
   0.00240000  0.33332000  0.24079000
   0.00127000  0.66476000  0.12046000
   0.33922000  0.33072000  0.00000000
   0.83779000  0.49999000  0.06135000
   0.50272000  0.83391000  0.18098000
   0.34629948  0.33166110  0.36118894
   0.66882000  0.66655000  0.00068000
   0.50222000  0.83318000  0.06077000
   0.16894000  0.83304000  0.06062000
   0.00624871  0.66557000  0.36040046
   0.00239000  0.66441000  0.00051000
   0.66909044  0.32866877  0.35890122
   0.66930000  0.33358000  0.00050000
   0.50215000  0.49992000  0.06086000
   0.83620000  0.83206000  0.06086000
   0.66948000  0.99883000  0.00053000
   0.66966364  0.00407524  0.35974475
   0.33399901  0.00362559  0.36003383
   0.50343000  0.16520000  0.06105000
   0.16929000  0.16694000  0.06071000
   0.33657000  0.00075000  0.00067000
   0.00271000  0.99869000  0.00034000
   0.00829886 -0.00036638  0.36147969
   0.83570000  0.16556000  0.06094000
   0.17061000  0.49746000  0.06032000
   0.50505738  0.16342583  0.30208561
   0.66988000  0.99924000  0.24142000
   0.66965000  0.33304000  0.12103000
   0.83626000  0.49963000  0.18117000
   0.16899000  0.83329000  0.18177000
   0.33582000  0.66689000  0.12095000
   0.66914000  0.66722000  0.12117000
   0.83680000  0.83220000  0.18114000
   0.00172000  0.99944000  0.24151000
   0.16674197  0.16508833  0.30341484
   0.00260000  0.33284000  0.12101000
   0.16994000  0.49925000  0.18104000
   0.50164000  0.16594000  0.18135000
   0.83615000  0.16559000  0.18099000
   0.16980000  0.16587000  0.18099000
   0.33623000  0.99852000  0.12110000
   0.00245000  0.99865000  0.12117000
   0.33651000  0.33287000  0.12086000
   0.50180000  0.49937000  0.18123000
   0.16296392  0.49490844  0.30412700
   0.83539636  0.16469568  0.30268001
   0.50658565  0.50276256  0.30131600
   0.33524000  0.33246000  0.24183000
   0.83149740  0.50125421  0.30202277
   0.66902000  0.33317000  0.24123000
   0.33605000  0.66588000  0.24146000
   0.00318000  0.66598000  0.24177000
   0.66918000  0.66674000  0.24131000
   0.50384830  0.83471554  0.30086417
Direct configuration=    12
   0.17001745  0.50441314  0.44498435
   0.99962000  0.33431000  0.00199000
  -0.00798118  0.32839662  0.36494612
   0.33524000  0.67037000  0.00023000
   0.66879000  0.99689000  0.12225000
   0.16962219  0.83078256  0.30236613
   0.83204412  0.82998511  0.30235154
   0.33285395  0.68049131  0.36450820
   0.33662000  0.99784000  0.24172000
   0.00240000  0.33332000  0.24079000
   0.00127000  0.66476000  0.12046000
   0.33922000  0.33072000  0.00000000
   0.83779000  0.49999000  0.06135000
   0.50272000  0.83391000  0.18098000
   0.34677090  0.33229011  0.36113548
   0.66882000  0.66655000  0.00068000
   0.50222000  0.83318000  0.06077000
   0.16894000  0.83304000  0.06062000
   0.00487797  0.66659105  0.35968179
   0.00239000  0.66441000  0.00051000
   0.66944566  0.32795916  0.35839881
   0.66930000  0.33358000  0.00050000
   0.50215000  0.49992000  0.06086000
   0.83620000  0.83206000  0.06086000
   0.66948000  0.99883000  0.00053000
   0.66941411  0.00397531  0.35965103
   0.33421722  0.00502790  0.35976948
   0.50343000  0.16520000  0.06105000
   0.16929000  0.16694000  0.06071000
   0.33657000  0.00075000  0.00067000
   0.00271000  0.99869000  0.00034000
   0.00689554 -0.00141957  0.36151578
   0.83570000  0.16556000  0.06094000
   0.17061000  0.49746000  0.06032000
   0.50494903  0.16338809  0.30221781
   0.66988000  0.99924000  0.24142000
   0.66965000  0.33304000  0.12103000
   0.83626000  0.49963000  0.18117000
   0.16899000  0.83329000  0.18177000
   0.33582000  0.66689000  0.12095000
   0.66914000  0.66722000  0.12117000
   0.83680000  0.83220000  0.18114000
   0.00172000  0.99944000  0.24151000
   0.16579776  0.16552431  0.30351738
   0.00260000  0.33284000  0.12101000
   0.16994000  0.49925000  0.18104000
   0.50164000  0.16594000  0.18135000
   0.83615000  0.16559000  0.18099000
   0.16980000  0.16587000  0.18099000
   0.33623000  0.99852000  0.12110000
   0.00245000  0.99865000  0.12117000
   0.33651000  0.33287000  0.12086000
   0.50180000  0.49937000  0.18123000
   0.16388118  0.49550709  0.30374959
   0.83645583  0.16538263  0.30280610
   0.50644135  0.50227618  0.30131147
   0.33524000  0.33246000  0.24183000
   0.83133257  0.50113849  0.30227705
   0.66902000  0.33317000  0.24123000
   0.33605000  0.66588000  0.24146000
   0.00318000  0.66598000  0.24177000
   0.66918000  0.66674000  0.24131000
   0.50322041  0.83525913  0.30078898
Direct configuration=    13
   0.16999436  0.50395362  0.44509085
   0.99962000  0.33431000  0.00199000
  -0.00770087  0.32866324  0.36478195
   0.33524000  0.67037000  0.00023000
   0.66879000  0.99689000  0.12225000
   0.16964883  0.83064730  0.30243909
   0.83221024  0.83004227  0.30233647
   0.33192756  0.67984643  0.36424770
   0.33662000  0.99784000  0.24172000
   0.00240000  0.33332000  0.24079000
   0.00127000  0.66476000  0.12046000
   0.33922000  0.33072000  0.00000000
   0.83779000  0.49999000  0.06135000
   0.50272000  0.83391000  0.18098000
   0.34661795  0.33208603  0.36115282
   0.66882000  0.66655000  0.00068000
   0.50222000  0.83318000  0.06077000
   0.16894000  0.83304000  0.06062000
   0.00532270  0.66625977  0.35991496
   0.00239000  0.66441000  0.00051000
   0.66933041  0.32818939  0.35856182
   0.66930000  0.33358000  0.00050000
   0.50215000  0.49992000  0.06086000
   0.83620000  0.83206000  0.06086000
   0.66948000  0.99883000  0.00053000
   0.66949507  0.00400773  0.35968144
   0.33414642  0.00457292  0.35985525
   0.50343000  0.16520000  0.06105000
   0.16929000  0.16694000  0.06071000
   0.33657000  0.00075000  0.00067000
   0.00271000  0.99869000  0.00034000
   0.00735085 -0.00107786  0.36150407
   0.83570000  0.16556000  0.06094000
   0.17061000  0.49746000  0.06032000
   0.50498418  0.16340034  0.30217492
   0.66988000  0.99924000  0.24142000
   0.66965000  0.33304000  0.12103000
   0.83626000  0.49963000  0.18117000
   0.16899000  0.83329000  0.18177000
   0.33582000  0.66689000  0.12095000
   0.66914000  0.66722000  0.12117000
   0.83680000  0.83220000  0.18114000
   0.00172000  0.99944000  0.24151000
   0.16610411  0.16538285  0.30348411
   0.00260000  0.33284000  0.12101000
   0.16994000  0.49925000  0.18104000
   0.50164000  0.16594000  0.18135000
   0.83615000  0.16559000  0.18099000
   0.16980000  0.16587000  0.18099000
   0.33623000  0.99852000  0.12110000
   0.00245000  0.99865000  0.12117000
   0.33651000  0.33287000  0.12086000
   0.50180000  0.49937000  0.18123000
   0.16358357  0.49531286  0.30387204
   0.83611208  0.16515975  0.30276519
   0.50648817  0.50243399  0.30131294
   0.33524000  0.33246000  0.24183000
   0.83138605  0.50117603  0.30219455
   0.66902000  0.33317000  0.24123000
   0.33605000  0.66588000  0.24146000
   0.00318000  0.66598000  0.24177000
   0.66918000  0.66674000  0.24131000
   0.50342413  0.83508276  0.30081338
Direct configuration=    14
   0.16971750  0.50512526  0.44487891
   0.99962000  0.33431000  0.00199000
  -0.00758301  0.32860978  0.36504626
   0.33524000  0.67037000  0.00023000
   0.66879000  0.99689000  0.12225000
   0.16995112  0.83095857  0.30255670
   0.83151376  0.83022316  0.30226643
   0.33336091  0.68071446  0.36476618
   0.33662000  0.99784000  0.24172000
   0.00240000  0.33332000  0.24079000
   0.00127000  0.66476000  0.12046000
   0.33922000  0.33072000  0.00000000
   0.83779000  0.49999000  0.06135000
   0.50272000  0.83391000  0.18098000
   0.34636803  0.33268705  0.36098472
   0.66882000  0.66655000  0.00068000
   0.50222000  0.83318000  0.06077000
   0.16894000  0.83304000  0.06062000
   0.00522634  0.66712436  0.35955575
   0.00239000  0.66441000  0.00051000
   0.66936568  0.32809176  0.35864910
   0.66930000  0.33358000  0.00050000
   0.50215000  0.49992000  0.06086000
   0.83620000  0.83206000  0.06086000
   0.66948000  0.99883000  0.00053000
   0.66935169  0.00384275  0.35953529
   0.33383122  0.00554071  0.35980708
   0.50343000  0.16520000  0.06105000
   0.16929000  0.16694000  0.06071000
   0.33657000  0.00075000  0.00067000
   0.00271000  0.99869000  0.00034000
   0.00678741 -0.00197414  0.36141505
   0.83570000  0.16556000  0.06094000
   0.17061000  0.49746000  0.06032000
   0.50491392  0.16340948  0.30200920
   0.66988000  0.99924000  0.24142000
   0.66965000  0.33304000  0.12103000
   0.83626000  0.49963000  0.18117000
   0.16899000  0.83329000  0.18177000
   0.33582000  0.66689000  0.12095000
   0.66914000  0.66722000  0.12117000
   0.83680000  0.83220000  0.18114000
   0.00172000  0.99944000  0.24151000
   0.16558853  0.16599369  0.30366000
   0.00260000  0.33284000  0.12101000
   0.16994000  0.49925000  0.18104000
   0.50164000  0.16594000  0.18135000
   0.83615000  0.16559000  0.18099000
   0.16980000  0.16587000  0.18099000
   0.33623000  0.99852000  0.12110000
   0.00245000  0.99865000  0.12117000
   0.33651000  0.33287000  0.12086000
   0.50180000  0.49937000  0.18123000
   0.16390232  0.49588777  0.30410945
   0.83594259  0.16464170  0.30263665
   0.50662126  0.50281210  0.30128774
   0.33524000  0.33246000  0.24183000
   0.83164952  0.50099696  0.30209277
   0.66902000  0.33317000  0.24123000
   0.33605000  0.66588000  0.24146000
   0.00318000  0.66598000  0.24177000
   0.66918000  0.66674000  0.24131000
   0.50372750  0.83550634  0.30062571
Direct configuration=    15
   0.16927050  0.50701692  0.44453672
   0.99962000  0.33431000  0.00199000
  -0.00739273  0.32852346  0.36547301
   0.33524000  0.67037000  0.00023000
   0.66879000  0.99689000  0.12225000
   0.17043919  0.83146113  0.30274658
   0.83038924  0.83051520  0.30215334
   0.33567512  0.68211593  0.36560330
   0.33662000  0.99784000  0.24172000
   0.00240000  0.33332000  0.24079000
   0.00127000  0.66476000  0.12046000
   0.33922000  0.33072000  0.00000000
   0.83779000  0.49999000  0.06135000
   0.50272000  0.83391000  0.18098000
   0.34596452  0.33365743  0.36071331
   0.66882000  0.66655000  0.00068000
   0.50222000  0.83318000  0.06077000
   0.16894000  0.83304000  0.06062000
   0.00507075  0.66852028  0.35897578
   0.00239000  0.66441000  0.00051000
   0.66942263  0.32793414  0.35879003
   0.66930000  0.33358000  0.00050000
   0.50215000  0.49992000  0.06086000
   0.83620000  0.83206000  0.06086000
   0.66948000  0.99883000  0.00053000
   0.66912020  0.00357639  0.35929933
   0.33332230  0.00710324  0.35972931
   0.50343000  0.16520000  0.06105000
   0.16929000  0.16694000  0.06071000
   0.33657000  0.00075000  0.00067000
   0.00271000  0.99869000  0.00034000
   0.00587771 -0.00342123  0.36127134
   0.83570000  0.16556000  0.06094000
   0.17061000  0.49746000  0.06032000
   0.50480047  0.16342425  0.30174165
   0.66988000  0.99924000  0.24142000
   0.66965000  0.33304000  0.12103000
   0.83626000  0.49963000  0.18117000
   0.16899000  0.83329000  0.18177000
   0.33582000  0.66689000  0.12095000
   0.66914000  0.66722000  0.12117000
   0.83680000  0.83220000  0.18114000
   0.00172000  0.99944000  0.24151000
   0.16475611  0.16697991  0.30394399
   0.00260000  0.33284000  0.12101000
   0.16994000  0.49925000  0.18104000
   0.50164000  0.16594000  0.18135000
   0.83615000  0.16559000  0.18099000
   0.16980000  0.16587000  0.18099000
   0.33623000  0.99852000  0.12110000
   0.00245000  0.99865000  0.12117000
   0.33651000  0.33287000  0.12086000
   0.50180000  0.49937000  0.18123000
   0.16441694  0.49681600  0.30449274
   0.83566894  0.16380528  0.30242910
   0.50683613  0.50342258  0.30124707
   0.33524000  0.33246000  0.24183000
   0.83207491  0.50070784  0.30192843
   0.66902000  0.33317000  0.24123000
   0.33605000  0.66588000  0.24146000
   0.00318000  0.66598000  0.24177000
   0.66918000  0.66674000  0.24131000
   0.50421730  0.83619024  0.30032270
Direct configuration=    16
   0.16948410  0.50611299  0.44470023
   0.99962000  0.33431000  0.00199000
  -0.00748366  0.32856471  0.36526909
   0.33524000  0.67037000  0.00023000
   0.66879000  0.99689000  0.12225000
   0.17020597  0.83122098  0.30265585
   0.83092659  0.83037565  0.30220738
   0.33456927  0.68144624  0.36520328
   0.33662000  0.99784000  0.24172000
   0.00240000  0.33332000  0.24079000
   0.00127000  0.66476000  0.12046000
   0.33922000  0.33072000  0.00000000
   0.83779000  0.49999000  0.06135000
   0.50272000  0.83391000  0.18098000
   0.34615734  0.33319373  0.36084301
   0.66882000  0.66655000  0.00068000
   0.50222000  0.83318000  0.06077000
   0.16894000  0.83304000  0.06062000
   0.00514510  0.66785324  0.35925292
   0.00239000  0.66441000  0.00051000
   0.66939542  0.32800946  0.35872269
   0.66930000  0.33358000  0.00050000
   0.50215000  0.49992000  0.06086000
   0.83620000  0.83206000  0.06086000
   0.66948000  0.99883000  0.00053000
   0.66923082  0.00370367  0.35941208
   0.33356549  0.00635658  0.35976647
   0.50343000  0.16520000  0.06105000
   0.16929000  0.16694000  0.06071000
   0.33657000  0.00075000  0.00067000
   0.00271000  0.99869000  0.00034000
   0.00631241 -0.00272974  0.36134001
   0.83570000  0.16556000  0.06094000
   0.17061000  0.49746000  0.06032000
   0.50485468  0.16341719  0.30186950
   0.66988000  0.99924000  0.24142000
   0.66965000  0.33304000  0.12103000
   0.83626000  0.49963000  0.18117000
   0.16899000  0.83329000  0.18177000
   0.33582000  0.66689000  0.12095000
   0.66914000  0.66722000  0.12117000
   0.83680000  0.83220000  0.18114000
   0.00172000  0.99944000  0.24151000
   0.16515388  0.16650865  0.30380829
   0.00260000  0.33284000  0.12101000
   0.16994000  0.49925000  0.18104000
   0.50164000  0.16594000  0.18135000
   0.83615000  0.16559000  0.18099000
   0.16980000  0.16587000  0.18099000
   0.33623000  0.99852000  0.12110000
   0.00245000  0.99865000  0.12117000
   0.33651000  0.33287000  0.12086000
   0.50180000  0.49937000  0.18123000
   0.16417103  0.49637245  0.30430958
   0.83579971  0.16420496  0.30252828
   0.50673345  0.50313086  0.30126650
   0.33524000  0.33246000  0.24183000
   0.83187164  0.50084599  0.30200696
   0.66902000  0.33317000  0.24123000
   0.33605000  0.66588000  0.24146000
   0.00318000  0.66598000  0.24177000
   0.66918000  0.66674000  0.24131000
   0.50398325  0.83586344  0.30046749
Direct configuration=    17
   0.16887340  0.50707155  0.44468689
   0.99962000  0.33431000  0.00199000
  -0.00766292  0.32881315  0.36518152
   0.33524000  0.67037000  0.00023000
   0.66879000  0.99689000  0.12225000
   0.17053693  0.83161464  0.30270284
   0.83098768  0.83016233  0.30206799
   0.33518398  0.68183353  0.36533490
   0.33662000  0.99784000  0.24172000
   0.00240000  0.33332000  0.24079000
   0.00127000  0.66476000  0.12046000
   0.33922000  0.33072000  0.00000000
   0.83779000  0.49999000  0.06135000
   0.50272000  0.83391000  0.18098000
   0.34616640  0.33359620  0.36070615
   0.66882000  0.66655000  0.00068000
   0.50222000  0.83318000  0.06077000
   0.16894000  0.83304000  0.06062000
   0.00557964  0.66861605  0.35937628
   0.00239000  0.66441000  0.00051000
   0.66933784  0.32799233  0.35874312
   0.66930000  0.33358000  0.00050000
   0.50215000  0.49992000  0.06086000
   0.83620000  0.83206000  0.06086000
   0.66948000  0.99883000  0.00053000
   0.66891474  0.00352138  0.35948295
   0.33322319  0.00692708  0.35984829
   0.50343000  0.16520000  0.06105000
   0.16929000  0.16694000  0.06071000
   0.33657000  0.00075000  0.00067000
   0.00271000  0.99869000  0.00034000
   0.00628204 -0.00341076  0.36117488
   0.83570000  0.16556000  0.06094000
   0.17061000  0.49746000  0.06032000
   0.50468435  0.16411058  0.30187695
   0.66988000  0.99924000  0.24142000
   0.66965000  0.33304000  0.12103000
   0.83626000  0.49963000  0.18117000
   0.16899000  0.83329000  0.18177000
   0.33582000  0.66689000  0.12095000
   0.66914000  0.66722000  0.12117000
   0.83680000  0.83220000  0.18114000
   0.00172000  0.99944000  0.24151000
   0.16487404  0.16650774  0.30376462
   0.00260000  0.33284000  0.12101000
   0.16994000  0.49925000  0.18104000
   0.50164000  0.16594000  0.18135000
   0.83615000  0.16559000  0.18099000
   0.16980000  0.16587000  0.18099000
   0.33623000  0.99852000  0.12110000
   0.00245000  0.99865000  0.12117000
   0.33651000  0.33287000  0.12086000
   0.50180000  0.49937000  0.18123000
   0.16423783  0.49675293  0.30461133
   0.83541563  0.16459976  0.30257035
   0.50724488  0.50344615  0.30132944
   0.33524000  0.33246000  0.24183000
   0.83204720  0.50038709  0.30193939
   0.66902000  0.33317000  0.24123000
   0.33605000  0.66588000  0.24146000
   0.00318000  0.66598000  0.24177000
   0.66918000  0.66674000  0.24131000
   0.50382847  0.83577117  0.30041647
Direct configuration=    18
   0.16863460  0.50744637  0.44468167
   0.99962000  0.33431000  0.00199000
  -0.00773302  0.32891029  0.36514727
   0.33524000  0.67037000  0.00023000
   0.66879000  0.99689000  0.12225000
   0.17066634  0.83176857  0.30272121
   0.83101157  0.83007891  0.30201348
   0.33542435  0.68198498  0.36538637
   0.33662000  0.99784000  0.24172000
   0.00240000  0.33332000  0.24079000
   0.00127000  0.66476000  0.12046000
   0.33922000  0.33072000  0.00000000
   0.83779000  0.49999000  0.06135000
   0.50272000  0.83391000  0.18098000
   0.34616995  0.33375358  0.36065263
   0.66882000  0.66655000  0.00068000
   0.50222000  0.83318000  0.06077000
   0.16894000  0.83304000  0.06062000
   0.00574955  0.66891433  0.35942452
   0.00239000  0.66441000  0.00051000
   0.66931532  0.32798563  0.35875111
   0.66930000  0.33358000  0.00050000
   0.50215000  0.49992000  0.06086000
   0.83620000  0.83206000  0.06086000
   0.66948000  0.99883000  0.00053000
   0.66879115  0.00345010  0.35951067
   0.33308934  0.00715015  0.35988029
   0.50343000  0.16520000  0.06105000
   0.16929000  0.16694000  0.06071000
   0.33657000  0.00075000  0.00067000
   0.00271000  0.99869000  0.00034000
   0.00627017 -0.00367705  0.36111031
   0.83570000  0.16556000  0.06094000
   0.17061000  0.49746000  0.06032000
   0.50461775  0.16438171  0.30187986
   0.66988000  0.99924000  0.24142000
   0.66965000  0.33304000  0.12103000
   0.83626000  0.49963000  0.18117000
   0.16899000  0.83329000  0.18177000
   0.33582000  0.66689000  0.12095000
   0.66914000  0.66722000  0.12117000
   0.83680000  0.83220000  0.18114000
   0.00172000  0.99944000  0.24151000
   0.16476462  0.16650739  0.30374755
   0.00260000  0.33284000  0.12101000
   0.16994000  0.49925000  0.18104000
   0.50164000  0.16594000  0.18135000
   0.83615000  0.16559000  0.18099000
   0.16980000  0.16587000  0.18099000
   0.33623000  0.99852000  0.12110000
   0.00245000  0.99865000  0.12117000
   0.33651000  0.33287000  0.12086000
   0.50180000  0.49937000  0.18123000
   0.16426394  0.49690171  0.30472932
   0.83526545  0.16475413  0.30258679
   0.50744487  0.50356944  0.30135405
   0.33524000  0.33246000  0.24183000
   0.83211586  0.50020765  0.30191297
   0.66902000  0.33317000  0.24123000
   0.33605000  0.66588000  0.24146000
   0.00318000  0.66598000  0.24177000
   0.66918000  0.66674000  0.24131000
   0.50376795  0.83573509  0.30039652
Direct configuration=    19
   0.16814984  0.50793503  0.44473027
   0.99962000  0.33431000  0.00199000
  -0.00775992  0.32924959  0.36504322
   0.33524000  0.67037000  0.00023000
   0.66879000  0.99689000  0.12225000
   0.17083638  0.83178626  0.30264138
   0.83126606  0.83007478  0.30197096
   0.33563705  0.68212258  0.36537468
   0.33662000  0.99784000  0.24172000
   0.00240000  0.33332000  0.24079000
   0.00127000  0.66476000  0.12046000
   0.33922000  0.33072000  0.00000000
   0.83779000  0.49999000  0.06135000
   0.50272000  0.83391000  0.18098000
   0.34599532  0.33420032  0.36067743
   0.66882000  0.66655000  0.00068000
   0.50222000  0.83318000  0.06077000
   0.16894000  0.83304000  0.06062000
   0.00586711  0.66950526  0.35950592
   0.00239000  0.66441000  0.00051000
   0.66932232  0.32821549  0.35886089
   0.66930000  0.33358000  0.00050000
   0.50215000  0.49992000  0.06086000
   0.83620000  0.83206000  0.06086000
   0.66948000  0.99883000  0.00053000
   0.66833228  0.00346090  0.35945068
   0.33290109  0.00764127  0.35997006
   0.50343000  0.16520000  0.06105000
   0.16929000  0.16694000  0.06071000
   0.33657000  0.00075000  0.00067000
   0.00271000  0.99869000  0.00034000
   0.00624351 -0.00416216  0.36096266
   0.83570000  0.16556000  0.06094000
   0.17061000  0.49746000  0.06032000
   0.50464131  0.16411287  0.30197375
   0.66988000  0.99924000  0.24142000
   0.66965000  0.33304000  0.12103000
   0.83626000  0.49963000  0.18117000
   0.16899000  0.83329000  0.18177000
   0.33582000  0.66689000  0.12095000
   0.66914000  0.66722000  0.12117000
   0.83680000  0.83220000  0.18114000
   0.00172000  0.99944000  0.24151000
   0.16466118  0.16655776  0.30365509
   0.00260000  0.33284000  0.12101000
   0.16994000  0.49925000  0.18104000
   0.50164000  0.16594000  0.18135000
   0.83615000  0.16559000  0.18099000
   0.16980000  0.16587000  0.18099000
   0.33623000  0.99852000  0.12110000
   0.00245000  0.99865000  0.12117000
   0.33651000  0.33287000  0.12086000
   0.50180000  0.49937000  0.18123000
   0.16436896  0.49717666  0.30481170
   0.83514431  0.16449945  0.30266825
   0.50765219  0.50385614  0.30140347
   0.33524000  0.33246000  0.24183000
   0.83228241  0.50048006  0.30197614
   0.66902000  0.33317000  0.24123000
   0.33605000  0.66588000  0.24146000
   0.00318000  0.66598000  0.24177000
   0.66918000  0.66674000  0.24131000
   0.50372724  0.83607137  0.30041900
Direct configuration=    20
   0.16789147  0.50819548  0.44475618
   0.99962000  0.33431000  0.00199000
  -0.00777426  0.32943043  0.36498777
   0.33524000  0.67037000  0.00023000
   0.66879000  0.99689000  0.12225000
   0.17092701  0.83179569  0.30259884
   0.83140170  0.83007257  0.30194830
   0.33575042  0.68219593  0.36536845
   0.33662000  0.99784000  0.24172000
   0.00240000  0.33332000  0.24079000
   0.00127000  0.66476000  0.12046000
   0.33922000  0.33072000  0.00000000
   0.83779000  0.49999000  0.06135000
   0.50272000  0.83391000  0.18098000
   0.34590225  0.33443843  0.36069065
   0.66882000  0.66655000  0.00068000
   0.50222000  0.83318000  0.06077000
   0.16894000  0.83304000  0.06062000
   0.00592976  0.66982022  0.35954931
   0.00239000  0.66441000  0.00051000
   0.66932604  0.32833799  0.35891940
   0.66930000  0.33358000  0.00050000
   0.50215000  0.49992000  0.06086000
   0.83620000  0.83206000  0.06086000
   0.66948000  0.99883000  0.00053000
   0.66808770  0.00346665  0.35941870
   0.33280075  0.00790302  0.36001791
   0.50343000  0.16520000  0.06105000
   0.16929000  0.16694000  0.06071000
   0.33657000  0.00075000  0.00067000
   0.00271000  0.99869000  0.00034000
   0.00622930 -0.00442071  0.36088396
   0.83570000  0.16556000  0.06094000
   0.17061000  0.49746000  0.06032000
   0.50465387  0.16396959  0.30202380
   0.66988000  0.99924000  0.24142000
   0.66965000  0.33304000  0.12103000
   0.83626000  0.49963000  0.18117000
   0.16899000  0.83329000  0.18177000
   0.33582000  0.66689000  0.12095000
   0.66914000  0.66722000  0.12117000
   0.83680000  0.83220000  0.18114000
   0.00172000  0.99944000  0.24151000
   0.16460604  0.16658461  0.30360581
   0.00260000  0.33284000  0.12101000
   0.16994000  0.49925000  0.18104000
   0.50164000  0.16594000  0.18135000
   0.83615000  0.16559000  0.18099000
   0.16980000  0.16587000  0.18099000
   0.33623000  0.99852000  0.12110000
   0.00245000  0.99865000  0.12117000
   0.33651000  0.33287000  0.12086000
   0.50180000  0.49937000  0.18123000
   0.16442494  0.49732321  0.30485561
   0.83507975  0.16436371  0.30271166
   0.50776269  0.50400895  0.30142981
   0.33524000  0.33246000  0.24183000
   0.83237119  0.50062525  0.30200981
   0.66902000  0.33317000  0.24123000
   0.33605000  0.66588000  0.24146000
   0.00318000  0.66598000  0.24177000
   0.66918000  0.66674000  0.24131000
   0.50370555  0.83625061  0.30043097
Direct configuration=    21
   0.16742025  0.50861894  0.44480656
   0.99962000  0.33431000  0.00199000
  -0.00763071  0.32980983  0.36489870
   0.33524000  0.67037000  0.00023000
   0.66879000  0.99689000  0.12225000
   0.17103740  0.83173641  0.30247703
   0.83152148  0.83028732  0.30195698
   0.33573819  0.68232327  0.36536803
   0.33662000  0.99784000  0.24172000
   0.00240000  0.33332000  0.24079000
   0.00127000  0.66476000  0.12046000
   0.33922000  0.33072000  0.00000000
   0.83779000  0.49999000  0.06135000
   0.50272000  0.83391000  0.18098000
   0.34577004  0.33480402  0.36076983
   0.66882000  0.66655000  0.00068000
   0.50222000  0.83318000  0.06077000
   0.16894000  0.83304000  0.06062000
   0.00591829  0.67035460  0.35952260
   0.00239000  0.66441000  0.00051000
   0.66939860  0.32855078  0.35893091
   0.66930000  0.33358000  0.00050000
   0.50215000  0.49992000  0.06086000
   0.83620000  0.83206000  0.06086000
   0.66948000  0.99883000  0.00053000
   0.66774592  0.00327877  0.35950805
   0.33245777  0.00850344  0.36013804
   0.50343000  0.16520000  0.06105000
   0.16929000  0.16694000  0.06071000
   0.33657000  0.00075000  0.00067000
   0.00271000  0.99869000  0.00034000
   0.00625193 -0.00495774  0.36076773
   0.83570000  0.16556000  0.06094000
   0.17061000  0.49746000  0.06032000
   0.50444019  0.16430196  0.30209237
   0.66988000  0.99924000  0.24142000
   0.66965000  0.33304000  0.12103000
   0.83626000  0.49963000  0.18117000
   0.16899000  0.83329000  0.18177000
   0.33582000  0.66689000  0.12095000
   0.66914000  0.66722000  0.12117000
   0.83680000  0.83220000  0.18114000
   0.00172000  0.99944000  0.24151000
   0.16470081  0.16681941  0.30358625
   0.00260000  0.33284000  0.12101000
   0.16994000  0.49925000  0.18104000
   0.50164000  0.16594000  0.18135000
   0.83615000  0.16559000  0.18099000
   0.16980000  0.16587000  0.18099000
   0.33623000  0.99852000  0.12110000
   0.00245000  0.99865000  0.12117000
   0.33651000  0.33287000  0.12086000
   0.50180000  0.49937000  0.18123000
   0.16447515  0.49751307  0.30475241
   0.83513330  0.16437914  0.30278305
   0.50783152  0.50396747  0.30145227
   0.33524000  0.33246000  0.24183000
   0.83222743  0.50109001  0.30212582
   0.66902000  0.33317000  0.24123000
   0.33605000  0.66588000  0.24146000
   0.00318000  0.66598000  0.24177000
   0.66918000  0.66674000  0.24131000
   0.50360300  0.83636987  0.30036739
Direct configuration=    22
   0.16725686  0.50876577  0.44482403
   0.99962000  0.33431000  0.00199000
  -0.00758093  0.32994138  0.36486782
   0.33524000  0.67037000  0.00023000
   0.66879000  0.99689000  0.12225000
   0.17107568  0.83171586  0.30243479
   0.83156302  0.83036178  0.30195999
   0.33573395  0.68236743  0.36536789
   0.33662000  0.99784000  0.24172000
   0.00240000  0.33332000  0.24079000
   0.00127000  0.66476000  0.12046000
   0.33922000  0.33072000  0.00000000
   0.83779000  0.49999000  0.06135000
   0.50272000  0.83391000  0.18098000
   0.34572419  0.33493079  0.36079729
   0.66882000  0.66655000  0.00068000
   0.50222000  0.83318000  0.06077000
   0.16894000  0.83304000  0.06062000
   0.00591432  0.67053989  0.35951335
   0.00239000  0.66441000  0.00051000
   0.66942376  0.32862456  0.35893490
   0.66930000  0.33358000  0.00050000
   0.50215000  0.49992000  0.06086000
   0.83620000  0.83206000  0.06086000
   0.66948000  0.99883000  0.00053000
   0.66762741  0.00321363  0.35953903
   0.33233885  0.00871162  0.36017969
   0.50343000  0.16520000  0.06105000
   0.16929000  0.16694000  0.06071000
   0.33657000  0.00075000  0.00067000
   0.00271000  0.99869000  0.00034000
   0.00625978 -0.00514395  0.36072743
   0.83570000  0.16556000  0.06094000
   0.17061000  0.49746000  0.06032000
   0.50436610  0.16441720  0.30211615
   0.66988000  0.99924000  0.24142000
   0.66965000  0.33304000  0.12103000
   0.83626000  0.49963000  0.18117000
   0.16899000  0.83329000  0.18177000
   0.33582000  0.66689000  0.12095000
   0.66914000  0.66722000  0.12117000
   0.83680000  0.83220000  0.18114000
   0.00172000  0.99944000  0.24151000
   0.16473367  0.16690083  0.30357946
   0.00260000  0.33284000  0.12101000
   0.16994000  0.49925000  0.18104000
   0.50164000  0.16594000  0.18135000
   0.83615000  0.16559000  0.18099000
   0.16980000  0.16587000  0.18099000
   0.33623000  0.99852000  0.12110000
   0.00245000  0.99865000  0.12117000
   0.33651000  0.33287000  0.12086000
   0.50180000  0.49937000  0.18123000
   0.16449256  0.49757890  0.30471662
   0.83515187  0.16438449  0.30280781
   0.50785539  0.50395309  0.30146006
   0.33524000  0.33246000  0.24183000
   0.83217758  0.50125116  0.30216604
   0.66902000  0.33317000  0.24123000
   0.33605000  0.66588000  0.24146000
   0.00318000  0.66598000  0.24177000
   0.66918000  0.66674000  0.24131000
   0.50356744  0.83641122  0.30034534
Direct configuration=    23
   0.16704178  0.50904516  0.44483408
   0.99962000  0.33431000  0.00199000
  -0.00736943  0.33013627  0.36485407
   0.33524000  0.67037000  0.00023000
   0.66879000  0.99689000  0.12225000
   0.17105274  0.83192281  0.30241730
   0.83118967  0.83073000  0.30198465
   0.33554323  0.68244508  0.36540134
   0.33662000  0.99784000  0.24172000
   0.00240000  0.33332000  0.24079000
   0.00127000  0.66476000  0.12046000
   0.33922000  0.33072000  0.00000000
   0.83779000  0.49999000  0.06135000
   0.50272000  0.83391000  0.18098000
   0.34568261  0.33509422  0.36088590
   0.66882000  0.66655000  0.00068000
   0.50222000  0.83318000  0.06077000
   0.16894000  0.83304000  0.06062000
   0.00591203  0.67047379  0.35939859
   0.00239000  0.66441000  0.00051000
   0.66945484  0.32862200  0.35888648
   0.66930000  0.33358000  0.00050000
   0.50215000  0.49992000  0.06086000
   0.83620000  0.83206000  0.06086000
   0.66948000  0.99883000  0.00053000
   0.66751796  0.00314430  0.35955381
   0.33210542  0.00898925  0.36021813
   0.50343000  0.16520000  0.06105000
   0.16929000  0.16694000  0.06071000
   0.33657000  0.00075000  0.00067000
   0.00271000  0.99869000  0.00034000
   0.00649746 -0.00538743  0.36072077
   0.83570000  0.16556000  0.06094000
   0.17061000  0.49746000  0.06032000
   0.50442966  0.16465091  0.30210361
   0.66988000  0.99924000  0.24142000
   0.66965000  0.33304000  0.12103000
   0.83626000  0.49963000  0.18117000
   0.16899000  0.83329000  0.18177000
   0.33582000  0.66689000  0.12095000
   0.66914000  0.66722000  0.12117000
   0.83680000  0.83220000  0.18114000
   0.00172000  0.99944000  0.24151000
   0.16474522  0.16695230  0.30367410
   0.00260000  0.33284000  0.12101000
   0.16994000  0.49925000  0.18104000
   0.50164000  0.16594000  0.18135000
   0.83615000  0.16559000  0.18099000
   0.16980000  0.16587000  0.18099000
   0.33623000  0.99852000  0.12110000
   0.00245000  0.99865000  0.12117000
   0.33651000  0.33287000  0.12086000
   0.50180000  0.49937000  0.18123000
   0.16435226  0.49752271  0.30458630
   0.83510286  0.16472322  0.30280888
   0.50769642  0.50370611  0.30141817
   0.33524000  0.33246000  0.24183000
   0.83186105  0.50127477  0.30214280
   0.66902000  0.33317000  0.24123000
   0.33605000  0.66588000  0.24146000
   0.00318000  0.66598000  0.24177000
   0.66918000  0.66674000  0.24131000
   0.50350297  0.83632677  0.30032569
Direct configuration=    24
   0.16699881  0.50910098  0.44483609
   0.99962000  0.33431000  0.00199000
  -0.00732717  0.33017520  0.36485132
   0.33524000  0.67037000  0.00023000
   0.66879000  0.99689000  0.12225000
   0.17104816  0.83196416  0.30241381
   0.83111508  0.83080357  0.30198958
   0.33550512  0.68246059  0.36540802
   0.33662000  0.99784000  0.24172000
   0.00240000  0.33332000  0.24079000
   0.00127000  0.66476000  0.12046000
   0.33922000  0.33072000  0.00000000
   0.83779000  0.49999000  0.06135000
   0.50272000  0.83391000  0.18098000
   0.34567430  0.33512688  0.36090360
   0.66882000  0.66655000  0.00068000
   0.50222000  0.83318000  0.06077000
   0.16894000  0.83304000  0.06062000
   0.00591157  0.67046059  0.35937566
   0.00239000  0.66441000  0.00051000
   0.66946105  0.32862149  0.35887681
   0.66930000  0.33358000  0.00050000
   0.50215000  0.49992000  0.06086000
   0.83620000  0.83206000  0.06086000
   0.66948000  0.99883000  0.00053000
   0.66749609  0.00313045  0.35955677
   0.33205878  0.00904471  0.36022581
   0.50343000  0.16520000  0.06105000
   0.16929000  0.16694000  0.06071000
   0.33657000  0.00075000  0.00067000
   0.00271000  0.99869000  0.00034000
   0.00654495 -0.00543607  0.36071944
   0.83570000  0.16556000  0.06094000
   0.17061000  0.49746000  0.06032000
   0.50444236  0.16469760  0.30210110
   0.66988000  0.99924000  0.24142000
   0.66965000  0.33304000  0.12103000
   0.83626000  0.49963000  0.18117000
   0.16899000  0.83329000  0.18177000
   0.33582000  0.66689000  0.12095000
   0.66914000  0.66722000  0.12117000
   0.83680000  0.83220000  0.18114000
   0.00172000  0.99944000  0.24151000
   0.16474753  0.16696258  0.30369300
   0.00260000  0.33284000  0.12101000
   0.16994000  0.49925000  0.18104000
   0.50164000  0.16594000  0.18135000
   0.83615000  0.16559000  0.18099000
   0.16980000  0.16587000  0.18099000
   0.33623000  0.99852000  0.12110000
   0.00245000  0.99865000  0.12117000
   0.33651000  0.33287000  0.12086000
   0.50180000  0.49937000  0.18123000
   0.16432423  0.49751149  0.30456026
   0.83509306  0.16479090  0.30280910
   0.50766466  0.50365676  0.30140981
   0.33524000  0.33246000  0.24183000
   0.83179781  0.50127949  0.30213815
   0.66902000  0.33317000  0.24123000
   0.33605000  0.66588000  0.24146000
   0.00318000  0.66598000  0.24177000
   0.66918000  0.66674000  0.24131000
   0.50349009  0.83630990  0.30032177
Direct configuration=    25
   0.16702639  0.50906516  0.44483480
   0.99962000  0.33431000  0.00199000
  -0.00735429  0.33015021  0.36485309
   0.33524000  0.67037000  0.00023000
   0.66879000  0.99689000  0.12225000
   0.17105110  0.83193762  0.30241605
   0.83116295  0.83075636  0.30198642
   0.33552958  0.68245064  0.36540373
   0.33662000  0.99784000  0.24172000
   0.00240000  0.33332000  0.24079000
   0.00127000  0.66476000  0.12046000
   0.33922000  0.33072000  0.00000000
   0.83779000  0.49999000  0.06135000
   0.50272000  0.83391000  0.18098000
   0.34567963  0.33510592  0.36089224
   0.66882000  0.66655000  0.00068000
   0.50222000  0.83318000  0.06077000
   0.16894000  0.83304000  0.06062000
   0.00591186  0.67046906  0.35939038
   0.00239000  0.66441000  0.00051000
   0.66945706  0.32862182  0.35888302
   0.66930000  0.33358000  0.00050000
   0.50215000  0.49992000  0.06086000
   0.83620000  0.83206000  0.06086000
   0.66948000  0.99883000  0.00053000
   0.66751012  0.00313934  0.35955487
   0.33208871  0.00900912  0.36022088
   0.50343000  0.16520000  0.06105000
   0.16929000  0.16694000  0.06071000
   0.33657000  0.00075000  0.00067000
   0.00271000  0.99869000  0.00034000
   0.00651447 -0.00540485  0.36072029
   0.83570000  0.16556000  0.06094000
   0.17061000  0.49746000  0.06032000
   0.50443421  0.16466764  0.30210271
   0.66988000  0.99924000  0.24142000
   0.66965000  0.33304000  0.12103000
   0.83626000  0.49963000  0.18117000
   0.16899000  0.83329000  0.18177000
   0.33582000  0.66689000  0.12095000
   0.66914000  0.66722000  0.12117000
   0.83680000  0.83220000  0.18114000
   0.00172000  0.99944000  0.24151000
   0.16474605  0.16695598  0.30368087
   0.00260000  0.33284000  0.12101000
   0.16994000  0.49925000  0.18104000
   0.50164000  0.16594000  0.18135000
   0.83615000  0.16559000  0.18099000
   0.16980000  0.16587000  0.18099000
   0.33623000  0.99852000  0.12110000
   0.00245000  0.99865000  0.12117000
   0.33651000  0.33287000  0.12086000
   0.50180000  0.49937000  0.18123000
   0.16434222  0.49751869  0.30457697
   0.83509935  0.16474746  0.30280896
   0.50768505  0.50368843  0.30141518
   0.33524000  0.33246000  0.24183000
   0.83183840  0.50127646  0.30214113
   0.66902000  0.33317000  0.24123000
   0.33605000  0.66588000  0.24146000
   0.00318000  0.66598000  0.24177000
   0.66918000  0.66674000  0.24131000
   0.50349836  0.83632073  0.30032429
Direct configuration=    26
   0.16701260  0.50908307  0.44483545
   0.99962000  0.33431000  0.00199000
  -0.00734073  0.33016271  0.36485221
   0.33524000  0.67037000  0.00023000
   0.66879000  0.99689000  0.12225000
   0.17104963  0.83195089  0.30241493
   0.83113901  0.83077996  0.30198800
   0.33551735  0.68245561  0.36540588
   0.33662000  0.99784000  0.24172000
   0.00240000  0.33332000  0.24079000
   0.00127000  0.66476000  0.12046000
   0.33922000  0.33072000  0.00000000
   0.83779000  0.49999000  0.06135000
   0.50272000  0.83391000  0.18098000
   0.34567697  0.33511640  0.36089792
   0.66882000  0.66655000  0.00068000
   0.50222000  0.83318000  0.06077000
   0.16894000  0.83304000  0.06062000
   0.00591172  0.67046483  0.35938302
   0.00239000  0.66441000  0.00051000
   0.66945905  0.32862165  0.35887991
   0.66930000  0.33358000  0.00050000
   0.50215000  0.49992000  0.06086000
   0.83620000  0.83206000  0.06086000
   0.66948000  0.99883000  0.00053000
   0.66750311  0.00313489  0.35955582
   0.33207374  0.00902692  0.36022335
   0.50343000  0.16520000  0.06105000
   0.16929000  0.16694000  0.06071000
   0.33657000  0.00075000  0.00067000
   0.00271000  0.99869000  0.00034000
   0.00652971 -0.00542046  0.36071987
   0.83570000  0.16556000  0.06094000
   0.17061000  0.49746000  0.06032000
   0.50443828  0.16468262  0.30210191
   0.66988000  0.99924000  0.24142000
   0.66965000  0.33304000  0.12103000
   0.83626000  0.49963000  0.18117000
   0.16899000  0.83329000  0.18177000
   0.33582000  0.66689000  0.12095000
   0.66914000  0.66722000  0.12117000
   0.83680000  0.83220000  0.18114000
   0.00172000  0.99944000  0.24151000
   0.16474679  0.16695928  0.30368694
   0.00260000  0.33284000  0.12101000
   0.16994000  0.49925000  0.18104000
   0.50164000  0.16594000  0.18135000
   0.83615000  0.16559000  0.18099000
   0.16980000  0.16587000  0.18099000
   0.33623000  0.99852000  0.12110000
   0.00245000  0.99865000  0.12117000
   0.33651000  0.33287000  0.12086000
   0.50180000  0.49937000  0.18123000
   0.16433323  0.49751509  0.30456862
   0.83509621  0.16476918  0.30280903
   0.50767485  0.50367260  0.30141249
   0.33524000  0.33246000  0.24183000
   0.83181811  0.50127797  0.30213964
   0.66902000  0.33317000  0.24123000
   0.33605000  0.66588000  0.24146000
   0.00318000  0.66598000  0.24177000
   0.66918000  0.66674000  0.24131000
   0.50349422  0.83631532  0.30032303
Direct configuration=    27
   0.16702327  0.50906920  0.44483495
   0.99962000  0.33431000  0.00199000
  -0.00735123  0.33015304  0.36485289
   0.33524000  0.67037000  0.00023000
   0.66879000  0.99689000  0.12225000
   0.17105077  0.83194062  0.30241580
   0.83115754  0.83076169  0.30198678
   0.33552681  0.68245176  0.36540422
   0.33662000  0.99784000  0.24172000
   0.00240000  0.33332000  0.24079000
   0.00127000  0.66476000  0.12046000
   0.33922000  0.33072000  0.00000000
   0.83779000  0.49999000  0.06135000
   0.50272000  0.83391000  0.18098000
   0.34567903  0.33510829  0.36089353
   0.66882000  0.66655000  0.00068000
   0.50222000  0.83318000  0.06077000
   0.16894000  0.83304000  0.06062000
   0.00591183  0.67046811  0.35938871
   0.00239000  0.66441000  0.00051000
   0.66945751  0.32862178  0.35888231
   0.66930000  0.33358000  0.00050000
   0.50215000  0.49992000  0.06086000
   0.83620000  0.83206000  0.06086000
   0.66948000  0.99883000  0.00053000
   0.66750854  0.00313833  0.35955508
   0.33208533  0.00901314  0.36022144
   0.50343000  0.16520000  0.06105000
   0.16929000  0.16694000  0.06071000
   0.33657000  0.00075000  0.00067000
   0.00271000  0.99869000  0.00034000
   0.00651791 -0.00540838  0.36072020
   0.83570000  0.16556000  0.06094000
   0.17061000  0.49746000  0.06032000
   0.50443513  0.16467102  0.30210253
   0.66988000  0.99924000  0.24142000
   0.66965000  0.33304000  0.12103000
   0.83626000  0.49963000  0.18117000
   0.16899000  0.83329000  0.18177000
   0.33582000  0.66689000  0.12095000
   0.66914000  0.66722000  0.12117000
   0.83680000  0.83220000  0.18114000
   0.00172000  0.99944000  0.24151000
   0.16474622  0.16695673  0.30368224
   0.00260000  0.33284000  0.12101000
   0.16994000  0.49925000  0.18104000
   0.50164000  0.16594000  0.18135000
   0.83615000  0.16559000  0.18099000
   0.16980000  0.16587000  0.18099000
   0.33623000  0.99852000  0.12110000
   0.00245000  0.99865000  0.12117000
   0.33651000  0.33287000  0.12086000
   0.50180000  0.49937000  0.18123000
   0.16434019  0.49751788  0.30457508
   0.83509864  0.16475237  0.30280897
   0.50768274  0.50368485  0.30141457
   0.33524000  0.33246000  0.24183000
   0.83183381  0.50127680  0.30214080
   0.66902000  0.33317000  0.24123000
   0.33605000  0.66588000  0.24146000
   0.00318000  0.66598000  0.24177000
   0.66918000  0.66674000  0.24131000
   0.50349742  0.83631951  0.30032400
Direct configuration=    28
   0.16702493  0.50906706  0.44483487
   0.99962000  0.33431000  0.00199000
  -0.00735285  0.33015154  0.36485299
   0.33524000  0.67037000  0.00023000
   0.66879000  0.99689000  0.12225000
   0.17105094  0.83193903  0.30241593
   0.83116041  0.83075886  0.30198659
   0.33552828  0.68245117  0.36540396
   0.33662000  0.99784000  0.24172000
   0.00240000  0.33332000  0.24079000
   0.00127000  0.66476000  0.12046000
   0.33922000  0.33072000  0.00000000
   0.83779000  0.49999000  0.06135000
   0.50272000  0.83391000  0.18098000
   0.34567935  0.33510703  0.36089284
   0.66882000  0.66655000  0.00068000
   0.50222000  0.83318000  0.06077000
   0.16894000  0.83304000  0.06062000
   0.00591185  0.67046861  0.35938960
   0.00239000  0.66441000  0.00051000
   0.66945727  0.32862180  0.35888269
   0.66930000  0.33358000  0.00050000
   0.50215000  0.49992000  0.06086000
   0.83620000  0.83206000  0.06086000
   0.66948000  0.99883000  0.00053000
   0.66750938  0.00313887  0.35955497
   0.33208712  0.00901101  0.36022114
   0.50343000  0.16520000  0.06105000
   0.16929000  0.16694000  0.06071000
   0.33657000  0.00075000  0.00067000
   0.00271000  0.99869000  0.00034000
   0.00651609 -0.00540651  0.36072025
   0.83570000  0.16556000  0.06094000
   0.17061000  0.49746000  0.06032000
   0.50443464  0.16466923  0.30210262
   0.66988000  0.99924000  0.24142000
   0.66965000  0.33304000  0.12103000
   0.83626000  0.49963000  0.18117000
   0.16899000  0.83329000  0.18177000
   0.33582000  0.66689000  0.12095000
   0.66914000  0.66722000  0.12117000
   0.83680000  0.83220000  0.18114000
   0.00172000  0.99944000  0.24151000
   0.16474613  0.16695633  0.30368151
   0.00260000  0.33284000  0.12101000
   0.16994000  0.49925000  0.18104000
   0.50164000  0.16594000  0.18135000
   0.83615000  0.16559000  0.18099000
   0.16980000  0.16587000  0.18099000
   0.33623000  0.99852000  0.12110000
   0.00245000  0.99865000  0.12117000
   0.33651000  0.33287000  0.12086000
   0.50180000  0.49937000  0.18123000
   0.16434127  0.49751831  0.30457609
   0.83509902  0.16474977  0.30280897
   0.50768396  0.50368675  0.30141489
   0.33524000  0.33246000  0.24183000
   0.83183625  0.50127662  0.30214097
   0.66902000  0.33317000  0.24123000
   0.33605000  0.66588000  0.24146000
   0.00318000  0.66598000  0.24177000
   0.66918000  0.66674000  0.24131000
   0.50349792  0.83632016  0.30032415
Direct configuration=    29
   0.16688886  0.50930944  0.44487453
   0.99962000  0.33431000  0.00199000
  -0.00730871  0.33023740  0.36484827
   0.33524000  0.67037000  0.00023000
   0.66879000  0.99689000  0.12225000
   0.17086681  0.83206081  0.30243642
   0.83092624  0.83084667  0.30200336
   0.33530517  0.68245266  0.36541797
   0.33662000  0.99784000  0.24172000
   0.00240000  0.33332000  0.24079000
   0.00127000  0.66476000  0.12046000
   0.33922000  0.33072000  0.00000000
   0.83779000  0.49999000  0.06135000
   0.50272000  0.83391000  0.18098000
   0.34569883  0.33517753  0.36094996
   0.66882000  0.66655000  0.00068000
   0.50222000  0.83318000  0.06077000
   0.16894000  0.83304000  0.06062000
   0.00580996  0.67013889  0.35925977
   0.00239000  0.66441000  0.00051000
   0.66934791  0.32862731  0.35892904
   0.66930000  0.33358000  0.00050000
   0.50215000  0.49992000  0.06086000
   0.83620000  0.83206000  0.06086000
   0.66948000  0.99883000  0.00053000
   0.66748076  0.00323456  0.35948362
   0.33217065  0.00902890  0.36022918
   0.50343000  0.16520000  0.06105000
   0.16929000  0.16694000  0.06071000
   0.33657000  0.00075000  0.00067000
   0.00271000  0.99869000  0.00034000
   0.00676443 -0.00543820  0.36078071
   0.83570000  0.16556000  0.06094000
   0.17061000  0.49746000  0.06032000
   0.50444738  0.16438785  0.30206859
   0.66988000  0.99924000  0.24142000
   0.66965000  0.33304000  0.12103000
   0.83626000  0.49963000  0.18117000
   0.16899000  0.83329000  0.18177000
   0.33582000  0.66689000  0.12095000
   0.66914000  0.66722000  0.12117000
   0.83680000  0.83220000  0.18114000
   0.00172000  0.99944000  0.24151000
   0.16462663  0.16695651  0.30371187
   0.00260000  0.33284000  0.12101000
   0.16994000  0.49925000  0.18104000
   0.50164000  0.16594000  0.18135000
   0.83615000  0.16559000  0.18099000
   0.16980000  0.16587000  0.18099000
   0.33623000  0.99852000  0.12110000
   0.00245000  0.99865000  0.12117000
   0.33651000  0.33287000  0.12086000
   0.50180000  0.49937000  0.18123000
   0.16427775  0.49744207  0.30453983
   0.83519076  0.16477667  0.30278052
   0.50742507  0.50364330  0.30137034
   0.33524000  0.33246000  0.24183000
   0.83178599  0.50116335  0.30205966
   0.66902000  0.33317000  0.24123000
   0.33605000  0.66588000  0.24146000
   0.00318000  0.66598000  0.24177000
   0.66918000  0.66674000  0.24131000
   0.50345376  0.83634960  0.30036702
