  62  62   0   0
  0.2757047E+02  0.8539300E-09  0.8505900E-09  0.2353390E-08  0.5000000E-15
  1.000000000000000E-004
  CAR 
 ni3al                                   
      5.18378453    -45.80606638  301      0.77649289      1.00000000
    -45.806  0.0000E+00  0.0000E+00  0.0000E+00  0.0000E+00
    -45.636  0.0000E+00  0.0000E+00  0.0000E+00  0.0000E+00
    -45.466  0.0000E+00  0.0000E+00  0.0000E+00  0.0000E+00
    -45.296  0.0000E+00  0.0000E+00  0.0000E+00  0.0000E+00
    -45.126  0.0000E+00  0.0000E+00  0.0000E+00  0.0000E+00
    -44.956  0.0000E+00  0.0000E+00  0.0000E+00  0.0000E+00
    -44.786  0.0000E+00 -0.1517E-33  0.0000E+00 -0.2579E-34
    -44.616  0.0000E+00 -0.1231E-25  0.0000E+00 -0.2093E-26
    -44.446 -0.7440E-36 -0.7642E-19 -0.1265E-36 -0.1299E-19
    -44.276 -0.1171E-27 -0.3529E-13 -0.1990E-28 -0.5998E-14
    -44.106 -0.1384E-20 -0.1295E-08 -0.2352E-21 -0.2201E-09
    -43.936 -0.1181E-14 -0.3708E-05 -0.2007E-15 -0.6305E-06
    -43.766 -0.7556E-10 -0.7808E-03 -0.1284E-10 -0.1333E-03
    -43.597 -0.3458E-06 -0.4891E-02 -0.5879E-07 -0.9647E-03
    -43.427 -0.1080E-03  0.1022E+00 -0.1841E-04  0.1641E-01
    -43.257 -0.1746E-02  0.1911E+00 -0.3151E-03  0.4889E-01
    -43.087  0.1682E-01  0.8150E-01  0.2544E-02  0.6275E-01
    -42.917  0.9286E-01  0.4031E-01  0.1833E-01  0.6960E-01
    -42.747  0.6757E-01  0.3623E-01  0.2981E-01  0.7576E-01
    -42.577  0.1081E-02  0.4057E-01  0.3000E-01  0.8265E-01
    -42.407  0.1341E-01  0.5965E-01  0.3227E-01  0.9279E-01
    -42.237  0.5835E-01  0.5051E-01  0.4219E-01  0.1014E+00
    -42.067  0.1264E+00  0.3939E-01  0.6367E-01  0.1081E+00
    -41.897  0.1091E+00  0.1203E-01  0.8222E-01  0.1101E+00
    -41.727  0.1014E+00 -0.5494E-03  0.9946E-01  0.1100E+00
    -41.557  0.5535E-02 -0.1180E-03  0.1004E+00  0.1100E+00
    -41.387  0.2824E-01 -0.5081E-06  0.1052E+00  0.1100E+00
    -41.217  0.2846E-01 -0.1346E-09  0.1100E+00  0.1100E+00
    -41.047  0.8777E-04 -0.2503E-14  0.1101E+00  0.1100E+00
    -40.877 -0.1033E-02 -0.2120E-11  0.1099E+00  0.1100E+00
    -40.707  0.1116E-02 -0.2535E-07  0.1101E+00  0.1100E+00
    -40.537  0.5183E-01 -0.2109E-04  0.1189E+00  0.1100E+00
    -40.367  0.8820E-01 -0.9475E-03  0.1339E+00  0.1098E+00
    -40.197  0.3760E-01  0.6361E-02  0.1403E+00  0.1109E+00
    -40.027 -0.1159E-02  0.4052E-01  0.1401E+00  0.1178E+00
    -39.857 -0.3635E-03  0.4674E-01  0.1400E+00  0.1257E+00
    -39.687 -0.2530E-05  0.4483E-01  0.1400E+00  0.1334E+00
    -39.517 -0.1188E-08  0.2339E-01  0.1400E+00  0.1373E+00
    -39.347 -0.3995E-13  0.1486E-01  0.1400E+00  0.1399E+00
    -39.177  0.0000E+00  0.1053E-02  0.1400E+00  0.1400E+00
    -39.007  0.0000E+00 -0.2747E-03  0.1400E+00  0.1400E+00
    -38.837  0.0000E+00 -0.2520E-05  0.1400E+00  0.1400E+00
    -38.667  0.0000E+00 -0.1300E-08  0.1400E+00  0.1400E+00
    -38.498  0.0000E+00 -0.4595E-13  0.1400E+00  0.1400E+00
    -38.328  0.0000E+00  0.0000E+00  0.1400E+00  0.1400E+00
    -38.158  0.0000E+00  0.0000E+00  0.1400E+00  0.1400E+00
    -37.988  0.0000E+00  0.0000E+00  0.1400E+00  0.1400E+00
    -37.818  0.0000E+00  0.0000E+00  0.1400E+00  0.1400E+00
    -37.648  0.0000E+00  0.0000E+00  0.1400E+00  0.1400E+00
    -37.478  0.0000E+00  0.0000E+00  0.1400E+00  0.1400E+00
    -37.308  0.0000E+00  0.0000E+00  0.1400E+00  0.1400E+00
    -37.138  0.0000E+00  0.0000E+00  0.1400E+00  0.1400E+00
    -36.968  0.0000E+00  0.0000E+00  0.1400E+00  0.1400E+00
    -36.798  0.0000E+00  0.0000E+00  0.1400E+00  0.1400E+00
    -36.628  0.0000E+00  0.0000E+00  0.1400E+00  0.1400E+00
    -36.458  0.0000E+00  0.0000E+00  0.1400E+00  0.1400E+00
    -36.288  0.0000E+00  0.0000E+00  0.1400E+00  0.1400E+00
    -36.118  0.0000E+00  0.0000E+00  0.1400E+00  0.1400E+00
    -35.948  0.0000E+00  0.0000E+00  0.1400E+00  0.1400E+00
    -35.778  0.0000E+00  0.0000E+00  0.1400E+00  0.1400E+00
    -35.608  0.0000E+00  0.0000E+00  0.1400E+00  0.1400E+00
    -35.438  0.0000E+00  0.0000E+00  0.1400E+00  0.1400E+00
    -35.268  0.0000E+00  0.0000E+00  0.1400E+00  0.1400E+00
    -35.098  0.0000E+00  0.0000E+00  0.1400E+00  0.1400E+00
    -34.928  0.0000E+00  0.0000E+00  0.1400E+00  0.1400E+00
    -34.758  0.0000E+00  0.0000E+00  0.1400E+00  0.1400E+00
    -34.588  0.0000E+00  0.0000E+00  0.1400E+00  0.1400E+00
    -34.418  0.0000E+00  0.0000E+00  0.1400E+00  0.1400E+00
    -34.248  0.0000E+00  0.0000E+00  0.1400E+00  0.1400E+00
    -34.078  0.0000E+00  0.0000E+00  0.1400E+00  0.1400E+00
    -33.908  0.0000E+00  0.0000E+00  0.1400E+00  0.1400E+00
    -33.738  0.0000E+00  0.0000E+00  0.1400E+00  0.1400E+00
    -33.569  0.0000E+00  0.0000E+00  0.1400E+00  0.1400E+00
    -33.399  0.0000E+00  0.0000E+00  0.1400E+00  0.1400E+00
    -33.229  0.0000E+00  0.0000E+00  0.1400E+00  0.1400E+00
    -33.059  0.0000E+00  0.0000E+00  0.1400E+00  0.1400E+00
    -32.889  0.0000E+00  0.0000E+00  0.1400E+00  0.1400E+00
    -32.719  0.0000E+00  0.0000E+00  0.1400E+00  0.1400E+00
    -32.549  0.0000E+00  0.0000E+00  0.1400E+00  0.1400E+00
    -32.379  0.0000E+00  0.0000E+00  0.1400E+00  0.1400E+00
    -32.209  0.0000E+00  0.0000E+00  0.1400E+00  0.1400E+00
    -32.039  0.0000E+00  0.0000E+00  0.1400E+00  0.1400E+00
    -31.869  0.0000E+00  0.0000E+00  0.1400E+00  0.1400E+00
    -31.699  0.0000E+00  0.0000E+00  0.1400E+00  0.1400E+00
    -31.529  0.0000E+00  0.0000E+00  0.1400E+00  0.1400E+00
    -31.359  0.0000E+00  0.0000E+00  0.1400E+00  0.1400E+00
    -31.189  0.0000E+00  0.0000E+00  0.1400E+00  0.1400E+00
    -31.019  0.0000E+00  0.0000E+00  0.1400E+00  0.1400E+00
    -30.849  0.0000E+00  0.0000E+00  0.1400E+00  0.1400E+00
    -30.679  0.0000E+00  0.0000E+00  0.1400E+00  0.1400E+00
    -30.509  0.0000E+00  0.0000E+00  0.1400E+00  0.1400E+00
    -30.339  0.0000E+00  0.0000E+00  0.1400E+00  0.1400E+00
    -30.169  0.0000E+00  0.0000E+00  0.1400E+00  0.1400E+00
    -29.999  0.0000E+00  0.0000E+00  0.1400E+00  0.1400E+00
    -29.829  0.0000E+00  0.0000E+00  0.1400E+00  0.1400E+00
    -29.659  0.0000E+00  0.0000E+00  0.1400E+00  0.1400E+00
    -29.489  0.0000E+00  0.0000E+00  0.1400E+00  0.1400E+00
    -29.319  0.0000E+00  0.0000E+00  0.1400E+00  0.1400E+00
    -29.149  0.0000E+00  0.0000E+00  0.1400E+00  0.1400E+00
    -28.979  0.0000E+00  0.0000E+00  0.1400E+00  0.1400E+00
    -28.809  0.0000E+00  0.0000E+00  0.1400E+00  0.1400E+00
    -28.639  0.0000E+00  0.0000E+00  0.1400E+00  0.1400E+00
    -28.470  0.0000E+00  0.0000E+00  0.1400E+00  0.1400E+00
    -28.300  0.0000E+00  0.0000E+00  0.1400E+00  0.1400E+00
    -28.130  0.0000E+00  0.0000E+00  0.1400E+00  0.1400E+00
    -27.960  0.0000E+00  0.0000E+00  0.1400E+00  0.1400E+00
    -27.790  0.0000E+00  0.0000E+00  0.1400E+00  0.1400E+00
    -27.620  0.0000E+00  0.0000E+00  0.1400E+00  0.1400E+00
    -27.450  0.0000E+00  0.0000E+00  0.1400E+00  0.1400E+00
    -27.280  0.0000E+00  0.0000E+00  0.1400E+00  0.1400E+00
    -27.110  0.0000E+00  0.0000E+00  0.1400E+00  0.1400E+00
    -26.940  0.0000E+00  0.0000E+00  0.1400E+00  0.1400E+00
    -26.770  0.0000E+00  0.0000E+00  0.1400E+00  0.1400E+00
    -26.600  0.0000E+00  0.0000E+00  0.1400E+00  0.1400E+00
    -26.430  0.0000E+00  0.0000E+00  0.1400E+00  0.1400E+00
    -26.260  0.0000E+00  0.0000E+00  0.1400E+00  0.1400E+00
    -26.090  0.0000E+00  0.0000E+00  0.1400E+00  0.1400E+00
    -25.920  0.0000E+00  0.0000E+00  0.1400E+00  0.1400E+00
    -25.750  0.0000E+00  0.0000E+00  0.1400E+00  0.1400E+00
    -25.580  0.0000E+00  0.0000E+00  0.1400E+00  0.1400E+00
    -25.410  0.0000E+00  0.0000E+00  0.1400E+00  0.1400E+00
    -25.240  0.0000E+00  0.0000E+00  0.1400E+00  0.1400E+00
    -25.070  0.0000E+00  0.0000E+00  0.1400E+00  0.1400E+00
    -24.900  0.0000E+00  0.0000E+00  0.1400E+00  0.1400E+00
    -24.730  0.0000E+00  0.0000E+00  0.1400E+00  0.1400E+00
    -24.560  0.0000E+00  0.0000E+00  0.1400E+00  0.1400E+00
    -24.390  0.0000E+00  0.0000E+00  0.1400E+00  0.1400E+00
    -24.220  0.0000E+00  0.0000E+00  0.1400E+00  0.1400E+00
    -24.050  0.0000E+00  0.0000E+00  0.1400E+00  0.1400E+00
    -23.880  0.0000E+00  0.0000E+00  0.1400E+00  0.1400E+00
    -23.710  0.0000E+00  0.0000E+00  0.1400E+00  0.1400E+00
    -23.540  0.0000E+00  0.0000E+00  0.1400E+00  0.1400E+00
    -23.371  0.0000E+00  0.0000E+00  0.1400E+00  0.1400E+00
    -23.201  0.0000E+00  0.0000E+00  0.1400E+00  0.1400E+00
    -23.031  0.0000E+00  0.0000E+00  0.1400E+00  0.1400E+00
    -22.861  0.0000E+00  0.0000E+00  0.1400E+00  0.1400E+00
    -22.691  0.0000E+00  0.0000E+00  0.1400E+00  0.1400E+00
    -22.521  0.0000E+00  0.0000E+00  0.1400E+00  0.1400E+00
    -22.351  0.0000E+00  0.0000E+00  0.1400E+00  0.1400E+00
    -22.181  0.0000E+00  0.0000E+00  0.1400E+00  0.1400E+00
    -22.011  0.0000E+00  0.0000E+00  0.1400E+00  0.1400E+00
    -21.841  0.0000E+00  0.0000E+00  0.1400E+00  0.1400E+00
    -21.671  0.0000E+00  0.0000E+00  0.1400E+00  0.1400E+00
    -21.501  0.0000E+00  0.0000E+00  0.1400E+00  0.1400E+00
    -21.331  0.0000E+00  0.0000E+00  0.1400E+00  0.1400E+00
    -21.161  0.0000E+00  0.0000E+00  0.1400E+00  0.1400E+00
    -20.991  0.0000E+00  0.0000E+00  0.1400E+00  0.1400E+00
    -20.821  0.0000E+00  0.0000E+00  0.1400E+00  0.1400E+00
    -20.651  0.0000E+00  0.0000E+00  0.1400E+00  0.1400E+00
    -20.481  0.0000E+00  0.0000E+00  0.1400E+00  0.1400E+00
    -20.311  0.0000E+00  0.0000E+00  0.1400E+00  0.1400E+00
    -20.141  0.0000E+00  0.0000E+00  0.1400E+00  0.1400E+00
    -19.971  0.0000E+00  0.0000E+00  0.1400E+00  0.1400E+00
    -19.801  0.0000E+00  0.0000E+00  0.1400E+00  0.1400E+00
    -19.631  0.0000E+00  0.0000E+00  0.1400E+00  0.1400E+00
    -19.461  0.0000E+00  0.0000E+00  0.1400E+00  0.1400E+00
    -19.291  0.0000E+00  0.0000E+00  0.1400E+00  0.1400E+00
    -19.121  0.0000E+00  0.0000E+00  0.1400E+00  0.1400E+00
    -18.951  0.0000E+00  0.0000E+00  0.1400E+00  0.1400E+00
    -18.781  0.0000E+00  0.0000E+00  0.1400E+00  0.1400E+00
    -18.611  0.0000E+00  0.0000E+00  0.1400E+00  0.1400E+00
    -18.442  0.0000E+00  0.0000E+00  0.1400E+00  0.1400E+00
    -18.272  0.0000E+00  0.0000E+00  0.1400E+00  0.1400E+00
    -18.102  0.0000E+00  0.0000E+00  0.1400E+00  0.1400E+00
    -17.932  0.0000E+00  0.0000E+00  0.1400E+00  0.1400E+00
    -17.762  0.0000E+00  0.0000E+00  0.1400E+00  0.1400E+00
    -17.592  0.0000E+00  0.0000E+00  0.1400E+00  0.1400E+00
    -17.422  0.0000E+00  0.0000E+00  0.1400E+00  0.1400E+00
    -17.252  0.0000E+00  0.0000E+00  0.1400E+00  0.1400E+00
    -17.082  0.0000E+00  0.0000E+00  0.1400E+00  0.1400E+00
    -16.912  0.0000E+00  0.0000E+00  0.1400E+00  0.1400E+00
    -16.742  0.0000E+00  0.0000E+00  0.1400E+00  0.1400E+00
    -16.572  0.0000E+00  0.0000E+00  0.1400E+00  0.1400E+00
    -16.402  0.0000E+00  0.0000E+00  0.1400E+00  0.1400E+00
    -16.232  0.0000E+00  0.0000E+00  0.1400E+00  0.1400E+00
    -16.062  0.0000E+00  0.0000E+00  0.1400E+00  0.1400E+00
    -15.892  0.0000E+00  0.0000E+00  0.1400E+00  0.1400E+00
    -15.722  0.0000E+00  0.0000E+00  0.1400E+00  0.1400E+00
    -15.552  0.0000E+00  0.0000E+00  0.1400E+00  0.1400E+00
    -15.382  0.0000E+00  0.0000E+00  0.1400E+00  0.1400E+00
    -15.212  0.0000E+00  0.0000E+00  0.1400E+00  0.1400E+00
    -15.042  0.0000E+00  0.0000E+00  0.1400E+00  0.1400E+00
    -14.872  0.0000E+00  0.0000E+00  0.1400E+00  0.1400E+00
    -14.702  0.0000E+00  0.0000E+00  0.1400E+00  0.1400E+00
    -14.532  0.0000E+00  0.0000E+00  0.1400E+00  0.1400E+00
    -14.362  0.0000E+00  0.0000E+00  0.1400E+00  0.1400E+00
    -14.192  0.0000E+00  0.0000E+00  0.1400E+00  0.1400E+00
    -14.022  0.0000E+00  0.0000E+00  0.1400E+00  0.1400E+00
    -13.852  0.0000E+00  0.0000E+00  0.1400E+00  0.1400E+00
    -13.682  0.0000E+00  0.0000E+00  0.1400E+00  0.1400E+00
    -13.512  0.0000E+00  0.0000E+00  0.1400E+00  0.1400E+00
    -13.343  0.0000E+00  0.0000E+00  0.1400E+00  0.1400E+00
    -13.173  0.0000E+00  0.0000E+00  0.1400E+00  0.1400E+00
    -13.003  0.0000E+00  0.0000E+00  0.1400E+00  0.1400E+00
    -12.833  0.0000E+00  0.0000E+00  0.1400E+00  0.1400E+00
    -12.663  0.0000E+00  0.0000E+00  0.1400E+00  0.1400E+00
    -12.493  0.0000E+00  0.0000E+00  0.1400E+00  0.1400E+00
    -12.323  0.0000E+00  0.0000E+00  0.1400E+00  0.1400E+00
    -12.153  0.0000E+00  0.0000E+00  0.1400E+00  0.1400E+00
    -11.983  0.0000E+00  0.0000E+00  0.1400E+00  0.1400E+00
    -11.813  0.0000E+00  0.0000E+00  0.1400E+00  0.1400E+00
    -11.643  0.0000E+00  0.0000E+00  0.1400E+00  0.1400E+00
    -11.473  0.0000E+00  0.0000E+00  0.1400E+00  0.1400E+00
    -11.303  0.0000E+00  0.0000E+00  0.1400E+00  0.1400E+00
    -11.133  0.0000E+00  0.0000E+00  0.1400E+00  0.1400E+00
    -10.963  0.0000E+00  0.0000E+00  0.1400E+00  0.1400E+00
    -10.793  0.0000E+00  0.0000E+00  0.1400E+00  0.1400E+00
    -10.623  0.0000E+00  0.0000E+00  0.1400E+00  0.1400E+00
    -10.453  0.0000E+00  0.0000E+00  0.1400E+00  0.1400E+00
    -10.283  0.0000E+00  0.0000E+00  0.1400E+00  0.1400E+00
    -10.113  0.0000E+00  0.0000E+00  0.1400E+00  0.1400E+00
     -9.943  0.0000E+00  0.0000E+00  0.1400E+00  0.1400E+00
     -9.773  0.0000E+00  0.0000E+00  0.1400E+00  0.1400E+00
     -9.603  0.0000E+00  0.0000E+00  0.1400E+00  0.1400E+00
     -9.433  0.0000E+00  0.0000E+00  0.1400E+00  0.1400E+00
     -9.263  0.0000E+00  0.0000E+00  0.1400E+00  0.1400E+00
     -9.093  0.0000E+00  0.0000E+00  0.1400E+00  0.1400E+00
     -8.923  0.0000E+00  0.0000E+00  0.1400E+00  0.1400E+00
     -8.753  0.0000E+00  0.0000E+00  0.1400E+00  0.1400E+00
     -8.583 -0.8082E-34  0.0000E+00  0.1400E+00  0.1400E+00
     -8.414 -0.5742E-26 -0.2076E-31  0.1400E+00  0.1400E+00
     -8.244 -0.3057E-19 -0.6925E-24  0.1400E+00  0.1400E+00
     -8.074 -0.1165E-13 -0.1727E-17  0.1400E+00  0.1400E+00
     -7.904 -0.3285E-09 -0.3054E-12  0.1400E+00  0.1400E+00
     -7.734 -0.6346E-06 -0.3968E-08  0.1400E+00  0.1400E+00
     -7.564 -0.6868E-04 -0.3423E-05  0.1400E+00  0.1400E+00
     -7.394  0.3008E-03 -0.1373E-03  0.1400E+00  0.1400E+00
     -7.224  0.3604E-02  0.1218E-02  0.1407E+00  0.1402E+00
     -7.054  0.3985E-02  0.3453E-02  0.1413E+00  0.1408E+00
     -6.884  0.6873E-02  0.5690E-02  0.1425E+00  0.1417E+00
     -6.714  0.3129E-02  0.5122E-02  0.1430E+00  0.1426E+00
     -6.544  0.3480E-02  0.3289E-02  0.1436E+00  0.1432E+00
     -6.374  0.8234E-02  0.4235E-02  0.1450E+00  0.1439E+00
     -6.204  0.9935E-02  0.8160E-02  0.1467E+00  0.1453E+00
     -6.034  0.1009E-01  0.1065E-01  0.1484E+00  0.1471E+00
     -5.864  0.5949E-02  0.9305E-02  0.1494E+00  0.1487E+00
     -5.694  0.1360E-01  0.4999E-02  0.1517E+00  0.1495E+00
     -5.524  0.1654E-01  0.1414E-01  0.1546E+00  0.1519E+00
     -5.354  0.1151E-01  0.1513E-01  0.1565E+00  0.1545E+00
     -5.184  0.5708E-02  0.1156E-01  0.1575E+00  0.1565E+00
     -5.014  0.1520E-01  0.5495E-02  0.1601E+00  0.1574E+00
     -4.844  0.2092E-01  0.9023E-02  0.1636E+00  0.1589E+00
     -4.674  0.2789E-01  0.1860E-01  0.1684E+00  0.1621E+00
     -4.504  0.1818E-01  0.2512E-01  0.1715E+00  0.1664E+00
     -4.334  0.2696E-01  0.1928E-01  0.1760E+00  0.1696E+00
     -4.164  0.4350E-01  0.1116E-01  0.1834E+00  0.1715E+00
     -3.994  0.6754E-01  0.2645E-01  0.1949E+00  0.1760E+00
     -3.824  0.1077E+00  0.2041E-01  0.2132E+00  0.1795E+00
     -3.654  0.1084E+00  0.2976E-01  0.2317E+00  0.1845E+00
     -3.484  0.1441E+00  0.2504E-01  0.2561E+00  0.1888E+00
     -3.315  0.1502E+00  0.4327E-01  0.2817E+00  0.1962E+00
     -3.145  0.1656E+00  0.5200E-01  0.3098E+00  0.2050E+00
     -2.975  0.1462E+00  0.6272E-01  0.3347E+00  0.2157E+00
     -2.805  0.1511E+00  0.7274E-01  0.3603E+00  0.2280E+00
     -2.635  0.2277E+00  0.7936E-01  0.3990E+00  0.2415E+00
     -2.465  0.2635E+00  0.9711E-01  0.4438E+00  0.2580E+00
     -2.295  0.2317E+00  0.1092E+00  0.4832E+00  0.2766E+00
     -2.125  0.2401E+00  0.1091E+00  0.5240E+00  0.2951E+00
     -1.955  0.2349E+00  0.1055E+00  0.5639E+00  0.3131E+00
     -1.785  0.2181E+00  0.1223E+00  0.6010E+00  0.3338E+00
     -1.615  0.2176E+00  0.1344E+00  0.6380E+00  0.3567E+00
     -1.445  0.2005E+00  0.1298E+00  0.6721E+00  0.3787E+00
     -1.275  0.1729E+00  0.1610E+00  0.7015E+00  0.4061E+00
     -1.105  0.1580E+00  0.1782E+00  0.7283E+00  0.4364E+00
     -0.935  0.1667E+00  0.1783E+00  0.7566E+00  0.4667E+00
     -0.765  0.2006E+00  0.1912E+00  0.7907E+00  0.4992E+00
     -0.595  0.2724E+00  0.2040E+00  0.8370E+00  0.5339E+00
     -0.425  0.3155E+00  0.2079E+00  0.8907E+00  0.5692E+00
     -0.255  0.2787E+00  0.2062E+00  0.9380E+00  0.6043E+00
     -0.085  0.2109E+00  0.1843E+00  0.9739E+00  0.6356E+00
      0.085  0.1584E+00  0.1669E+00  0.1001E+01  0.6640E+00
      0.255  0.1467E+00  0.1418E+00  0.1026E+01  0.6881E+00
      0.425  0.1453E+00  0.1136E+00  0.1050E+01  0.7074E+00
      0.595  0.1451E+00  0.9366E-01  0.1075E+01  0.7233E+00
      0.765  0.1184E+00  0.1107E+00  0.1095E+01  0.7421E+00
      0.935  0.1046E+00  0.1211E+00  0.1113E+01  0.7627E+00
      1.105  0.9238E-01  0.1345E+00  0.1129E+01  0.7855E+00
      1.275  0.8495E-01  0.1592E+00  0.1143E+01  0.8126E+00
      1.445  0.8987E-01  0.1879E+00  0.1158E+01  0.8445E+00
      1.614  0.1053E+00  0.2119E+00  0.1176E+01  0.8805E+00
      1.784  0.1077E+00  0.2541E+00  0.1195E+01  0.9237E+00
      1.954  0.6883E-01  0.2712E+00  0.1206E+01  0.9698E+00
      2.124  0.3283E-02  0.2795E+00  0.1207E+01  0.1017E+01
      2.294 -0.1077E-02  0.3122E+00  0.1207E+01  0.1070E+01
      2.464 -0.1390E-04  0.3267E+00  0.1207E+01  0.1126E+01
      2.634 -0.1156E-07  0.2541E+00  0.1207E+01  0.1169E+01
      2.804 -0.7168E-12  0.1714E+00  0.1207E+01  0.1198E+01
      2.974 -0.2722E-17  0.5338E-01  0.1207E+01  0.1207E+01
      3.144  0.0000E+00 -0.3357E-02  0.1207E+01  0.1207E+01
      3.314  0.0000E+00 -0.4304E-03  0.1207E+01  0.1207E+01
      3.484  0.0000E+00 -0.2108E-05  0.1207E+01  0.1207E+01
      3.654  0.0000E+00 -0.7463E-09  0.1207E+01  0.1207E+01
      3.824  0.0000E+00 -0.2002E-13  0.1207E+01  0.1207E+01
      3.994  0.0000E+00  0.0000E+00  0.1207E+01  0.1207E+01
      4.164  0.0000E+00  0.0000E+00  0.1207E+01  0.1207E+01
      4.334  0.0000E+00  0.0000E+00  0.1207E+01  0.1207E+01
      4.504  0.0000E+00  0.0000E+00  0.1207E+01  0.1207E+01
      4.674  0.0000E+00  0.0000E+00  0.1207E+01  0.1207E+01
      4.844  0.0000E+00  0.0000E+00  0.1207E+01  0.1207E+01
      5.014  0.0000E+00  0.0000E+00  0.1207E+01  0.1207E+01
      5.184  0.0000E+00  0.0000E+00  0.1207E+01  0.1207E+01
