 
:: initializing oneAPI environment ...
   slurm_script: BASH_VERSION = 4.4.20(1)-release
   args: Using "$@" for setvars.sh arguments: --force
:: advisor -- latest
:: ccl -- latest
:: compiler -- latest
:: dal -- latest
:: debugger -- latest
:: dev-utilities -- latest
:: dnnl -- latest
:: dpcpp-ct -- latest
:: dpl -- latest
:: ipp -- latest
:: ippcp -- latest
:: mkl -- latest
:: mpi -- latest
:: pti -- latest
:: tbb -- latest
:: umf -- latest
:: vtune -- latest
:: oneAPI environment initialized ::
 
 running   96 mpi-ranks, on    1 nodes
 distrk:  each k-point on   12 cores,    8 groups
 distr:  one band on    4 cores,    3 groups
 vasp.6.5.1 10Mar25 (build Oct 09 2025 23:55:08) complex                        
  
 POSCAR found type information on POSCAR CrFe
 POSCAR found :  2 types and      62 ions
 -----------------------------------------------------------------------------
|                                                                             |
|           W    W    AA    RRRRR   N    N  II  N    N   GGGG   !!!           |
|           W    W   A  A   R    R  NN   N  II  NN   N  G    G  !!!           |
|           W    W  A    A  R    R  N N  N  II  N N  N  G       !!!           |
|           W WW W  AAAAAA  RRRRR   N  N N  II  N  N N  G  GGG   !            |
|           WW  WW  A    A  R   R   N   NN  II  N   NN  G    G                |
|           W    W  A    A  R    R  N    N  II  N    N   GGGG   !!!           |
|                                                                             |
|     You requested a magnetic or noncollinear calculation, but did not       |
|     specify the initial magnetic moment with the MAGMOM tag. Note that      |
|     a default of 1 will be used for all atoms. This ferromagnetic setup     |
|     may break the symmetry of the crystal, in particular it may rule        |
|     out finding an antiferromagnetic solution. Thence, we recommend         |
|     setting the initial magnetic moment manually or verifying carefully     |
|     that this magnetic setup is desired.                                    |
|                                                                             |
 -----------------------------------------------------------------------------

 scaLAPACK will be used
 -----------------------------------------------------------------------------
|                                                                             |
|           W    W    AA    RRRRR   N    N  II  N    N   GGGG   !!!           |
|           W    W   A  A   R    R  NN   N  II  NN   N  G    G  !!!           |
|           W    W  A    A  R    R  N N  N  II  N N  N  G       !!!           |
|           W WW W  AAAAAA  RRRRR   N  N N  II  N  N N  G  GGG   !            |
|           WW  WW  A    A  R   R   N   NN  II  N   NN  G    G                |
|           W    W  A    A  R    R  N    N  II  N    N   GGGG   !!!           |
|                                                                             |
|     For optimal performance we recommend to set                             |
|       NCORE = 2 up to number-of-cores-per-socket                            |
|     NCORE specifies how many cores store one orbital (NPAR=cpu/NCORE).      |
|     This setting can greatly improve the performance of VASP for DFT.       |
|     The default, NCORE=1 might be grossly inefficient on modern             |
|     multi-core architectures or massively parallel machines. Do your        |
|     own testing! More info at https://www.vasp.at/wiki/index.php/NCORE      |
|     Unfortunately you need to use the default for GW and RPA                |
|     calculations (for HF NCORE is supported but not extensively tested      |
|     yet).                                                                   |
|                                                                             |
 -----------------------------------------------------------------------------

 LDA part: xc-table for (Slater+PW92), standard interpolation
 POSCAR, INCAR and KPOINTS ok, starting setup
 FFT: planning ... GRIDC
 FFT: planning ... GRID_SOFT
 FFT: planning ... GRID
 WAVECAR not read
 WARNING: chargedensity file is incomplete
 WARNING: random wavefunctions but no delay for mixing, default for NELMDL
 entering main loop
       N       E                     dE             d eps       ncg     rms          rms(c)
DAV:   1     0.535886370547E+04    0.53589E+04   -0.23601E+05 15330   0.143E+03
DAV:   2    -0.101052911625E+03   -0.54599E+04   -0.52659E+04 14520   0.419E+02
DAV:   3    -0.521216716369E+03   -0.42016E+03   -0.37224E+03 14982   0.158E+02
DAV:   4    -0.576801544251E+03   -0.55585E+02   -0.52025E+02 25854   0.434E+01
DAV:   5    -0.579651550488E+03   -0.28500E+01   -0.27110E+01 23397   0.944E+00    0.921E+01
RMM:   6    -0.651103818561E+03   -0.71452E+02   -0.23606E+02 18820   0.273E+01    0.131E+02
RMM:   7    -0.549171233875E+03    0.10193E+03   -0.31333E+01 14651   0.160E+01    0.855E+01
RMM:   8    -0.624936603726E+03   -0.75765E+02   -0.62168E+01 19220   0.114E+01    0.125E+02
RMM:   9    -0.527866696472E+03    0.97070E+02   -0.21977E+01 15455   0.121E+01    0.721E+01
RMM:  10    -0.502443992183E+03    0.25423E+02   -0.62645E+01 18815   0.197E+01    0.563E+01
RMM:  11    -0.486676220992E+03    0.15768E+02   -0.47009E+01 18298   0.170E+01    0.375E+01
RMM:  12    -0.486554582872E+03    0.12164E+00   -0.14714E+01 18187   0.658E+00    0.351E+01
RMM:  13    -0.487246715581E+03   -0.69213E+00   -0.54126E+00 20699   0.290E+00    0.348E+01
RMM:  14    -0.487929978336E+03   -0.68326E+00   -0.14599E+00 21404   0.156E+00    0.340E+01
RMM:  15    -0.491693682184E+03   -0.37637E+01   -0.32214E+00 20692   0.308E+00    0.342E+01
RMM:  16    -0.493388929151E+03   -0.16952E+01   -0.51972E+00 22385   0.355E+00    0.267E+01
RMM:  17    -0.495828142107E+03   -0.24392E+01   -0.52268E+00 22316   0.349E+00    0.256E+01
RMM:  18    -0.496064477884E+03   -0.23634E+00   -0.32839E+00 21564   0.248E+00    0.202E+01
RMM:  19    -0.496228595264E+03   -0.16412E+00   -0.14201E+00 21437   0.141E+00    0.191E+01
RMM:  20    -0.496463953175E+03   -0.23536E+00   -0.10233E+00 21185   0.108E+00    0.186E+01
RMM:  21    -0.496829594274E+03   -0.36564E+00   -0.91059E-01 20769   0.113E+00    0.175E+01
RMM:  22    -0.497387505080E+03   -0.55791E+00   -0.12840E+00 22160   0.146E+00    0.157E+01
RMM:  23    -0.498350914348E+03   -0.96341E+00   -0.24422E+00 24013   0.179E+00    0.143E+01
RMM:  24    -0.498949438202E+03   -0.59852E+00   -0.15889E+00 22729   0.120E+00    0.138E+01
RMM:  25    -0.499352675581E+03   -0.40324E+00   -0.87140E-01 22419   0.898E-01    0.136E+01
RMM:  26    -0.499746659121E+03   -0.39398E+00   -0.88932E-01 22007   0.939E-01    0.128E+01
RMM:  27    -0.500115260475E+03   -0.36860E+00   -0.98633E-01 22772   0.126E+00    0.116E+01
RMM:  28    -0.500319599860E+03   -0.20434E+00   -0.65040E-01 22028   0.754E-01    0.111E+01
RMM:  29    -0.500508915466E+03   -0.18932E+00   -0.43300E-01 21768   0.614E-01    0.110E+01
RMM:  30    -0.500722069486E+03   -0.21315E+00   -0.41742E-01 21638   0.535E-01    0.106E+01
RMM:  31    -0.501414314707E+03   -0.69225E+00   -0.16639E+00 25119   0.184E+00    0.724E+00
RMM:  32    -0.501613652867E+03   -0.19934E+00   -0.15968E+00 24751   0.129E+00    0.581E+00
RMM:  33    -0.501696669761E+03   -0.83017E-01   -0.55299E-01 24088   0.849E-01    0.485E+00
RMM:  34    -0.501685005077E+03    0.11665E-01   -0.55671E-01 24265   0.960E-01    0.391E+00
RMM:  35    -0.501686393140E+03   -0.13881E-02   -0.30810E-01 23293   0.806E-01    0.410E+00
RMM:  36    -0.501657507045E+03    0.28886E-01   -0.25410E-01 23730   0.797E-01    0.418E+00
RMM:  37    -0.501667363670E+03   -0.98566E-02   -0.19280E-01 22918   0.627E-01    0.373E+00
RMM:  38    -0.501742269246E+03   -0.74906E-01   -0.11975E-01 19957   0.510E-01    0.222E+00
RMM:  39    -0.501751393726E+03   -0.91245E-02   -0.66752E-02 19864   0.280E-01    0.174E+00
RMM:  40    -0.501754992388E+03   -0.35987E-02   -0.15292E-02 17615   0.205E-01    0.140E+00
RMM:  41    -0.501753535611E+03    0.14568E-02   -0.22837E-02 18810   0.242E-01    0.116E+00
RMM:  42    -0.501759264197E+03   -0.57286E-02   -0.11763E-02 20664   0.132E-01    0.921E-01
RMM:  43    -0.501762573589E+03   -0.33094E-02   -0.62924E-03 20625   0.986E-02    0.738E-01
RMM:  44    -0.501766321549E+03   -0.37480E-02   -0.83199E-03 20623   0.123E-01    0.482E-01
RMM:  45    -0.501767857144E+03   -0.15356E-02   -0.64707E-03 20142   0.100E-01    0.419E-01
RMM:  46    -0.501768201313E+03   -0.34417E-03   -0.24280E-03 21098   0.602E-02    0.362E-01
RMM:  47    -0.501768323694E+03   -0.12238E-03   -0.13644E-03 20514   0.429E-02    0.284E-01
RMM:  48    -0.501768454897E+03   -0.13120E-03   -0.14234E-03 19658   0.527E-02    0.189E-01
RMM:  49    -0.501768605602E+03   -0.15070E-03   -0.14401E-03 20313   0.536E-02    0.159E-01
RMM:  50    -0.501768773784E+03   -0.16818E-03   -0.86264E-04 19834   0.385E-02    0.105E-01
RMM:  51    -0.501768847685E+03   -0.73900E-04   -0.53800E-04 19557   0.228E-02    0.107E-01
RMM:  52    -0.501768874454E+03   -0.26769E-04   -0.16370E-04 15914   0.132E-02    0.107E-01
RMM:  53    -0.501768882958E+03   -0.85039E-05   -0.62946E-05 11617   0.918E-03
   1 F= -.50176888E+03 E0= -.50177767E+03  d E =-.501769E+03  mag=    95.3513
 curvature:   0.00 expect dE= 0.000E+00 dE for cont linesearch  0.000E+00
 trial: gam= 0.00000 g(F)=  0.203E+00 g(S)=  0.000E+00 ort = 0.000E+00 (trialstep = 0.100E+01)
 search vector abs. value=  0.203E+00
 bond charge predicted
       N       E                     dE             d eps       ncg     rms          rms(c)
DAV:   1    -0.500866986428E+03    0.90189E+00   -0.63496E+01 18879   0.238E+01    0.512E+00
RMM:   2    -0.501693107417E+03   -0.82612E+00   -0.74657E+00 16805   0.566E+00    0.414E+00
RMM:   3    -0.502464645364E+03   -0.77154E+00   -0.19551E+00 21731   0.215E+00    0.917E+00
RMM:   4    -0.501888069452E+03    0.57658E+00   -0.19914E-01 16593   0.952E-01    0.279E+00
RMM:   5    -0.501907236331E+03   -0.19167E-01   -0.76011E-02 21031   0.431E-01    0.208E+00
RMM:   6    -0.501920016448E+03   -0.12780E-01   -0.31612E-02 20469   0.247E-01    0.146E+00
RMM:   7    -0.501934204162E+03   -0.14188E-01   -0.18570E-02 20178   0.201E-01    0.780E-01
RMM:   8    -0.501935838435E+03   -0.16343E-02   -0.94374E-03 20884   0.120E-01    0.563E-01
RMM:   9    -0.501935599545E+03    0.23889E-03   -0.37908E-03 21772   0.745E-02    0.481E-01
RMM:  10    -0.501935262453E+03    0.33709E-03   -0.18819E-03 21887   0.553E-02    0.384E-01
RMM:  11    -0.501934995526E+03    0.26693E-03   -0.14891E-03 20495   0.539E-02    0.290E-01
RMM:  12    -0.501934928604E+03    0.66923E-04   -0.85896E-04 20586   0.384E-02    0.248E-01
RMM:  13    -0.501935087034E+03   -0.15843E-03   -0.57440E-04 19871   0.388E-02    0.167E-01
RMM:  14    -0.501935253060E+03   -0.16603E-03   -0.48533E-04 19402   0.358E-02    0.112E-01
RMM:  15    -0.501935300758E+03   -0.47698E-04   -0.17527E-04 17010   0.161E-02    0.103E-01
RMM:  16    -0.501935312602E+03   -0.11843E-04   -0.61926E-05 13003   0.131E-02    0.846E-02
RMM:  17    -0.501935325602E+03   -0.13000E-04   -0.96137E-05 14483   0.169E-02    0.477E-02
RMM:  18    -0.501935331468E+03   -0.58665E-05   -0.44667E-05 11284   0.115E-02
   2 F= -.50193533E+03 E0= -.50194450E+03  d E =-.166449E+00  mag=    95.5300
 trial-energy change:   -0.166449  1 .order   -0.165702   -0.202648   -0.128755
 step:   2.5121(harm=  2.7425)  dis= 0.12053  next Energy=  -502.035257 (dE=-0.266E+00)
 bond charge predicted
       N       E                     dE             d eps       ncg     rms          rms(c)
DAV:   1    -0.499798118189E+03    0.21372E+01   -0.14878E+02 17676   0.358E+01    0.834E+00
RMM:   2    -0.501621842886E+03   -0.18237E+01   -0.16299E+01 16996   0.852E+00    0.682E+00
RMM:   3    -0.503378667168E+03   -0.17568E+01   -0.34508E+00 22418   0.315E+00    0.147E+01
RMM:   4    -0.501940948800E+03    0.14377E+01   -0.46580E-01 16853   0.139E+00    0.453E+00
RMM:   5    -0.501989124224E+03   -0.48175E-01   -0.21199E-01 20592   0.676E-01    0.328E+00
RMM:   6    -0.502009320190E+03   -0.20196E-01   -0.92380E-02 20439   0.412E-01    0.228E+00
RMM:   7    -0.502039040420E+03   -0.29720E-01   -0.46155E-02 21035   0.294E-01    0.139E+00
RMM:   8    -0.502048609586E+03   -0.95692E-02   -0.26917E-02 21047   0.207E-01    0.925E-01
RMM:   9    -0.502047737397E+03    0.87219E-03   -0.11982E-02 21802   0.131E-01    0.720E-01
RMM:  10    -0.502047089067E+03    0.64833E-03   -0.53237E-03 22479   0.852E-02    0.595E-01
RMM:  11    -0.502046605995E+03    0.48307E-03   -0.30117E-03 22225   0.655E-02    0.496E-01
RMM:  12    -0.502046415779E+03    0.19022E-03   -0.15979E-03 21768   0.504E-02    0.433E-01
RMM:  13    -0.502046426060E+03   -0.10280E-04   -0.13611E-03 19148   0.619E-02    0.289E-01
RMM:  14    -0.502046687929E+03   -0.26187E-03   -0.14977E-03 19562   0.673E-02    0.159E-01
RMM:  15    -0.502046817850E+03   -0.12992E-03   -0.40719E-04 19999   0.269E-02    0.146E-01
RMM:  16    -0.502046844411E+03   -0.26561E-04   -0.11662E-04 15321   0.146E-02    0.123E-01
RMM:  17    -0.502046857684E+03   -0.13273E-04   -0.67638E-05 13257   0.140E-02    0.927E-02
RMM:  18    -0.502046850836E+03    0.68478E-05   -0.82424E-05 13574   0.170E-02
   3 F= -.50204685E+03 E0= -.50205601E+03  d E =-.277968E+00  mag=    95.6711
 curvature:  -1.35 expect dE=-0.569E-01 dE for cont linesearch -0.190E-02
 ZBRENT: extrapolating
 opt :   2.7408  next Energy=  -502.048785 (dE=-0.280E+00)
 bond charge predicted
       N       E                     dE             d eps       ncg     rms          rms(c)
DAV:   1    -0.501994273980E+03    0.52584E-01   -0.34120E+00 18456   0.545E+00    0.107E+00
RMM:   2    -0.502036607357E+03   -0.42333E-01   -0.40030E-01 16191   0.122E+00    0.755E-01
RMM:   3    -0.502070497482E+03   -0.33890E-01   -0.80800E-02 20056   0.443E-01    0.176E+00
RMM:   4    -0.502046567964E+03    0.23930E-01   -0.80063E-03 15531   0.215E-01    0.585E-01
RMM:   5    -0.502047623601E+03   -0.10556E-02   -0.30062E-03 20445   0.990E-02    0.439E-01
RMM:   6    -0.502048520237E+03   -0.89664E-03   -0.98936E-04 17808   0.532E-02    0.264E-01
RMM:   7    -0.502049048601E+03   -0.52836E-03   -0.72241E-04 17388   0.449E-02    0.125E-01
RMM:   8    -0.502049057107E+03   -0.85054E-05   -0.22591E-04 19501   0.203E-02    0.113E-01
RMM:   9    -0.502049056580E+03    0.52711E-06   -0.91961E-05 14458   0.151E-02
   4 F= -.50204906E+03 E0= -.50205816E+03  d E =-.280174E+00  mag=    95.6885
 curvature:  -1.37 expect dE=-0.661E-01 dE for cont linesearch -0.103E-03
 trial: gam= 0.21899 g(F)=  0.483E-01 g(S)=  0.000E+00 ort = 0.390E-02 (trialstep = 0.135E+01)
 search vector abs. value=  0.597E-01
 bond charge predicted
       N       E                     dE             d eps       ncg     rms          rms(c)
DAV:   1    -0.501637465078E+03    0.41159E+00   -0.33236E+01 16845   0.164E+01    0.347E+00
RMM:   2    -0.501977632246E+03   -0.34017E+00   -0.31312E+00 16251   0.374E+00    0.244E+00
RMM:   3    -0.502113343723E+03   -0.13571E+00   -0.62595E-01 20122   0.129E+00    0.288E+00
RMM:   4    -0.502097190672E+03    0.16153E-01   -0.75285E-02 18311   0.582E-01    0.235E+00
RMM:   5    -0.502092075254E+03    0.51154E-02   -0.20243E-02 20783   0.263E-01    0.113E+00
RMM:   6    -0.502104687870E+03   -0.12613E-01   -0.12704E-02 18865   0.180E-01    0.778E-01
RMM:   7    -0.502104357066E+03    0.33080E-03   -0.52604E-03 17999   0.125E-01    0.447E-01
RMM:   8    -0.502104231406E+03    0.12566E-03   -0.21924E-03 21380   0.650E-02    0.378E-01
RMM:   9    -0.502103854587E+03    0.37682E-03   -0.11609E-03 21002   0.454E-02    0.293E-01
RMM:  10    -0.502103444040E+03    0.41055E-03   -0.95651E-04 19025   0.472E-02    0.197E-01
RMM:  11    -0.502103376894E+03    0.67146E-04   -0.46921E-04 19608   0.300E-02    0.165E-01
RMM:  12    -0.502103367885E+03    0.90090E-05   -0.23489E-04 19086   0.238E-02    0.134E-01
RMM:  13    -0.502103415155E+03   -0.47270E-04   -0.23997E-04 18009   0.289E-02    0.853E-02
RMM:  14    -0.502103440700E+03   -0.25545E-04   -0.10054E-04 15258   0.174E-02    0.705E-02
RMM:  15    -0.502103443534E+03   -0.28341E-05   -0.28112E-05 10291   0.102E-02
   5 F= -.50210344E+03 E0= -.50211275E+03  d E =-.543870E-01  mag=    95.6384
 trial-energy change:   -0.054387  1 .order   -0.054550   -0.066236   -0.042864
 step:   4.1906(harm=  3.8208)  dis= 0.08073  next Energy=  -502.147103 (dE=-0.980E-01)
 bond charge predicted
       N       E                     dE             d eps       ncg     rms          rms(c)
DAV:   1    -0.500028097053E+03    0.20753E+01   -0.14777E+02 16776   0.346E+01    0.811E+00
RMM:   2    -0.501579161706E+03   -0.15511E+01   -0.14323E+01 16500   0.831E+00    0.553E+00
RMM:   3    -0.501964604448E+03   -0.38544E+00   -0.26308E+00 20960   0.283E+00    0.427E+00
RMM:   4    -0.502739145093E+03   -0.77454E+00   -0.54296E-01 20324   0.136E+00    0.960E+00
RMM:   5    -0.502083443328E+03    0.65570E+00   -0.18190E-01 16716   0.842E-01    0.260E+00
RMM:   6    -0.502140035995E+03   -0.56593E-01   -0.95212E-02 20557   0.430E-01    0.156E+00
RMM:   7    -0.502146083933E+03   -0.60479E-02   -0.40453E-02 21296   0.249E-01    0.125E+00
RMM:   8    -0.502146489866E+03   -0.40593E-03   -0.16444E-02 21314   0.171E-01    0.939E-01
RMM:   9    -0.502145875824E+03    0.61404E-03   -0.98784E-03 21948   0.120E-01    0.715E-01
RMM:  10    -0.502144559805E+03    0.13160E-02   -0.53064E-03 22044   0.891E-02    0.542E-01
RMM:  11    -0.502144147665E+03    0.41214E-03   -0.24750E-03 22499   0.592E-02    0.485E-01
RMM:  12    -0.502143960521E+03    0.18714E-03   -0.12457E-03 22203   0.445E-02    0.435E-01
RMM:  13    -0.502143565814E+03    0.39471E-03   -0.18430E-03 19944   0.750E-02    0.266E-01
RMM:  14    -0.502143751431E+03   -0.18562E-03   -0.11955E-03 18979   0.600E-02    0.188E-01
RMM:  15    -0.502143753466E+03   -0.20354E-05   -0.28008E-04 20201   0.239E-02    0.155E-01
RMM:  16    -0.502143778630E+03   -0.25164E-04   -0.93371E-05 15320   0.141E-02    0.125E-01
RMM:  17    -0.502143793558E+03   -0.14928E-04   -0.88086E-05 14090   0.172E-02    0.818E-02
RMM:  18    -0.502143782309E+03    0.11249E-04   -0.55732E-05 11886   0.130E-02    0.643E-02
RMM:  19    -0.502143784295E+03   -0.19859E-05   -0.16850E-05  9465   0.841E-03
   6 F= -.50214378E+03 E0= -.50215312E+03  d E =-.947277E-01  mag=    95.4751
 curvature:  -2.27 expect dE=-0.353E-01 dE for cont linesearch -0.755E-03
 ZBRENT: interpolating
 opt :   3.8412  next Energy=  -502.144563 (dE=-0.955E-01)
 bond charge predicted
       N       E                     dE             d eps       ncg     rms          rms(c)
DAV:   1    -0.502113261584E+03    0.30521E-01   -0.22283E+00 17079   0.427E+00    0.865E-01
RMM:   2    -0.502137058541E+03   -0.23797E-01   -0.21284E-01 16276   0.952E-01    0.688E-01
RMM:   3    -0.502158241074E+03   -0.21183E-01   -0.43843E-02 20388   0.350E-01    0.147E+00
RMM:   4    -0.502142087115E+03    0.16154E-01   -0.47564E-03 15163   0.167E-01    0.442E-01
RMM:   5    -0.502143644208E+03   -0.15571E-02   -0.18713E-03 19456   0.778E-02    0.355E-01
RMM:   6    -0.502144192561E+03   -0.54835E-03   -0.70061E-04 16527   0.501E-02    0.194E-01
RMM:   7    -0.502144386321E+03   -0.19376E-03   -0.42130E-04 17403   0.366E-02    0.105E-01
RMM:   8    -0.502144372892E+03    0.13429E-04   -0.13557E-04 16355   0.170E-02    0.913E-02
RMM:   9    -0.502144339652E+03    0.33240E-04   -0.59609E-05 12407   0.130E-02    0.715E-02
RMM:  10    -0.502144307674E+03    0.31978E-04   -0.11704E-04 15000   0.186E-02    0.405E-02
RMM:  11    -0.502144308353E+03   -0.67883E-06   -0.27545E-05  9969   0.102E-02
   7 F= -.50214431E+03 E0= -.50215367E+03  d E =-.952518E-01  mag=    95.4987
 curvature:  -2.34 expect dE=-0.301E-01 dE for cont linesearch -0.946E-06
 trial: gam= 0.25094 g(F)=  0.129E-01 g(S)=  0.000E+00 ort = 0.155E-03 (trialstep = 0.185E+01)
 search vector abs. value=  0.167E-01
 bond charge predicted
       N       E                     dE             d eps       ncg     rms          rms(c)
DAV:   1    -0.501885485225E+03    0.25882E+00   -0.18521E+01 17571   0.129E+01    0.254E+00
RMM:   2    -0.502099054334E+03   -0.21357E+00   -0.19622E+00 16244   0.282E+00    0.187E+00
RMM:   3    -0.502297364347E+03   -0.19831E+00   -0.39405E-01 20062   0.102E+00    0.446E+00
RMM:   4    -0.502144646902E+03    0.15272E+00   -0.38925E-02 15335   0.494E-01    0.128E+00
RMM:   5    -0.502155454170E+03   -0.10807E-01   -0.16489E-02 20930   0.224E-01    0.986E-01
RMM:   6    -0.502160967335E+03   -0.55132E-02   -0.65513E-03 18127   0.139E-01    0.653E-01
RMM:   7    -0.502162702867E+03   -0.17355E-02   -0.38517E-03 18124   0.105E-01    0.308E-01
RMM:   8    -0.502162653782E+03    0.49085E-04   -0.15316E-03 21750   0.487E-02    0.259E-01
RMM:   9    -0.502162445532E+03    0.20825E-03   -0.56664E-04 21634   0.332E-02    0.189E-01
RMM:  10    -0.502162318100E+03    0.12743E-03   -0.47987E-04 19614   0.328E-02    0.131E-01
RMM:  11    -0.502162282973E+03    0.35126E-04   -0.25657E-04 18649   0.229E-02    0.105E-01
RMM:  12    -0.502162288262E+03   -0.52887E-05   -0.11718E-04 16136   0.161E-02    0.922E-02
RMM:  13    -0.502162309112E+03   -0.20850E-04   -0.97353E-05 15283   0.184E-02    0.641E-02
RMM:  14    -0.502162344699E+03   -0.35587E-04   -0.59329E-05 13093   0.152E-02    0.489E-02
RMM:  15    -0.502162345498E+03   -0.79898E-06   -0.16928E-05  9268   0.888E-03
   8 F= -.50216235E+03 E0= -.50217166E+03  d E =-.180371E-01  mag=    95.5392
 trial-energy change:   -0.018037  1 .order   -0.017904   -0.023817   -0.011991
 step:   3.5062(harm=  3.7193)  dis= 0.03189  next Energy=  -502.167830 (dE=-0.235E-01)
 bond charge predicted
       N       E                     dE             d eps       ncg     rms          rms(c)
DAV:   1    -0.501944307496E+03    0.21804E+00   -0.14945E+01 17526   0.116E+01    0.228E+00
RMM:   2    -0.502116039272E+03   -0.17173E+00   -0.15876E+00 16115   0.252E+00    0.165E+00
RMM:   3    -0.502272890159E+03   -0.15685E+00   -0.31678E-01 20182   0.908E-01    0.390E+00
RMM:   4    -0.502154496457E+03    0.11839E+00   -0.30648E-02 15267   0.439E-01    0.115E+00
RMM:   5    -0.502163155951E+03   -0.86595E-02   -0.13109E-02 20785   0.202E-01    0.875E-01
RMM:   6    -0.502167336430E+03   -0.41805E-02   -0.50997E-03 17987   0.124E-01    0.571E-01
RMM:   7    -0.502168714445E+03   -0.13780E-02   -0.29875E-03 18056   0.933E-02    0.270E-01
RMM:   8    -0.502168690500E+03    0.23945E-04   -0.11639E-03 21706   0.427E-02    0.231E-01
RMM:   9    -0.502168545357E+03    0.14514E-03   -0.44404E-04 21305   0.299E-02    0.169E-01
RMM:  10    -0.502168463402E+03    0.81955E-04   -0.39417E-04 19046   0.304E-02    0.117E-01
RMM:  11    -0.502168441954E+03    0.21448E-04   -0.19953E-04 17763   0.207E-02    0.963E-02
RMM:  12    -0.502168458566E+03   -0.16612E-04   -0.94525E-05 14982   0.153E-02    0.830E-02
RMM:  13    -0.502168496946E+03   -0.38380E-04   -0.79917E-05 14396   0.170E-02    0.570E-02
RMM:  14    -0.502168522578E+03   -0.25632E-04   -0.40208E-05 11488   0.132E-02    0.443E-02
RMM:  15    -0.502168521871E+03    0.70688E-06   -0.12444E-05  8953   0.846E-03
   9 F= -.50216852E+03 E0= -.50217775E+03  d E =-.242135E-01  mag=    95.5739
 curvature:  -2.38 expect dE=-0.109E-01 dE for cont linesearch -0.959E-04
 trial: gam= 0.30701 g(F)=  0.459E-02 g(S)=  0.000E+00 ort = 0.821E-03 (trialstep = 0.218E+01)
 search vector abs. value=  0.667E-02
 bond charge predicted
       N       E                     dE             d eps       ncg     rms          rms(c)
DAV:   1    -0.502028047283E+03    0.14048E+00   -0.10116E+01 17547   0.907E+00    0.187E+00
RMM:   2    -0.502140212753E+03   -0.11217E+00   -0.10553E+00 16221   0.193E+00    0.128E+00
RMM:   3    -0.502174237217E+03   -0.34024E-01   -0.19119E-01 19080   0.663E-01    0.133E+00
RMM:   4    -0.502177625143E+03   -0.33879E-02   -0.19736E-02 19131   0.290E-01    0.132E+00
RMM:   5    -0.502172827503E+03    0.47976E-02   -0.50395E-03 18478   0.142E-01    0.595E-01
RMM:   6    -0.502176280802E+03   -0.34533E-02   -0.33477E-03 17799   0.974E-02    0.286E-01
RMM:   7    -0.502176352760E+03   -0.71958E-04   -0.13210E-03 19687   0.534E-02    0.209E-01
RMM:   8    -0.502176316800E+03    0.35960E-04   -0.37994E-04 20784   0.248E-02    0.191E-01
RMM:   9    -0.502176194328E+03    0.12247E-03   -0.25719E-04 18723   0.234E-02    0.147E-01
RMM:  10    -0.502176083984E+03    0.11034E-03   -0.29057E-04 17644   0.268E-02    0.975E-02
RMM:  11    -0.502176077507E+03    0.64771E-05   -0.15347E-04 16358   0.191E-02    0.787E-02
RMM:  12    -0.502176089774E+03   -0.12268E-04   -0.78696E-05 14001   0.154E-02    0.634E-02
RMM:  13    -0.502176115438E+03   -0.25664E-04   -0.57829E-05 12666   0.145E-02    0.456E-02
RMM:  14    -0.502176124436E+03   -0.89981E-05   -0.23007E-05  9538   0.106E-02
  10 F= -.50217612E+03 E0= -.50218528E+03  d E =-.760256E-02  mag=    95.5611
 trial-energy change:   -0.007603  1 .order   -0.007504   -0.010546   -0.004463
 step:   3.5585(harm=  3.7769)  dis= 0.02487  next Energy=  -502.177563 (dE=-0.904E-02)
 bond charge predicted
       N       E                     dE             d eps       ncg     rms          rms(c)
DAV:   1    -0.502118201235E+03    0.57914E-01   -0.40567E+00 17535   0.575E+00    0.119E+00
RMM:   2    -0.502163240639E+03   -0.45039E-01   -0.42399E-01 16163   0.122E+00    0.813E-01
RMM:   3    -0.502181723038E+03   -0.18482E-01   -0.78176E-02 19088   0.424E-01    0.112E+00
RMM:   4    -0.502175864188E+03    0.58588E-02   -0.72297E-03 17269   0.189E-01    0.679E-01
RMM:   5    -0.502176441710E+03   -0.57752E-03   -0.21131E-03 20168   0.894E-02    0.365E-01
RMM:   6    -0.502177744806E+03   -0.13031E-02   -0.12347E-03 17642   0.581E-02    0.176E-01
RMM:   7    -0.502177782997E+03   -0.38190E-04   -0.43437E-04 19106   0.327E-02    0.134E-01
RMM:   8    -0.502177761199E+03    0.21797E-04   -0.11828E-04 16390   0.148E-02    0.118E-01
RMM:   9    -0.502177725147E+03    0.36052E-04   -0.92399E-05 14247   0.155E-02    0.902E-02
RMM:  10    -0.502177711949E+03    0.13198E-04   -0.13344E-04 15522   0.201E-02    0.589E-02
RMM:  11    -0.502177711603E+03    0.34580E-06   -0.56846E-05 12527   0.133E-02
  11 F= -.50217771E+03 E0= -.50218681E+03  d E =-.918973E-02  mag=    95.5519
 curvature:  -2.55 expect dE=-0.464E-02 dE for cont linesearch -0.721E-04
 ZBRENT: extrapolating
 opt :   3.9293  next Energy=  -502.177792 (dE=-0.927E-02)
 bond charge predicted
       N       E                     dE             d eps       ncg     rms          rms(c)
DAV:   1    -0.502173405061E+03    0.43069E-02   -0.29391E-01 17826   0.155E+00    0.328E-01
RMM:   2    -0.502176656237E+03   -0.32512E-02   -0.30853E-02 15941   0.329E-01    0.225E-01
RMM:   3    -0.502177708589E+03   -0.10524E-02   -0.56655E-03 18273   0.113E-01    0.237E-01
RMM:   4    -0.502177787931E+03   -0.79343E-04   -0.59269E-04 17496   0.518E-02    0.233E-01
RMM:   5    -0.502177635480E+03    0.15245E-03   -0.16201E-04 16608   0.274E-02    0.108E-01
RMM:   6    -0.502177724764E+03   -0.89284E-04   -0.95216E-05 14700   0.179E-02    0.773E-02
RMM:   7    -0.502177731029E+03   -0.62648E-05   -0.42421E-05 11340   0.127E-02
  12 F= -.50217773E+03 E0= -.50218681E+03  d E =-.920916E-02  mag=    95.5501
 curvature:  -2.85 expect dE=-0.642E-02 dE for cont linesearch -0.415E-05
 trial: gam= 0.60991 g(F)=  0.225E-02 g(S)=  0.000E+00 ort =-0.985E-04 (trialstep = 0.253E+01)
 search vector abs. value=  0.461E-02
 bond charge predicted
       N       E                     dE             d eps       ncg     rms          rms(c)
DAV:   1    -0.502019423642E+03    0.15830E+00   -0.10636E+01 18108   0.926E+00    0.191E+00
RMM:   2    -0.502143773996E+03   -0.12435E+00   -0.11727E+00 16326   0.193E+00    0.132E+00
RMM:   3    -0.502222621676E+03   -0.78848E-01   -0.21800E-01 19800   0.676E-01    0.261E+00
RMM:   4    -0.502173140110E+03    0.49482E-01   -0.19781E-02 16210   0.320E-01    0.966E-01
RMM:   5    -0.502178024881E+03   -0.48848E-02   -0.75503E-03 20951   0.150E-01    0.690E-01
RMM:   6    -0.502180931073E+03   -0.29062E-02   -0.36009E-03 17927   0.985E-02    0.512E-01
RMM:   7    -0.502181498850E+03   -0.56778E-03   -0.20136E-03 17498   0.775E-02    0.239E-01
RMM:   8    -0.502181471797E+03    0.27053E-04   -0.86020E-04 20996   0.374E-02    0.202E-01
RMM:   9    -0.502181370434E+03    0.10136E-03   -0.38817E-04 20310   0.276E-02    0.144E-01
RMM:  10    -0.502181303070E+03    0.67365E-04   -0.30438E-04 18605   0.239E-02    0.973E-02
RMM:  11    -0.502181283297E+03    0.19773E-04   -0.14259E-04 16589   0.168E-02    0.795E-02
RMM:  12    -0.502181284349E+03   -0.10517E-05   -0.99100E-05 15194   0.158E-02
  13 F= -.50218128E+03 E0= -.50219040E+03  d E =-.355332E-02  mag=    95.5343
 trial-energy change:   -0.003553  1 .order   -0.003812   -0.005548   -0.002075
 step:   4.0400(harm=  4.0400)  dis= 0.02589  next Energy=  -502.182163 (dE=-0.443E-02)
 bond charge predicted
       N       E                     dE             d eps       ncg     rms          rms(c)
DAV:   1    -0.502123712681E+03    0.57571E-01   -0.37967E+00 18129   0.556E+00    0.114E+00
RMM:   2    -0.502167905108E+03   -0.44192E-01   -0.41932E-01 16254   0.114E+00    0.780E-01
RMM:   3    -0.502178979438E+03   -0.11074E-01   -0.74408E-02 18316   0.382E-01    0.639E-01
RMM:   4    -0.502187194112E+03   -0.82147E-02   -0.89038E-03 19657   0.176E-01    0.105E+00
RMM:   5    -0.502180597673E+03    0.65964E-02   -0.21746E-03 15701   0.104E-01    0.398E-01
RMM:   6    -0.502181580294E+03   -0.98262E-03   -0.13737E-03 17779   0.651E-02    0.286E-01
RMM:   7    -0.502181691710E+03   -0.11142E-03   -0.67546E-04 18136   0.437E-02    0.134E-01
RMM:   8    -0.502181689605E+03    0.21045E-05   -0.22310E-04 18745   0.194E-02    0.115E-01
RMM:   9    -0.502181661953E+03    0.27652E-04   -0.10359E-04 15677   0.151E-02    0.881E-02
RMM:  10    -0.502181639529E+03    0.22424E-04   -0.10458E-04 14833   0.163E-02    0.610E-02
RMM:  11    -0.502181638543E+03    0.98593E-06   -0.56617E-05 12318   0.126E-02
  14 F= -.50218164E+03 E0= -.50219077E+03  d E =-.390751E-02  mag=    95.5253
 curvature:  -4.25 expect dE=-0.350E-02 dE for cont linesearch -0.491E-05
 trial: gam= 0.27966 g(F)=  0.825E-03 g(S)=  0.000E+00 ort =-0.730E-04 (trialstep = 0.283E+01)
 search vector abs. value=  0.115E-02
 bond charge predicted
       N       E                     dE             d eps       ncg     rms          rms(c)
DAV:   1    -0.502144013172E+03    0.37626E-01   -0.27914E+00 16164   0.452E+00    0.992E-01
RMM:   2    -0.502173535397E+03   -0.29522E-01   -0.26502E-01 16126   0.104E+00    0.790E-01
RMM:   3    -0.502202109820E+03   -0.28574E-01   -0.55483E-02 21572   0.383E-01    0.173E+00
RMM:   4    -0.502179400755E+03    0.22709E-01   -0.54326E-03 15170   0.179E-01    0.483E-01
RMM:   5    -0.502181801364E+03   -0.24006E-02   -0.27796E-03 19577   0.850E-02    0.388E-01
RMM:   6    -0.502182407534E+03   -0.60617E-03   -0.10001E-03 17134   0.554E-02    0.236E-01
RMM:   7    -0.502182621937E+03   -0.21440E-03   -0.50882E-04 17585   0.398E-02    0.129E-01
RMM:   8    -0.502182620952E+03    0.98546E-06   -0.20173E-04 18265   0.197E-02    0.113E-01
RMM:   9    -0.502182598461E+03    0.22490E-04   -0.95970E-05 15078   0.146E-02    0.911E-02
RMM:  10    -0.502182565254E+03    0.33207E-04   -0.14964E-04 16435   0.203E-02    0.536E-02
RMM:  11    -0.502182566060E+03   -0.80599E-06   -0.54477E-05 12745   0.115E-02
  15 F= -.50218257E+03 E0= -.50219179E+03  d E =-.927517E-03  mag=    95.4837
 trial-energy change:   -0.000928  1 .order   -0.001052   -0.002278    0.000173
 step:   2.5546(harm=  2.6308)  dis= 0.00579  next Energy=  -502.182575 (dE=-0.936E-03)
 bond charge predicted
       N       E                     dE             d eps       ncg     rms          rms(c)
DAV:   1    -0.502182221901E+03    0.34335E-03   -0.26507E-02 17466   0.439E-01    0.971E-02
RMM:   2    -0.502182533142E+03   -0.31124E-03   -0.25812E-03 15499   0.104E-01    0.918E-02
RMM:   3    -0.502182678121E+03   -0.14498E-03   -0.51980E-04 19678   0.372E-02    0.134E-01
RMM:   4    -0.502182571934E+03    0.10619E-03   -0.48776E-05 11337   0.170E-02    0.553E-02
RMM:   5    -0.502182596909E+03   -0.24975E-04   -0.17822E-05  9103   0.923E-03    0.436E-02
RMM:   6    -0.502182607827E+03   -0.10919E-04   -0.10910E-05  8562   0.837E-03    0.297E-02
RMM:   7    -0.502182609315E+03   -0.14881E-05   -0.74520E-06  8489   0.683E-03
  16 F= -.50218261E+03 E0= -.50219182E+03  d E =-.970772E-03  mag=    95.4892
 curvature:  -1.60 expect dE=-0.247E-03 dE for cont linesearch -0.146E-05
 ZBRENT: interpolating
 opt :   2.4558  next Energy=  -502.182611 (dE=-0.972E-03)
 bond charge predicted
       N       E                     dE             d eps       ncg     rms          rms(c)
DAV:   1    -0.502182565924E+03    0.41903E-04   -0.34103E-03 16683   0.159E-01    0.327E-02
RMM:   2    -0.502182603225E+03   -0.37301E-04   -0.33369E-04 14340   0.380E-02    0.289E-02
RMM:   3    -0.502182624218E+03   -0.20993E-04   -0.69323E-05 10921   0.135E-02    0.480E-02
RMM:   4    -0.502182609201E+03    0.15017E-04   -0.77181E-06  7941   0.814E-03    0.232E-02
RMM:   5    -0.502182612186E+03   -0.29856E-05   -0.22149E-06  7392   0.354E-03
  17 F= -.50218261E+03 E0= -.50219182E+03  d E =-.973643E-03  mag=    95.4909
 curvature:  -1.75 expect dE=-0.270E-03 dE for cont linesearch -0.146E-05
 ZBRENT: interpolating
 opt :   2.5041  next Energy=  -502.182613 (dE=-0.974E-03)
 bond charge predicted
       N       E                     dE             d eps       ncg     rms          rms(c)
DAV:   1    -0.502182603998E+03    0.52029E-05   -0.79580E-04 16566   0.766E-02    0.213E-02
RMM:   2    -0.502182613886E+03   -0.98877E-05   -0.83680E-05 11776   0.189E-02
  18 F= -.50218261E+03 E0= -.50219183E+03  d E =-.975343E-03  mag=    95.4907
 curvature:  -0.89 expect dE=-0.219E-03 dE for cont linesearch -0.533E-04
 ZBRENT: interpolating
 opt :   2.4609  next Energy=  -502.182612 (dE=-0.974E-03)
 bond charge predicted
       N       E                     dE             d eps       ncg     rms          rms(c)
DAV:   1    -0.502182615638E+03   -0.11640E-04   -0.62364E-04 21084   0.778E-02    0.312E-02
RMM:   2    -0.502183046316E+03   -0.43068E-03   -0.16449E-04 16645   0.235E-02    0.219E-01
RMM:   3    -0.502182595283E+03    0.45103E-03   -0.39115E-05 10766   0.176E-02    0.110E-02
RMM:   4    -0.502182612105E+03   -0.16822E-04   -0.91964E-06  7741   0.566E-03    0.109E-02
RMM:   5    -0.502182614207E+03   -0.21021E-05   -0.22106E-06  6971   0.383E-03
  19 F= -.50218261E+03 E0= -.50219182E+03  d E =-.975664E-03  mag=    95.4913
 curvature:  -0.00 expect dE=-0.199E-06 dE for cont linesearch -0.342E-10
 trial: gam= 0.10132 g(F)=  0.150E-03 g(S)=  0.000E+00 ort = 0.545E-05 (trialstep = 0.276E+01)
 search vector abs. value=  0.163E-03
 bond charge predicted
       N       E                     dE             d eps       ncg     rms          rms(c)
DAV:   1    -0.502178864942E+03    0.37472E-02   -0.31239E-01 15744   0.149E+00    0.347E-01
RMM:   2    -0.502181681411E+03   -0.28165E-02   -0.24952E-02 15669   0.359E-01    0.253E-01
RMM:   3    -0.502183750719E+03   -0.20693E-02   -0.50221E-03 19824   0.125E-01    0.421E-01
RMM:   4    -0.502182716385E+03    0.10343E-02   -0.71070E-04 15589   0.654E-02    0.223E-01
RMM:   5    -0.502182790772E+03   -0.74387E-04   -0.25174E-04 17974   0.321E-02    0.136E-01
RMM:   6    -0.502182861919E+03   -0.71147E-04   -0.10433E-04 15048   0.204E-02    0.697E-02
RMM:   7    -0.502182884129E+03   -0.22209E-04   -0.55561E-05 12791   0.135E-02    0.415E-02
RMM:   8    -0.502182882268E+03    0.18604E-05   -0.13636E-05  8555   0.845E-03
  20 F= -.50218288E+03 E0= -.50219212E+03  d E =-.268062E-03  mag=    95.4809
 trial-energy change:   -0.000268  1 .order   -0.000300   -0.000416   -0.000185
 step:   4.9611(harm=  4.9611)  dis= 0.00418  next Energy=  -502.182988 (dE=-0.374E-03)
 reached required accuracy - stopping structural energy minimisation
