<?xml version="1.0" encoding="ISO-8859-1"?>
<modeling>
 <generator>
  <i name="program" type="string">vasp </i>
  <i name="version" type="string">6.5.1  </i>
  <i name="subversion" type="string">10Mar25 (build Oct 09 2025 23:55:08) complex                          parallel </i>
  <i name="platform" type="string">LinuxIFC </i>
  <i name="date" type="string">2025 10 22 </i>
  <i name="time" type="string">01:23:03 </i>
 </generator>
 <incar>
  <i type="string" name="SYSTEM">INCAR-For-OPT</i>
  <i type="int" name="ISTART">     1</i>
  <i type="string" name="PREC">Accurate</i>
  <i type="string" name="ALGO">Fast</i>
  <i type="int" name="ISPIN">     2</i>
  <i type="int" name="IMIX">     4</i>
  <i name="AMIX">      0.05000000</i>
  <i name="BMIX">      0.00010000</i>
  <i name="AMIN">      0.01000000</i>
  <i type="int" name="ICHARG">     1</i>
  <i type="int" name="NELM">   150</i>
  <i type="int" name="IBRION">     2</i>
  <i name="EDIFF">      0.00001000</i>
  <i name="EDIFFG">     -0.02000000</i>
  <i type="int" name="NSW">   300</i>
  <i type="int" name="ISIF">     2</i>
  <i name="ENCUT">    450.00000000</i>
  <i type="string" name="LREAL">Auto</i>
  <i type="int" name="ISMEAR">     1</i>
  <i name="SIGMA">      0.15000000</i>
  <i type="int" name="LMAXMIX">     4</i>
  <i type="logical" name="LWAVE"> F  </i>
  <i type="logical" name="LCHARG"> F  </i>
  <i type="logical" name="LDIPOL"> T  </i>
  <i type="int" name="IDIPOL">     3</i>
 </incar>
 <primitive_cell>
  <structure name="primitive_cell" >
   <crystal>
    <varray name="basis" >
     <v>       8.50460000       0.00000000       0.00000000 </v>
     <v>      -0.00109914       8.50909993       0.00000000 </v>
     <v>       0.00000000       0.00000000      23.55660100 </v>
    </varray>
    <i name="volume">   1704.70856049 </i>
    <varray name="rec_basis" >
     <v>       0.11758343       0.00001519       0.00000000 </v>
     <v>       0.00000000       0.11752124       0.00000000 </v>
     <v>       0.00000000       0.00000000       0.04245095 </v>
    </varray>
   </crystal>
   <varray name="positions" >
    <v>       0.99760000       0.00330000       0.24221000 </v>
    <v>       0.66561000       0.99834000       0.00060000 </v>
    <v>       0.67354400       0.00891500       0.36928400 </v>
    <v>       0.83467000       0.16589000       0.18209000 </v>
    <v>       0.99866000       0.33404000       0.12198000 </v>
    <v>       0.33421000       0.33147000       0.00101000 </v>
    <v>       0.33492000       0.32166100       0.36416600 </v>
    <v>       0.83220000       0.50025000       0.06275000 </v>
    <v>       0.83124000       0.50129100       0.30439700 </v>
    <v>       0.33512000       0.67037000       0.00000000 </v>
    <v>       0.32602400       0.66962400       0.36812800 </v>
    <v>       0.33145000       0.66488000       0.12292000 </v>
    <v>       0.50213000       0.83338100       0.29913600 </v>
    <v>       0.67111000       0.66550000       0.12148000 </v>
    <v>       0.99950000       0.00032000       0.00103000 </v>
    <v>       0.99726800       0.99707400       0.36118600 </v>
    <v>       0.16670000       0.16592000       0.06160000 </v>
    <v>       0.99930000       0.00013000       0.12183000 </v>
    <v>       0.16670000       0.16692000       0.18170000 </v>
    <v>       0.16532700       0.16232300       0.30409900 </v>
    <v>       0.33368000       0.99986000       0.00108000 </v>
    <v>       0.34278800       0.99186200       0.35939600 </v>
    <v>       0.50008000       0.16606000       0.06164000 </v>
    <v>       0.33365000       0.99945000       0.12194000 </v>
    <v>       0.50013000       0.16657000       0.18176000 </v>
    <v>       0.33374000       0.99994000       0.24252000 </v>
    <v>       0.50427000       0.16481800       0.30293500 </v>
    <v>       0.83412000       0.16807000       0.06130000 </v>
    <v>       0.66767000       0.99972000       0.12168000 </v>
    <v>       0.66792000       0.00032000       0.24233000 </v>
    <v>       0.83459500       0.16873300       0.30380900 </v>
    <v>       0.00033000       0.33346000       0.00076000 </v>
    <v>       0.00196900       0.33211200       0.36111800 </v>
    <v>       0.16704000       0.50116000       0.06077000 </v>
    <v>       0.16627000       0.49940000       0.18238000 </v>
    <v>       0.00000000       0.33319000       0.24260000 </v>
    <v>       0.16689500       0.49939100       0.30484700 </v>
    <v>       0.49811000       0.50186000       0.06112000 </v>
    <v>       0.33328000       0.33434000       0.12148000 </v>
    <v>       0.50051000       0.50053000       0.18145000 </v>
    <v>       0.33392000       0.33269000       0.24229000 </v>
    <v>       0.49886100       0.50205200       0.30516800 </v>
    <v>       0.66687000       0.33418000       0.00129000 </v>
    <v>       0.66605200       0.33549800       0.36105200 </v>
    <v>       0.66670000       0.33332000       0.12177000 </v>
    <v>       0.83466000       0.49916000       0.18181000 </v>
    <v>       0.66748000       0.33291000       0.24234000 </v>
    <v>       0.99949000       0.66581000       0.00112000 </v>
    <v>       0.00140400       0.66980100       0.36155500 </v>
    <v>       0.16773000       0.83295000       0.06141000 </v>
    <v>       0.00149000       0.66672000       0.12196000 </v>
    <v>       0.16592000       0.83389000       0.18235000 </v>
    <v>       0.99950000       0.66635000       0.24245000 </v>
    <v>       0.16581300       0.83274300       0.30350500 </v>
    <v>       0.49825000       0.83185000       0.06189000 </v>
    <v>       0.50064000       0.83335000       0.18189000 </v>
    <v>       0.33424000       0.66627000       0.24239000 </v>
    <v>       0.66521000       0.66629000       0.00100000 </v>
    <v>       0.83382000       0.83268000       0.06128000 </v>
    <v>       0.83390000       0.83311000       0.18191000 </v>
    <v>       0.66721000       0.66675000       0.24221000 </v>
    <v>       0.83053200       0.83175400       0.30432900 </v>
   </varray>
  </structure>
  <varray name="primitive_index" >
   <v type="int" >        1 </v>
   <v type="int" >        2 </v>
   <v type="int" >        3 </v>
   <v type="int" >        4 </v>
   <v type="int" >        5 </v>
   <v type="int" >        6 </v>
   <v type="int" >        7 </v>
   <v type="int" >        8 </v>
   <v type="int" >        9 </v>
   <v type="int" >       10 </v>
   <v type="int" >       11 </v>
   <v type="int" >       12 </v>
   <v type="int" >       13 </v>
   <v type="int" >       14 </v>
   <v type="int" >       15 </v>
   <v type="int" >       16 </v>
   <v type="int" >       17 </v>
   <v type="int" >       18 </v>
   <v type="int" >       19 </v>
   <v type="int" >       20 </v>
   <v type="int" >       21 </v>
   <v type="int" >       22 </v>
   <v type="int" >       23 </v>
   <v type="int" >       24 </v>
   <v type="int" >       25 </v>
   <v type="int" >       26 </v>
   <v type="int" >       27 </v>
   <v type="int" >       28 </v>
   <v type="int" >       29 </v>
   <v type="int" >       30 </v>
   <v type="int" >       31 </v>
   <v type="int" >       32 </v>
   <v type="int" >       33 </v>
   <v type="int" >       34 </v>
   <v type="int" >       35 </v>
   <v type="int" >       36 </v>
   <v type="int" >       37 </v>
   <v type="int" >       38 </v>
   <v type="int" >       39 </v>
   <v type="int" >       40 </v>
   <v type="int" >       41 </v>
   <v type="int" >       42 </v>
   <v type="int" >       43 </v>
   <v type="int" >       44 </v>
   <v type="int" >       45 </v>
   <v type="int" >       46 </v>
   <v type="int" >       47 </v>
   <v type="int" >       48 </v>
   <v type="int" >       49 </v>
   <v type="int" >       50 </v>
   <v type="int" >       51 </v>
   <v type="int" >       52 </v>
   <v type="int" >       53 </v>
   <v type="int" >       54 </v>
   <v type="int" >       55 </v>
   <v type="int" >       56 </v>
   <v type="int" >       57 </v>
   <v type="int" >       58 </v>
   <v type="int" >       59 </v>
   <v type="int" >       60 </v>
   <v type="int" >       61 </v>
   <v type="int" >       62 </v>
  </varray>
 </primitive_cell>
 <kpoints>
  <generation param="Gamma">
   <v type="int" name="divisions">       4        4        1 </v>
   <v name="usershift">      0.00000000       0.00000000       0.00000000 </v>
   <v name="genvec1">      0.25000000       0.00000000       0.00000000 </v>
   <v name="genvec2">      0.00000000       0.25000000       0.00000000 </v>
   <v name="genvec3">      0.00000000       0.00000000       1.00000000 </v>
   <v name="shift">      0.00000000       0.00000000       0.00000000 </v>
  </generation>
  <varray name="kpointlist" >
   <v>       0.00000000       0.00000000       0.00000000 </v>
   <v>       0.25000000       0.00000000       0.00000000 </v>
   <v>       0.50000000       0.00000000       0.00000000 </v>
   <v>       0.00000000       0.25000000       0.00000000 </v>
   <v>       0.25000000       0.25000000       0.00000000 </v>
   <v>       0.50000000       0.25000000       0.00000000 </v>
   <v>      -0.25000000       0.25000000       0.00000000 </v>
   <v>       0.00000000       0.50000000       0.00000000 </v>
   <v>       0.25000000       0.50000000       0.00000000 </v>
   <v>       0.50000000       0.50000000       0.00000000 </v>
  </varray>
  <varray name="weights" >
   <v>       0.06250000 </v>
   <v>       0.12500000 </v>
   <v>       0.06250000 </v>
   <v>       0.12500000 </v>
   <v>       0.12500000 </v>
   <v>       0.12500000 </v>
   <v>       0.12500000 </v>
   <v>       0.06250000 </v>
   <v>       0.12500000 </v>
   <v>       0.06250000 </v>
  </varray>
 </kpoints>
 <parameters>
  <separator name="general" >
   <i type="string" name="SYSTEM">INCAR-For-OPT</i>
   <i type="logical" name="LCOMPAT"> F  </i>
  </separator>
  <separator name="electronic" >
   <i type="string" name="PREC">accura</i>
   <i name="ENMAX">    450.00000000</i>
   <i name="ENAUG">    519.42400000</i>
   <i name="EDIFF">      0.00001000</i>
   <i type="int" name="IALGO">    68</i>
   <i type="int" name="IWAVPR">    11</i>
   <i type="int" name="NBANDS">   363</i>
   <i type="int" name="NBANDSLOW">    -1</i>
   <i type="int" name="NBANDSHIGH">    -1</i>
   <i name="NELECT">    552.00000000</i>
   <i type="int" name="TURBO">     0</i>
   <i type="int" name="IRESTART">     0</i>
   <i type="int" name="NREBOOT">     0</i>
   <i type="int" name="NMIN">     0</i>
   <i name="EREF">      0.00000000</i>
   <separator name="electronic smearing" >
    <i type="int" name="ISMEAR">     1</i>
    <i name="SIGMA">      0.15000000</i>
    <i name="KSPACING">      0.50000000</i>
    <i type="logical" name="KGAMMA"> T  </i>
    <i type="logical" name="KBLOWUP"> T  </i>
   </separator>
   <separator name="electronic projectors" >
    <i type="logical" name="LREAL"> T  </i>
    <v name="ROPT">     -0.00025000     -0.00025000</v>
    <i type="int" name="LMAXPAW">  -100</i>
    <i type="int" name="LMAXMIX">     4</i>
    <i type="logical" name="NLSPLINE"> F  </i>
   </separator>
   <separator name="electronic startup" >
    <i type="int" name="ISTART">     0</i>
    <i type="int" name="ICHARG">     1</i>
    <i type="int" name="INIWAV">     1</i>
   </separator>
   <separator name="electronic spin" >
    <i type="int" name="ISPIN">     2</i>
    <i type="logical" name="LNONCOLLINEAR"> F  </i>
    <v name="MAGMOM">      1.00000000      1.00000000      1.00000000      1.00000000      1.00000000      1.00000000      1.00000000      1.00000000      1.00000000      1.00000000      1.00000000      1.00000000      1.00000000      1.00000000      1.00000000      1.00000000      1.00000000      1.00000000      1.00000000      1.00000000
      1.00000000      1.00000000      1.00000000      1.00000000      1.00000000      1.00000000      1.00000000      1.00000000      1.00000000      1.00000000      1.00000000      1.00000000      1.00000000      1.00000000      1.00000000      1.00000000      1.00000000      1.00000000      1.00000000      1.00000000
      1.00000000      1.00000000      1.00000000      1.00000000      1.00000000      1.00000000      1.00000000      1.00000000      1.00000000      1.00000000      1.00000000      1.00000000      1.00000000      1.00000000      1.00000000      1.00000000      1.00000000      1.00000000      1.00000000      1.00000000
      1.00000000      1.00000000</v>
    <i name="NUPDOWN">     -1.00000000</i>
    <i type="logical" name="LSORBIT"> F  </i>
    <v name="SAXIS">      0.00000000      0.00000000      1.00000000</v>
    <i type="logical" name="LSPIRAL"> F  </i>
    <v name="QSPIRAL">      0.00000000      0.00000000      0.00000000</v>
    <i type="logical" name="LZEROZ"> F  </i>
   </separator>
   <separator name="electronic exchange-correlation" >
    <i type="logical" name="LASPH"> F  </i>
   </separator>
   <separator name="electronic convergence" >
    <i type="int" name="NELM">   150</i>
    <i type="int" name="NELMDL">     0</i>
    <i type="int" name="NELMIN">     2</i>
    <i name="ENINI">    450.00000000</i>
    <separator name="electronic convergence detail" >
     <i type="logical" name="LDIAG"> T  </i>
     <i type="logical" name="LSUBROT"> F  </i>
     <i type="logical" name="LROBUST"> F  </i>
     <i type="int" name="ISEARCH">     0</i>
     <i name="WEIMIN">      0.00100000</i>
     <i name="EBREAK">      0.00000001</i>
     <i name="DEPER">      0.30000000</i>
     <i type="int" name="NRMM">     4</i>
     <i name="TIME">      0.40000000</i>
    </separator>
   </separator>
   <separator name="electronic mixer" >
    <i name="AMIX">      0.05000000</i>
    <i name="BMIX">      0.00010000</i>
    <i name="AMIN">      0.01000000</i>
    <i name="AMIX_MAG">      0.20000000</i>
    <i name="BMIX_MAG">      0.00010000</i>
    <separator name="electronic mixer details" >
     <i type="int" name="IMIX">     4</i>
     <i type="logical" name="MIXFIRST"> F  </i>
     <i type="int" name="MAXMIX">   -45</i>
     <i name="WC">    100.00000000</i>
     <i type="int" name="INIMIX">     1</i>
     <i type="int" name="MIXPRE">     1</i>
     <i type="int" name="MREMOVE">     5</i>
    </separator>
   </separator>
   <separator name="electronic dipolcorrection" >
    <i type="logical" name="LDIPOL"> T  </i>
    <i type="logical" name="LMONO"> F  </i>
    <i type="int" name="IDIPOL">     3</i>
    <i name="EPSILON">      1.00000000</i>
    <v name="DIPOL">   -100.00000000   -100.00000000   -100.00000000</v>
    <i name="EFIELD">      0.00000000</i>
    <i type="logical" name="LVACPOTAV"> F  </i>
   </separator>
  </separator>
  <separator name="grids" >
   <i type="int" name="NGX">    60</i>
   <i type="int" name="NGY">    60</i>
   <i type="int" name="NGZ">   168</i>
   <i type="int" name="NGXF">   120</i>
   <i type="int" name="NGYF">   120</i>
   <i type="int" name="NGZF">   336</i>
   <i type="logical" name="ADDGRID"> F  </i>
  </separator>
  <separator name="ionic" >
   <i type="int" name="NSW">   300</i>
   <i type="int" name="IBRION">     2</i>
   <i type="int" name="MDALGO">     0</i>
   <i type="int" name="ISIF">     2</i>
   <i name="PSTRESS">      0.00000000</i>
   <i name="EDIFFG">     -0.02000000</i>
   <i type="int" name="NFREE">     1</i>
   <i name="POTIM">      0.50000000</i>
   <i name="SMASS">     -3.00000000</i>
   <i name="SCALEE">      1.00000000</i>
  </separator>
  <separator name="ionic md" >
   <i name="TEBEG">      0.00010000</i>
   <i name="TEEND">      0.00010000</i>
   <i type="int" name="NBLOCK">     1</i>
   <i type="int" name="KBLOCK">   300</i>
   <i type="int" name="NPACO">   256</i>
   <i name="APACO">     10.00000000</i>
  </separator>
  <separator name="symmetry" >
   <i type="int" name="ISYM">     2</i>
   <i name="SYMPREC">      0.00001000</i>
  </separator>
  <separator name="dos" >
   <i type="int" name="LORBIT">     0</i>
   <v name="RWIGS">     -1.00000000     -1.00000000</v>
   <i type="int" name="NEDOS">   301</i>
   <i name="EMIN">     10.00000000</i>
   <i name="EMAX">    -10.00000000</i>
   <i name="EFERMI">      0.00000000</i>
  </separator>
  <separator name="writing" >
   <i type="int" name="NWRITE">     2</i>
   <i type="logical" name="LWAVE"> F  </i>
   <i type="logical" name="LDOWNSAMPLE"> F  </i>
   <i type="logical" name="LCHARG"> F  </i>
   <i type="logical" name="LPARD"> F  </i>
   <i type="logical" name="LVTOT"> F  </i>
   <i type="logical" name="LVHAR"> F  </i>
   <i type="logical" name="LELF"> F  </i>
   <i type="logical" name="LOPTICS"> F  </i>
   <v name="STM">      0.00000000      0.00000000      0.00000000      0.00000000      0.00000000      0.00000000      0.00000000</v>
  </separator>
  <separator name="performance" >
   <i type="int" name="NPAR">     3</i>
   <i type="int" name="NSIM">     4</i>
   <i type="int" name="NBLK">    -1</i>
   <i type="logical" name="LPLANE"> T  </i>
   <i type="logical" name="LSCALAPACK"> T  </i>
   <i type="logical" name="LSCAAWARE"> F  </i>
   <i type="logical" name="LSCALU"> F  </i>
   <i type="logical" name="LASYNC"> F  </i>
   <i type="logical" name="LORBITALREAL"> F  </i>
  </separator>
  <separator name="miscellaneous" >
   <i type="int" name="IDIOT">     3</i>
   <i type="int" name="PHON_NSTRUCT">    -1</i>
   <i type="logical" name="LMUSIC"> F  </i>
   <v name="POMASS">     51.99600000     55.84700000</v>
   <v name="DARWINR">      0.00000000      0.00000000</v>
   <v name="DARWINV">      1.00000000      1.00000000</v>
   <i type="logical" name="LCORR"> T  </i>
  </separator>
  <i type="logical" name="GGA_COMPAT"> T  </i>
  <i type="logical" name="LBERRY"> F  </i>
  <i type="int" name="ICORELEVEL">     0</i>
  <i type="logical" name="LDAU"> F  </i>
  <i type="int" name="I_CONSTRAINED_M">     0</i>
  <separator name="electronic exchange-correlation" >
   <i type="string" name="GGA    ">PE</i>
   <i type="string" name="XC_C">1</i>
   <i type="int" name="VOSKOWN">     0</i>
   <i type="logical" name="LHFCALC"> F  </i>
   <i type="string" name="PRECFOCK"></i>
   <i type="logical" name="LSYMGRAD"> F  </i>
   <i type="logical" name="LHFONE"> F  </i>
   <i type="logical" name="LRHFCALC"> F  </i>
   <i type="logical" name="LTHOMAS"> F  </i>
   <i type="logical" name="LMODELHF"> F  </i>
   <i type="logical" name="LFOCKACE"> F  </i>
   <i name="ENCUT4O">     -1.00000000</i>
   <i type="int" name="EXXOEP">     0</i>
   <i type="int" name="FOURORBIT">     0</i>
   <i name="AEXX">      0.00000000</i>
   <i name="HFALPHA">      0.00000000</i>
   <i name="MCALPHA">      0.00000000</i>
   <i name="ALDAX">      1.00000000</i>
   <i name="AGGAX">      1.00000000</i>
   <i name="AMGGAX">      1.00000000</i>
   <i name="ALDAC">      1.00000000</i>
   <i name="AGGAC">      1.00000000</i>
   <i name="AMGGAC">      1.00000000</i>
   <i type="int" name="NKREDX">     1</i>
   <i type="int" name="NKREDY">     1</i>
   <i type="int" name="NKREDZ">     1</i>
   <i type="logical" name="SHIFTRED"> F  </i>
   <i type="logical" name="ODDONLY"> F  </i>
   <i type="logical" name="EVENONLY"> F  </i>
   <i type="int" name="LMAXFOCK">     0</i>
   <i type="int" name="NMAXFOCKAE">     0</i>
   <i type="logical" name="LFOCKAEDFT"> F  </i>
   <i name="HFSCREEN">      0.00000000</i>
   <i name="HFSCREENC">      0.00000000</i>
   <i type="int" name="NBANDSGWLOW">     0</i>
  </separator>
  <separator name="vdW DFT" >
   <i type="logical" name="LUSE_VDW"> F  </i>
   <i type="int" name="IVDW_NL">    -1</i>
   <i type="logical" name="LSPIN_VDW"> F  </i>
   <i name="ZAB_VDW">     -0.84910000</i>
   <i name="GAMMA_VDW">      1.39626340</i>
   <i name="ALPHA_VDW">      0.00000000</i>
   <i name="PARAM1">      0.12340000</i>
   <i name="PARAM2">      1.00000000</i>
   <i name="BPARAM">      6.30000000</i>
   <i name="CPARAM">      0.00930000</i>
  </separator>
  <separator name="model GW" >
   <i type="int" name="MODEL_GW">     0</i>
   <i name="MODEL_EPS0">     16.49717962</i>
   <i name="MODEL_ALPHA">      1.00000000</i>
  </separator>
  <separator name="linear response parameters" >
   <i type="logical" name="LEPSILON"> F  </i>
   <i type="logical" name="LRPA"> F  </i>
   <i type="logical" name="LNABLA"> F  </i>
   <i type="logical" name="LVEL"> F  </i>
   <i name="CSHIFT">      0.10000000</i>
   <i name="OMEGAMAX">     -1.00000000</i>
   <i name="DEG_THRESHOLD">      0.00200000</i>
   <i name="RTIME">     -0.10000000</i>
   <i name="WPLASMAI">      0.00000000</i>
   <v name="DFIELD">      0.00000000      0.00000000      0.00000000</v>
   <v name="WPLASMA">      0.00000000      0.00000000      0.00000000      0.00000000      0.00000000      0.00000000      0.00000000      0.00000000      0.00000000</v>
  </separator>
  <separator name="orbital magnetization" >
   <i type="logical" name="NUCIND"> F  </i>
   <v name="MAGPOS">      0.00000000      0.00000000      0.00000000</v>
   <i type="logical" name="LNICSALL"> T  </i>
   <i type="logical" name="ORBITALMAG"> F  </i>
   <i type="logical" name="LMAGBLOCH"> F  </i>
   <i type="logical" name="LCHIMAG"> F  </i>
   <i type="logical" name="LGAUGE"> T  </i>
   <i type="int" name="MAGATOM">     0</i>
   <v name="MAGDIPOL">      0.00000000      0.00000000      0.00000000</v>
   <v name="AVECCONST">      0.00000000      0.00000000      0.00000000</v>
  </separator>
  <separator name="response functions" >
   <i type="logical" name="LALL_IN_ONE"> F  </i>
   <i type="int" name="IALL_IN_ONE">    -1</i>
   <i type="int" name="NBANDS_WAVE">    -1</i>
   <i type="logical" name="LFINITE_TEMPERATURE"> F  </i>
   <i type="logical" name="LADDER"> F  </i>
   <i type="logical" name="LRPAFORCE"> F  </i>
   <i type="logical" name="LFXC"> F  </i>
   <i type="logical" name="LHARTREE"> T  </i>
   <i type="int" name="IBSE">     2</i>
   <v type="int" name="KPOINT">    -1     0     0     0</v>
   <i type="logical" name="LTCTC"> F  </i>
   <i type="logical" name="LTCTE"> F  </i>
   <i type="logical" name="LTETE"> F  </i>
   <i type="logical" name="LTRIPLET"> F  </i>
   <i type="logical" name="LFXCEPS"> F  </i>
   <i type="logical" name="LFXHEG"> F  </i>
   <i type="int" name="NATURALO">     2</i>
   <i type="logical" name="LHOLEGF"> F  </i>
   <i type="logical" name="L2ORDER"> F  </i>
   <i type="logical" name="LDMP1"> F  </i>
   <i type="logical" name="LMP2LT"> F  </i>
   <i type="logical" name="LSMP2LT"> F  </i>
   <i type="logical" name="LGWLF"> F  </i>
   <i name="ENCUTGW">     -1.60000002</i>
   <i name="ENCUTGWSOFT">     -1.60000002</i>
   <i name="ENCUTLF">     -1.00000000</i>
   <i type="logical" name="ESF_SPLINES"> F  </i>
   <i name="ESF_CONV">      0.01000000</i>
   <i type="int" name="ESF_NINTER">    15</i>
   <i type="int" name="LMAXMP2">    -1</i>
   <i name="SCISSOR">      0.00000000</i>
   <i type="int" name="NOMEGA">     0</i>
   <i type="int" name="NOMEGAR">     0</i>
   <i type="int" name="NBANDSGW">    -1</i>
   <i type="int" name="NBANDSO">    -1</i>
   <i type="int" name="NBANDSV">    -1</i>
   <i type="int" name="NELMGW">     1</i>
   <i type="int" name="NELMHF">     1</i>
   <i type="int" name="DIM">     3</i>
   <i type="int" name="IESPILON">     4</i>
   <i type="int" name="ANTIRES">     0</i>
   <i name="OMEGAMAX">    -30.00000000</i>
   <i name="OMEGAMIN">    -30.00000000</i>
   <i name="OMEGATL">   -200.00000000</i>
   <i type="int" name="OMEGAGRID">     0</i>
   <i name="CSHIFT">     -0.10000000</i>
   <i type="logical" name="LSELFENERGY"> F  </i>
   <i type="logical" name="LSPECTRAL"> F  </i>
   <i type="logical" name="LSPECTRALGW"> F  </i>
   <i type="logical" name="LSINGLES"> F  </i>
   <i type="logical" name="LFERMIGW"> F  </i>
   <i type="logical" name="ODDONLYGW"> F  </i>
   <i type="logical" name="EVENONLYGW"> F  </i>
   <i type="int" name="NKREDLFX">     1</i>
   <i type="int" name="NKREDLFY">     1</i>
   <i type="int" name="NKREDLFZ">     1</i>
   <i type="int" name="MAXMEM">  2800</i>
   <i type="int" name="TELESCOPE">     0</i>
   <i type="int" name="NTAUPAR">    -1</i>
   <i type="int" name="NOMEGAPAR">    -1</i>
   <i name="DAMP_NEWTON">      0.80000001</i>
   <i name="LAMBDA">      1.00000000</i>
  </separator>
  <separator name="External order field" >
   <i name="OFIELD_KAPPA">      0.00000000</i>
   <v name="OFIELD_K">      0.00000000      0.00000000      0.00000000</v>
   <i name="OFIELD_Q6_NEAR">      0.00000000</i>
   <i name="OFIELD_Q6_FAR">      0.00000000</i>
   <i name="OFIELD_A">      0.00000000</i>
  </separator>
  <separator name="optional k-points parameters" >
   <i type="int" name="KPOINTS_OPT_MODE">     1</i>
   <i type="logical" name="LKPOINTS_OPT"> F  </i>
  </separator>
 </parameters>
 <atominfo>
  <atoms>      62 </atoms>
  <types>       2 </types>
  <array name="atoms" >
   <dimension dim="1">ion</dimension>
   <field type="string">element</field>
   <field type="int">atomtype</field>
   <set>
    <rc><c>Cr</c><c>   1</c></rc>
    <rc><c>Cr</c><c>   1</c></rc>
    <rc><c>Cr</c><c>   1</c></rc>
    <rc><c>Cr</c><c>   1</c></rc>
    <rc><c>Cr</c><c>   1</c></rc>
    <rc><c>Cr</c><c>   1</c></rc>
    <rc><c>Cr</c><c>   1</c></rc>
    <rc><c>Cr</c><c>   1</c></rc>
    <rc><c>Cr</c><c>   1</c></rc>
    <rc><c>Cr</c><c>   1</c></rc>
    <rc><c>Cr</c><c>   1</c></rc>
    <rc><c>Cr</c><c>   1</c></rc>
    <rc><c>Cr</c><c>   1</c></rc>
    <rc><c>Cr</c><c>   1</c></rc>
    <rc><c>Fe</c><c>   2</c></rc>
    <rc><c>Fe</c><c>   2</c></rc>
    <rc><c>Fe</c><c>   2</c></rc>
    <rc><c>Fe</c><c>   2</c></rc>
    <rc><c>Fe</c><c>   2</c></rc>
    <rc><c>Fe</c><c>   2</c></rc>
    <rc><c>Fe</c><c>   2</c></rc>
    <rc><c>Fe</c><c>   2</c></rc>
    <rc><c>Fe</c><c>   2</c></rc>
    <rc><c>Fe</c><c>   2</c></rc>
    <rc><c>Fe</c><c>   2</c></rc>
    <rc><c>Fe</c><c>   2</c></rc>
    <rc><c>Fe</c><c>   2</c></rc>
    <rc><c>Fe</c><c>   2</c></rc>
    <rc><c>Fe</c><c>   2</c></rc>
    <rc><c>Fe</c><c>   2</c></rc>
    <rc><c>Fe</c><c>   2</c></rc>
    <rc><c>Fe</c><c>   2</c></rc>
    <rc><c>Fe</c><c>   2</c></rc>
    <rc><c>Fe</c><c>   2</c></rc>
    <rc><c>Fe</c><c>   2</c></rc>
    <rc><c>Fe</c><c>   2</c></rc>
    <rc><c>Fe</c><c>   2</c></rc>
    <rc><c>Fe</c><c>   2</c></rc>
    <rc><c>Fe</c><c>   2</c></rc>
    <rc><c>Fe</c><c>   2</c></rc>
    <rc><c>Fe</c><c>   2</c></rc>
    <rc><c>Fe</c><c>   2</c></rc>
    <rc><c>Fe</c><c>   2</c></rc>
    <rc><c>Fe</c><c>   2</c></rc>
    <rc><c>Fe</c><c>   2</c></rc>
    <rc><c>Fe</c><c>   2</c></rc>
    <rc><c>Fe</c><c>   2</c></rc>
    <rc><c>Fe</c><c>   2</c></rc>
    <rc><c>Fe</c><c>   2</c></rc>
    <rc><c>Fe</c><c>   2</c></rc>
    <rc><c>Fe</c><c>   2</c></rc>
    <rc><c>Fe</c><c>   2</c></rc>
    <rc><c>Fe</c><c>   2</c></rc>
    <rc><c>Fe</c><c>   2</c></rc>
    <rc><c>Fe</c><c>   2</c></rc>
    <rc><c>Fe</c><c>   2</c></rc>
    <rc><c>Fe</c><c>   2</c></rc>
    <rc><c>Fe</c><c>   2</c></rc>
    <rc><c>Fe</c><c>   2</c></rc>
    <rc><c>Fe</c><c>   2</c></rc>
    <rc><c>Fe</c><c>   2</c></rc>
    <rc><c>Fe</c><c>   2</c></rc>
   </set>
  </array>
  <array name="atomtypes" >
   <dimension dim="1">type</dimension>
   <field type="int">atomspertype</field>
   <field type="string">element</field>
   <field>mass</field>
   <field>valence</field>
   <field type="string">pseudopotential</field>
   <set>
    <rc><c>  14</c><c>Cr</c><c>     51.99600000</c><c>     12.00000000</c><c>  PAW_PBE Cr_pv 02Aug2007               </c></rc>
    <rc><c>  48</c><c>Fe</c><c>     55.84700000</c><c>      8.00000000</c><c>  PAW_PBE Fe 06Sep2000                  </c></rc>
   </set>
  </array>
 </atominfo>
 <structure name="initialpos" >
  <crystal>
   <varray name="basis" >
    <v>       8.50460000       0.00000000       0.00000000 </v>
    <v>      -0.00109914       8.50909993       0.00000000 </v>
    <v>       0.00000000       0.00000000      23.55660100 </v>
   </varray>
   <i name="volume">   1704.70856049 </i>
   <varray name="rec_basis" >
    <v>       0.11758343       0.00001519       0.00000000 </v>
    <v>       0.00000000       0.11752124       0.00000000 </v>
    <v>       0.00000000       0.00000000       0.04245095 </v>
   </varray>
  </crystal>
  <varray name="positions" >
   <v>       0.99760000       0.00330000       0.24221000 </v>
   <v>       0.66561000       0.99834000       0.00060000 </v>
   <v>       0.67354400       0.00891500       0.36928400 </v>
   <v>       0.83467000       0.16589000       0.18209000 </v>
   <v>       0.99866000       0.33404000       0.12198000 </v>
   <v>       0.33421000       0.33147000       0.00101000 </v>
   <v>       0.33492000       0.32166100       0.36416600 </v>
   <v>       0.83220000       0.50025000       0.06275000 </v>
   <v>       0.83124000       0.50129100       0.30439700 </v>
   <v>       0.33512000       0.67037000       0.00000000 </v>
   <v>       0.32602400       0.66962400       0.36812800 </v>
   <v>       0.33145000       0.66488000       0.12292000 </v>
   <v>       0.50213000       0.83338100       0.29913600 </v>
   <v>       0.67111000       0.66550000       0.12148000 </v>
   <v>       0.99950000       0.00032000       0.00103000 </v>
   <v>       0.99726800       0.99707400       0.36118600 </v>
   <v>       0.16670000       0.16592000       0.06160000 </v>
   <v>       0.99930000       0.00013000       0.12183000 </v>
   <v>       0.16670000       0.16692000       0.18170000 </v>
   <v>       0.16532700       0.16232300       0.30409900 </v>
   <v>       0.33368000       0.99986000       0.00108000 </v>
   <v>       0.34278800       0.99186200       0.35939600 </v>
   <v>       0.50008000       0.16606000       0.06164000 </v>
   <v>       0.33365000       0.99945000       0.12194000 </v>
   <v>       0.50013000       0.16657000       0.18176000 </v>
   <v>       0.33374000       0.99994000       0.24252000 </v>
   <v>       0.50427000       0.16481800       0.30293500 </v>
   <v>       0.83412000       0.16807000       0.06130000 </v>
   <v>       0.66767000       0.99972000       0.12168000 </v>
   <v>       0.66792000       0.00032000       0.24233000 </v>
   <v>       0.83459500       0.16873300       0.30380900 </v>
   <v>       0.00033000       0.33346000       0.00076000 </v>
   <v>       0.00196900       0.33211200       0.36111800 </v>
   <v>       0.16704000       0.50116000       0.06077000 </v>
   <v>       0.16627000       0.49940000       0.18238000 </v>
   <v>       0.00000000       0.33319000       0.24260000 </v>
   <v>       0.16689500       0.49939100       0.30484700 </v>
   <v>       0.49811000       0.50186000       0.06112000 </v>
   <v>       0.33328000       0.33434000       0.12148000 </v>
   <v>       0.50051000       0.50053000       0.18145000 </v>
   <v>       0.33392000       0.33269000       0.24229000 </v>
   <v>       0.49886100       0.50205200       0.30516800 </v>
   <v>       0.66687000       0.33418000       0.00129000 </v>
   <v>       0.66605200       0.33549800       0.36105200 </v>
   <v>       0.66670000       0.33332000       0.12177000 </v>
   <v>       0.83466000       0.49916000       0.18181000 </v>
   <v>       0.66748000       0.33291000       0.24234000 </v>
   <v>       0.99949000       0.66581000       0.00112000 </v>
   <v>       0.00140400       0.66980100       0.36155500 </v>
   <v>       0.16773000       0.83295000       0.06141000 </v>
   <v>       0.00149000       0.66672000       0.12196000 </v>
   <v>       0.16592000       0.83389000       0.18235000 </v>
   <v>       0.99950000       0.66635000       0.24245000 </v>
   <v>       0.16581300       0.83274300       0.30350500 </v>
   <v>       0.49825000       0.83185000       0.06189000 </v>
   <v>       0.50064000       0.83335000       0.18189000 </v>
   <v>       0.33424000       0.66627000       0.24239000 </v>
   <v>       0.66521000       0.66629000       0.00100000 </v>
   <v>       0.83382000       0.83268000       0.06128000 </v>
   <v>       0.83390000       0.83311000       0.18191000 </v>
   <v>       0.66721000       0.66675000       0.24221000 </v>
   <v>       0.83053200       0.83175400       0.30432900 </v>
  </varray>
  <varray name="selective"  type="logical" >
   <v type="logical" >  F  F  F </v>
   <v type="logical" >  F  F  F </v>
   <v type="logical" >  T  T  T </v>
   <v type="logical" >  F  F  F </v>
   <v type="logical" >  F  F  F </v>
   <v type="logical" >  F  F  F </v>
   <v type="logical" >  T  T  T </v>
   <v type="logical" >  F  F  F </v>
   <v type="logical" >  T  T  T </v>
   <v type="logical" >  F  F  F </v>
   <v type="logical" >  T  T  T </v>
   <v type="logical" >  F  F  F </v>
   <v type="logical" >  T  T  T </v>
   <v type="logical" >  F  F  F </v>
   <v type="logical" >  F  F  F </v>
   <v type="logical" >  T  T  T </v>
   <v type="logical" >  F  F  F </v>
   <v type="logical" >  F  F  F </v>
   <v type="logical" >  F  F  F </v>
   <v type="logical" >  T  T  T </v>
   <v type="logical" >  F  F  F </v>
   <v type="logical" >  T  T  T </v>
   <v type="logical" >  F  F  F </v>
   <v type="logical" >  F  F  F </v>
   <v type="logical" >  F  F  F </v>
   <v type="logical" >  F  F  F </v>
   <v type="logical" >  T  T  T </v>
   <v type="logical" >  F  F  F </v>
   <v type="logical" >  F  F  F </v>
   <v type="logical" >  F  F  F </v>
   <v type="logical" >  T  T  T </v>
   <v type="logical" >  F  F  F </v>
   <v type="logical" >  T  T  T </v>
   <v type="logical" >  F  F  F </v>
   <v type="logical" >  F  F  F </v>
   <v type="logical" >  F  F  F </v>
   <v type="logical" >  T  T  T </v>
   <v type="logical" >  F  F  F </v>
   <v type="logical" >  F  F  F </v>
   <v type="logical" >  F  F  F </v>
   <v type="logical" >  F  F  F </v>
   <v type="logical" >  T  T  T </v>
   <v type="logical" >  F  F  F </v>
   <v type="logical" >  T  T  T </v>
   <v type="logical" >  F  F  F </v>
   <v type="logical" >  F  F  F </v>
   <v type="logical" >  F  F  F </v>
   <v type="logical" >  F  F  F </v>
   <v type="logical" >  T  T  T </v>
   <v type="logical" >  F  F  F </v>
   <v type="logical" >  F  F  F </v>
   <v type="logical" >  F  F  F </v>
   <v type="logical" >  F  F  F </v>
   <v type="logical" >  T  T  T </v>
   <v type="logical" >  F  F  F </v>
   <v type="logical" >  F  F  F </v>
   <v type="logical" >  F  F  F </v>
   <v type="logical" >  F  F  F </v>
   <v type="logical" >  F  F  F </v>
   <v type="logical" >  F  F  F </v>
   <v type="logical" >  F  F  F </v>
   <v type="logical" >  T  T  T </v>
  </varray>
  <nose>
   <v>      -3.00000000       0.00000000       0.00010000       0.00010000 </v>
  </nose>
 </structure>
 <calculation>
  <scstep>
   <time name="dav">   15.10   15.19</time>
   <time name="total">   15.59   15.68</time>
   <dipole>
    <v name="dipole">      0.00000000       0.00000000       0.00001159 </v>
    <i name="Tr[quadrupol]">  -6854.61593100 </i>
    <i name="Echarged">      0.00000000 </i>
    <i name="Edipol_quadrupol">      0.00000000 </i>
    <i name="Eion">      0.00000000 </i>
   </dipole>
   <energy>
    <i name="alphaZ">   1737.68560298 </i>
    <i name="ewald"> 206260.32717903 </i>
    <i name="hartreedc">-255734.49067835 </i>
    <i name="XCdc">    955.22248308 </i>
    <i name="pawpsdc">  44929.80271308 </i>
    <i name="pawaedc"> -45977.20384656 </i>
    <i name="eentropy">      0.00515960 </i>
    <i name="bandstr">   1589.85537520 </i>
    <i name="atom">  51597.65971741 </i>
    <i name="e_fr_energy">   5358.86370547 </i>
    <i name="e_wo_entrp">   5358.85854586 </i>
    <i name="e_0_energy">   5358.86198560 </i>
   </energy>
  </scstep>
  <scstep>
   <time name="dav">   14.35   14.44</time>
   <time name="total">   14.35   14.44</time>
   <dipole>
    <v name="dipole">      0.00000000       0.00000000       0.00001159 </v>
    <i name="Tr[quadrupol]">  -6854.61593100 </i>
    <i name="Echarged">      0.00000000 </i>
    <i name="Edipol_quadrupol">      0.00000000 </i>
    <i name="Eion">      0.00000000 </i>
   </dipole>
   <energy>
    <i name="e_fr_energy">   -101.05291163 </i>
    <i name="e_wo_entrp">   -101.04443372 </i>
    <i name="e_0_energy">   -101.05008566 </i>
   </energy>
  </scstep>
  <scstep>
   <time name="dav">   14.81   14.90</time>
   <time name="total">   14.81   14.90</time>
   <dipole>
    <v name="dipole">      0.00000000       0.00000000       0.00001159 </v>
    <i name="Tr[quadrupol]">  -6854.61593100 </i>
    <i name="Echarged">      0.00000000 </i>
    <i name="Edipol_quadrupol">      0.00000000 </i>
    <i name="Eion">      0.00000000 </i>
   </dipole>
   <energy>
    <i name="e_fr_energy">   -521.21671637 </i>
    <i name="e_wo_entrp">   -521.20957534 </i>
    <i name="e_0_energy">   -521.21433603 </i>
   </energy>
  </scstep>
  <scstep>
   <time name="dav">   22.94   23.07</time>
   <time name="total">   22.94   23.08</time>
   <dipole>
    <v name="dipole">      0.00000000       0.00000000       0.00001159 </v>
    <i name="Tr[quadrupol]">  -6854.61593100 </i>
    <i name="Echarged">      0.00000000 </i>
    <i name="Edipol_quadrupol">      0.00000000 </i>
    <i name="Eion">      0.00000000 </i>
   </dipole>
   <energy>
    <i name="e_fr_energy">   -576.80154425 </i>
    <i name="e_wo_entrp">   -576.80906098 </i>
    <i name="e_0_energy">   -576.80404983 </i>
   </energy>
  </scstep>
  <scstep>
   <time name="dav">   21.08   21.20</time>
   <time name="total">   21.63   21.75</time>
   <dipole>
    <v name="dipole">      0.00000000       0.00000000       0.00001159 </v>
    <i name="Tr[quadrupol]">  -6854.61593100 </i>
    <i name="Echarged">      0.00000000 </i>
    <i name="Edipol_quadrupol">      0.00000000 </i>
    <i name="Eion">      0.00000000 </i>
   </dipole>
   <energy>
    <i name="e_fr_energy">   -579.65155049 </i>
    <i name="e_wo_entrp">   -579.66360158 </i>
    <i name="e_0_energy">   -579.65556752 </i>
   </energy>
  </scstep>
  <scstep>
   <time name="diag">    1.94    1.95</time>
   <time name="diis">    9.82    9.87</time>
   <time name="orth">    0.44    0.44</time>
   <time name="total">   13.13   13.20</time>
   <dipole>
    <v name="dipole">      0.00000000       0.00000000       0.27067446 </v>
    <i name="Tr[quadrupol]">  -6878.12220062 </i>
    <i name="Echarged">      0.00000000 </i>
    <i name="Edipol_quadrupol">      0.00000000 </i>
    <i name="Eion">      0.00000000 </i>
   </dipole>
   <energy>
    <i name="e_fr_energy">   -651.10381856 </i>
    <i name="e_wo_entrp">   -651.11580208 </i>
    <i name="e_0_energy">   -651.10781307 </i>
   </energy>
  </scstep>
  <scstep>
   <time name="diag">    1.89    1.90</time>
   <time name="diis">    7.75    7.79</time>
   <time name="orth">    0.44    0.44</time>
   <time name="total">   10.99   11.05</time>
   <dipole>
    <v name="dipole">      0.00000000       0.00000000      -0.43070815 </v>
    <i name="Tr[quadrupol]">  -6866.09582816 </i>
    <i name="Echarged">      0.00000000 </i>
    <i name="Edipol_quadrupol">      0.00000000 </i>
    <i name="Eion">      0.00000000 </i>
   </dipole>
   <energy>
    <i name="e_fr_energy">   -549.17123388 </i>
    <i name="e_wo_entrp">   -549.14581085 </i>
    <i name="e_0_energy">   -549.16275953 </i>
   </energy>
  </scstep>
  <scstep>
   <time name="diag">    1.86    1.87</time>
   <time name="diis">    9.98   10.04</time>
   <time name="orth">    0.43    0.44</time>
   <time name="total">   13.22   13.30</time>
   <dipole>
    <v name="dipole">      0.00000000       0.00000000       1.34820653 </v>
    <i name="Tr[quadrupol]">  -6863.87100436 </i>
    <i name="Echarged">      0.00000000 </i>
    <i name="Edipol_quadrupol">      0.00000000 </i>
    <i name="Eion">      0.00000000 </i>
   </dipole>
   <energy>
    <i name="e_fr_energy">   -624.93660373 </i>
    <i name="e_wo_entrp">   -624.91815432 </i>
    <i name="e_0_energy">   -624.93045392 </i>
   </energy>
  </scstep>
  <scstep>
   <time name="diag">    1.86    1.87</time>
   <time name="diis">    8.12    8.17</time>
   <time name="orth">    0.43    0.43</time>
   <time name="total">   11.32   11.38</time>
   <dipole>
    <v name="dipole">      0.00000000       0.00000000      -0.46501316 </v>
    <i name="Tr[quadrupol]">  -6864.63642538 </i>
    <i name="Echarged">      0.00000000 </i>
    <i name="Edipol_quadrupol">      0.00000000 </i>
    <i name="Eion">      0.00000000 </i>
   </dipole>
   <energy>
    <i name="e_fr_energy">   -527.86669647 </i>
    <i name="e_wo_entrp">   -527.86782487 </i>
    <i name="e_0_energy">   -527.86707260 </i>
   </energy>
  </scstep>
  <scstep>
   <time name="diag">    1.88    1.89</time>
   <time name="diis">    9.78    9.83</time>
   <time name="orth">    0.44    0.44</time>
   <time name="total">   13.04   13.11</time>
   <dipole>
    <v name="dipole">      0.00000000       0.00000000       0.28050206 </v>
    <i name="Tr[quadrupol]">  -6867.52978552 </i>
    <i name="Echarged">      0.00000000 </i>
    <i name="Edipol_quadrupol">      0.00000000 </i>
    <i name="Eion">      0.00000000 </i>
   </dipole>
   <energy>
    <i name="e_fr_energy">   -502.44399218 </i>
    <i name="e_wo_entrp">   -502.45535957 </i>
    <i name="e_0_energy">   -502.44778131 </i>
   </energy>
  </scstep>
  <scstep>
   <time name="diag">    1.90    1.91</time>
   <time name="diis">    9.49    9.55</time>
   <time name="orth">    0.43    0.43</time>
   <time name="total">   12.74   12.82</time>
   <dipole>
    <v name="dipole">      0.00000000       0.00000000      -0.07603953 </v>
    <i name="Tr[quadrupol]">  -6872.00978578 </i>
    <i name="Echarged">      0.00000000 </i>
    <i name="Edipol_quadrupol">      0.00000000 </i>
    <i name="Eion">      0.00000000 </i>
   </dipole>
   <energy>
    <i name="e_fr_energy">   -486.67622099 </i>
    <i name="e_wo_entrp">   -486.72815067 </i>
    <i name="e_0_energy">   -486.69353089 </i>
   </energy>
  </scstep>
  <scstep>
   <time name="diag">    1.88    1.89</time>
   <time name="diis">    9.32    9.38</time>
   <time name="orth">    0.43    0.43</time>
   <time name="total">   12.56   12.63</time>
   <dipole>
    <v name="dipole">      0.00000000       0.00000000      -0.07325665 </v>
    <i name="Tr[quadrupol]">  -6874.38149811 </i>
    <i name="Echarged">      0.00000000 </i>
    <i name="Edipol_quadrupol">      0.00000000 </i>
    <i name="Eion">      0.00000000 </i>
   </dipole>
   <energy>
    <i name="e_fr_energy">   -486.55458287 </i>
    <i name="e_wo_entrp">   -486.59634077 </i>
    <i name="e_0_energy">   -486.56850217 </i>
   </energy>
  </scstep>
  <scstep>
   <time name="diag">    1.90    1.91</time>
   <time name="diis">   10.65   10.70</time>
   <time name="orth">    0.43    0.43</time>
   <time name="total">   13.91   13.99</time>
   <dipole>
    <v name="dipole">      0.00000000       0.00000000      -0.09382369 </v>
    <i name="Tr[quadrupol]">  -6875.50960229 </i>
    <i name="Echarged">      0.00000000 </i>
    <i name="Edipol_quadrupol">      0.00000000 </i>
    <i name="Eion">      0.00000000 </i>
   </dipole>
   <energy>
    <i name="e_fr_energy">   -487.24671558 </i>
    <i name="e_wo_entrp">   -487.28330100 </i>
    <i name="e_0_energy">   -487.25891072 </i>
   </energy>
  </scstep>
  <scstep>
   <time name="diag">    1.89    1.90</time>
   <time name="diis">   11.01   11.06</time>
   <time name="orth">    0.43    0.43</time>
   <time name="total">   14.25   14.33</time>
   <dipole>
    <v name="dipole">      0.00000000       0.00000000      -0.09251216 </v>
    <i name="Tr[quadrupol]">  -6876.25429586 </i>
    <i name="Echarged">      0.00000000 </i>
    <i name="Edipol_quadrupol">      0.00000000 </i>
    <i name="Eion">      0.00000000 </i>
   </dipole>
   <energy>
    <i name="e_fr_energy">   -487.92997834 </i>
    <i name="e_wo_entrp">   -487.96040621 </i>
    <i name="e_0_energy">   -487.94012096 </i>
   </energy>
  </scstep>
  <scstep>
   <time name="diag">    1.90    1.91</time>
   <time name="diis">   10.65   10.70</time>
   <time name="orth">    0.43    0.44</time>
   <time name="total">   13.91   13.98</time>
   <dipole>
    <v name="dipole">      0.00000000       0.00000000      -0.16916716 </v>
    <i name="Tr[quadrupol]">  -6879.66347214 </i>
    <i name="Echarged">      0.00000000 </i>
    <i name="Edipol_quadrupol">      0.00000000 </i>
    <i name="Eion">      0.00000000 </i>
   </dipole>
   <energy>
    <i name="e_fr_energy">   -491.69368218 </i>
    <i name="e_wo_entrp">   -491.65540063 </i>
    <i name="e_0_energy">   -491.68092167 </i>
   </energy>
  </scstep>
  <scstep>
   <time name="diag">    1.90    1.91</time>
   <time name="diis">   11.64   11.70</time>
   <time name="orth">    0.44    0.44</time>
   <time name="total">   14.88   14.96</time>
   <dipole>
    <v name="dipole">      0.00000000       0.00000000      -0.06721620 </v>
    <i name="Tr[quadrupol]">  -6883.51642360 </i>
    <i name="Echarged">      0.00000000 </i>
    <i name="Edipol_quadrupol">      0.00000000 </i>
    <i name="Eion">      0.00000000 </i>
   </dipole>
   <energy>
    <i name="e_fr_energy">   -493.38892915 </i>
    <i name="e_wo_entrp">   -493.33857906 </i>
    <i name="e_0_energy">   -493.37214579 </i>
   </energy>
  </scstep>
  <scstep>
   <time name="diag">    1.89    1.90</time>
   <time name="diis">   11.62   11.68</time>
   <time name="orth">    0.44    0.44</time>
   <time name="total">   14.87   14.95</time>
   <dipole>
    <v name="dipole">      0.00000000       0.00000000      -0.16640543 </v>
    <i name="Tr[quadrupol]">  -6886.31521693 </i>
    <i name="Echarged">      0.00000000 </i>
    <i name="Edipol_quadrupol">      0.00000000 </i>
    <i name="Eion">      0.00000000 </i>
   </dipole>
   <energy>
    <i name="e_fr_energy">   -495.82814211 </i>
    <i name="e_wo_entrp">   -495.80068868 </i>
    <i name="e_0_energy">   -495.81899097 </i>
   </energy>
  </scstep>
  <scstep>
   <time name="diag">    1.89    1.90</time>
   <time name="diis">   11.24   11.30</time>
   <time name="orth">    0.43    0.43</time>
   <time name="total">   14.50   14.59</time>
   <dipole>
    <v name="dipole">      0.00000000       0.00000000       0.02738647 </v>
    <i name="Tr[quadrupol]">  -6887.61862500 </i>
    <i name="Echarged">      0.00000000 </i>
    <i name="Edipol_quadrupol">      0.00000000 </i>
    <i name="Eion">      0.00000000 </i>
   </dipole>
   <energy>
    <i name="e_fr_energy">   -496.06447788 </i>
    <i name="e_wo_entrp">   -496.04534161 </i>
    <i name="e_0_energy">   -496.05809912 </i>
   </energy>
  </scstep>
  <scstep>
   <time name="diag">    1.89    1.90</time>
   <time name="diis">   11.07   11.13</time>
   <time name="orth">    0.43    0.43</time>
   <time name="total">   14.30   14.38</time>
   <dipole>
    <v name="dipole">      0.00000000       0.00000000      -0.01657649 </v>
    <i name="Tr[quadrupol]">  -6887.13660320 </i>
    <i name="Echarged">      0.00000000 </i>
    <i name="Edipol_quadrupol">      0.00000000 </i>
    <i name="Eion">      0.00000000 </i>
   </dipole>
   <energy>
    <i name="e_fr_energy">   -496.22859526 </i>
    <i name="e_wo_entrp">   -496.20978717 </i>
    <i name="e_0_energy">   -496.22232590 </i>
   </energy>
  </scstep>
  <scstep>
   <time name="diag">    1.90    1.91</time>
   <time name="diis">   10.92   10.98</time>
   <time name="orth">    0.44    0.44</time>
   <time name="total">   14.18   14.26</time>
   <dipole>
    <v name="dipole">      0.00000000       0.00000000      -0.01359270 </v>
    <i name="Tr[quadrupol]">  -6886.69191223 </i>
    <i name="Echarged">      0.00000000 </i>
    <i name="Edipol_quadrupol">      0.00000000 </i>
    <i name="Eion">      0.00000000 </i>
   </dipole>
   <energy>
    <i name="e_fr_energy">   -496.46395318 </i>
    <i name="e_wo_entrp">   -496.45586517 </i>
    <i name="e_0_energy">   -496.46125717 </i>
   </energy>
  </scstep>
  <scstep>
   <time name="diag">    1.92    1.93</time>
   <time name="diis">   10.75   10.81</time>
   <time name="orth">    0.43    0.44</time>
   <time name="total">   14.04   14.12</time>
   <dipole>
    <v name="dipole">      0.00000000       0.00000000      -0.02465754 </v>
    <i name="Tr[quadrupol]">  -6886.21466646 </i>
    <i name="Echarged">      0.00000000 </i>
    <i name="Edipol_quadrupol">      0.00000000 </i>
    <i name="Eion">      0.00000000 </i>
   </dipole>
   <energy>
    <i name="e_fr_energy">   -496.82959427 </i>
    <i name="e_wo_entrp">   -496.82727580 </i>
    <i name="e_0_energy">   -496.82882145 </i>
   </energy>
  </scstep>
  <scstep>
   <time name="diag">    1.92    1.93</time>
   <time name="diis">   11.55   11.61</time>
   <time name="orth">    0.43    0.44</time>
   <time name="total">   14.82   14.90</time>
   <dipole>
    <v name="dipole">      0.00000000       0.00000000      -0.03740092 </v>
    <i name="Tr[quadrupol]">  -6885.67823709 </i>
    <i name="Echarged">      0.00000000 </i>
    <i name="Edipol_quadrupol">      0.00000000 </i>
    <i name="Eion">      0.00000000 </i>
   </dipole>
   <energy>
    <i name="e_fr_energy">   -497.38750508 </i>
    <i name="e_wo_entrp">   -497.39134737 </i>
    <i name="e_0_energy">   -497.38878584 </i>
   </energy>
  </scstep>
  <scstep>
   <time name="diag">    1.93    1.94</time>
   <time name="diis">   12.44   12.51</time>
   <time name="orth">    0.43    0.44</time>
   <time name="total">   15.72   15.81</time>
   <dipole>
    <v name="dipole">      0.00000000       0.00000000      -0.03754807 </v>
    <i name="Tr[quadrupol]">  -6885.55247362 </i>
    <i name="Echarged">      0.00000000 </i>
    <i name="Edipol_quadrupol">      0.00000000 </i>
    <i name="Eion">      0.00000000 </i>
   </dipole>
   <energy>
    <i name="e_fr_energy">   -498.35091435 </i>
    <i name="e_wo_entrp">   -498.36149477 </i>
    <i name="e_0_energy">   -498.35444116 </i>
   </energy>
  </scstep>
  <scstep>
   <time name="diag">    1.93    1.94</time>
   <time name="diis">   11.66   11.72</time>
   <time name="orth">    0.44    0.44</time>
   <time name="total">   14.95   15.03</time>
   <dipole>
    <v name="dipole">      0.00000000       0.00000000      -0.02420326 </v>
    <i name="Tr[quadrupol]">  -6885.90713966 </i>
    <i name="Echarged">      0.00000000 </i>
    <i name="Edipol_quadrupol">      0.00000000 </i>
    <i name="Eion">      0.00000000 </i>
   </dipole>
   <energy>
    <i name="e_fr_energy">   -498.94943820 </i>
    <i name="e_wo_entrp">   -498.96314645 </i>
    <i name="e_0_energy">   -498.95400762 </i>
   </energy>
  </scstep>
  <scstep>
   <time name="diag">    1.91    1.92</time>
   <time name="diis">   11.56   11.63</time>
   <time name="orth">    0.43    0.44</time>
   <time name="total">   14.83   14.91</time>
   <dipole>
    <v name="dipole">      0.00000000       0.00000000      -0.02724335 </v>
    <i name="Tr[quadrupol]">  -6885.92594131 </i>
    <i name="Echarged">      0.00000000 </i>
    <i name="Edipol_quadrupol">      0.00000000 </i>
    <i name="Eion">      0.00000000 </i>
   </dipole>
   <energy>
    <i name="e_fr_energy">   -499.35267558 </i>
    <i name="e_wo_entrp">   -499.36796491 </i>
    <i name="e_0_energy">   -499.35777202 </i>
   </energy>
  </scstep>
  <scstep>
   <time name="diag">    1.91    1.92</time>
   <time name="diis">   11.22   11.28</time>
   <time name="orth">    0.44    0.44</time>
   <time name="total">   14.48   14.57</time>
   <dipole>
    <v name="dipole">      0.00000000       0.00000000      -0.02870757 </v>
    <i name="Tr[quadrupol]">  -6885.66325333 </i>
    <i name="Echarged">      0.00000000 </i>
    <i name="Edipol_quadrupol">      0.00000000 </i>
    <i name="Eion">      0.00000000 </i>
   </dipole>
   <energy>
    <i name="e_fr_energy">   -499.74665912 </i>
    <i name="e_wo_entrp">   -499.76381856 </i>
    <i name="e_0_energy">   -499.75237893 </i>
   </energy>
  </scstep>
  <scstep>
   <time name="diag">    1.94    1.95</time>
   <time name="diis">   11.70   11.77</time>
   <time name="orth">    0.43    0.44</time>
   <time name="total">   15.01   15.10</time>
   <dipole>
    <v name="dipole">      0.00000000       0.00000000      -0.03422906 </v>
    <i name="Tr[quadrupol]">  -6884.99100872 </i>
    <i name="Echarged">      0.00000000 </i>
    <i name="Edipol_quadrupol">      0.00000000 </i>
    <i name="Eion">      0.00000000 </i>
   </dipole>
   <energy>
    <i name="e_fr_energy">   -500.11526048 </i>
    <i name="e_wo_entrp">   -500.13318522 </i>
    <i name="e_0_energy">   -500.12123539 </i>
   </energy>
  </scstep>
  <scstep>
   <time name="diag">    1.90    1.91</time>
   <time name="diis">   11.36   11.43</time>
   <time name="orth">    0.43    0.44</time>
   <time name="total">   14.61   14.69</time>
   <dipole>
    <v name="dipole">      0.00000000       0.00000000      -0.02929170 </v>
    <i name="Tr[quadrupol]">  -6884.97855742 </i>
    <i name="Echarged">      0.00000000 </i>
    <i name="Edipol_quadrupol">      0.00000000 </i>
    <i name="Eion">      0.00000000 </i>
   </dipole>
   <energy>
    <i name="e_fr_energy">   -500.31959986 </i>
    <i name="e_wo_entrp">   -500.33834618 </i>
    <i name="e_0_energy">   -500.32584863 </i>
   </energy>
  </scstep>
  <scstep>
   <time name="diag">    1.94    1.95</time>
   <time name="diis">   11.17   11.23</time>
   <time name="orth">    0.43    0.43</time>
   <time name="total">   14.47   14.55</time>
   <dipole>
    <v name="dipole">      0.00000000       0.00000000      -0.02367527 </v>
    <i name="Tr[quadrupol]">  -6884.94756868 </i>
    <i name="Echarged">      0.00000000 </i>
    <i name="Edipol_quadrupol">      0.00000000 </i>
    <i name="Eion">      0.00000000 </i>
   </dipole>
   <energy>
    <i name="e_fr_energy">   -500.50891547 </i>
    <i name="e_wo_entrp">   -500.53211257 </i>
    <i name="e_0_energy">   -500.51664784 </i>
   </energy>
  </scstep>
  <scstep>
   <time name="diag">    1.91    1.92</time>
   <time name="diis">   11.12   11.18</time>
   <time name="orth">    0.43    0.43</time>
   <time name="total">   14.38   14.46</time>
   <dipole>
    <v name="dipole">      0.00000000       0.00000000      -0.02599833 </v>
    <i name="Tr[quadrupol]">  -6884.95008213 </i>
    <i name="Echarged">      0.00000000 </i>
    <i name="Edipol_quadrupol">      0.00000000 </i>
    <i name="Eion">      0.00000000 </i>
   </dipole>
   <energy>
    <i name="e_fr_energy">   -500.72206949 </i>
    <i name="e_wo_entrp">   -500.74665771 </i>
    <i name="e_0_energy">   -500.73026556 </i>
   </energy>
  </scstep>
  <scstep>
   <time name="diag">    1.91    1.93</time>
   <time name="diis">   12.86   12.93</time>
   <time name="orth">    0.43    0.44</time>
   <time name="total">   16.14   16.23</time>
   <dipole>
    <v name="dipole">      0.00000000       0.00000000      -0.04926830 </v>
    <i name="Tr[quadrupol]">  -6884.52782770 </i>
    <i name="Echarged">      0.00000000 </i>
    <i name="Edipol_quadrupol">      0.00000000 </i>
    <i name="Eion">      0.00000000 </i>
   </dipole>
   <energy>
    <i name="e_fr_energy">   -501.41431471 </i>
    <i name="e_wo_entrp">   -501.43851932 </i>
    <i name="e_0_energy">   -501.42238291 </i>
   </energy>
  </scstep>
  <scstep>
   <time name="diag">    1.92    1.93</time>
   <time name="diis">   12.68   12.75</time>
   <time name="orth">    0.44    0.44</time>
   <time name="total">   15.97   16.07</time>
   <dipole>
    <v name="dipole">      0.00000000       0.00000000      -0.04819695 </v>
    <i name="Tr[quadrupol]">  -6884.02054712 </i>
    <i name="Echarged">      0.00000000 </i>
    <i name="Edipol_quadrupol">      0.00000000 </i>
    <i name="Eion">      0.00000000 </i>
   </dipole>
   <energy>
    <i name="e_fr_energy">   -501.61365287 </i>
    <i name="e_wo_entrp">   -501.63850326 </i>
    <i name="e_0_energy">   -501.62193633 </i>
   </energy>
  </scstep>
  <scstep>
   <time name="diag">    1.89    1.90</time>
   <time name="diis">   12.29   12.36</time>
   <time name="orth">    0.44    0.44</time>
   <time name="total">   15.54   15.62</time>
   <dipole>
    <v name="dipole">      0.00000000       0.00000000      -0.04314069 </v>
    <i name="Tr[quadrupol]">  -6884.19320505 </i>
    <i name="Echarged">      0.00000000 </i>
    <i name="Edipol_quadrupol">      0.00000000 </i>
    <i name="Eion">      0.00000000 </i>
   </dipole>
   <energy>
    <i name="e_fr_energy">   -501.69666976 </i>
    <i name="e_wo_entrp">   -501.72077519 </i>
    <i name="e_0_energy">   -501.70470490 </i>
   </energy>
  </scstep>
  <scstep>
   <time name="diag">    1.90    1.91</time>
   <time name="diis">   12.60   12.67</time>
   <time name="orth">    0.44    0.44</time>
   <time name="total">   15.88   15.97</time>
   <dipole>
    <v name="dipole">      0.00000000       0.00000000      -0.04321602 </v>
    <i name="Tr[quadrupol]">  -6883.84474417 </i>
    <i name="Echarged">      0.00000000 </i>
    <i name="Edipol_quadrupol">      0.00000000 </i>
    <i name="Eion">      0.00000000 </i>
   </dipole>
   <energy>
    <i name="e_fr_energy">   -501.68500508 </i>
    <i name="e_wo_entrp">   -501.71019047 </i>
    <i name="e_0_energy">   -501.69340021 </i>
   </energy>
  </scstep>
  <scstep>
   <time name="diag">    1.90    1.91</time>
   <time name="diis">   12.18   12.24</time>
   <time name="orth">    0.43    0.44</time>
   <time name="total">   15.44   15.52</time>
   <dipole>
    <v name="dipole">      0.00000000       0.00000000      -0.06074605 </v>
    <i name="Tr[quadrupol]">  -6883.70383254 </i>
    <i name="Echarged">      0.00000000 </i>
    <i name="Edipol_quadrupol">      0.00000000 </i>
    <i name="Eion">      0.00000000 </i>
   </dipole>
   <energy>
    <i name="e_fr_energy">   -501.68639314 </i>
    <i name="e_wo_entrp">   -501.71064409 </i>
    <i name="e_0_energy">   -501.69447679 </i>
   </energy>
  </scstep>
  <scstep>
   <time name="diag">    1.91    1.92</time>
   <time name="diis">   12.30   12.37</time>
   <time name="orth">    0.43    0.43</time>
   <time name="total">   15.57   15.67</time>
   <dipole>
    <v name="dipole">      0.00000000       0.00000000      -0.06850380 </v>
    <i name="Tr[quadrupol]">  -6883.75094357 </i>
    <i name="Echarged">      0.00000000 </i>
    <i name="Edipol_quadrupol">      0.00000000 </i>
    <i name="Eion">      0.00000000 </i>
   </dipole>
   <energy>
    <i name="e_fr_energy">   -501.65750705 </i>
    <i name="e_wo_entrp">   -501.68241467 </i>
    <i name="e_0_energy">   -501.66580959 </i>
   </energy>
  </scstep>
  <scstep>
   <time name="diag">    1.88    1.89</time>
   <time name="diis">   11.74   11.81</time>
   <time name="orth">    0.43    0.43</time>
   <time name="total">   15.00   15.08</time>
   <dipole>
    <v name="dipole">      0.00000000       0.00000000      -0.05990825 </v>
    <i name="Tr[quadrupol]">  -6883.61183820 </i>
    <i name="Echarged">      0.00000000 </i>
    <i name="Edipol_quadrupol">      0.00000000 </i>
    <i name="Eion">      0.00000000 </i>
   </dipole>
   <energy>
    <i name="e_fr_energy">   -501.66736367 </i>
    <i name="e_wo_entrp">   -501.69101951 </i>
    <i name="e_0_energy">   -501.67524895 </i>
   </energy>
  </scstep>
  <scstep>
   <time name="diag">    1.88    1.89</time>
   <time name="diis">   10.39   10.45</time>
   <time name="orth">    0.44    0.44</time>
   <time name="total">   13.63   13.71</time>
   <dipole>
    <v name="dipole">      0.00000000       0.00000000      -0.05000361 </v>
    <i name="Tr[quadrupol]">  -6883.47127530 </i>
    <i name="Echarged">      0.00000000 </i>
    <i name="Edipol_quadrupol">      0.00000000 </i>
    <i name="Eion">      0.00000000 </i>
   </dipole>
   <energy>
    <i name="e_fr_energy">   -501.74226925 </i>
    <i name="e_wo_entrp">   -501.76701684 </i>
    <i name="e_0_energy">   -501.75051844 </i>
   </energy>
  </scstep>
  <scstep>
   <time name="diag">    1.91    1.92</time>
   <time name="diis">   10.20   10.25</time>
   <time name="orth">    0.44    0.44</time>
   <time name="total">   13.47   13.55</time>
   <dipole>
    <v name="dipole">      0.00000000       0.00000000      -0.04336652 </v>
    <i name="Tr[quadrupol]">  -6883.46413261 </i>
    <i name="Echarged">      0.00000000 </i>
    <i name="Edipol_quadrupol">      0.00000000 </i>
    <i name="Eion">      0.00000000 </i>
   </dipole>
   <energy>
    <i name="e_fr_energy">   -501.75139373 </i>
    <i name="e_wo_entrp">   -501.77640982 </i>
    <i name="e_0_energy">   -501.75973242 </i>
   </energy>
  </scstep>
  <scstep>
   <time name="diag">    1.89    1.90</time>
   <time name="diis">    9.15    9.20</time>
   <time name="orth">    0.43    0.44</time>
   <time name="total">   12.39   12.47</time>
   <dipole>
    <v name="dipole">      0.00000000       0.00000000      -0.04254123 </v>
    <i name="Tr[quadrupol]">  -6883.53891686 </i>
    <i name="Echarged">      0.00000000 </i>
    <i name="Edipol_quadrupol">      0.00000000 </i>
    <i name="Eion">      0.00000000 </i>
   </dipole>
   <energy>
    <i name="e_fr_energy">   -501.75499239 </i>
    <i name="e_wo_entrp">   -501.78028115 </i>
    <i name="e_0_energy">   -501.76342198 </i>
   </energy>
  </scstep>
  <scstep>
   <time name="diag">    1.90    1.91</time>
   <time name="diis">    9.70    9.75</time>
   <time name="orth">    0.43    0.44</time>
   <time name="total">   12.96   13.04</time>
   <dipole>
    <v name="dipole">      0.00000000       0.00000000      -0.03511243 </v>
    <i name="Tr[quadrupol]">  -6883.56274259 </i>
    <i name="Echarged">      0.00000000 </i>
    <i name="Edipol_quadrupol">      0.00000000 </i>
    <i name="Eion">      0.00000000 </i>
   </dipole>
   <energy>
    <i name="e_fr_energy">   -501.75353561 </i>
    <i name="e_wo_entrp">   -501.77948148 </i>
    <i name="e_0_energy">   -501.76218423 </i>
   </energy>
  </scstep>
  <scstep>
   <time name="diag">    1.92    1.93</time>
   <time name="diis">   10.71   10.77</time>
   <time name="orth">    0.43    0.44</time>
   <time name="total">   14.01   14.08</time>
   <dipole>
    <v name="dipole">      0.00000000       0.00000000      -0.03462400 </v>
    <i name="Tr[quadrupol]">  -6883.56714046 </i>
    <i name="Echarged">      0.00000000 </i>
    <i name="Edipol_quadrupol">      0.00000000 </i>
    <i name="Eion">      0.00000000 </i>
   </dipole>
   <energy>
    <i name="e_fr_energy">   -501.75926420 </i>
    <i name="e_wo_entrp">   -501.78529576 </i>
    <i name="e_0_energy">   -501.76794138 </i>
   </energy>
  </scstep>
  <scstep>
   <time name="diag">    1.92    1.93</time>
   <time name="diis">   10.74   10.80</time>
   <time name="orth">    0.43    0.44</time>
   <time name="total">   14.04   14.11</time>
   <dipole>
    <v name="dipole">      0.00000000       0.00000000      -0.03679075 </v>
    <i name="Tr[quadrupol]">  -6883.54837744 </i>
    <i name="Echarged">      0.00000000 </i>
    <i name="Edipol_quadrupol">      0.00000000 </i>
    <i name="Eion">      0.00000000 </i>
   </dipole>
   <energy>
    <i name="e_fr_energy">   -501.76257359 </i>
    <i name="e_wo_entrp">   -501.78865302 </i>
    <i name="e_0_energy">   -501.77126673 </i>
   </energy>
  </scstep>
  <scstep>
   <time name="diag">    1.89    1.90</time>
   <time name="diis">   10.71   10.77</time>
   <time name="orth">    0.43    0.43</time>
   <time name="total">   13.95   14.03</time>
   <dipole>
    <v name="dipole">      0.00000000       0.00000000      -0.03484466 </v>
    <i name="Tr[quadrupol]">  -6883.54060117 </i>
    <i name="Echarged">      0.00000000 </i>
    <i name="Edipol_quadrupol">      0.00000000 </i>
    <i name="Eion">      0.00000000 </i>
   </dipole>
   <energy>
    <i name="e_fr_energy">   -501.76632155 </i>
    <i name="e_wo_entrp">   -501.79279399 </i>
    <i name="e_0_energy">   -501.77514570 </i>
   </energy>
  </scstep>
  <scstep>
   <time name="diag">    1.92    1.93</time>
   <time name="diis">   10.43   10.48</time>
   <time name="orth">    0.43    0.44</time>
   <time name="total">   13.71   13.78</time>
   <dipole>
    <v name="dipole">      0.00000000       0.00000000      -0.03396218 </v>
    <i name="Tr[quadrupol]">  -6883.54851205 </i>
    <i name="Echarged">      0.00000000 </i>
    <i name="Edipol_quadrupol">      0.00000000 </i>
    <i name="Eion">      0.00000000 </i>
   </dipole>
   <energy>
    <i name="e_fr_energy">   -501.76785714 </i>
    <i name="e_wo_entrp">   -501.79465916 </i>
    <i name="e_0_energy">   -501.77679115 </i>
   </energy>
  </scstep>
  <scstep>
   <time name="diag">    1.89    1.90</time>
   <time name="diis">   10.93   10.99</time>
   <time name="orth">    0.43    0.43</time>
   <time name="total">   14.21   14.29</time>
   <dipole>
    <v name="dipole">      0.00000000       0.00000000      -0.03343981 </v>
    <i name="Tr[quadrupol]">  -6883.53681409 </i>
    <i name="Echarged">      0.00000000 </i>
    <i name="Edipol_quadrupol">      0.00000000 </i>
    <i name="Eion">      0.00000000 </i>
   </dipole>
   <energy>
    <i name="e_fr_energy">   -501.76820131 </i>
    <i name="e_wo_entrp">   -501.79510998 </i>
    <i name="e_0_energy">   -501.77717087 </i>
   </energy>
  </scstep>
  <scstep>
   <time name="diag">    1.89    1.90</time>
   <time name="diis">   10.61   10.67</time>
   <time name="orth">    0.43    0.44</time>
   <time name="total">   13.86   13.94</time>
   <dipole>
    <v name="dipole">      0.00000000       0.00000000      -0.03476618 </v>
    <i name="Tr[quadrupol]">  -6883.53743121 </i>
    <i name="Echarged">      0.00000000 </i>
    <i name="Edipol_quadrupol">      0.00000000 </i>
    <i name="Eion">      0.00000000 </i>
   </dipole>
   <energy>
    <i name="e_fr_energy">   -501.76832369 </i>
    <i name="e_wo_entrp">   -501.79509855 </i>
    <i name="e_0_energy">   -501.77724864 </i>
   </energy>
  </scstep>
  <scstep>
   <time name="diag">    1.91    1.92</time>
   <time name="diis">   10.25   10.31</time>
   <time name="orth">    0.43    0.44</time>
   <time name="total">   13.52   13.60</time>
   <dipole>
    <v name="dipole">      0.00000000       0.00000000      -0.03509918 </v>
    <i name="Tr[quadrupol]">  -6883.54295147 </i>
    <i name="Echarged">      0.00000000 </i>
    <i name="Edipol_quadrupol">      0.00000000 </i>
    <i name="Eion">      0.00000000 </i>
   </dipole>
   <energy>
    <i name="e_fr_energy">   -501.76845490 </i>
    <i name="e_wo_entrp">   -501.79510051 </i>
    <i name="e_0_energy">   -501.77733677 </i>
   </energy>
  </scstep>
  <scstep>
   <time name="diag">    1.89    1.90</time>
   <time name="diis">   10.47   10.54</time>
   <time name="orth">    0.43    0.44</time>
   <time name="total">   13.73   13.81</time>
   <dipole>
    <v name="dipole">      0.00000000       0.00000000      -0.03699792 </v>
    <i name="Tr[quadrupol]">  -6883.55045999 </i>
    <i name="Echarged">      0.00000000 </i>
    <i name="Edipol_quadrupol">      0.00000000 </i>
    <i name="Eion">      0.00000000 </i>
   </dipole>
   <energy>
    <i name="e_fr_energy">   -501.76860560 </i>
    <i name="e_wo_entrp">   -501.79497127 </i>
    <i name="e_0_energy">   -501.77739416 </i>
   </energy>
  </scstep>
  <scstep>
   <time name="diag">    1.89    1.90</time>
   <time name="diis">   10.29   10.35</time>
   <time name="orth">    0.43    0.43</time>
   <time name="total">   13.54   13.62</time>
   <dipole>
    <v name="dipole">      0.00000000       0.00000000      -0.03625835 </v>
    <i name="Tr[quadrupol]">  -6883.53311848 </i>
    <i name="Echarged">      0.00000000 </i>
    <i name="Edipol_quadrupol">      0.00000000 </i>
    <i name="Eion">      0.00000000 </i>
   </dipole>
   <energy>
    <i name="e_fr_energy">   -501.76877378 </i>
    <i name="e_wo_entrp">   -501.79513069 </i>
    <i name="e_0_energy">   -501.77755942 </i>
   </energy>
  </scstep>
  <scstep>
   <time name="diag">    1.88    1.89</time>
   <time name="diis">   10.06   10.12</time>
   <time name="orth">    0.43    0.44</time>
   <time name="total">   13.30   13.39</time>
   <dipole>
    <v name="dipole">      0.00000000       0.00000000      -0.03618177 </v>
    <i name="Tr[quadrupol]">  -6883.53144618 </i>
    <i name="Echarged">      0.00000000 </i>
    <i name="Edipol_quadrupol">      0.00000000 </i>
    <i name="Eion">      0.00000000 </i>
   </dipole>
   <energy>
    <i name="e_fr_energy">   -501.76884768 </i>
    <i name="e_wo_entrp">   -501.79521244 </i>
    <i name="e_0_energy">   -501.77763594 </i>
   </energy>
  </scstep>
  <scstep>
   <time name="diag">    1.92    1.93</time>
   <time name="diis">    8.38    8.43</time>
   <time name="orth">    0.43    0.44</time>
   <time name="total">   11.66   11.72</time>
   <dipole>
    <v name="dipole">      0.00000000       0.00000000      -0.03625309 </v>
    <i name="Tr[quadrupol]">  -6883.53151544 </i>
    <i name="Echarged">      0.00000000 </i>
    <i name="Edipol_quadrupol">      0.00000000 </i>
    <i name="Eion">      0.00000000 </i>
   </dipole>
   <energy>
    <i name="e_fr_energy">   -501.76887445 </i>
    <i name="e_wo_entrp">   -501.79523706 </i>
    <i name="e_0_energy">   -501.77766199 </i>
   </energy>
  </scstep>
  <scstep>
   <time name="diag">    1.89    1.90</time>
   <time name="diis">    6.34    6.38</time>
   <time name="orth">    0.43    0.43</time>
   <time name="total">    9.07    9.12</time>
   <dipole>
    <v name="dipole">      0.00000000       0.00000000      -0.03626776 </v>
    <i name="Tr[quadrupol]">  -6883.53151312 </i>
    <i name="Echarged">      0.00000000 </i>
    <i name="Edipol_quadrupol">      0.00000000 </i>
    <i name="Eion">      0.00000000 </i>
   </dipole>
   <energy>
    <i name="alphaZ">   1737.44130671 </i>
    <i name="ewald"> 206260.32717903 </i>
    <i name="hartreedc">-255627.18867278 </i>
    <i name="XCdc">    963.51010146 </i>
    <i name="pawpsdc">  53775.04447802 </i>
    <i name="pawaedc"> -54912.70008093 </i>
    <i name="eentropy">      0.02636773 </i>
    <i name="bandstr">  -4295.88927961 </i>
    <i name="atom">  51597.65971741 </i>
    <i name="e_fr_energy">   -501.76888296 </i>
    <i name="e_wo_entrp">   -501.79525068 </i>
    <i name="e_0_energy">   -501.77767220 </i>
   </energy>
  </scstep>
  <structure>
   <crystal>
    <varray name="basis" >
     <v>       8.50460000       0.00000000       0.00000000 </v>
     <v>      -0.00109914       8.50909993       0.00000000 </v>
     <v>       0.00000000       0.00000000      23.55660100 </v>
    </varray>
    <i name="volume">   1704.70856049 </i>
    <varray name="rec_basis" >
     <v>       0.11758343       0.00001519       0.00000000 </v>
     <v>       0.00000000       0.11752124       0.00000000 </v>
     <v>       0.00000000       0.00000000       0.04245095 </v>
    </varray>
   </crystal>
   <varray name="positions" >
    <v>       0.99760000       0.00330000       0.24221000 </v>
    <v>       0.66561000       0.99834000       0.00060000 </v>
    <v>       0.67354400       0.00891500       0.36928400 </v>
    <v>       0.83467000       0.16589000       0.18209000 </v>
    <v>       0.99866000       0.33404000       0.12198000 </v>
    <v>       0.33421000       0.33147000       0.00101000 </v>
    <v>       0.33492000       0.32166100       0.36416600 </v>
    <v>       0.83220000       0.50025000       0.06275000 </v>
    <v>       0.83124000       0.50129100       0.30439700 </v>
    <v>       0.33512000       0.67037000       0.00000000 </v>
    <v>       0.32602400       0.66962400       0.36812800 </v>
    <v>       0.33145000       0.66488000       0.12292000 </v>
    <v>       0.50213000       0.83338100       0.29913600 </v>
    <v>       0.67111000       0.66550000       0.12148000 </v>
    <v>       0.99950000       0.00032000       0.00103000 </v>
    <v>       0.99726800       0.99707400       0.36118600 </v>
    <v>       0.16670000       0.16592000       0.06160000 </v>
    <v>       0.99930000       0.00013000       0.12183000 </v>
    <v>       0.16670000       0.16692000       0.18170000 </v>
    <v>       0.16532700       0.16232300       0.30409900 </v>
    <v>       0.33368000       0.99986000       0.00108000 </v>
    <v>       0.34278800       0.99186200       0.35939600 </v>
    <v>       0.50008000       0.16606000       0.06164000 </v>
    <v>       0.33365000       0.99945000       0.12194000 </v>
    <v>       0.50013000       0.16657000       0.18176000 </v>
    <v>       0.33374000       0.99994000       0.24252000 </v>
    <v>       0.50427000       0.16481800       0.30293500 </v>
    <v>       0.83412000       0.16807000       0.06130000 </v>
    <v>       0.66767000       0.99972000       0.12168000 </v>
    <v>       0.66792000       0.00032000       0.24233000 </v>
    <v>       0.83459500       0.16873300       0.30380900 </v>
    <v>       0.00033000       0.33346000       0.00076000 </v>
    <v>       0.00196900       0.33211200       0.36111800 </v>
    <v>       0.16704000       0.50116000       0.06077000 </v>
    <v>       0.16627000       0.49940000       0.18238000 </v>
    <v>       0.00000000       0.33319000       0.24260000 </v>
    <v>       0.16689500       0.49939100       0.30484700 </v>
    <v>       0.49811000       0.50186000       0.06112000 </v>
    <v>       0.33328000       0.33434000       0.12148000 </v>
    <v>       0.50051000       0.50053000       0.18145000 </v>
    <v>       0.33392000       0.33269000       0.24229000 </v>
    <v>       0.49886100       0.50205200       0.30516800 </v>
    <v>       0.66687000       0.33418000       0.00129000 </v>
    <v>       0.66605200       0.33549800       0.36105200 </v>
    <v>       0.66670000       0.33332000       0.12177000 </v>
    <v>       0.83466000       0.49916000       0.18181000 </v>
    <v>       0.66748000       0.33291000       0.24234000 </v>
    <v>       0.99949000       0.66581000       0.00112000 </v>
    <v>       0.00140400       0.66980100       0.36155500 </v>
    <v>       0.16773000       0.83295000       0.06141000 </v>
    <v>       0.00149000       0.66672000       0.12196000 </v>
    <v>       0.16592000       0.83389000       0.18235000 </v>
    <v>       0.99950000       0.66635000       0.24245000 </v>
    <v>       0.16581300       0.83274300       0.30350500 </v>
    <v>       0.49825000       0.83185000       0.06189000 </v>
    <v>       0.50064000       0.83335000       0.18189000 </v>
    <v>       0.33424000       0.66627000       0.24239000 </v>
    <v>       0.66521000       0.66629000       0.00100000 </v>
    <v>       0.83382000       0.83268000       0.06128000 </v>
    <v>       0.83390000       0.83311000       0.18191000 </v>
    <v>       0.66721000       0.66675000       0.24221000 </v>
    <v>       0.83053200       0.83175400       0.30432900 </v>
   </varray>
  </structure>
  <varray name="forces" >
   <v>       0.01704333      -0.20113874       0.11082724 </v>
   <v>       0.05379387       0.04210112      -0.19061845 </v>
   <v>      -0.57163871      -0.48108217       0.17697259 </v>
   <v>       0.00736002       0.20360790      -0.18389135 </v>
   <v>      -0.07399831      -0.04735202       0.25488322 </v>
   <v>      -0.04900124      -0.33486347      -0.09896316 </v>
   <v>      -0.01321025       0.23253399       0.11540320 </v>
   <v>      -0.02420467       0.02095330      -0.17437964 </v>
   <v>      -0.00167287       0.02726210      -0.09763034 </v>
   <v>      -0.09349737       0.22736752      -0.23567523 </v>
   <v>       0.65817876       0.08488396       0.35813549 </v>
   <v>      -0.02219178       0.02989066       0.09136755 </v>
   <v>      -0.03429689      -0.10346798       0.99456364 </v>
   <v>       0.09193057      -0.00375435       0.04888848 </v>
   <v>      -0.00726619      -0.01153015       0.41639606 </v>
   <v>       0.18138145       0.09946407      -0.06284467 </v>
   <v>      -0.27629558      -0.12520947      -0.40074366 </v>
   <v>      -0.00055258       0.01396947       0.10471912 </v>
   <v>       0.01852539       0.04247097      -0.02935307 </v>
   <v>      -0.02898432       0.01357518      -0.05146036 </v>
   <v>       0.04020614      -0.02168908       0.53390383 </v>
   <v>      -0.19918654       0.37396557       0.07557159 </v>
   <v>       0.06661672       0.07885164      -0.19957173 </v>
   <v>       0.06291612       0.03940947      -0.00716040 </v>
   <v>      -0.02847231       0.04238035      -0.05794236 </v>
   <v>      -0.04158551       0.08894787      -0.15397529 </v>
   <v>      -0.06861509       0.35474364      -0.03474067 </v>
   <v>       0.16526659       0.09128702      -0.35933926 </v>
   <v>      -0.04682194      -0.03991875       0.22778305 </v>
   <v>       0.23149479      -0.01222522      -0.01562779 </v>
   <v>       0.01072964       0.04411972      -0.25533266 </v>
   <v>       0.15069004      -0.02767978       0.37449148 </v>
   <v>       0.16063479      -0.03411121       0.31653063 </v>
   <v>      -0.25793870       0.03666741      -0.46557302 </v>
   <v>      -0.06088169      -0.06875454      -0.03481014 </v>
   <v>       0.05150465       0.06944041       0.18221492 </v>
   <v>      -0.30305728      -0.06852109      -0.36227921 </v>
   <v>       0.33355208      -0.00890600      -0.31627433 </v>
   <v>      -0.00688770      -0.05040414       0.23511718 </v>
   <v>       0.04252917      -0.01971691      -0.04099497 </v>
   <v>       0.07966420      -0.01120498       0.15625006 </v>
   <v>       0.44701804      -0.09131963      -0.68361289 </v>
   <v>      -0.12023218       0.00361086       0.40629955 </v>
   <v>      -0.12011015      -0.07176303      -0.04202689 </v>
   <v>       0.04229051      -0.06275294       0.06783158 </v>
   <v>      -0.03554539       0.07809330      -0.04253911 </v>
   <v>      -0.18876277       0.17117273       0.06073813 </v>
   <v>       0.09957940       0.03093778       0.39021866 </v>
   <v>      -0.06492146      -0.19445460      -0.18893872 </v>
   <v>      -0.26122813       0.17865614      -0.32966535 </v>
   <v>      -0.04219228       0.01084141       0.12914090 </v>
   <v>       0.01330471       0.01209968       0.03610362 </v>
   <v>      -0.10421358       0.12885000      -0.03550305 </v>
   <v>      -0.30702384       0.16412217      -0.28495748 </v>
   <v>      -0.00195124      -0.09847310      -0.07662063 </v>
   <v>      -0.01943809       0.02862163      -0.36925147 </v>
   <v>      -0.05850934      -0.28499773       0.19862576 </v>
   <v>      -0.05344846      -0.00708157       0.42948645 </v>
   <v>       0.23534502      -0.09172538      -0.26479246 </v>
   <v>       0.00000676      -0.04344308       0.00546320 </v>
   <v>       0.13101351      -0.22904436      -0.01741996 </v>
   <v>       0.19525817      -0.21831358      -0.33341744 </v>
  </varray>
  <varray name="stress" >
   <v>     -18.89343957       0.12509193       0.01639147 </v>
   <v>       0.12509229     -19.49617938       0.25687519 </v>
   <v>       0.01639190       0.25687471      -3.99869242 </v>
  </varray>
  <energy>
   <i name="e_fr_energy">   -501.76888296 </i>
   <i name="e_wo_entrp">   -501.79525068 </i>
   <i name="e_0_energy">   -501.77767220 </i>
  </energy>
  <time name="totalsc">  775.02  779.41</time>
 </calculation>
 <calculation>
  <scstep>
   <time name="dav">   17.61   17.72</time>
   <time name="total">   18.53   18.64</time>
   <dipole>
    <v name="dipole">      0.00000000       0.00000000      -0.03665090 </v>
    <i name="Tr[quadrupol]">  -6887.81749829 </i>
    <i name="Echarged">      0.00000000 </i>
    <i name="Edipol_quadrupol">      0.00000000 </i>
    <i name="Eion">      0.00000000 </i>
   </dipole>
   <energy>
    <i name="alphaZ">   1737.43934665 </i>
    <i name="ewald"> 206178.10917968 </i>
    <i name="hartreedc">-255546.32339078 </i>
    <i name="XCdc">    963.43471682 </i>
    <i name="pawpsdc">  53772.99752233 </i>
    <i name="pawaedc"> -54910.60184166 </i>
    <i name="eentropy">      0.02833977 </i>
    <i name="bandstr">  -4293.61057666 </i>
    <i name="atom">  51597.65971741 </i>
    <i name="e_fr_energy">   -500.86698643 </i>
    <i name="e_wo_entrp">   -500.89532620 </i>
    <i name="e_0_energy">   -500.87643302 </i>
   </energy>
  </scstep>
  <scstep>
   <time name="diag">    1.96    1.97</time>
   <time name="diis">    8.72    8.77</time>
   <time name="orth">    0.44    0.44</time>
   <time name="total">   12.02   12.10</time>
   <dipole>
    <v name="dipole">      0.00000000       0.00000000      -0.08318434 </v>
    <i name="Tr[quadrupol]">  -6887.89462704 </i>
    <i name="Echarged">      0.00000000 </i>
    <i name="Edipol_quadrupol">      0.00000000 </i>
    <i name="Eion">      0.00000000 </i>
   </dipole>
   <energy>
    <i name="e_fr_energy">   -501.69310742 </i>
    <i name="e_wo_entrp">   -501.71383793 </i>
    <i name="e_0_energy">   -501.70001759 </i>
   </energy>
  </scstep>
  <scstep>
   <time name="diag">    1.91    1.92</time>
   <time name="diis">   11.45   11.52</time>
   <time name="orth">    0.43    0.44</time>
   <time name="total">   14.70   14.79</time>
   <dipole>
    <v name="dipole">      0.00000000       0.00000000       0.11181106 </v>
    <i name="Tr[quadrupol]">  -6887.96877211 </i>
    <i name="Echarged">      0.00000000 </i>
    <i name="Edipol_quadrupol">      0.00000000 </i>
    <i name="Eion">      0.00000000 </i>
   </dipole>
   <energy>
    <i name="e_fr_energy">   -502.46464536 </i>
    <i name="e_wo_entrp">   -502.48887225 </i>
    <i name="e_0_energy">   -502.47272099 </i>
   </energy>
  </scstep>
  <scstep>
   <time name="diag">    1.90    1.91</time>
   <time name="diis">    8.54    8.59</time>
   <time name="orth">    0.43    0.43</time>
   <time name="total">   11.77   11.84</time>
   <dipole>
    <v name="dipole">      0.00000000       0.00000000      -0.06515834 </v>
    <i name="Tr[quadrupol]">  -6887.73673080 </i>
    <i name="Echarged">      0.00000000 </i>
    <i name="Edipol_quadrupol">      0.00000000 </i>
    <i name="Eion">      0.00000000 </i>
   </dipole>
   <energy>
    <i name="e_fr_energy">   -501.88806945 </i>
    <i name="e_wo_entrp">   -501.91239801 </i>
    <i name="e_0_energy">   -501.89617897 </i>
   </energy>
  </scstep>
  <scstep>
   <time name="diag">    1.89    1.90</time>
   <time name="diis">   10.74   10.81</time>
   <time name="orth">    0.44    0.44</time>
   <time name="total">   13.97   14.05</time>
   <dipole>
    <v name="dipole">      0.00000000       0.00000000      -0.05163133 </v>
    <i name="Tr[quadrupol]">  -6887.92420515 </i>
    <i name="Echarged">      0.00000000 </i>
    <i name="Edipol_quadrupol">      0.00000000 </i>
    <i name="Eion">      0.00000000 </i>
   </dipole>
   <energy>
    <i name="e_fr_energy">   -501.90723633 </i>
    <i name="e_wo_entrp">   -501.93301518 </i>
    <i name="e_0_energy">   -501.91582928 </i>
   </energy>
  </scstep>
  <scstep>
   <time name="diag">    1.91    1.92</time>
   <time name="diis">   10.58   10.64</time>
   <time name="orth">    0.43    0.44</time>
   <time name="total">   13.82   13.90</time>
   <dipole>
    <v name="dipole">      0.00000000       0.00000000      -0.04181882 </v>
    <i name="Tr[quadrupol]">  -6887.73855875 </i>
    <i name="Echarged">      0.00000000 </i>
    <i name="Edipol_quadrupol">      0.00000000 </i>
    <i name="Eion">      0.00000000 </i>
   </dipole>
   <energy>
    <i name="e_fr_energy">   -501.92001645 </i>
    <i name="e_wo_entrp">   -501.94725731 </i>
    <i name="e_0_energy">   -501.92909673 </i>
   </energy>
  </scstep>
  <scstep>
   <time name="diag">    1.89    1.90</time>
   <time name="diis">   10.38   10.44</time>
   <time name="orth">    0.43    0.43</time>
   <time name="total">   13.60   13.68</time>
   <dipole>
    <v name="dipole">      0.00000000       0.00000000      -0.03745519 </v>
    <i name="Tr[quadrupol]">  -6887.82866548 </i>
    <i name="Echarged">      0.00000000 </i>
    <i name="Edipol_quadrupol">      0.00000000 </i>
    <i name="Eion">      0.00000000 </i>
   </dipole>
   <energy>
    <i name="e_fr_energy">   -501.93420416 </i>
    <i name="e_wo_entrp">   -501.96202555 </i>
    <i name="e_0_energy">   -501.94347796 </i>
   </energy>
  </scstep>
  <scstep>
   <time name="diag">    1.88    1.89</time>
   <time name="diis">   10.75   10.81</time>
   <time name="orth">    0.43    0.43</time>
   <time name="total">   13.96   14.04</time>
   <dipole>
    <v name="dipole">      0.00000000       0.00000000      -0.03974670 </v>
    <i name="Tr[quadrupol]">  -6887.82069049 </i>
    <i name="Echarged">      0.00000000 </i>
    <i name="Edipol_quadrupol">      0.00000000 </i>
    <i name="Eion">      0.00000000 </i>
   </dipole>
   <energy>
    <i name="e_fr_energy">   -501.93583844 </i>
    <i name="e_wo_entrp">   -501.96337044 </i>
    <i name="e_0_energy">   -501.94501577 </i>
   </energy>
  </scstep>
  <scstep>
   <time name="diag">    1.88    1.89</time>
   <time name="diis">   11.21   11.28</time>
   <time name="orth">    0.43    0.43</time>
   <time name="total">   14.43   14.51</time>
   <dipole>
    <v name="dipole">      0.00000000       0.00000000      -0.04307883 </v>
    <i name="Tr[quadrupol]">  -6887.82033441 </i>
    <i name="Echarged">      0.00000000 </i>
    <i name="Edipol_quadrupol">      0.00000000 </i>
    <i name="Eion">      0.00000000 </i>
   </dipole>
   <energy>
    <i name="e_fr_energy">   -501.93559954 </i>
    <i name="e_wo_entrp">   -501.96279412 </i>
    <i name="e_0_energy">   -501.94466440 </i>
   </energy>
  </scstep>
  <scstep>
   <time name="diag">    1.89    1.90</time>
   <time name="diis">   11.37   11.43</time>
   <time name="orth">    0.43    0.44</time>
   <time name="total">   14.60   14.68</time>
   <dipole>
    <v name="dipole">      0.00000000       0.00000000      -0.04278075 </v>
    <i name="Tr[quadrupol]">  -6887.82460880 </i>
    <i name="Echarged">      0.00000000 </i>
    <i name="Edipol_quadrupol">      0.00000000 </i>
    <i name="Eion">      0.00000000 </i>
   </dipole>
   <energy>
    <i name="e_fr_energy">   -501.93526245 </i>
    <i name="e_wo_entrp">   -501.96258106 </i>
    <i name="e_0_energy">   -501.94436866 </i>
   </energy>
  </scstep>
  <scstep>
   <time name="diag">    1.89    1.90</time>
   <time name="diis">   10.67   10.73</time>
   <time name="orth">    0.43    0.44</time>
   <time name="total">   13.89   13.97</time>
   <dipole>
    <v name="dipole">      0.00000000       0.00000000      -0.04155951 </v>
    <i name="Tr[quadrupol]">  -6887.82436328 </i>
    <i name="Echarged">      0.00000000 </i>
    <i name="Edipol_quadrupol">      0.00000000 </i>
    <i name="Eion">      0.00000000 </i>
   </dipole>
   <energy>
    <i name="e_fr_energy">   -501.93499553 </i>
    <i name="e_wo_entrp">   -501.96240258 </i>
    <i name="e_0_energy">   -501.94413121 </i>
   </energy>
  </scstep>
  <scstep>
   <time name="diag">    1.90    1.91</time>
   <time name="diis">   10.57   10.63</time>
   <time name="orth">    0.43    0.44</time>
   <time name="total">   13.80   13.89</time>
   <dipole>
    <v name="dipole">      0.00000000       0.00000000      -0.04088345 </v>
    <i name="Tr[quadrupol]">  -6887.82032279 </i>
    <i name="Echarged">      0.00000000 </i>
    <i name="Edipol_quadrupol">      0.00000000 </i>
    <i name="Eion">      0.00000000 </i>
   </dipole>
   <energy>
    <i name="e_fr_energy">   -501.93492860 </i>
    <i name="e_wo_entrp">   -501.96246818 </i>
    <i name="e_0_energy">   -501.94410846 </i>
   </energy>
  </scstep>
  <scstep>
   <time name="diag">    1.89    1.90</time>
   <time name="diis">   10.29   10.35</time>
   <time name="orth">    0.43    0.44</time>
   <time name="total">   13.52   13.59</time>
   <dipole>
    <v name="dipole">      0.00000000       0.00000000      -0.04062103 </v>
    <i name="Tr[quadrupol]">  -6887.81604636 </i>
    <i name="Echarged">      0.00000000 </i>
    <i name="Edipol_quadrupol">      0.00000000 </i>
    <i name="Eion">      0.00000000 </i>
   </dipole>
   <energy>
    <i name="e_fr_energy">   -501.93508703 </i>
    <i name="e_wo_entrp">   -501.96262408 </i>
    <i name="e_0_energy">   -501.94426605 </i>
   </energy>
  </scstep>
  <scstep>
   <time name="diag">    1.90    1.91</time>
   <time name="diis">   10.00   10.06</time>
   <time name="orth">    0.43    0.43</time>
   <time name="total">   13.23   13.30</time>
   <dipole>
    <v name="dipole">      0.00000000       0.00000000      -0.04100055 </v>
    <i name="Tr[quadrupol]">  -6887.82420834 </i>
    <i name="Echarged">      0.00000000 </i>
    <i name="Edipol_quadrupol">      0.00000000 </i>
    <i name="Eion">      0.00000000 </i>
   </dipole>
   <energy>
    <i name="e_fr_energy">   -501.93525306 </i>
    <i name="e_wo_entrp">   -501.96270198 </i>
    <i name="e_0_energy">   -501.94440270 </i>
   </energy>
  </scstep>
  <scstep>
   <time name="diag">    1.89    1.91</time>
   <time name="diis">    8.95    9.00</time>
   <time name="orth">    0.43    0.44</time>
   <time name="total">   12.18   12.25</time>
   <dipole>
    <v name="dipole">      0.00000000       0.00000000      -0.04105408 </v>
    <i name="Tr[quadrupol]">  -6887.83002200 </i>
    <i name="Echarged">      0.00000000 </i>
    <i name="Edipol_quadrupol">      0.00000000 </i>
    <i name="Eion">      0.00000000 </i>
   </dipole>
   <energy>
    <i name="e_fr_energy">   -501.93530076 </i>
    <i name="e_wo_entrp">   -501.96275644 </i>
    <i name="e_0_energy">   -501.94445265 </i>
   </energy>
  </scstep>
  <scstep>
   <time name="diag">    1.89    1.91</time>
   <time name="diis">    7.00    7.04</time>
   <time name="orth">    0.43    0.43</time>
   <time name="total">   10.23   10.29</time>
   <dipole>
    <v name="dipole">      0.00000000       0.00000000      -0.04110412 </v>
    <i name="Tr[quadrupol]">  -6887.83725863 </i>
    <i name="Echarged">      0.00000000 </i>
    <i name="Edipol_quadrupol">      0.00000000 </i>
    <i name="Eion">      0.00000000 </i>
   </dipole>
   <energy>
    <i name="e_fr_energy">   -501.93531260 </i>
    <i name="e_wo_entrp">   -501.96277387 </i>
    <i name="e_0_energy">   -501.94446636 </i>
   </energy>
  </scstep>
  <scstep>
   <time name="diag">    1.92    1.93</time>
   <time name="diis">    7.79    7.84</time>
   <time name="orth">    0.43    0.43</time>
   <time name="total">   11.06   11.13</time>
   <dipole>
    <v name="dipole">      0.00000000       0.00000000      -0.04120965 </v>
    <i name="Tr[quadrupol]">  -6887.85146986 </i>
    <i name="Echarged">      0.00000000 </i>
    <i name="Edipol_quadrupol">      0.00000000 </i>
    <i name="Eion">      0.00000000 </i>
   </dipole>
   <energy>
    <i name="e_fr_energy">   -501.93532560 </i>
    <i name="e_wo_entrp">   -501.96280826 </i>
    <i name="e_0_energy">   -501.94448649 </i>
   </energy>
  </scstep>
  <scstep>
   <time name="diag">    1.95    1.96</time>
   <time name="diis">    6.20    6.24</time>
   <time name="orth">    0.43    0.44</time>
   <time name="total">    8.98    9.03</time>
   <dipole>
    <v name="dipole">      0.00000000       0.00000000      -0.04115984 </v>
    <i name="Tr[quadrupol]">  -6887.85894685 </i>
    <i name="Echarged">      0.00000000 </i>
    <i name="Edipol_quadrupol">      0.00000000 </i>
    <i name="Eion">      0.00000000 </i>
   </dipole>
   <energy>
    <i name="alphaZ">   1737.23996065 </i>
    <i name="ewald"> 206178.10917968 </i>
    <i name="hartreedc">-255548.54469070 </i>
    <i name="XCdc">    963.65694126 </i>
    <i name="pawpsdc">  53760.21469384 </i>
    <i name="pawaedc"> -54897.79686632 </i>
    <i name="eentropy">      0.02749170 </i>
    <i name="bandstr">  -4292.50175899 </i>
    <i name="atom">  51597.65971741 </i>
    <i name="e_fr_energy">   -501.93533147 </i>
    <i name="e_wo_entrp">   -501.96282317 </i>
    <i name="e_0_energy">   -501.94449537 </i>
   </energy>
  </scstep>
  <structure>
   <crystal>
    <varray name="basis" >
     <v>       8.50460000       0.00000000       0.00000000 </v>
     <v>      -0.00109914       8.50909993       0.00000000 </v>
     <v>       0.00000000       0.00000000      23.55660100 </v>
    </varray>
    <i name="volume">   1704.70856049 </i>
    <varray name="rec_basis" >
     <v>       0.11758343       0.00001519       0.00000000 </v>
     <v>       0.00000000       0.11752124       0.00000000 </v>
     <v>       0.00000000       0.00000000       0.04245095 </v>
    </varray>
   </crystal>
   <varray name="positions" >
    <v>       0.99760000       0.00330000       0.24221000 </v>
    <v>       0.66561000       0.99834000       0.00060000 </v>
    <v>       0.67030101       0.00618749       0.36964643 </v>
    <v>       0.83467000       0.16589000       0.18209000 </v>
    <v>       0.99866000       0.33404000       0.12198000 </v>
    <v>       0.33421000       0.33147000       0.00101000 </v>
    <v>       0.33484523       0.32297936       0.36440234 </v>
    <v>       0.83220000       0.50025000       0.06275000 </v>
    <v>       0.83123053       0.50144556       0.30419706 </v>
    <v>       0.33512000       0.67037000       0.00000000 </v>
    <v>       0.32975761       0.67010525       0.36886144 </v>
    <v>       0.33145000       0.66488000       0.12292000 </v>
    <v>       0.50193537       0.83279438       0.30117281 </v>
    <v>       0.67111000       0.66550000       0.12148000 </v>
    <v>       0.99950000       0.00032000       0.00103000 </v>
    <v>       0.99829697       0.99763792       0.36105730 </v>
    <v>       0.16670000       0.16592000       0.06160000 </v>
    <v>       0.99930000       0.00013000       0.12183000 </v>
    <v>       0.16670000       0.16692000       0.18170000 </v>
    <v>       0.16516260       0.16239996       0.30399361 </v>
    <v>       0.33368000       0.99986000       0.00108000 </v>
    <v>       0.34165838       0.99398221       0.35955077 </v>
    <v>       0.50008000       0.16606000       0.06164000 </v>
    <v>       0.33365000       0.99945000       0.12194000 </v>
    <v>       0.50013000       0.16657000       0.18176000 </v>
    <v>       0.33374000       0.99994000       0.24252000 </v>
    <v>       0.50388104       0.16682923       0.30286385 </v>
    <v>       0.83412000       0.16807000       0.06130000 </v>
    <v>       0.66767000       0.99972000       0.12168000 </v>
    <v>       0.66792000       0.00032000       0.24233000 </v>
    <v>       0.83465590       0.16898314       0.30328609 </v>
    <v>       0.00033000       0.33346000       0.00076000 </v>
    <v>       0.00288018       0.33191861       0.36176624 </v>
    <v>       0.16704000       0.50116000       0.06077000 </v>
    <v>       0.16627000       0.49940000       0.18238000 </v>
    <v>       0.00000000       0.33319000       0.24260000 </v>
    <v>       0.16517585       0.49900252       0.30410507 </v>
    <v>       0.49811000       0.50186000       0.06112000 </v>
    <v>       0.33328000       0.33434000       0.12148000 </v>
    <v>       0.50051000       0.50053000       0.18145000 </v>
    <v>       0.33392000       0.33269000       0.24229000 </v>
    <v>       0.50139666       0.50153426       0.30376800 </v>
    <v>       0.66687000       0.33418000       0.00129000 </v>
    <v>       0.66537062       0.33509114       0.36096593 </v>
    <v>       0.66670000       0.33332000       0.12177000 </v>
    <v>       0.83466000       0.49916000       0.18181000 </v>
    <v>       0.66748000       0.33291000       0.24234000 </v>
    <v>       0.99949000       0.66581000       0.00112000 </v>
    <v>       0.00103559       0.66869853       0.36116806 </v>
    <v>       0.16773000       0.83295000       0.06141000 </v>
    <v>       0.00149000       0.66672000       0.12196000 </v>
    <v>       0.16592000       0.83389000       0.18235000 </v>
    <v>       0.99950000       0.66635000       0.24245000 </v>
    <v>       0.16407152       0.83367350       0.30292142 </v>
    <v>       0.49825000       0.83185000       0.06189000 </v>
    <v>       0.50064000       0.83335000       0.18189000 </v>
    <v>       0.33424000       0.66627000       0.24239000 </v>
    <v>       0.66521000       0.66629000       0.00100000 </v>
    <v>       0.83382000       0.83268000       0.06128000 </v>
    <v>       0.83390000       0.83311000       0.18191000 </v>
    <v>       0.66721000       0.66675000       0.24221000 </v>
    <v>       0.83163945       0.83051626       0.30364618 </v>
   </varray>
  </structure>
  <varray name="forces" >
   <v>      -0.00461985      -0.16845049       0.06026006 </v>
   <v>       0.05500293       0.04107706      -0.18858686 </v>
   <v>      -0.39677139      -0.39887922       0.05412188 </v>
   <v>       0.00677149       0.19395113      -0.20835713 </v>
   <v>      -0.07284992      -0.05068967       0.25855424 </v>
   <v>      -0.04842090      -0.33486124      -0.09900958 </v>
   <v>      -0.02362955       0.25570130       0.05481272 </v>
   <v>      -0.02613085       0.02196970      -0.17026305 </v>
   <v>      -0.00311246      -0.01351454      -0.06540665 </v>
   <v>      -0.09391945       0.22558887      -0.23559801 </v>
   <v>       0.47372007       0.02279848       0.18307685 </v>
   <v>      -0.02760539       0.03180016       0.09203354 </v>
   <v>      -0.01287365      -0.04519012       0.64747236 </v>
   <v>       0.09387880      -0.00266780       0.05082742 </v>
   <v>      -0.00963349      -0.01025929       0.42143852 </v>
   <v>       0.10183358       0.09653410      -0.06501663 </v>
   <v>      -0.27344754      -0.13061675      -0.39991369 </v>
   <v>      -0.00563354       0.01716377       0.10917659 </v>
   <v>       0.02118373       0.03632339      -0.03622785 </v>
   <v>      -0.01635617       0.06839774      -0.02678932 </v>
   <v>       0.04311995      -0.02217853       0.53451438 </v>
   <v>      -0.24659886       0.34496843       0.06182206 </v>
   <v>       0.06536197       0.07646150      -0.19866886 </v>
   <v>       0.06063940       0.04088064      -0.01096827 </v>
   <v>      -0.02688550       0.03360044      -0.05882698 </v>
   <v>       0.01702798       0.06558948      -0.10805730 </v>
   <v>      -0.05148509       0.17574649      -0.01436149 </v>
   <v>       0.16420320       0.08767861      -0.36444772 </v>
   <v>      -0.04214157      -0.03544262       0.22743355 </v>
   <v>       0.16061728      -0.05446199       0.03456111 </v>
   <v>      -0.04344148      -0.02719923      -0.03764606 </v>
   <v>       0.15037340      -0.02322026       0.37203024 </v>
   <v>       0.13824901      -0.05817956       0.21364796 </v>
   <v>      -0.26125300       0.03855398      -0.46701274 </v>
   <v>      -0.05736180      -0.06723826      -0.05660644 </v>
   <v>       0.02214090       0.06215116       0.14357248 </v>
   <v>      -0.09174779       0.00157116      -0.14994889 </v>
   <v>       0.32973488      -0.01086132      -0.32103207 </v>
   <v>      -0.00464894      -0.04534355       0.23857631 </v>
   <v>       0.03632017      -0.01957494      -0.06432820 </v>
   <v>       0.06609877       0.00553129       0.11056184 </v>
   <v>       0.25979780      -0.07695784      -0.44921519 </v>
   <v>      -0.11969027       0.00521332       0.40869944 </v>
   <v>      -0.06602147      -0.05415951      -0.04618136 </v>
   <v>       0.04482734      -0.06594674       0.07483790 </v>
   <v>      -0.03637219       0.07813669      -0.05671248 </v>
   <v>      -0.14833081       0.15475942      -0.01808475 </v>
   <v>       0.10041277       0.02906209       0.39082820 </v>
   <v>      -0.04492282      -0.16151024      -0.16896687 </v>
   <v>      -0.26046954       0.17743002      -0.32816595 </v>
   <v>      -0.03957391       0.00942920       0.13038751 </v>
   <v>       0.02667456       0.00980699       0.01573525 </v>
   <v>      -0.10685599       0.11263326      -0.13003852 </v>
   <v>      -0.10796615       0.04542685      -0.09605275 </v>
   <v>      -0.00402823      -0.09415274      -0.07807877 </v>
   <v>      -0.01900544       0.02503762      -0.30490588 </v>
   <v>      -0.03847451      -0.23837983       0.21664289 </v>
   <v>      -0.05580859      -0.00403773       0.42790293 </v>
   <v>       0.23808189      -0.09089056      -0.27131809 </v>
   <v>      -0.00512653      -0.03908486      -0.01043661 </v>
   <v>       0.11829006      -0.16758906      -0.05024460 </v>
   <v>       0.09885268      -0.07943583      -0.17805259 </v>
  </varray>
  <varray name="stress" >
   <v>     -18.96649943       0.07241755      -0.06426316 </v>
   <v>       0.07241688     -19.68663018       0.25691526 </v>
   <v>      -0.06426296       0.25691646      -4.06328562 </v>
  </varray>
  <energy>
   <i name="e_fr_energy">   -501.93533147 </i>
   <i name="e_wo_entrp">   -501.96282317 </i>
   <i name="e_0_energy">   -501.94449537 </i>
  </energy>
  <time name="totalsc">  254.24  255.75</time>
 </calculation>
 <calculation>
  <scstep>
   <time name="dav">   16.75   16.85</time>
   <time name="total">   17.67   17.77</time>
   <dipole>
    <v name="dipole">      0.00000000       0.00000000      -0.04135118 </v>
    <i name="Tr[quadrupol]">  -6892.52902715 </i>
    <i name="Echarged">      0.00000000 </i>
    <i name="Edipol_quadrupol">      0.00000000 </i>
    <i name="Eion">      0.00000000 </i>
   </dipole>
   <energy>
    <i name="alphaZ">   1737.23894835 </i>
    <i name="ewald"> 206055.95248820 </i>
    <i name="hartreedc">-255427.70738425 </i>
    <i name="XCdc">    963.67657981 </i>
    <i name="pawpsdc">  53760.11596811 </i>
    <i name="pawaedc"> -54897.69754409 </i>
    <i name="eentropy">      0.02854504 </i>
    <i name="bandstr">  -4289.06543675 </i>
    <i name="atom">  51597.65971741 </i>
    <i name="e_fr_energy">   -499.79811819 </i>
    <i name="e_wo_entrp">   -499.82666323 </i>
    <i name="e_0_energy">   -499.80763320 </i>
   </energy>
  </scstep>
  <scstep>
   <time name="diag">    1.98    1.99</time>
   <time name="diis">    8.82    8.87</time>
   <time name="orth">    0.43    0.43</time>
   <time name="total">   12.15   12.22</time>
   <dipole>
    <v name="dipole">      0.00000000       0.00000000      -0.11835704 </v>
    <i name="Tr[quadrupol]">  -6892.60866229 </i>
    <i name="Echarged">      0.00000000 </i>
    <i name="Edipol_quadrupol">      0.00000000 </i>
    <i name="Eion">      0.00000000 </i>
   </dipole>
   <energy>
    <i name="e_fr_energy">   -501.62184289 </i>
    <i name="e_wo_entrp">   -501.63967571 </i>
    <i name="e_0_energy">   -501.62778716 </i>
   </energy>
  </scstep>
  <scstep>
   <time name="diag">    1.91    1.93</time>
   <time name="diis">   11.81   11.88</time>
   <time name="orth">    0.43    0.44</time>
   <time name="total">   15.07   15.17</time>
   <dipole>
    <v name="dipole">      0.00000000       0.00000000       0.19459209 </v>
    <i name="Tr[quadrupol]">  -6892.80741407 </i>
    <i name="Echarged">      0.00000000 </i>
    <i name="Edipol_quadrupol">      0.00000000 </i>
    <i name="Eion">      0.00000000 </i>
   </dipole>
   <energy>
    <i name="e_fr_energy">   -503.37866717 </i>
    <i name="e_wo_entrp">   -503.39617456 </i>
    <i name="e_0_energy">   -503.38450297 </i>
   </energy>
  </scstep>
  <scstep>
   <time name="diag">    1.90    1.91</time>
   <time name="diis">    8.84    8.89</time>
   <time name="orth">    0.44    0.44</time>
   <time name="total">   12.08   12.15</time>
   <dipole>
    <v name="dipole">      0.00000000       0.00000000      -0.09311972 </v>
    <i name="Tr[quadrupol]">  -6892.43378738 </i>
    <i name="Echarged">      0.00000000 </i>
    <i name="Edipol_quadrupol">      0.00000000 </i>
    <i name="Eion">      0.00000000 </i>
   </dipole>
   <energy>
    <i name="e_fr_energy">   -501.94094880 </i>
    <i name="e_wo_entrp">   -501.96380562 </i>
    <i name="e_0_energy">   -501.94856774 </i>
   </energy>
  </scstep>
  <scstep>
   <time name="diag">    1.90    1.91</time>
   <time name="diis">   10.60   10.66</time>
   <time name="orth">    0.44    0.44</time>
   <time name="total">   13.84   13.92</time>
   <dipole>
    <v name="dipole">      0.00000000       0.00000000      -0.06855934 </v>
    <i name="Tr[quadrupol]">  -6892.73001245 </i>
    <i name="Echarged">      0.00000000 </i>
    <i name="Edipol_quadrupol">      0.00000000 </i>
    <i name="Eion">      0.00000000 </i>
   </dipole>
   <energy>
    <i name="e_fr_energy">   -501.98912422 </i>
    <i name="e_wo_entrp">   -502.01398447 </i>
    <i name="e_0_energy">   -501.99741097 </i>
   </energy>
  </scstep>
  <scstep>
   <time name="diag">    1.90    1.91</time>
   <time name="diis">   10.46   10.52</time>
   <time name="orth">    0.43    0.43</time>
   <time name="total">   13.69   13.77</time>
   <dipole>
    <v name="dipole">      0.00000000       0.00000000      -0.05103692 </v>
    <i name="Tr[quadrupol]">  -6892.39495199 </i>
    <i name="Echarged">      0.00000000 </i>
    <i name="Edipol_quadrupol">      0.00000000 </i>
    <i name="Eion">      0.00000000 </i>
   </dipole>
   <energy>
    <i name="e_fr_energy">   -502.00932019 </i>
    <i name="e_wo_entrp">   -502.03629423 </i>
    <i name="e_0_energy">   -502.01831154 </i>
   </energy>
  </scstep>
  <scstep>
   <time name="diag">    1.89    1.90</time>
   <time name="diis">   10.85   10.92</time>
   <time name="orth">    0.43    0.44</time>
   <time name="total">   14.08   14.16</time>
   <dipole>
    <v name="dipole">      0.00000000       0.00000000      -0.04298205 </v>
    <i name="Tr[quadrupol]">  -6892.54349403 </i>
    <i name="Echarged">      0.00000000 </i>
    <i name="Edipol_quadrupol">      0.00000000 </i>
    <i name="Eion">      0.00000000 </i>
   </dipole>
   <energy>
    <i name="e_fr_energy">   -502.03904042 </i>
    <i name="e_wo_entrp">   -502.06683766 </i>
    <i name="e_0_energy">   -502.04830617 </i>
   </energy>
  </scstep>
  <scstep>
   <time name="diag">    1.89    1.90</time>
   <time name="diis">   10.79   10.85</time>
   <time name="orth">    0.43    0.44</time>
   <time name="total">   14.01   14.10</time>
   <dipole>
    <v name="dipole">      0.00000000       0.00000000      -0.04408645 </v>
    <i name="Tr[quadrupol]">  -6892.53690199 </i>
    <i name="Echarged">      0.00000000 </i>
    <i name="Edipol_quadrupol">      0.00000000 </i>
    <i name="Eion">      0.00000000 </i>
   </dipole>
   <energy>
    <i name="e_fr_energy">   -502.04860959 </i>
    <i name="e_wo_entrp">   -502.07628743 </i>
    <i name="e_0_energy">   -502.05783553 </i>
   </energy>
  </scstep>
  <scstep>
   <time name="diag">    1.89    1.90</time>
   <time name="diis">   11.11   11.18</time>
   <time name="orth">    0.43    0.44</time>
   <time name="total">   14.34   14.43</time>
   <dipole>
    <v name="dipole">      0.00000000       0.00000000      -0.04946241 </v>
    <i name="Tr[quadrupol]">  -6892.54090419 </i>
    <i name="Echarged">      0.00000000 </i>
    <i name="Edipol_quadrupol">      0.00000000 </i>
    <i name="Eion">      0.00000000 </i>
   </dipole>
   <energy>
    <i name="e_fr_energy">   -502.04773740 </i>
    <i name="e_wo_entrp">   -502.07507097 </i>
    <i name="e_0_energy">   -502.05684859 </i>
   </energy>
  </scstep>
  <scstep>
   <time name="diag">    1.89    1.90</time>
   <time name="diis">   11.53   11.59</time>
   <time name="orth">    0.43    0.43</time>
   <time name="total">   14.75   14.83</time>
   <dipole>
    <v name="dipole">      0.00000000       0.00000000      -0.05008037 </v>
    <i name="Tr[quadrupol]">  -6892.54797438 </i>
    <i name="Echarged">      0.00000000 </i>
    <i name="Edipol_quadrupol">      0.00000000 </i>
    <i name="Eion">      0.00000000 </i>
   </dipole>
   <energy>
    <i name="e_fr_energy">   -502.04708907 </i>
    <i name="e_wo_entrp">   -502.07442938 </i>
    <i name="e_0_energy">   -502.05620250 </i>
   </energy>
  </scstep>
  <scstep>
   <time name="diag">    1.88    1.89</time>
   <time name="diis">   11.37   11.44</time>
   <time name="orth">    0.43    0.43</time>
   <time name="total">   14.59   14.67</time>
   <dipole>
    <v name="dipole">      0.00000000       0.00000000      -0.04913054 </v>
    <i name="Tr[quadrupol]">  -6892.54987459 </i>
    <i name="Echarged">      0.00000000 </i>
    <i name="Edipol_quadrupol">      0.00000000 </i>
    <i name="Eion">      0.00000000 </i>
   </dipole>
   <energy>
    <i name="e_fr_energy">   -502.04660599 </i>
    <i name="e_wo_entrp">   -502.07399784 </i>
    <i name="e_0_energy">   -502.05573661 </i>
   </energy>
  </scstep>
  <scstep>
   <time name="diag">    1.90    1.91</time>
   <time name="diis">   11.29   11.36</time>
   <time name="orth">    0.44    0.44</time>
   <time name="total">   14.54   14.63</time>
   <dipole>
    <v name="dipole">      0.00000000       0.00000000      -0.04787643 </v>
    <i name="Tr[quadrupol]">  -6892.55023350 </i>
    <i name="Echarged">      0.00000000 </i>
    <i name="Edipol_quadrupol">      0.00000000 </i>
    <i name="Eion">      0.00000000 </i>
   </dipole>
   <energy>
    <i name="e_fr_energy">   -502.04641578 </i>
    <i name="e_wo_entrp">   -502.07395395 </i>
    <i name="e_0_energy">   -502.05559517 </i>
   </energy>
  </scstep>
  <scstep>
   <time name="diag">    1.93    1.94</time>
   <time name="diis">    9.85    9.91</time>
   <time name="orth">    0.44    0.44</time>
   <time name="total">   13.12   13.22</time>
   <dipole>
    <v name="dipole">      0.00000000       0.00000000      -0.04725886 </v>
    <i name="Tr[quadrupol]">  -6892.54587033 </i>
    <i name="Echarged">      0.00000000 </i>
    <i name="Edipol_quadrupol">      0.00000000 </i>
    <i name="Eion">      0.00000000 </i>
   </dipole>
   <energy>
    <i name="e_fr_energy">   -502.04642606 </i>
    <i name="e_wo_entrp">   -502.07390212 </i>
    <i name="e_0_energy">   -502.05558475 </i>
   </energy>
  </scstep>
  <scstep>
   <time name="diag">    1.92    1.94</time>
   <time name="diis">   10.13   10.19</time>
   <time name="orth">    0.43    0.43</time>
   <time name="total">   13.38   13.46</time>
   <dipole>
    <v name="dipole">      0.00000000       0.00000000      -0.04786941 </v>
    <i name="Tr[quadrupol]">  -6892.54877205 </i>
    <i name="Echarged">      0.00000000 </i>
    <i name="Edipol_quadrupol">      0.00000000 </i>
    <i name="Eion">      0.00000000 </i>
   </dipole>
   <energy>
    <i name="e_fr_energy">   -502.04668793 </i>
    <i name="e_wo_entrp">   -502.07406392 </i>
    <i name="e_0_energy">   -502.05581326 </i>
   </energy>
  </scstep>
  <scstep>
   <time name="diag">    1.90    1.91</time>
   <time name="diis">   10.33   10.40</time>
   <time name="orth">    0.44    0.44</time>
   <time name="total">   13.58   13.66</time>
   <dipole>
    <v name="dipole">      0.00000000       0.00000000      -0.04814186 </v>
    <i name="Tr[quadrupol]">  -6892.55654031 </i>
    <i name="Echarged">      0.00000000 </i>
    <i name="Edipol_quadrupol">      0.00000000 </i>
    <i name="Eion">      0.00000000 </i>
   </dipole>
   <energy>
    <i name="e_fr_energy">   -502.04681785 </i>
    <i name="e_wo_entrp">   -502.07417483 </i>
    <i name="e_0_energy">   -502.05593684 </i>
   </energy>
  </scstep>
  <scstep>
   <time name="diag">    1.93    1.94</time>
   <time name="diis">    8.09    8.14</time>
   <time name="orth">    0.43    0.43</time>
   <time name="total">   11.34   11.40</time>
   <dipole>
    <v name="dipole">      0.00000000       0.00000000      -0.04797299 </v>
    <i name="Tr[quadrupol]">  -6892.56711706 </i>
    <i name="Echarged">      0.00000000 </i>
    <i name="Edipol_quadrupol">      0.00000000 </i>
    <i name="Eion">      0.00000000 </i>
   </dipole>
   <energy>
    <i name="e_fr_energy">   -502.04684441 </i>
    <i name="e_wo_entrp">   -502.07424506 </i>
    <i name="e_0_energy">   -502.05597796 </i>
   </energy>
  </scstep>
  <scstep>
   <time name="diag">    1.88    1.89</time>
   <time name="diis">    7.11    7.15</time>
   <time name="orth">    0.44    0.44</time>
   <time name="total">   10.34   10.40</time>
   <dipole>
    <v name="dipole">      0.00000000       0.00000000      -0.04835647 </v>
    <i name="Tr[quadrupol]">  -6892.58412780 </i>
    <i name="Echarged">      0.00000000 </i>
    <i name="Edipol_quadrupol">      0.00000000 </i>
    <i name="Eion">      0.00000000 </i>
   </dipole>
   <energy>
    <i name="e_fr_energy">   -502.04685768 </i>
    <i name="e_wo_entrp">   -502.07427034 </i>
    <i name="e_0_energy">   -502.05599523 </i>
   </energy>
  </scstep>
  <scstep>
   <time name="diag">    1.88    1.90</time>
   <time name="diis">    7.27    7.31</time>
   <time name="orth">    0.43    0.43</time>
   <time name="total">    9.98   10.05</time>
   <dipole>
    <v name="dipole">      0.00000000       0.00000000      -0.04818660 </v>
    <i name="Tr[quadrupol]">  -6892.59792299 </i>
    <i name="Echarged">      0.00000000 </i>
    <i name="Edipol_quadrupol">      0.00000000 </i>
    <i name="Eion">      0.00000000 </i>
   </dipole>
   <energy>
    <i name="alphaZ">   1737.16510312 </i>
    <i name="ewald"> 206055.95248820 </i>
    <i name="hartreedc">-255431.09349041 </i>
    <i name="XCdc">    963.85099259 </i>
    <i name="pawpsdc">  53749.20921525 </i>
    <i name="pawaedc"> -54886.71311108 </i>
    <i name="eentropy">      0.02746951 </i>
    <i name="bandstr">  -4288.10523543 </i>
    <i name="atom">  51597.65971741 </i>
    <i name="e_fr_energy">   -502.04685084 </i>
    <i name="e_wo_entrp">   -502.07432035 </i>
    <i name="e_0_energy">   -502.05600734 </i>
   </energy>
  </scstep>
  <structure>
   <crystal>
    <varray name="basis" >
     <v>       8.50460000       0.00000000       0.00000000 </v>
     <v>      -0.00109914       8.50909993       0.00000000 </v>
     <v>       0.00000000       0.00000000      23.55660100 </v>
    </varray>
    <i name="volume">   1704.70856049 </i>
    <varray name="rec_basis" >
     <v>       0.11758343       0.00001519       0.00000000 </v>
     <v>       0.00000000       0.11752124       0.00000000 </v>
     <v>       0.00000000       0.00000000       0.04245095 </v>
    </varray>
   </crystal>
   <varray name="positions" >
    <v>       0.99760000       0.00330000       0.24221000 </v>
    <v>       0.66561000       0.99834000       0.00060000 </v>
    <v>       0.66539740       0.00206332       0.37019445 </v>
    <v>       0.83467000       0.16589000       0.18209000 </v>
    <v>       0.99866000       0.33404000       0.12198000 </v>
    <v>       0.33421000       0.33147000       0.00101000 </v>
    <v>       0.33473219       0.32497280       0.36475970 </v>
    <v>       0.83220000       0.50025000       0.06275000 </v>
    <v>       0.83121621       0.50167927       0.30389473 </v>
    <v>       0.33512000       0.67037000       0.00000000 </v>
    <v>       0.33540304       0.67083294       0.36997045 </v>
    <v>       0.33145000       0.66488000       0.12292000 </v>
    <v>       0.50164109       0.83190739       0.30425260 </v>
    <v>       0.67111000       0.66550000       0.12148000 </v>
    <v>       0.99950000       0.00032000       0.00103000 </v>
    <v>       0.99985282       0.99849059       0.36086269 </v>
    <v>       0.16670000       0.16592000       0.06160000 </v>
    <v>       0.99930000       0.00013000       0.12183000 </v>
    <v>       0.16670000       0.16692000       0.18170000 </v>
    <v>       0.16491401       0.16251634       0.30383426 </v>
    <v>       0.33368000       0.99986000       0.00108000 </v>
    <v>       0.33995033       0.99718810       0.35978478 </v>
    <v>       0.50008000       0.16606000       0.06164000 </v>
    <v>       0.33365000       0.99945000       0.12194000 </v>
    <v>       0.50013000       0.16657000       0.18176000 </v>
    <v>       0.33374000       0.99994000       0.24252000 </v>
    <v>       0.50329290       0.16987034       0.30275627 </v>
    <v>       0.83412000       0.16807000       0.06130000 </v>
    <v>       0.66767000       0.99972000       0.12168000 </v>
    <v>       0.66792000       0.00032000       0.24233000 </v>
    <v>       0.83474798       0.16936136       0.30249542 </v>
    <v>       0.00033000       0.33346000       0.00076000 </v>
    <v>       0.00425794       0.33162618       0.36274641 </v>
    <v>       0.16704000       0.50116000       0.06077000 </v>
    <v>       0.16627000       0.49940000       0.18238000 </v>
    <v>       0.00000000       0.33319000       0.24260000 </v>
    <v>       0.16257638       0.49841511       0.30298323 </v>
    <v>       0.49811000       0.50186000       0.06112000 </v>
    <v>       0.33328000       0.33434000       0.12148000 </v>
    <v>       0.50051000       0.50053000       0.18145000 </v>
    <v>       0.33392000       0.33269000       0.24229000 </v>
    <v>       0.50523073       0.50075141       0.30165111 </v>
    <v>       0.66687000       0.33418000       0.00129000 </v>
    <v>       0.66434033       0.33447594       0.36083579 </v>
    <v>       0.66670000       0.33332000       0.12177000 </v>
    <v>       0.83466000       0.49916000       0.18181000 </v>
    <v>       0.66748000       0.33291000       0.24234000 </v>
    <v>       0.99949000       0.66581000       0.00112000 </v>
    <v>       0.00047853       0.66703154       0.36058299 </v>
    <v>       0.16773000       0.83295000       0.06141000 </v>
    <v>       0.00149000       0.66672000       0.12196000 </v>
    <v>       0.16592000       0.83389000       0.18235000 </v>
    <v>       0.99950000       0.66635000       0.24245000 </v>
    <v>       0.16143829       0.83508046       0.30203902 </v>
    <v>       0.49825000       0.83185000       0.06189000 </v>
    <v>       0.50064000       0.83335000       0.18189000 </v>
    <v>       0.33424000       0.66627000       0.24239000 </v>
    <v>       0.66521000       0.66629000       0.00100000 </v>
    <v>       0.83382000       0.83268000       0.06128000 </v>
    <v>       0.83390000       0.83311000       0.18191000 </v>
    <v>       0.66721000       0.66675000       0.24221000 </v>
    <v>       0.83331398       0.82864473       0.30261371 </v>
   </varray>
  </structure>
  <varray name="forces" >
   <v>      -0.03341406      -0.12143758      -0.01471506 </v>
   <v>       0.05604064       0.03975056      -0.18637026 </v>
   <v>      -0.13814396      -0.27880395      -0.10363328 </v>
   <v>       0.00352528       0.18381569      -0.24941257 </v>
   <v>      -0.07014584      -0.05238089       0.26371125 </v>
   <v>      -0.04742590      -0.33519392      -0.09804611 </v>
   <v>      -0.03942961       0.28458604      -0.02761453 </v>
   <v>      -0.02856129       0.02098729      -0.16586860 </v>
   <v>      -0.00730633      -0.07360558      -0.02351855 </v>
   <v>      -0.09521816       0.22289578      -0.23325979 </v>
   <v>       0.21896223      -0.07258348      -0.06325997 </v>
   <v>      -0.03402040       0.03463584       0.09393037 </v>
   <v>       0.01191452       0.02290656       0.12610573 </v>
   <v>       0.09816602      -0.00071055       0.05862511 </v>
   <v>      -0.01278225      -0.00866095       0.42916941 </v>
   <v>      -0.01221592       0.08795702      -0.05853929 </v>
   <v>      -0.27116698      -0.13661185      -0.39786318 </v>
   <v>      -0.01239054       0.02141485       0.11643103 </v>
   <v>       0.02406205       0.02734763      -0.04400528 </v>
   <v>      -0.00191924       0.15593004       0.00164347 </v>
   <v>       0.04719770      -0.02155416       0.53577798 </v>
   <v>      -0.31666814       0.31423503       0.04851590 </v>
   <v>       0.06426674       0.07289422      -0.19792224 </v>
   <v>       0.05684317       0.04282405      -0.01700034 </v>
   <v>      -0.02754305       0.02082106      -0.05723498 </v>
   <v>       0.09564242       0.03804910      -0.04472516 </v>
   <v>      -0.02921408      -0.10779277       0.02275984 </v>
   <v>       0.16463625       0.08466131      -0.37123017 </v>
   <v>      -0.03634503      -0.03104665       0.22533136 </v>
   <v>       0.06462714      -0.10988600       0.10276176 </v>
   <v>      -0.11512899      -0.12877328       0.26809196 </v>
   <v>       0.14843470      -0.01800875       0.37079082 </v>
   <v>       0.10831735      -0.08972480       0.05541570 </v>
   <v>      -0.26506559       0.03946284      -0.46676584 </v>
   <v>      -0.05237730      -0.06687866      -0.09038546 </v>
   <v>      -0.02537027       0.04570396       0.07112598 </v>
   <v>       0.21632196       0.08793484       0.16616890 </v>
   <v>       0.32473951      -0.01178518      -0.32743845 </v>
   <v>      -0.00313916      -0.03864817       0.24493484 </v>
   <v>       0.02785948      -0.01843251      -0.10674895 </v>
   <v>       0.04464513       0.03153275       0.03975455 </v>
   <v>      -0.04530683      -0.02797829      -0.04049660 </v>
   <v>      -0.11798971       0.00697510       0.41257125 </v>
   <v>       0.01626436      -0.01995614      -0.05094578 </v>
   <v>       0.05066797      -0.06960782       0.08700274 </v>
   <v>      -0.03688432       0.07561845      -0.08209148 </v>
   <v>      -0.07092413       0.11775475      -0.15583565 </v>
   <v>       0.10024404       0.02764437       0.39282482 </v>
   <v>      -0.01328395      -0.11099251      -0.12586551 </v>
   <v>      -0.25904989       0.17633716      -0.32847023 </v>
   <v>      -0.03781278       0.00750366       0.13417301 </v>
   <v>       0.04751321       0.00627289      -0.01506924 </v>
   <v>      -0.11322294       0.08274303      -0.28441499 </v>
   <v>       0.20002049      -0.12569173       0.17627042 </v>
   <v>      -0.00455979      -0.08869677      -0.07845895 </v>
   <v>      -0.02037948       0.02012508      -0.22652038 </v>
   <v>      -0.01509486      -0.16919188       0.23337279 </v>
   <v>      -0.05692238      -0.00131251       0.42627954 </v>
   <v>       0.24143181      -0.09043763      -0.28002855 </v>
   <v>      -0.01261672      -0.03066206      -0.03692071 </v>
   <v>       0.11337481      -0.07153214      -0.11584866 </v>
   <v>      -0.06667913       0.12725822       0.06298429 </v>
  </varray>
  <varray name="stress" >
   <v>     -19.08761166       0.08365886      -0.17000667 </v>
   <v>       0.08365839     -20.01260881       0.29367072 </v>
   <v>      -0.17000622       0.29367048      -4.19149416 </v>
  </varray>
  <energy>
   <i name="e_fr_energy">   -502.04685084 </i>
   <i name="e_wo_entrp">   -502.07432035 </i>
   <i name="e_0_energy">   -502.05600734 </i>
  </energy>
  <time name="totalsc">  258.46  260.01</time>
 </calculation>
 <calculation>
  <scstep>
   <time name="dav">   17.42   17.52</time>
   <time name="total">   18.34   18.45</time>
   <dipole>
    <v name="dipole">      0.00000000       0.00000000      -0.04848696 </v>
    <i name="Tr[quadrupol]">  -6893.33023378 </i>
    <i name="Echarged">      0.00000000 </i>
    <i name="Edipol_quadrupol">      0.00000000 </i>
    <i name="Eion">      0.00000000 </i>
   </dipole>
   <energy>
    <i name="alphaZ">   1737.36123019 </i>
    <i name="ewald"> 206037.71930072 </i>
    <i name="hartreedc">-255412.89656117 </i>
    <i name="XCdc">    963.83919581 </i>
    <i name="pawpsdc">  53750.01290927 </i>
    <i name="pawaedc"> -54887.51498879 </i>
    <i name="eentropy">      0.02745093 </i>
    <i name="bandstr">  -4288.20252835 </i>
    <i name="atom">  51597.65971741 </i>
    <i name="e_fr_energy">   -501.99427398 </i>
    <i name="e_wo_entrp">   -502.02172491 </i>
    <i name="e_0_energy">   -502.00342429 </i>
   </energy>
  </scstep>
  <scstep>
   <time name="diag">    1.95    1.97</time>
   <time name="diis">    8.50    8.54</time>
   <time name="orth">    0.43    0.43</time>
   <time name="total">   11.79   11.86</time>
   <dipole>
    <v name="dipole">      0.00000000       0.00000000      -0.05353862 </v>
    <i name="Tr[quadrupol]">  -6893.32616699 </i>
    <i name="Echarged">      0.00000000 </i>
    <i name="Edipol_quadrupol">      0.00000000 </i>
    <i name="Eion">      0.00000000 </i>
   </dipole>
   <energy>
    <i name="e_fr_energy">   -502.03660736 </i>
    <i name="e_wo_entrp">   -502.06358309 </i>
    <i name="e_0_energy">   -502.04559927 </i>
   </energy>
  </scstep>
  <scstep>
   <time name="diag">    1.89    1.90</time>
   <time name="diis">   10.38   10.44</time>
   <time name="orth">    0.43    0.44</time>
   <time name="total">   13.62   13.70</time>
   <dipole>
    <v name="dipole">      0.00000000       0.00000000      -0.01757996 </v>
    <i name="Tr[quadrupol]">  -6893.31143908 </i>
    <i name="Echarged">      0.00000000 </i>
    <i name="Edipol_quadrupol">      0.00000000 </i>
    <i name="Eion">      0.00000000 </i>
   </dipole>
   <energy>
    <i name="e_fr_energy">   -502.07049748 </i>
    <i name="e_wo_entrp">   -502.09980951 </i>
    <i name="e_0_energy">   -502.08026816 </i>
   </energy>
  </scstep>
  <scstep>
   <time name="diag">    1.89    1.90</time>
   <time name="diis">    8.12    8.16</time>
   <time name="orth">    0.43    0.44</time>
   <time name="total">   11.32   11.40</time>
   <dipole>
    <v name="dipole">      0.00000000       0.00000000      -0.05417845 </v>
    <i name="Tr[quadrupol]">  -6893.28062994 </i>
    <i name="Echarged">      0.00000000 </i>
    <i name="Edipol_quadrupol">      0.00000000 </i>
    <i name="Eion">      0.00000000 </i>
   </dipole>
   <energy>
    <i name="e_fr_energy">   -502.04656796 </i>
    <i name="e_wo_entrp">   -502.07346568 </i>
    <i name="e_0_energy">   -502.05553387 </i>
   </energy>
  </scstep>
  <scstep>
   <time name="diag">    1.89    1.90</time>
   <time name="diis">   10.50   10.57</time>
   <time name="orth">    0.43    0.44</time>
   <time name="total">   13.74   13.82</time>
   <dipole>
    <v name="dipole">      0.00000000       0.00000000      -0.05076091 </v>
    <i name="Tr[quadrupol]">  -6893.32357152 </i>
    <i name="Echarged">      0.00000000 </i>
    <i name="Edipol_quadrupol">      0.00000000 </i>
    <i name="Eion">      0.00000000 </i>
   </dipole>
   <energy>
    <i name="e_fr_energy">   -502.04762360 </i>
    <i name="e_wo_entrp">   -502.07483981 </i>
    <i name="e_0_energy">   -502.05669567 </i>
   </energy>
  </scstep>
  <scstep>
   <time name="diag">    1.88    1.89</time>
   <time name="diis">    9.22    9.27</time>
   <time name="orth">    0.43    0.44</time>
   <time name="total">   12.43   12.50</time>
   <dipole>
    <v name="dipole">      0.00000000       0.00000000      -0.04861589 </v>
    <i name="Tr[quadrupol]">  -6893.29621648 </i>
    <i name="Echarged">      0.00000000 </i>
    <i name="Edipol_quadrupol">      0.00000000 </i>
    <i name="Eion">      0.00000000 </i>
   </dipole>
   <energy>
    <i name="e_fr_energy">   -502.04852024 </i>
    <i name="e_wo_entrp">   -502.07591694 </i>
    <i name="e_0_energy">   -502.05765247 </i>
   </energy>
  </scstep>
  <scstep>
   <time name="diag">    1.89    1.90</time>
   <time name="diis">    8.98    9.03</time>
   <time name="orth">    0.43    0.43</time>
   <time name="total">   12.21   12.27</time>
   <dipole>
    <v name="dipole">      0.00000000       0.00000000      -0.04914176 </v>
    <i name="Tr[quadrupol]">  -6893.31238137 </i>
    <i name="Echarged">      0.00000000 </i>
    <i name="Edipol_quadrupol">      0.00000000 </i>
    <i name="Eion">      0.00000000 </i>
   </dipole>
   <energy>
    <i name="e_fr_energy">   -502.04904860 </i>
    <i name="e_wo_entrp">   -502.07638492 </i>
    <i name="e_0_energy">   -502.05816071 </i>
   </energy>
  </scstep>
  <scstep>
   <time name="diag">    1.92    1.93</time>
   <time name="diis">   10.12   10.18</time>
   <time name="orth">    0.43    0.44</time>
   <time name="total">   13.39   13.47</time>
   <dipole>
    <v name="dipole">      0.00000000       0.00000000      -0.04917107 </v>
    <i name="Tr[quadrupol]">  -6893.31398472 </i>
    <i name="Echarged">      0.00000000 </i>
    <i name="Edipol_quadrupol">      0.00000000 </i>
    <i name="Eion">      0.00000000 </i>
   </dipole>
   <energy>
    <i name="e_fr_energy">   -502.04905711 </i>
    <i name="e_wo_entrp">   -502.07640214 </i>
    <i name="e_0_energy">   -502.05817212 </i>
   </energy>
  </scstep>
  <scstep>
   <time name="diag">    1.89    1.90</time>
   <time name="diis">    7.67    7.71</time>
   <time name="orth">    0.43    0.44</time>
   <time name="total">   10.39   10.46</time>
   <dipole>
    <v name="dipole">      0.00000000       0.00000000      -0.04954692 </v>
    <i name="Tr[quadrupol]">  -6893.31458600 </i>
    <i name="Echarged">      0.00000000 </i>
    <i name="Edipol_quadrupol">      0.00000000 </i>
    <i name="Eion">      0.00000000 </i>
   </dipole>
   <energy>
    <i name="alphaZ">   1736.53998313 </i>
    <i name="ewald"> 206037.71930072 </i>
    <i name="hartreedc">-255413.47013652 </i>
    <i name="XCdc">    963.87480164 </i>
    <i name="pawpsdc">  53750.82485464 </i>
    <i name="pawaedc"> -54888.32703878 </i>
    <i name="eentropy">      0.02730399 </i>
    <i name="bandstr">  -4286.89784279 </i>
    <i name="atom">  51597.65971741 </i>
    <i name="e_fr_energy">   -502.04905658 </i>
    <i name="e_wo_entrp">   -502.07636057 </i>
    <i name="e_0_energy">   -502.05815791 </i>
   </energy>
  </scstep>
  <structure>
   <crystal>
    <varray name="basis" >
     <v>       8.50460000       0.00000000       0.00000000 </v>
     <v>      -0.00109914       8.50909993       0.00000000 </v>
     <v>       0.00000000       0.00000000      23.55660100 </v>
    </varray>
    <i name="volume">   1704.70856049 </i>
    <varray name="rec_basis" >
     <v>       0.11758343       0.00001519       0.00000000 </v>
     <v>       0.00000000       0.11752124       0.00000000 </v>
     <v>       0.00000000       0.00000000       0.04245095 </v>
    </varray>
   </crystal>
   <varray name="positions" >
    <v>       0.99760000       0.00330000       0.24221000 </v>
    <v>       0.66561000       0.99834000       0.00060000 </v>
    <v>       0.66465571       0.00143952       0.37027734 </v>
    <v>       0.83467000       0.16589000       0.18209000 </v>
    <v>       0.99866000       0.33404000       0.12198000 </v>
    <v>       0.33421000       0.33147000       0.00101000 </v>
    <v>       0.33471509       0.32527432       0.36481375 </v>
    <v>       0.83220000       0.50025000       0.06275000 </v>
    <v>       0.83121405       0.50171462       0.30384901 </v>
    <v>       0.33512000       0.67037000       0.00000000 </v>
    <v>       0.33625694       0.67094300       0.37013819 </v>
    <v>       0.33145000       0.66488000       0.12292000 </v>
    <v>       0.50159657       0.83177322       0.30471843 </v>
    <v>       0.67111000       0.66550000       0.12148000 </v>
    <v>       0.99950000       0.00032000       0.00103000 </v>
    <v>       0.00008816       0.99861956       0.36083326 </v>
    <v>       0.16670000       0.16592000       0.06160000 </v>
    <v>       0.99930000       0.00013000       0.12183000 </v>
    <v>       0.16670000       0.16692000       0.18170000 </v>
    <v>       0.16487641       0.16253394       0.30381016 </v>
    <v>       0.33368000       0.99986000       0.00108000 </v>
    <v>       0.33969198       0.99767301       0.35982018 </v>
    <v>       0.50008000       0.16606000       0.06164000 </v>
    <v>       0.33365000       0.99945000       0.12194000 </v>
    <v>       0.50013000       0.16657000       0.18176000 </v>
    <v>       0.33374000       0.99994000       0.24252000 </v>
    <v>       0.50320395       0.17033032       0.30274000 </v>
    <v>       0.83412000       0.16807000       0.06130000 </v>
    <v>       0.66767000       0.99972000       0.12168000 </v>
    <v>       0.66792000       0.00032000       0.24233000 </v>
    <v>       0.83476190       0.16941857       0.30237583 </v>
    <v>       0.00033000       0.33346000       0.00076000 </v>
    <v>       0.00446634       0.33158195       0.36289467 </v>
    <v>       0.16704000       0.50116000       0.06077000 </v>
    <v>       0.16627000       0.49940000       0.18238000 </v>
    <v>       0.00000000       0.33319000       0.24260000 </v>
    <v>       0.16218320       0.49832626       0.30281355 </v>
    <v>       0.49811000       0.50186000       0.06112000 </v>
    <v>       0.33328000       0.33434000       0.12148000 </v>
    <v>       0.50051000       0.50053000       0.18145000 </v>
    <v>       0.33392000       0.33269000       0.24229000 </v>
    <v>       0.50581065       0.50063300       0.30133092 </v>
    <v>       0.66687000       0.33418000       0.00129000 </v>
    <v>       0.66418449       0.33438288       0.36081611 </v>
    <v>       0.66670000       0.33332000       0.12177000 </v>
    <v>       0.83466000       0.49916000       0.18181000 </v>
    <v>       0.66748000       0.33291000       0.24234000 </v>
    <v>       0.99949000       0.66581000       0.00112000 </v>
    <v>       0.00039427       0.66677939       0.36049450 </v>
    <v>       0.16773000       0.83295000       0.06141000 </v>
    <v>       0.00149000       0.66672000       0.12196000 </v>
    <v>       0.16592000       0.83389000       0.18235000 </v>
    <v>       0.99950000       0.66635000       0.24245000 </v>
    <v>       0.16104000       0.83529327       0.30190555 </v>
    <v>       0.49825000       0.83185000       0.06189000 </v>
    <v>       0.50064000       0.83335000       0.18189000 </v>
    <v>       0.33424000       0.66627000       0.24239000 </v>
    <v>       0.66521000       0.66629000       0.00100000 </v>
    <v>       0.83382000       0.83268000       0.06128000 </v>
    <v>       0.83390000       0.83311000       0.18191000 </v>
    <v>       0.66721000       0.66675000       0.24221000 </v>
    <v>       0.83356726       0.82836165       0.30245755 </v>
   </varray>
  </structure>
  <varray name="forces" >
   <v>      -0.03855619      -0.11357408      -0.02722418 </v>
   <v>       0.05640055       0.03962119      -0.18583681 </v>
   <v>      -0.10761448      -0.26492076      -0.12155435 </v>
   <v>       0.00342069       0.18244500      -0.25553326 </v>
   <v>      -0.07034739      -0.05277323       0.26464231 </v>
   <v>      -0.04724356      -0.33536657      -0.09790510 </v>
   <v>      -0.04069846       0.29313060      -0.03935564 </v>
   <v>      -0.02825687       0.01974942      -0.16501023 </v>
   <v>      -0.00840495      -0.08328769      -0.02113204 </v>
   <v>      -0.09550106       0.22207510      -0.23302305 </v>
   <v>       0.19308498      -0.08753259      -0.09209765 </v>
   <v>      -0.03510590       0.03493820       0.09441105 </v>
   <v>       0.01301600       0.03028451       0.07576455 </v>
   <v>       0.09969976      -0.00066036       0.06032296 </v>
   <v>      -0.01359054      -0.00839459       0.42981482 </v>
   <v>      -0.02726774       0.08753618      -0.05766497 </v>
   <v>      -0.27151598      -0.13718916      -0.39759184 </v>
   <v>      -0.01392124       0.02229874       0.11751829 </v>
   <v>       0.02380249       0.02609316      -0.04508790 </v>
   <v>      -0.00169737       0.17012696       0.00580190 </v>
   <v>       0.04776238      -0.02127739       0.53504044 </v>
   <v>      -0.33106195       0.31744141       0.04843632 </v>
   <v>       0.06481921       0.07252753      -0.19796206 </v>
   <v>       0.05630226       0.04322957      -0.01813808 </v>
   <v>      -0.02709266       0.01924960      -0.05691305 </v>
   <v>       0.10696154       0.03383795      -0.03499570 </v>
   <v>      -0.02772006      -0.14412486       0.02973957 </v>
   <v>       0.16490339       0.08435729      -0.37231384 </v>
   <v>      -0.03486902      -0.03021112       0.22502301 </v>
   <v>       0.05128631      -0.11815362       0.11294095 </v>
   <v>      -0.12428745      -0.14185794       0.30840546 </v>
   <v>       0.14785520      -0.01764441       0.37030336 </v>
   <v>       0.10618013      -0.09462497       0.03419799 </v>
   <v>      -0.26614125       0.03887671      -0.46705282 </v>
   <v>      -0.05216100      -0.06726594      -0.09519654 </v>
   <v>      -0.03363777       0.04247545       0.05857347 </v>
   <v>       0.25451972       0.09729419       0.20734006 </v>
   <v>       0.32421663      -0.01250715      -0.32867241 </v>
   <v>      -0.00324116      -0.03827606       0.24564874 </v>
   <v>       0.02701548      -0.01869384      -0.11376932 </v>
   <v>       0.04093356       0.03567812       0.02828560 </v>
   <v>      -0.08393859      -0.02080731       0.01432962 </v>
   <v>      -0.11715729       0.00682697       0.41262040 </v>
   <v>       0.02732432      -0.01470667      -0.05236797 </v>
   <v>       0.05247695      -0.07064294       0.08864120 </v>
   <v>      -0.03648824       0.07453381      -0.08551090 </v>
   <v>      -0.05614170       0.11005766      -0.17964919 </v>
   <v>       0.09971780       0.02712869       0.39264565 </v>
   <v>      -0.00863102      -0.10622176      -0.12088674 </v>
   <v>      -0.25935143       0.17597600      -0.32849217 </v>
   <v>      -0.03819920       0.00698784       0.13464199 </v>
   <v>       0.04980783       0.00553815      -0.01945671 </v>
   <v>      -0.11445493       0.07703123      -0.30928624 </v>
   <v>       0.24021733      -0.14663958       0.21204697 </v>
   <v>      -0.00404361      -0.08787178      -0.07857541 </v>
   <v>      -0.02039352       0.01938061      -0.21651239 </v>
   <v>      -0.01175819      -0.15853922       0.23591064 </v>
   <v>      -0.05635652      -0.00117978       0.42518115 </v>
   <v>       0.24228963      -0.09014654      -0.28149620 </v>
   <v>      -0.01311244      -0.02909258      -0.04116610 </v>
   <v>       0.11453789      -0.05615925      -0.12662813 </v>
   <v>      -0.08859128       0.15361588       0.09583057 </v>
  </varray>
  <varray name="stress" >
   <v>     -18.95403972       0.07154946      -0.19519780 </v>
   <v>       0.07154926     -19.91857689       0.30889688 </v>
   <v>      -0.19519776       0.30889659      -4.14391592 </v>
  </varray>
  <energy>
   <i name="e_fr_energy">   -502.04905658 </i>
   <i name="e_wo_entrp">   -502.07636057 </i>
   <i name="e_0_energy">   -502.05815791 </i>
  </energy>
  <time name="totalsc">  133.11  133.89</time>
 </calculation>
 <calculation>
  <scstep>
   <time name="dav">   16.31   16.41</time>
   <time name="total">   17.20   17.31</time>
   <dipole>
    <v name="dipole">      0.00000000       0.00000000      -0.04938968 </v>
    <i name="Tr[quadrupol]">  -6898.24875505 </i>
    <i name="Echarged">      0.00000000 </i>
    <i name="Edipol_quadrupol">      0.00000000 </i>
    <i name="Eion">      0.00000000 </i>
   </dipole>
   <energy>
    <i name="alphaZ">   1736.54503292 </i>
    <i name="ewald"> 205987.96218896 </i>
    <i name="hartreedc">-255363.96708789 </i>
    <i name="XCdc">    963.92018882 </i>
    <i name="pawpsdc">  53749.88539262 </i>
    <i name="pawaedc"> -54887.38370525 </i>
    <i name="eentropy">      0.02806607 </i>
    <i name="bandstr">  -4286.28725874 </i>
    <i name="atom">  51597.65971741 </i>
    <i name="e_fr_energy">   -501.63746508 </i>
    <i name="e_wo_entrp">   -501.66553115 </i>
    <i name="e_0_energy">   -501.64682044 </i>
   </energy>
  </scstep>
  <scstep>
   <time name="diag">    1.89    1.90</time>
   <time name="diis">    8.35    8.40</time>
   <time name="orth">    0.43    0.44</time>
   <time name="total">   11.58   11.65</time>
   <dipole>
    <v name="dipole">      0.00000000       0.00000000      -0.04350530 </v>
    <i name="Tr[quadrupol]">  -6898.21777836 </i>
    <i name="Echarged">      0.00000000 </i>
    <i name="Edipol_quadrupol">      0.00000000 </i>
    <i name="Eion">      0.00000000 </i>
   </dipole>
   <energy>
    <i name="e_fr_energy">   -501.97763225 </i>
    <i name="e_wo_entrp">   -502.00568638 </i>
    <i name="e_0_energy">   -501.98698362 </i>
   </energy>
  </scstep>
  <scstep>
   <time name="diag">    1.89    1.90</time>
   <time name="diis">   10.48   10.55</time>
   <time name="orth">    0.43    0.44</time>
   <time name="total">   13.71   13.79</time>
   <dipole>
    <v name="dipole">      0.00000000       0.00000000      -0.09173662 </v>
    <i name="Tr[quadrupol]">  -6898.16928389 </i>
    <i name="Echarged">      0.00000000 </i>
    <i name="Edipol_quadrupol">      0.00000000 </i>
    <i name="Eion">      0.00000000 </i>
   </dipole>
   <energy>
    <i name="e_fr_energy">   -502.11334372 </i>
    <i name="e_wo_entrp">   -502.13698416 </i>
    <i name="e_0_energy">   -502.12122387 </i>
   </energy>
  </scstep>
  <scstep>
   <time name="diag">    1.88    1.89</time>
   <time name="diis">    9.56    9.61</time>
   <time name="orth">    0.44    0.44</time>
   <time name="total">   12.77   12.86</time>
   <dipole>
    <v name="dipole">      0.00000000       0.00000000      -0.01598388 </v>
    <i name="Tr[quadrupol]">  -6898.25948576 </i>
    <i name="Echarged">      0.00000000 </i>
    <i name="Edipol_quadrupol">      0.00000000 </i>
    <i name="Eion">      0.00000000 </i>
   </dipole>
   <energy>
    <i name="e_fr_energy">   -502.09719067 </i>
    <i name="e_wo_entrp">   -502.12665932 </i>
    <i name="e_0_energy">   -502.10701356 </i>
   </energy>
  </scstep>
  <scstep>
   <time name="diag">    1.88    1.89</time>
   <time name="diis">   10.77   10.84</time>
   <time name="orth">    0.43    0.43</time>
   <time name="total">   13.99   14.08</time>
   <dipole>
    <v name="dipole">      0.00000000       0.00000000      -0.04419390 </v>
    <i name="Tr[quadrupol]">  -6898.20306534 </i>
    <i name="Echarged">      0.00000000 </i>
    <i name="Edipol_quadrupol">      0.00000000 </i>
    <i name="Eion">      0.00000000 </i>
   </dipole>
   <energy>
    <i name="e_fr_energy">   -502.09207525 </i>
    <i name="e_wo_entrp">   -502.12004237 </i>
    <i name="e_0_energy">   -502.10139763 </i>
   </energy>
  </scstep>
  <scstep>
   <time name="diag">    1.88    1.89</time>
   <time name="diis">    9.80    9.86</time>
   <time name="orth">    0.43    0.43</time>
   <time name="total">   13.01   13.08</time>
   <dipole>
    <v name="dipole">      0.00000000       0.00000000      -0.04920265 </v>
    <i name="Tr[quadrupol]">  -6898.30066704 </i>
    <i name="Echarged">      0.00000000 </i>
    <i name="Edipol_quadrupol">      0.00000000 </i>
    <i name="Eion">      0.00000000 </i>
   </dipole>
   <energy>
    <i name="e_fr_energy">   -502.10468787 </i>
    <i name="e_wo_entrp">   -502.13268947 </i>
    <i name="e_0_energy">   -502.11402174 </i>
   </energy>
  </scstep>
  <scstep>
   <time name="diag">    1.90    1.91</time>
   <time name="diis">    9.41    9.46</time>
   <time name="orth">    0.44    0.44</time>
   <time name="total">   12.65   12.72</time>
   <dipole>
    <v name="dipole">      0.00000000       0.00000000      -0.04756427 </v>
    <i name="Tr[quadrupol]">  -6898.19614927 </i>
    <i name="Echarged">      0.00000000 </i>
    <i name="Edipol_quadrupol">      0.00000000 </i>
    <i name="Eion">      0.00000000 </i>
   </dipole>
   <energy>
    <i name="e_fr_energy">   -502.10435707 </i>
    <i name="e_wo_entrp">   -502.13232391 </i>
    <i name="e_0_energy">   -502.11367935 </i>
   </energy>
  </scstep>
  <scstep>
   <time name="diag">    1.89    1.90</time>
   <time name="diis">   11.09   11.15</time>
   <time name="orth">    0.43    0.43</time>
   <time name="total">   14.31   14.39</time>
   <dipole>
    <v name="dipole">      0.00000000       0.00000000      -0.04761663 </v>
    <i name="Tr[quadrupol]">  -6898.22364175 </i>
    <i name="Echarged">      0.00000000 </i>
    <i name="Edipol_quadrupol">      0.00000000 </i>
    <i name="Eion">      0.00000000 </i>
   </dipole>
   <energy>
    <i name="e_fr_energy">   -502.10423141 </i>
    <i name="e_wo_entrp">   -502.13215066 </i>
    <i name="e_0_energy">   -502.11353782 </i>
   </energy>
  </scstep>
  <scstep>
   <time name="diag">    1.89    1.90</time>
   <time name="diis">   10.87   10.93</time>
   <time name="orth">    0.43    0.43</time>
   <time name="total">   14.09   14.19</time>
   <dipole>
    <v name="dipole">      0.00000000       0.00000000      -0.04776442 </v>
    <i name="Tr[quadrupol]">  -6898.23342588 </i>
    <i name="Echarged">      0.00000000 </i>
    <i name="Edipol_quadrupol">      0.00000000 </i>
    <i name="Eion">      0.00000000 </i>
   </dipole>
   <energy>
    <i name="e_fr_energy">   -502.10385459 </i>
    <i name="e_wo_entrp">   -502.13185435 </i>
    <i name="e_0_energy">   -502.11318784 </i>
   </energy>
  </scstep>
  <scstep>
   <time name="diag">    1.90    1.91</time>
   <time name="diis">    9.87    9.93</time>
   <time name="orth">    0.43    0.44</time>
   <time name="total">   13.11   13.19</time>
   <dipole>
    <v name="dipole">      0.00000000       0.00000000      -0.04846783 </v>
    <i name="Tr[quadrupol]">  -6898.24109613 </i>
    <i name="Echarged">      0.00000000 </i>
    <i name="Edipol_quadrupol">      0.00000000 </i>
    <i name="Eion">      0.00000000 </i>
   </dipole>
   <energy>
    <i name="e_fr_energy">   -502.10344404 </i>
    <i name="e_wo_entrp">   -502.13140123 </i>
    <i name="e_0_energy">   -502.11276310 </i>
   </energy>
  </scstep>
  <scstep>
   <time name="diag">    1.90    1.91</time>
   <time name="diis">   10.15   10.21</time>
   <time name="orth">    0.44    0.44</time>
   <time name="total">   13.38   13.45</time>
   <dipole>
    <v name="dipole">      0.00000000       0.00000000      -0.04873146 </v>
    <i name="Tr[quadrupol]">  -6898.24236845 </i>
    <i name="Echarged">      0.00000000 </i>
    <i name="Edipol_quadrupol">      0.00000000 </i>
    <i name="Eion">      0.00000000 </i>
   </dipole>
   <energy>
    <i name="e_fr_energy">   -502.10337689 </i>
    <i name="e_wo_entrp">   -502.13132806 </i>
    <i name="e_0_energy">   -502.11269395 </i>
   </energy>
  </scstep>
  <scstep>
   <time name="diag">    1.90    1.91</time>
   <time name="diis">    9.88    9.94</time>
   <time name="orth">    0.43    0.43</time>
   <time name="total">   13.12   13.20</time>
   <dipole>
    <v name="dipole">      0.00000000       0.00000000      -0.04907321 </v>
    <i name="Tr[quadrupol]">  -6898.24293776 </i>
    <i name="Echarged">      0.00000000 </i>
    <i name="Edipol_quadrupol">      0.00000000 </i>
    <i name="Eion">      0.00000000 </i>
   </dipole>
   <energy>
    <i name="e_fr_energy">   -502.10336789 </i>
    <i name="e_wo_entrp">   -502.13132083 </i>
    <i name="e_0_energy">   -502.11268553 </i>
   </energy>
  </scstep>
  <scstep>
   <time name="diag">    1.90    1.91</time>
   <time name="diis">    9.29    9.34</time>
   <time name="orth">    0.43    0.44</time>
   <time name="total">   12.53   12.60</time>
   <dipole>
    <v name="dipole">      0.00000000       0.00000000      -0.04880401 </v>
    <i name="Tr[quadrupol]">  -6898.25733731 </i>
    <i name="Echarged">      0.00000000 </i>
    <i name="Edipol_quadrupol">      0.00000000 </i>
    <i name="Eion">      0.00000000 </i>
   </dipole>
   <energy>
    <i name="e_fr_energy">   -502.10341516 </i>
    <i name="e_wo_entrp">   -502.13137328 </i>
    <i name="e_0_energy">   -502.11273453 </i>
   </energy>
  </scstep>
  <scstep>
   <time name="diag">    1.89    1.91</time>
   <time name="diis">    8.00    8.04</time>
   <time name="orth">    0.43    0.44</time>
   <time name="total">   11.23   11.30</time>
   <dipole>
    <v name="dipole">      0.00000000       0.00000000      -0.04933147 </v>
    <i name="Tr[quadrupol]">  -6898.26491747 </i>
    <i name="Echarged">      0.00000000 </i>
    <i name="Edipol_quadrupol">      0.00000000 </i>
    <i name="Eion">      0.00000000 </i>
   </dipole>
   <energy>
    <i name="e_fr_energy">   -502.10344070 </i>
    <i name="e_wo_entrp">   -502.13136887 </i>
    <i name="e_0_energy">   -502.11275009 </i>
   </energy>
  </scstep>
  <scstep>
   <time name="diag">    1.91    1.93</time>
   <time name="diis">    5.72    5.75</time>
   <time name="orth">    0.43    0.44</time>
   <time name="total">    8.47    8.52</time>
   <dipole>
    <v name="dipole">      0.00000000       0.00000000      -0.04923135 </v>
    <i name="Tr[quadrupol]">  -6898.27253802 </i>
    <i name="Echarged">      0.00000000 </i>
    <i name="Edipol_quadrupol">      0.00000000 </i>
    <i name="Eion">      0.00000000 </i>
   </dipole>
   <energy>
    <i name="alphaZ">   1736.95317369 </i>
    <i name="ewald"> 205987.96218896 </i>
    <i name="hartreedc">-255363.77942926 </i>
    <i name="XCdc">    963.86299674 </i>
    <i name="pawpsdc">  53749.55927995 </i>
    <i name="pawaedc"> -54887.01869729 </i>
    <i name="eentropy">      0.02793401 </i>
    <i name="bandstr">  -4287.33060774 </i>
    <i name="atom">  51597.65971741 </i>
    <i name="e_fr_energy">   -502.10344353 </i>
    <i name="e_wo_entrp">   -502.13137754 </i>
    <i name="e_0_energy">   -502.11275487 </i>
   </energy>
  </scstep>
  <structure>
   <crystal>
    <varray name="basis" >
     <v>       8.50460000       0.00000000       0.00000000 </v>
     <v>      -0.00109914       8.50909993       0.00000000 </v>
     <v>       0.00000000       0.00000000      23.55660100 </v>
    </varray>
    <i name="volume">   1704.70856049 </i>
    <varray name="rec_basis" >
     <v>       0.11758343       0.00001519       0.00000000 </v>
     <v>       0.00000000       0.11752124       0.00000000 </v>
     <v>       0.00000000       0.00000000       0.04245095 </v>
    </varray>
   </crystal>
   <varray name="positions" >
    <v>       0.99760000       0.00330000       0.24221000 </v>
    <v>       0.66561000       0.99834000       0.00060000 </v>
    <v>       0.66287501       0.99860936       0.37004874 </v>
    <v>       0.83467000       0.16589000       0.18209000 </v>
    <v>       0.99866000       0.33404000       0.12198000 </v>
    <v>       0.33421000       0.33147000       0.00101000 </v>
    <v>       0.33438206       0.32790406       0.36477487 </v>
    <v>       0.83220000       0.50025000       0.06275000 </v>
    <v>       0.83114689       0.50112365       0.30373163 </v>
    <v>       0.33512000       0.67037000       0.00000000 </v>
    <v>       0.33883577       0.67041604       0.37010046 </v>
    <v>       0.33145000       0.66488000       0.12292000 </v>
    <v>       0.50163868       0.83183151       0.30552896 </v>
    <v>       0.67111000       0.66550000       0.12148000 </v>
    <v>       0.99950000       0.00032000       0.00103000 </v>
    <v>       0.00018350       0.99945512       0.36063605 </v>
    <v>       0.16670000       0.16592000       0.06160000 </v>
    <v>       0.99930000       0.00013000       0.12183000 </v>
    <v>       0.16670000       0.16692000       0.18170000 </v>
    <v>       0.16481505       0.16385702       0.30379506 </v>
    <v>       0.33368000       0.99986000       0.00108000 </v>
    <v>       0.33682700       0.00072531       0.35999960 </v>
    <v>       0.50008000       0.16606000       0.06164000 </v>
    <v>       0.33365000       0.99945000       0.12194000 </v>
    <v>       0.50013000       0.16657000       0.18176000 </v>
    <v>       0.33374000       0.99994000       0.24252000 </v>
    <v>       0.50287698       0.16982251       0.30280111 </v>
    <v>       0.83412000       0.16807000       0.06130000 </v>
    <v>       0.66767000       0.99972000       0.12168000 </v>
    <v>       0.66792000       0.00032000       0.24233000 </v>
    <v>       0.83382926       0.16840814       0.30307294 </v>
    <v>       0.00033000       0.33346000       0.00076000 </v>
    <v>       0.00554727       0.33080160       0.36318047 </v>
    <v>       0.16704000       0.50116000       0.06077000 </v>
    <v>       0.16627000       0.49940000       0.18238000 </v>
    <v>       0.00000000       0.33319000       0.24260000 </v>
    <v>       0.16362216       0.49895522       0.30316696 </v>
    <v>       0.49811000       0.50186000       0.06112000 </v>
    <v>       0.33328000       0.33434000       0.12148000 </v>
    <v>       0.50051000       0.50053000       0.18145000 </v>
    <v>       0.33392000       0.33269000       0.24229000 </v>
    <v>       0.50591734       0.50032110       0.30095715 </v>
    <v>       0.66687000       0.33418000       0.00129000 </v>
    <v>       0.66419227       0.33415035       0.36064611 </v>
    <v>       0.66670000       0.33332000       0.12177000 </v>
    <v>       0.83466000       0.49916000       0.18181000 </v>
    <v>       0.66748000       0.33291000       0.24234000 </v>
    <v>       0.99949000       0.66581000       0.00112000 </v>
    <v>       0.00021939       0.66564201       0.36004650 </v>
    <v>       0.16773000       0.83295000       0.06141000 </v>
    <v>       0.00149000       0.66672000       0.12196000 </v>
    <v>       0.16592000       0.83389000       0.18235000 </v>
    <v>       0.99950000       0.66635000       0.24245000 </v>
    <v>       0.16236275       0.83444717       0.30231871 </v>
    <v>       0.49825000       0.83185000       0.06189000 </v>
    <v>       0.50064000       0.83335000       0.18189000 </v>
    <v>       0.33424000       0.66627000       0.24239000 </v>
    <v>       0.66521000       0.66629000       0.00100000 </v>
    <v>       0.83382000       0.83268000       0.06128000 </v>
    <v>       0.83390000       0.83311000       0.18191000 </v>
    <v>       0.66721000       0.66675000       0.24221000 </v>
    <v>       0.83321688       0.82917037       0.30252053 </v>
   </varray>
  </structure>
  <varray name="forces" >
   <v>      -0.02578585      -0.11952702       0.00658137 </v>
   <v>       0.05552242       0.04013717      -0.18556448 </v>
   <v>      -0.09664285      -0.21056205      -0.07869933 </v>
   <v>       0.01421998       0.16825404      -0.22635661 </v>
   <v>      -0.07049283      -0.04945430       0.26139639 </v>
   <v>      -0.04727700      -0.33519339      -0.09812890 </v>
   <v>      -0.01056849       0.21076110      -0.04467853 </v>
   <v>      -0.02453576       0.01953781      -0.16663926 </v>
   <v>       0.01409027      -0.06828198      -0.01526766 </v>
   <v>      -0.09504018       0.22142803      -0.23221669 </v>
   <v>       0.15938031      -0.03235637      -0.06397037 </v>
   <v>      -0.03563204       0.03311582       0.09164215 </v>
   <v>      -0.00374116       0.03576312      -0.05510515 </v>
   <v>       0.09544307      -0.00202164       0.06532362 </v>
   <v>      -0.01397740      -0.00876156       0.42962479 </v>
   <v>      -0.03593753       0.05625734      -0.01956883 </v>
   <v>      -0.27046704      -0.13850484      -0.39739913 </v>
   <v>      -0.01357273       0.02207444       0.11246466 </v>
   <v>       0.01875734       0.02391235      -0.03835406 </v>
   <v>      -0.02284852       0.10840844      -0.03641670 </v>
   <v>       0.04934086      -0.02157851       0.53507217 </v>
   <v>      -0.25489782       0.21754154       0.08544608 </v>
   <v>       0.06515896       0.07323476      -0.19626466 </v>
   <v>       0.05412413       0.04419019      -0.02017901 </v>
   <v>      -0.02706168       0.01804667      -0.05486666 </v>
   <v>       0.10010264       0.01887669      -0.00933369 </v>
   <v>      -0.03842880      -0.09955452       0.03479697 </v>
   <v>       0.16621593       0.08362921      -0.37007200 </v>
   <v>      -0.03802497      -0.02877220       0.22072789 </v>
   <v>       0.03311750      -0.12023118       0.11978635 </v>
   <v>      -0.06491817      -0.06393787       0.16069483 </v>
   <v>       0.14681270      -0.01731304       0.37001785 </v>
   <v>       0.07627156      -0.06228840       0.02306418 </v>
   <v>      -0.26532316       0.03881203      -0.46487001 </v>
   <v>      -0.05647528      -0.06638233      -0.08550875 </v>
   <v>      -0.04974116       0.04517188       0.10987045 </v>
   <v>       0.16605578       0.05583282       0.11784317 </v>
   <v>       0.32373434      -0.01220741      -0.33091097 </v>
   <v>      -0.00134739      -0.03694162       0.24587771 </v>
   <v>       0.03346712      -0.02045862      -0.12608321 </v>
   <v>       0.05338224       0.04369518       0.01374099 </v>
   <v>      -0.07732827      -0.01326013       0.06067756 </v>
   <v>      -0.11809714       0.00844148       0.41209976 </v>
   <v>       0.01533475      -0.02017640      -0.01259619 </v>
   <v>       0.04554703      -0.06779643       0.08788424 </v>
   <v>      -0.03210672       0.06929701      -0.08558316 </v>
   <v>      -0.04943481       0.06343900      -0.17217582 </v>
   <v>       0.09750207       0.02735949       0.39299692 </v>
   <v>       0.00875662      -0.07610349      -0.05880184 </v>
   <v>      -0.25917251       0.17712228      -0.32630372 </v>
   <v>      -0.03742297       0.00917671       0.13425538 </v>
   <v>       0.04510728       0.01011555      -0.00101933 </v>
   <v>      -0.09318591       0.09171568      -0.27226191 </v>
   <v>       0.15449982      -0.07844403       0.13342961 </v>
   <v>      -0.00382624      -0.08626076      -0.07906655 </v>
   <v>      -0.01907872       0.02059558      -0.20104639 </v>
   <v>       0.00816172      -0.14192855       0.23795746 </v>
   <v>      -0.05748731       0.00053348       0.42424192 </v>
   <v>       0.24372835      -0.09066783      -0.28456766 </v>
   <v>      -0.00799644      -0.02971681      -0.03245215 </v>
   <v>       0.10756009      -0.02635003      -0.11299548 </v>
   <v>      -0.03352002       0.08855641       0.06781036 </v>
  </varray>
  <varray name="stress" >
   <v>     -19.13643709       0.02067058      -0.19607537 </v>
   <v>       0.02067071     -20.09459805       0.27374830 </v>
   <v>      -0.19607522       0.27374878      -4.19504526 </v>
  </varray>
  <energy>
   <i name="e_fr_energy">   -502.10344353 </i>
   <i name="e_wo_entrp">   -502.13137754 </i>
   <i name="e_0_energy">   -502.11275487 </i>
  </energy>
  <time name="totalsc">  211.13  212.40</time>
 </calculation>
 <calculation>
  <scstep>
   <time name="dav">   16.13   16.22</time>
   <time name="total">   17.06   17.16</time>
   <dipole>
    <v name="dipole">      0.00000000       0.00000000      -0.04903855 </v>
    <i name="Tr[quadrupol]">  -6908.01294588 </i>
    <i name="Echarged">      0.00000000 </i>
    <i name="Edipol_quadrupol">      0.00000000 </i>
    <i name="Eion">      0.00000000 </i>
   </dipole>
   <energy>
    <i name="alphaZ">   1736.95900174 </i>
    <i name="ewald"> 205885.55620069 </i>
    <i name="hartreedc">-255261.69104376 </i>
    <i name="XCdc">    964.06754045 </i>
    <i name="pawpsdc">  53749.19719061 </i>
    <i name="pawaedc"> -54886.65834190 </i>
    <i name="eentropy">      0.02852158 </i>
    <i name="bandstr">  -4285.14688386 </i>
    <i name="atom">  51597.65971741 </i>
    <i name="e_fr_energy">   -500.02809705 </i>
    <i name="e_wo_entrp">   -500.05661863 </i>
    <i name="e_0_energy">   -500.03760425 </i>
   </energy>
  </scstep>
  <scstep>
   <time name="diag">    1.88    1.89</time>
   <time name="diis">    8.58    8.63</time>
   <time name="orth">    0.44    0.44</time>
   <time name="total">   11.81   11.88</time>
   <dipole>
    <v name="dipole">      0.00000000       0.00000000      -0.04828668 </v>
    <i name="Tr[quadrupol]">  -6907.95752056 </i>
    <i name="Echarged">      0.00000000 </i>
    <i name="Edipol_quadrupol">      0.00000000 </i>
    <i name="Eion">      0.00000000 </i>
   </dipole>
   <energy>
    <i name="e_fr_energy">   -501.57916171 </i>
    <i name="e_wo_entrp">   -501.60680549 </i>
    <i name="e_0_energy">   -501.58837630 </i>
   </energy>
  </scstep>
  <scstep>
   <time name="diag">    1.88    1.89</time>
   <time name="diis">   10.95   11.01</time>
   <time name="orth">    0.43    0.44</time>
   <time name="total">   14.17   14.26</time>
   <dipole>
    <v name="dipole">      0.00000000       0.00000000      -0.01335612 </v>
    <i name="Tr[quadrupol]">  -6907.98205545 </i>
    <i name="Echarged">      0.00000000 </i>
    <i name="Edipol_quadrupol">      0.00000000 </i>
    <i name="Eion">      0.00000000 </i>
   </dipole>
   <energy>
    <i name="e_fr_energy">   -501.96460445 </i>
    <i name="e_wo_entrp">   -501.99340675 </i>
    <i name="e_0_energy">   -501.97420521 </i>
   </energy>
  </scstep>
  <scstep>
   <time name="diag">    1.88    1.89</time>
   <time name="diis">   10.48   10.54</time>
   <time name="orth">    0.44    0.44</time>
   <time name="total">   13.70   13.78</time>
   <dipole>
    <v name="dipole">      0.00000000       0.00000000      -0.20938230 </v>
    <i name="Tr[quadrupol]">  -6907.73134629 </i>
    <i name="Echarged">      0.00000000 </i>
    <i name="Edipol_quadrupol">      0.00000000 </i>
    <i name="Eion">      0.00000000 </i>
   </dipole>
   <energy>
    <i name="e_fr_energy">   -502.73914509 </i>
    <i name="e_wo_entrp">   -502.74435142 </i>
    <i name="e_0_energy">   -502.74088053 </i>
   </energy>
  </scstep>
  <scstep>
   <time name="diag">    1.88    1.89</time>
   <time name="diis">    8.68    8.73</time>
   <time name="orth">    0.43    0.44</time>
   <time name="total">   11.90   11.97</time>
   <dipole>
    <v name="dipole">      0.00000000       0.00000000      -0.02243913 </v>
    <i name="Tr[quadrupol]">  -6907.98519991 </i>
    <i name="Echarged">      0.00000000 </i>
    <i name="Edipol_quadrupol">      0.00000000 </i>
    <i name="Eion">      0.00000000 </i>
   </dipole>
   <energy>
    <i name="e_fr_energy">   -502.08344333 </i>
    <i name="e_wo_entrp">   -502.11189794 </i>
    <i name="e_0_energy">   -502.09292820 </i>
   </energy>
  </scstep>
  <scstep>
   <time name="diag">    1.87    1.89</time>
   <time name="diis">   10.65   10.71</time>
   <time name="orth">    0.43    0.44</time>
   <time name="total">   13.86   13.94</time>
   <dipole>
    <v name="dipole">      0.00000000       0.00000000      -0.03133760 </v>
    <i name="Tr[quadrupol]">  -6907.90694825 </i>
    <i name="Echarged">      0.00000000 </i>
    <i name="Edipol_quadrupol">      0.00000000 </i>
    <i name="Eion">      0.00000000 </i>
   </dipole>
   <energy>
    <i name="e_fr_energy">   -502.14003599 </i>
    <i name="e_wo_entrp">   -502.16841258 </i>
    <i name="e_0_energy">   -502.14949486 </i>
   </energy>
  </scstep>
  <scstep>
   <time name="diag">    1.89    1.91</time>
   <time name="diis">   10.99   11.05</time>
   <time name="orth">    0.43    0.44</time>
   <time name="total">   14.22   14.30</time>
   <dipole>
    <v name="dipole">      0.00000000       0.00000000      -0.04234365 </v>
    <i name="Tr[quadrupol]">  -6908.05869052 </i>
    <i name="Echarged">      0.00000000 </i>
    <i name="Edipol_quadrupol">      0.00000000 </i>
    <i name="Eion">      0.00000000 </i>
   </dipole>
   <energy>
    <i name="e_fr_energy">   -502.14608393 </i>
    <i name="e_wo_entrp">   -502.17434775 </i>
    <i name="e_0_energy">   -502.15550521 </i>
   </energy>
  </scstep>
  <scstep>
   <time name="diag">    1.91    1.92</time>
   <time name="diis">   10.84   10.90</time>
   <time name="orth">    0.43    0.43</time>
   <time name="total">   14.08   14.16</time>
   <dipole>
    <v name="dipole">      0.00000000       0.00000000      -0.04817776 </v>
    <i name="Tr[quadrupol]">  -6907.94815014 </i>
    <i name="Echarged">      0.00000000 </i>
    <i name="Edipol_quadrupol">      0.00000000 </i>
    <i name="Eion">      0.00000000 </i>
   </dipole>
   <energy>
    <i name="e_fr_energy">   -502.14648987 </i>
    <i name="e_wo_entrp">   -502.17414984 </i>
    <i name="e_0_energy">   -502.15570986 </i>
   </energy>
  </scstep>
  <scstep>
   <time name="diag">    1.88    1.90</time>
   <time name="diis">   11.34   11.41</time>
   <time name="orth">    0.43    0.43</time>
   <time name="total">   14.56   14.64</time>
   <dipole>
    <v name="dipole">      0.00000000       0.00000000      -0.05007277 </v>
    <i name="Tr[quadrupol]">  -6907.97914943 </i>
    <i name="Echarged">      0.00000000 </i>
    <i name="Edipol_quadrupol">      0.00000000 </i>
    <i name="Eion">      0.00000000 </i>
   </dipole>
   <energy>
    <i name="e_fr_energy">   -502.14587582 </i>
    <i name="e_wo_entrp">   -502.17375873 </i>
    <i name="e_0_energy">   -502.15517013 </i>
   </energy>
  </scstep>
  <scstep>
   <time name="diag">    1.89    1.90</time>
   <time name="diis">   11.31   11.37</time>
   <time name="orth">    0.43    0.44</time>
   <time name="total">   14.54   14.62</time>
   <dipole>
    <v name="dipole">      0.00000000       0.00000000      -0.04608959 </v>
    <i name="Tr[quadrupol]">  -6907.98268089 </i>
    <i name="Echarged">      0.00000000 </i>
    <i name="Edipol_quadrupol">      0.00000000 </i>
    <i name="Eion">      0.00000000 </i>
   </dipole>
   <energy>
    <i name="e_fr_energy">   -502.14455980 </i>
    <i name="e_wo_entrp">   -502.17257742 </i>
    <i name="e_0_energy">   -502.15389901 </i>
   </energy>
  </scstep>
  <scstep>
   <time name="diag">    1.90    1.91</time>
   <time name="diis">   11.52   11.58</time>
   <time name="orth">    0.44    0.44</time>
   <time name="total">   14.75   14.83</time>
   <dipole>
    <v name="dipole">      0.00000000       0.00000000      -0.04660604 </v>
    <i name="Tr[quadrupol]">  -6907.98671557 </i>
    <i name="Echarged">      0.00000000 </i>
    <i name="Edipol_quadrupol">      0.00000000 </i>
    <i name="Eion">      0.00000000 </i>
   </dipole>
   <energy>
    <i name="e_fr_energy">   -502.14414766 </i>
    <i name="e_wo_entrp">   -502.17217894 </i>
    <i name="e_0_energy">   -502.15349142 </i>
   </energy>
  </scstep>
  <scstep>
   <time name="diag">    1.90    1.91</time>
   <time name="diis">   11.36   11.43</time>
   <time name="orth">    0.43    0.43</time>
   <time name="total">   14.60   14.69</time>
   <dipole>
    <v name="dipole">      0.00000000       0.00000000      -0.04835193 </v>
    <i name="Tr[quadrupol]">  -6907.98154807 </i>
    <i name="Echarged">      0.00000000 </i>
    <i name="Edipol_quadrupol">      0.00000000 </i>
    <i name="Eion">      0.00000000 </i>
   </dipole>
   <energy>
    <i name="e_fr_energy">   -502.14396052 </i>
    <i name="e_wo_entrp">   -502.17191463 </i>
    <i name="e_0_energy">   -502.15327856 </i>
   </energy>
  </scstep>
  <scstep>
   <time name="diag">    1.91    1.92</time>
   <time name="diis">   10.26   10.32</time>
   <time name="orth">    0.43    0.44</time>
   <time name="total">   13.51   13.59</time>
   <dipole>
    <v name="dipole">      0.00000000       0.00000000      -0.04792012 </v>
    <i name="Tr[quadrupol]">  -6907.99615926 </i>
    <i name="Echarged">      0.00000000 </i>
    <i name="Edipol_quadrupol">      0.00000000 </i>
    <i name="Eion">      0.00000000 </i>
   </dipole>
   <energy>
    <i name="e_fr_energy">   -502.14356581 </i>
    <i name="e_wo_entrp">   -502.17155984 </i>
    <i name="e_0_energy">   -502.15289716 </i>
   </energy>
  </scstep>
  <scstep>
   <time name="diag">    1.90    1.91</time>
   <time name="diis">    9.75    9.81</time>
   <time name="orth">    0.44    0.44</time>
   <time name="total">   12.99   13.06</time>
   <dipole>
    <v name="dipole">      0.00000000       0.00000000      -0.04851876 </v>
    <i name="Tr[quadrupol]">  -6908.00437328 </i>
    <i name="Echarged">      0.00000000 </i>
    <i name="Edipol_quadrupol">      0.00000000 </i>
    <i name="Eion">      0.00000000 </i>
   </dipole>
   <energy>
    <i name="e_fr_energy">   -502.14375143 </i>
    <i name="e_wo_entrp">   -502.17171113 </i>
    <i name="e_0_energy">   -502.15307133 </i>
   </energy>
  </scstep>
  <scstep>
   <time name="diag">    1.90    1.92</time>
   <time name="diis">   10.41   10.47</time>
   <time name="orth">    0.43    0.43</time>
   <time name="total">   13.66   13.74</time>
   <dipole>
    <v name="dipole">      0.00000000       0.00000000      -0.04785609 </v>
    <i name="Tr[quadrupol]">  -6908.00316114 </i>
    <i name="Echarged">      0.00000000 </i>
    <i name="Edipol_quadrupol">      0.00000000 </i>
    <i name="Eion">      0.00000000 </i>
   </dipole>
   <energy>
    <i name="e_fr_energy">   -502.14375347 </i>
    <i name="e_wo_entrp">   -502.17172895 </i>
    <i name="e_0_energy">   -502.15307863 </i>
   </energy>
  </scstep>
  <scstep>
   <time name="diag">    1.90    1.91</time>
   <time name="diis">    8.10    8.14</time>
   <time name="orth">    0.43    0.44</time>
   <time name="total">   11.34   11.41</time>
   <dipole>
    <v name="dipole">      0.00000000       0.00000000      -0.04742211 </v>
    <i name="Tr[quadrupol]">  -6908.01637035 </i>
    <i name="Echarged">      0.00000000 </i>
    <i name="Edipol_quadrupol">      0.00000000 </i>
    <i name="Eion">      0.00000000 </i>
   </dipole>
   <energy>
    <i name="e_fr_energy">   -502.14377863 </i>
    <i name="e_wo_entrp">   -502.17175703 </i>
    <i name="e_0_energy">   -502.15310476 </i>
   </energy>
  </scstep>
  <scstep>
   <time name="diag">    1.90    1.91</time>
   <time name="diis">    7.53    7.57</time>
   <time name="orth">    0.43    0.44</time>
   <time name="total">   10.77   10.83</time>
   <dipole>
    <v name="dipole">      0.00000000       0.00000000      -0.04745286 </v>
    <i name="Tr[quadrupol]">  -6908.02171231 </i>
    <i name="Echarged">      0.00000000 </i>
    <i name="Edipol_quadrupol">      0.00000000 </i>
    <i name="Eion">      0.00000000 </i>
   </dipole>
   <energy>
    <i name="e_fr_energy">   -502.14379356 </i>
    <i name="e_wo_entrp">   -502.17177540 </i>
    <i name="e_0_energy">   -502.15312084 </i>
   </energy>
  </scstep>
  <scstep>
   <time name="diag">    1.90    1.91</time>
   <time name="diis">    6.43    6.47</time>
   <time name="orth">    0.44    0.44</time>
   <time name="total">    9.67    9.73</time>
   <dipole>
    <v name="dipole">      0.00000000       0.00000000      -0.04692187 </v>
    <i name="Tr[quadrupol]">  -6908.02590128 </i>
    <i name="Echarged">      0.00000000 </i>
    <i name="Edipol_quadrupol">      0.00000000 </i>
    <i name="Eion">      0.00000000 </i>
   </dipole>
   <energy>
    <i name="e_fr_energy">   -502.14378231 </i>
    <i name="e_wo_entrp">   -502.17177166 </i>
    <i name="e_0_energy">   -502.15311209 </i>
   </energy>
  </scstep>
  <scstep>
   <time name="diag">    1.89    1.90</time>
   <time name="diis">    5.28    5.31</time>
   <time name="orth">    0.44    0.44</time>
   <time name="total">    8.01    8.06</time>
   <dipole>
    <v name="dipole">      0.00000000       0.00000000      -0.04675713 </v>
    <i name="Tr[quadrupol]">  -6908.02442304 </i>
    <i name="Echarged">      0.00000000 </i>
    <i name="Edipol_quadrupol">      0.00000000 </i>
    <i name="Eion">      0.00000000 </i>
   </dipole>
   <energy>
    <i name="alphaZ">   1736.99280966 </i>
    <i name="ewald"> 205885.55620069 </i>
    <i name="hartreedc">-255260.96897535 </i>
    <i name="XCdc">    963.79680400 </i>
    <i name="pawpsdc">  53750.92409861 </i>
    <i name="pawaedc"> -54888.31469541 </i>
    <i name="eentropy">      0.02799602 </i>
    <i name="bandstr">  -4287.81773992 </i>
    <i name="atom">  51597.65971741 </i>
    <i name="e_fr_energy">   -502.14378429 </i>
    <i name="e_wo_entrp">   -502.17178031 </i>
    <i name="e_0_energy">   -502.15311630 </i>
   </energy>
  </scstep>
  <structure>
   <crystal>
    <varray name="basis" >
     <v>       8.50460000       0.00000000       0.00000000 </v>
     <v>      -0.00109914       8.50909993       0.00000000 </v>
     <v>       0.00000000       0.00000000      23.55660100 </v>
    </varray>
    <i name="volume">   1704.70856049 </i>
    <varray name="rec_basis" >
     <v>       0.11758343       0.00001519       0.00000000 </v>
     <v>       0.00000000       0.11752124       0.00000000 </v>
     <v>       0.00000000       0.00000000       0.04245095 </v>
    </varray>
   </crystal>
   <varray name="positions" >
    <v>       0.99760000       0.00330000       0.24221000 </v>
    <v>       0.66561000       0.99834000       0.00060000 </v>
    <v>       0.65912061       0.99264226       0.36956675 </v>
    <v>       0.83467000       0.16589000       0.18209000 </v>
    <v>       0.99866000       0.33404000       0.12198000 </v>
    <v>       0.33421000       0.33147000       0.00101000 </v>
    <v>       0.33367992       0.33344861       0.36469289 </v>
    <v>       0.83220000       0.50025000       0.06275000 </v>
    <v>       0.83100530       0.49987766       0.30348416 </v>
    <v>       0.33512000       0.67037000       0.00000000 </v>
    <v>       0.34427295       0.66930499       0.37002090 </v>
    <v>       0.33145000       0.66488000       0.12292000 </v>
    <v>       0.50172746       0.83195440       0.30723787 </v>
    <v>       0.67111000       0.66550000       0.12148000 </v>
    <v>       0.99950000       0.00032000       0.00103000 </v>
    <v>       0.00038453       0.00121682       0.36022026 </v>
    <v>       0.16670000       0.16592000       0.06160000 </v>
    <v>       0.99930000       0.00013000       0.12183000 </v>
    <v>       0.16670000       0.16692000       0.18170000 </v>
    <v>       0.16468570       0.16664657       0.30376323 </v>
    <v>       0.33368000       0.99986000       0.00108000 </v>
    <v>       0.33078651       0.00716076       0.36037790 </v>
    <v>       0.50008000       0.16606000       0.06164000 </v>
    <v>       0.33365000       0.99945000       0.12194000 </v>
    <v>       0.50013000       0.16657000       0.18176000 </v>
    <v>       0.33374000       0.99994000       0.24252000 </v>
    <v>       0.50218761       0.16875184       0.30292994 </v>
    <v>       0.83412000       0.16807000       0.06130000 </v>
    <v>       0.66767000       0.99972000       0.12168000 </v>
    <v>       0.66792000       0.00032000       0.24233000 </v>
    <v>       0.83186288       0.16627776       0.30454272 </v>
    <v>       0.00033000       0.33346000       0.00076000 </v>
    <v>       0.00782629       0.32915630       0.36378306 </v>
    <v>       0.16704000       0.50116000       0.06077000 </v>
    <v>       0.16627000       0.49940000       0.18238000 </v>
    <v>       0.00000000       0.33319000       0.24260000 </v>
    <v>       0.16665606       0.50028133       0.30391208 </v>
    <v>       0.49811000       0.50186000       0.06112000 </v>
    <v>       0.33328000       0.33434000       0.12148000 </v>
    <v>       0.50051000       0.50053000       0.18145000 </v>
    <v>       0.33392000       0.33269000       0.24229000 </v>
    <v>       0.50614228       0.49966350       0.30016909 </v>
    <v>       0.66687000       0.33418000       0.00129000 </v>
    <v>       0.66420866       0.33366009       0.36028769 </v>
    <v>       0.66670000       0.33332000       0.12177000 </v>
    <v>       0.83466000       0.49916000       0.18181000 </v>
    <v>       0.66748000       0.33291000       0.24234000 </v>
    <v>       0.99949000       0.66581000       0.00112000 </v>
    <v>       0.99985067       0.66324395       0.35910194 </v>
    <v>       0.16773000       0.83295000       0.06141000 </v>
    <v>       0.00149000       0.66672000       0.12196000 </v>
    <v>       0.16592000       0.83389000       0.18235000 </v>
    <v>       0.99950000       0.66635000       0.24245000 </v>
    <v>       0.16515164       0.83266324       0.30318980 </v>
    <v>       0.49825000       0.83185000       0.06189000 </v>
    <v>       0.50064000       0.83335000       0.18189000 </v>
    <v>       0.33424000       0.66627000       0.24239000 </v>
    <v>       0.66521000       0.66629000       0.00100000 </v>
    <v>       0.83382000       0.83268000       0.06128000 </v>
    <v>       0.83390000       0.83311000       0.18191000 </v>
    <v>       0.66721000       0.66675000       0.24221000 </v>
    <v>       0.83247813       0.83087548       0.30265334 </v>
   </varray>
  </structure>
  <varray name="forces" >
   <v>       0.00127004      -0.12977470       0.06976169 </v>
   <v>       0.05440743       0.04113190      -0.18337576 </v>
   <v>      -0.08921612      -0.10061317       0.01666604 </v>
   <v>       0.03368316       0.14249526      -0.17118207 </v>
   <v>      -0.07261687      -0.04316053       0.25622018 </v>
   <v>      -0.04769515      -0.33548491      -0.09819315 </v>
   <v>       0.05413408       0.04332462      -0.04232952 </v>
   <v>      -0.01510251       0.01661159      -0.17066926 </v>
   <v>       0.05390183      -0.03818954      -0.00585541 </v>
   <v>      -0.09424816       0.21994945      -0.23019275 </v>
   <v>       0.09548626       0.07600149       0.00775715 </v>
   <v>      -0.03600312       0.02858233       0.08721723 </v>
   <v>      -0.03399422       0.03384794      -0.30221379 </v>
   <v>       0.08904666      -0.00567050       0.07630146 </v>
   <v>      -0.01443774      -0.00884831       0.43016879 </v>
   <v>      -0.04037031      -0.02521291       0.07444627 </v>
   <v>      -0.26981143      -0.14114439      -0.39741282 </v>
   <v>      -0.01265404       0.02242977       0.10278407 </v>
   <v>       0.00796274       0.01987603      -0.02550963 </v>
   <v>      -0.07334141      -0.02190336      -0.14489544 </v>
   <v>       0.05224630      -0.02131864       0.53591984 </v>
   <v>      -0.07309367       0.03026223       0.17785467 </v>
   <v>       0.06706069       0.07448313      -0.19312456 </v>
   <v>       0.05009733       0.04643869      -0.02335857 </v>
   <v>      -0.02650971       0.01540699      -0.04980797 </v>
   <v>       0.08411282      -0.01266730       0.04920448 </v>
   <v>      -0.06019975      -0.00450544       0.05194873 </v>
   <v>       0.16974050       0.08219893      -0.36488635 </v>
   <v>      -0.04245690      -0.02561778       0.21213254 </v>
   <v>      -0.00303799      -0.12241516       0.13044650 </v>
   <v>       0.04965757       0.10426289      -0.16023184 </v>
   <v>       0.14492698      -0.01758569       0.37107784 </v>
   <v>      -0.00190162       0.00861527       0.00819325 </v>
   <v>      -0.26462629       0.03755928      -0.45942159 </v>
   <v>      -0.06456982      -0.06418124      -0.06280041 </v>
   <v>      -0.08273263       0.05403709       0.19730715 </v>
   <v>      -0.02611826      -0.03412645      -0.09431046 </v>
   <v>       0.32491441      -0.01252249      -0.33448825 </v>
   <v>       0.00234679      -0.03525085       0.24484333 </v>
   <v>       0.04658365      -0.02361769      -0.15121920 </v>
   <v>       0.07831508       0.06151387      -0.02033073 </v>
   <v>      -0.04749455       0.00323450       0.14537609 </v>
   <v>      -0.11911039       0.01147317       0.41275918 </v>
   <v>      -0.01763670      -0.02385081       0.07971488 </v>
   <v>       0.03308702      -0.06181567       0.08718973 </v>
   <v>      -0.02251262       0.05732422      -0.08707984 </v>
   <v>      -0.03133416      -0.03634199      -0.16301206 </v>
   <v>       0.09227368       0.02738772       0.39500636 </v>
   <v>       0.03370826       0.00036406       0.08143676 </v>
   <v>      -0.25987328       0.18000843      -0.32272942 </v>
   <v>      -0.03767217       0.01372922       0.13472606 </v>
   <v>       0.03539558       0.01946069       0.03754477 </v>
   <v>      -0.05078886       0.11773147      -0.19727530 </v>
   <v>      -0.02982793       0.06864526      -0.03339707 </v>
   <v>      -0.00227758      -0.08263741      -0.08019861 </v>
   <v>      -0.01476868       0.02401589      -0.17106272 </v>
   <v>       0.04846307      -0.10892812       0.23482852 </v>
   <v>      -0.05741543       0.00338217       0.42350195 </v>
   <v>       0.24749156      -0.09147155      -0.29104878 </v>
   <v>       0.00098065      -0.02948825      -0.01541800 </v>
   <v>       0.09957273       0.03342028      -0.08617704 </v>
   <v>       0.08458316      -0.06086102       0.00087285 </v>
  </varray>
  <varray name="stress" >
   <v>     -19.44780267      -0.11487571      -0.18094774 </v>
   <v>      -0.11487587     -20.38968512       0.21139392 </v>
   <v>      -0.18094749       0.21139312      -4.24906242 </v>
  </varray>
  <energy>
   <i name="e_fr_energy">   -502.14378429 </i>
   <i name="e_wo_entrp">   -502.17178031 </i>
   <i name="e_0_energy">   -502.15311630 </i>
  </energy>
  <time name="totalsc">  265.31  266.87</time>
 </calculation>
 <calculation>
  <scstep>
   <time name="dav">   16.43   16.53</time>
   <time name="total">   17.35   17.46</time>
   <dipole>
    <v name="dipole">      0.00000000       0.00000000      -0.04676390 </v>
    <i name="Tr[quadrupol]">  -6907.20514359 </i>
    <i name="Echarged">      0.00000000 </i>
    <i name="Edipol_quadrupol">      0.00000000 </i>
    <i name="Eion">      0.00000000 </i>
   </dipole>
   <energy>
    <i name="alphaZ">   1737.56867998 </i>
    <i name="ewald"> 205897.95409710 </i>
    <i name="hartreedc">-255273.35539475 </i>
    <i name="XCdc">    963.79172400 </i>
    <i name="pawpsdc">  53750.08148495 </i>
    <i name="pawaedc"> -54887.47437857 </i>
    <i name="eentropy">      0.02805301 </i>
    <i name="bandstr">  -4288.36724472 </i>
    <i name="atom">  51597.65971741 </i>
    <i name="e_fr_energy">   -502.11326158 </i>
    <i name="e_wo_entrp">   -502.14131459 </i>
    <i name="e_0_energy">   -502.12261259 </i>
   </energy>
  </scstep>
  <scstep>
   <time name="diag">    1.95    1.96</time>
   <time name="diis">    8.65    8.70</time>
   <time name="orth">    0.44    0.44</time>
   <time name="total">   11.96   12.03</time>
   <dipole>
    <v name="dipole">      0.00000000       0.00000000      -0.05348239 </v>
    <i name="Tr[quadrupol]">  -6907.19965500 </i>
    <i name="Echarged">      0.00000000 </i>
    <i name="Edipol_quadrupol">      0.00000000 </i>
    <i name="Eion">      0.00000000 </i>
   </dipole>
   <energy>
    <i name="e_fr_energy">   -502.13705854 </i>
    <i name="e_wo_entrp">   -502.16488194 </i>
    <i name="e_0_energy">   -502.14633301 </i>
   </energy>
  </scstep>
  <scstep>
   <time name="diag">    1.90    1.91</time>
   <time name="diis">   10.54   10.61</time>
   <time name="orth">    0.44    0.44</time>
   <time name="total">   13.78   13.87</time>
   <dipole>
    <v name="dipole">      0.00000000       0.00000000      -0.02122311 </v>
    <i name="Tr[quadrupol]">  -6907.19559005 </i>
    <i name="Echarged">      0.00000000 </i>
    <i name="Edipol_quadrupol">      0.00000000 </i>
    <i name="Eion">      0.00000000 </i>
   </dipole>
   <energy>
    <i name="e_fr_energy">   -502.15824107 </i>
    <i name="e_wo_entrp">   -502.18702788 </i>
    <i name="e_0_energy">   -502.16783668 </i>
   </energy>
  </scstep>
  <scstep>
   <time name="diag">    1.88    1.89</time>
   <time name="diis">    7.95    7.99</time>
   <time name="orth">    0.43    0.44</time>
   <time name="total">   11.16   11.22</time>
   <dipole>
    <v name="dipole">      0.00000000       0.00000000      -0.04941308 </v>
    <i name="Tr[quadrupol]">  -6907.16930494 </i>
    <i name="Echarged">      0.00000000 </i>
    <i name="Edipol_quadrupol">      0.00000000 </i>
    <i name="Eion">      0.00000000 </i>
   </dipole>
   <energy>
    <i name="e_fr_energy">   -502.14208711 </i>
    <i name="e_wo_entrp">   -502.17003726 </i>
    <i name="e_0_energy">   -502.15140383 </i>
   </energy>
  </scstep>
  <scstep>
   <time name="diag">    1.89    1.90</time>
   <time name="diis">   10.27   10.33</time>
   <time name="orth">    0.43    0.44</time>
   <time name="total">   13.49   13.57</time>
   <dipole>
    <v name="dipole">      0.00000000       0.00000000      -0.04864632 </v>
    <i name="Tr[quadrupol]">  -6907.20650663 </i>
    <i name="Echarged">      0.00000000 </i>
    <i name="Edipol_quadrupol">      0.00000000 </i>
    <i name="Eion">      0.00000000 </i>
   </dipole>
   <energy>
    <i name="e_fr_energy">   -502.14364421 </i>
    <i name="e_wo_entrp">   -502.17175185 </i>
    <i name="e_0_energy">   -502.15301342 </i>
   </energy>
  </scstep>
  <scstep>
   <time name="diag">    1.88    1.89</time>
   <time name="diis">    8.64    8.69</time>
   <time name="orth">    0.43    0.44</time>
   <time name="total">   11.86   11.93</time>
   <dipole>
    <v name="dipole">      0.00000000       0.00000000      -0.04679935 </v>
    <i name="Tr[quadrupol]">  -6907.16206451 </i>
    <i name="Echarged">      0.00000000 </i>
    <i name="Edipol_quadrupol">      0.00000000 </i>
    <i name="Eion">      0.00000000 </i>
   </dipole>
   <energy>
    <i name="e_fr_energy">   -502.14419256 </i>
    <i name="e_wo_entrp">   -502.17226898 </i>
    <i name="e_0_energy">   -502.15355137 </i>
   </energy>
  </scstep>
  <scstep>
   <time name="diag">    1.89    1.90</time>
   <time name="diis">    8.95    9.00</time>
   <time name="orth">    0.43    0.44</time>
   <time name="total">   12.15   12.23</time>
   <dipole>
    <v name="dipole">      0.00000000       0.00000000      -0.04677302 </v>
    <i name="Tr[quadrupol]">  -6907.17255213 </i>
    <i name="Echarged">      0.00000000 </i>
    <i name="Edipol_quadrupol">      0.00000000 </i>
    <i name="Eion">      0.00000000 </i>
   </dipole>
   <energy>
    <i name="e_fr_energy">   -502.14438632 </i>
    <i name="e_wo_entrp">   -502.17247565 </i>
    <i name="e_0_energy">   -502.15374943 </i>
   </energy>
  </scstep>
  <scstep>
   <time name="diag">    1.89    1.90</time>
   <time name="diis">    8.59    8.64</time>
   <time name="orth">    0.44    0.44</time>
   <time name="total">   11.82   11.90</time>
   <dipole>
    <v name="dipole">      0.00000000       0.00000000      -0.04708041 </v>
    <i name="Tr[quadrupol]">  -6907.17242265 </i>
    <i name="Echarged">      0.00000000 </i>
    <i name="Edipol_quadrupol">      0.00000000 </i>
    <i name="Eion">      0.00000000 </i>
   </dipole>
   <energy>
    <i name="e_fr_energy">   -502.14437289 </i>
    <i name="e_wo_entrp">   -502.17246607 </i>
    <i name="e_0_energy">   -502.15373729 </i>
   </energy>
  </scstep>
  <scstep>
   <time name="diag">    1.89    1.90</time>
   <time name="diis">    6.67    6.71</time>
   <time name="orth">    0.44    0.44</time>
   <time name="total">    9.90    9.95</time>
   <dipole>
    <v name="dipole">      0.00000000       0.00000000      -0.04744610 </v>
    <i name="Tr[quadrupol]">  -6907.17337442 </i>
    <i name="Echarged">      0.00000000 </i>
    <i name="Edipol_quadrupol">      0.00000000 </i>
    <i name="Eion">      0.00000000 </i>
   </dipole>
   <energy>
    <i name="e_fr_energy">   -502.14433965 </i>
    <i name="e_wo_entrp">   -502.17240386 </i>
    <i name="e_0_energy">   -502.15369439 </i>
   </energy>
  </scstep>
  <scstep>
   <time name="diag">    1.89    1.91</time>
   <time name="diis">    7.96    8.00</time>
   <time name="orth">    0.43    0.44</time>
   <time name="total">   11.18   11.25</time>
   <dipole>
    <v name="dipole">      0.00000000       0.00000000      -0.04714374 </v>
    <i name="Tr[quadrupol]">  -6907.18521599 </i>
    <i name="Echarged">      0.00000000 </i>
    <i name="Edipol_quadrupol">      0.00000000 </i>
    <i name="Eion">      0.00000000 </i>
   </dipole>
   <energy>
    <i name="e_fr_energy">   -502.14430767 </i>
    <i name="e_wo_entrp">   -502.17237978 </i>
    <i name="e_0_energy">   -502.15366504 </i>
   </energy>
  </scstep>
  <scstep>
   <time name="diag">    1.90    1.91</time>
   <time name="diis">    5.53    5.56</time>
   <time name="orth">    0.43    0.44</time>
   <time name="total">    8.26    8.31</time>
   <dipole>
    <v name="dipole">      0.00000000       0.00000000      -0.04706358 </v>
    <i name="Tr[quadrupol]">  -6907.19095903 </i>
    <i name="Echarged">      0.00000000 </i>
    <i name="Edipol_quadrupol">      0.00000000 </i>
    <i name="Eion">      0.00000000 </i>
   </dipole>
   <energy>
    <i name="alphaZ">   1737.18125625 </i>
    <i name="ewald"> 205897.95409710 </i>
    <i name="hartreedc">-255273.36267294 </i>
    <i name="XCdc">    963.80420692 </i>
    <i name="pawpsdc">  53748.97994366 </i>
    <i name="pawaedc"> -54886.37866847 </i>
    <i name="eentropy">      0.02807348 </i>
    <i name="bandstr">  -4288.01026177 </i>
    <i name="atom">  51597.65971741 </i>
    <i name="e_fr_energy">   -502.14430835 </i>
    <i name="e_wo_entrp">   -502.17238183 </i>
    <i name="e_0_energy">   -502.15366618 </i>
   </energy>
  </scstep>
  <structure>
   <crystal>
    <varray name="basis" >
     <v>       8.50460000       0.00000000       0.00000000 </v>
     <v>      -0.00109914       8.50909993       0.00000000 </v>
     <v>       0.00000000       0.00000000      23.55660100 </v>
    </varray>
    <i name="volume">   1704.70856049 </i>
    <varray name="rec_basis" >
     <v>       0.11758343       0.00001519       0.00000000 </v>
     <v>       0.00000000       0.11752124       0.00000000 </v>
     <v>       0.00000000       0.00000000       0.04245095 </v>
    </varray>
   </crystal>
   <varray name="positions" >
    <v>       0.99760000       0.00330000       0.24221000 </v>
    <v>       0.66561000       0.99834000       0.00060000 </v>
    <v>       0.65958212       0.99337576       0.36962600 </v>
    <v>       0.83467000       0.16589000       0.18209000 </v>
    <v>       0.99866000       0.33404000       0.12198000 </v>
    <v>       0.33421000       0.33147000       0.00101000 </v>
    <v>       0.33376623       0.33276704       0.36470297 </v>
    <v>       0.83220000       0.50025000       0.06275000 </v>
    <v>       0.83102271       0.50003082       0.30351458 </v>
    <v>       0.33512000       0.67037000       0.00000000 </v>
    <v>       0.34360458       0.66944157       0.37003068 </v>
    <v>       0.33145000       0.66488000       0.12292000 </v>
    <v>       0.50171655       0.83193929       0.30702780 </v>
    <v>       0.67111000       0.66550000       0.12148000 </v>
    <v>       0.99950000       0.00032000       0.00103000 </v>
    <v>       0.00035982       0.00100027       0.36027137 </v>
    <v>       0.16670000       0.16592000       0.06160000 </v>
    <v>       0.99930000       0.00013000       0.12183000 </v>
    <v>       0.16670000       0.16692000       0.18170000 </v>
    <v>       0.16470160       0.16630367       0.30376714 </v>
    <v>       0.33368000       0.99986000       0.00108000 </v>
    <v>       0.33152904       0.00636968       0.36033139 </v>
    <v>       0.50008000       0.16606000       0.06164000 </v>
    <v>       0.33365000       0.99945000       0.12194000 </v>
    <v>       0.50013000       0.16657000       0.18176000 </v>
    <v>       0.33374000       0.99994000       0.24252000 </v>
    <v>       0.50227235       0.16888345       0.30291410 </v>
    <v>       0.83412000       0.16807000       0.06130000 </v>
    <v>       0.66767000       0.99972000       0.12168000 </v>
    <v>       0.66792000       0.00032000       0.24233000 </v>
    <v>       0.83210460       0.16653964       0.30436205 </v>
    <v>       0.00033000       0.33346000       0.00076000 </v>
    <v>       0.00754614       0.32935855       0.36370899 </v>
    <v>       0.16704000       0.50116000       0.06077000 </v>
    <v>       0.16627000       0.49940000       0.18238000 </v>
    <v>       0.00000000       0.33319000       0.24260000 </v>
    <v>       0.16628312       0.50011832       0.30382049 </v>
    <v>       0.49811000       0.50186000       0.06112000 </v>
    <v>       0.33328000       0.33434000       0.12148000 </v>
    <v>       0.50051000       0.50053000       0.18145000 </v>
    <v>       0.33392000       0.33269000       0.24229000 </v>
    <v>       0.50611463       0.49974434       0.30026596 </v>
    <v>       0.66687000       0.33418000       0.00129000 </v>
    <v>       0.66420665       0.33372035       0.36033175 </v>
    <v>       0.66670000       0.33332000       0.12177000 </v>
    <v>       0.83466000       0.49916000       0.18181000 </v>
    <v>       0.66748000       0.33291000       0.24234000 </v>
    <v>       0.99949000       0.66581000       0.00112000 </v>
    <v>       0.99989600       0.66353873       0.35921805 </v>
    <v>       0.16773000       0.83295000       0.06141000 </v>
    <v>       0.00149000       0.66672000       0.12196000 </v>
    <v>       0.16592000       0.83389000       0.18235000 </v>
    <v>       0.99950000       0.66635000       0.24245000 </v>
    <v>       0.16480881       0.83288253       0.30308272 </v>
    <v>       0.49825000       0.83185000       0.06189000 </v>
    <v>       0.50064000       0.83335000       0.18189000 </v>
    <v>       0.33424000       0.66627000       0.24239000 </v>
    <v>       0.66521000       0.66629000       0.00100000 </v>
    <v>       0.83382000       0.83268000       0.06128000 </v>
    <v>       0.83390000       0.83311000       0.18191000 </v>
    <v>       0.66721000       0.66675000       0.24221000 </v>
    <v>       0.83256894       0.83066588       0.30263701 </v>
   </varray>
  </structure>
  <varray name="forces" >
   <v>      -0.00175542      -0.12880073       0.06266391 </v>
   <v>       0.05448377       0.04108672      -0.18379180 </v>
   <v>      -0.09330359      -0.11762740       0.00434649 </v>
   <v>       0.03164837       0.14545884      -0.17727598 </v>
   <v>      -0.07218861      -0.04402977       0.25717088 </v>
   <v>      -0.04767958      -0.33548123      -0.09810929 </v>
   <v>       0.04627129       0.06686731      -0.04282440 </v>
   <v>      -0.01601785       0.01686915      -0.16989904 </v>
   <v>       0.04902710      -0.04238556      -0.00731831 </v>
   <v>      -0.09438847       0.22002925      -0.23033467 </v>
   <v>       0.10392377       0.06445048      -0.00179596 </v>
   <v>      -0.03597772       0.02922843       0.08800267 </v>
   <v>      -0.03109972       0.03486062      -0.26790494 </v>
   <v>       0.08963664      -0.00518099       0.07556793 </v>
   <v>      -0.01438341      -0.00884447       0.42988845 </v>
   <v>      -0.04084258      -0.01393559       0.06166664 </v>
   <v>      -0.26979642      -0.14066134      -0.39719367 </v>
   <v>      -0.01277092       0.02244066       0.10399811 </v>
   <v>       0.00942815       0.02027743      -0.02713158 </v>
   <v>      -0.06703293      -0.00722507      -0.13027742 </v>
   <v>       0.05198012      -0.02134498       0.53550624 </v>
   <v>      -0.09592179       0.05299548       0.16506186 </v>
   <v>       0.06686840       0.07446288      -0.19342339 </v>
   <v>       0.05060626       0.04617041      -0.02296479 </v>
   <v>      -0.02650790       0.01585946      -0.05050778 </v>
   <v>       0.08623564      -0.00909736       0.04170360 </v>
   <v>      -0.05747462      -0.01508364       0.04923378 </v>
   <v>       0.16935677       0.08240155      -0.36535704 </v>
   <v>      -0.04200370      -0.02591777       0.21328482 </v>
   <v>       0.00144860      -0.12229486       0.12916294 </v>
   <v>       0.03710908       0.08421937      -0.12275416 </v>
   <v>       0.14514185      -0.01750709       0.37072127 </v>
   <v>       0.00909809      -0.00067495       0.00958564 </v>
   <v>      -0.26447919       0.03766623      -0.46010573 </v>
   <v>      -0.06363991      -0.06460573      -0.06568538 </v>
   <v>      -0.07890073       0.05276454       0.18807359 </v>
   <v>      -0.00370892      -0.02362466      -0.06796737 </v>
   <v>       0.32453981      -0.01252520      -0.33404341 </v>
   <v>       0.00185380      -0.03542567       0.24515612 </v>
   <v>       0.04520936      -0.02343601      -0.14837230 </v>
   <v>       0.07536114       0.05922238      -0.01601154 </v>
   <v>      -0.05137145       0.00075707       0.13440884 </v>
   <v>      -0.11893469       0.01104340       0.41235545 </v>
   <v>      -0.01306367      -0.02410501       0.06765332 </v>
   <v>       0.03458715      -0.06259200       0.08725523 </v>
   <v>      -0.02373494       0.05881909      -0.08690299 </v>
   <v>      -0.03378063      -0.02408162      -0.16389385 </v>
   <v>       0.09294942       0.02734845       0.39447715 </v>
   <v>       0.03183252      -0.00963053       0.06374117 </v>
   <v>      -0.25966356       0.17960182      -0.32280697 </v>
   <v>      -0.03749374       0.01313102       0.13461491 </v>
   <v>       0.03649895       0.01836763       0.03290565 </v>
   <v>      -0.05565276       0.11494989      -0.20641435 </v>
   <v>      -0.00828096       0.05136707      -0.01402438 </v>
   <v>      -0.00248900      -0.08316155      -0.07992149 </v>
   <v>      -0.01535554       0.02362775      -0.17429798 </v>
   <v>       0.04368454      -0.11287056       0.23563864 </v>
   <v>      -0.05744187       0.00307492       0.42327231 </v>
   <v>       0.24710583      -0.09132301      -0.29008147 </v>
   <v>       0.00016143      -0.02962625      -0.01748983 </v>
   <v>       0.10014692       0.02642316      -0.08911384 </v>
   <v>       0.07094204      -0.04274185       0.00887950 </v>
  </varray>
  <varray name="stress" >
   <v>     -19.39837062      -0.09832157      -0.18611469 </v>
   <v>      -0.09832205     -20.34342930       0.21149175 </v>
   <v>      -0.18611499       0.21149193      -4.22277689 </v>
  </varray>
  <energy>
   <i name="e_fr_energy">   -502.14430835 </i>
   <i name="e_wo_entrp">   -502.17238183 </i>
   <i name="e_0_energy">   -502.15366618 </i>
  </energy>
  <time name="totalsc">  148.82  149.71</time>
 </calculation>
 <calculation>
  <scstep>
   <time name="dav">   16.87   16.97</time>
   <time name="total">   17.80   17.90</time>
   <dipole>
    <v name="dipole">      0.00000000       0.00000000      -0.04701017 </v>
    <i name="Tr[quadrupol]">  -6909.61919555 </i>
    <i name="Echarged">      0.00000000 </i>
    <i name="Edipol_quadrupol">      0.00000000 </i>
    <i name="Eion">      0.00000000 </i>
   </dipole>
   <energy>
    <i name="alphaZ">   1737.18140906 </i>
    <i name="ewald"> 205903.53244074 </i>
    <i name="hartreedc">-255279.24351203 </i>
    <i name="XCdc">    963.79516650 </i>
    <i name="pawpsdc">  53748.80740222 </i>
    <i name="pawaedc"> -54886.20675797 </i>
    <i name="eentropy">      0.02830236 </i>
    <i name="bandstr">  -4287.43965352 </i>
    <i name="atom">  51597.65971741 </i>
    <i name="e_fr_energy">   -501.88548522 </i>
    <i name="e_wo_entrp">   -501.91378759 </i>
    <i name="e_0_energy">   -501.89491935 </i>
   </energy>
  </scstep>
  <scstep>
   <time name="diag">    1.88    1.89</time>
   <time name="diis">    8.51    8.57</time>
   <time name="orth">    0.43    0.43</time>
   <time name="total">   11.75   11.82</time>
   <dipole>
    <v name="dipole">      0.00000000       0.00000000      -0.06273322 </v>
    <i name="Tr[quadrupol]">  -6909.63110668 </i>
    <i name="Echarged">      0.00000000 </i>
    <i name="Edipol_quadrupol">      0.00000000 </i>
    <i name="Eion">      0.00000000 </i>
   </dipole>
   <energy>
    <i name="e_fr_energy">   -502.09905433 </i>
    <i name="e_wo_entrp">   -502.12659679 </i>
    <i name="e_0_energy">   -502.10823515 </i>
   </energy>
  </scstep>
  <scstep>
   <time name="diag">    1.89    1.90</time>
   <time name="diis">   10.49   10.56</time>
   <time name="orth">    0.43    0.43</time>
   <time name="total">   13.72   13.80</time>
   <dipole>
    <v name="dipole">      0.00000000       0.00000000       0.03067196 </v>
    <i name="Tr[quadrupol]">  -6909.67278254 </i>
    <i name="Echarged">      0.00000000 </i>
    <i name="Edipol_quadrupol">      0.00000000 </i>
    <i name="Eion">      0.00000000 </i>
   </dipole>
   <energy>
    <i name="e_fr_energy">   -502.29736435 </i>
    <i name="e_wo_entrp">   -502.32495396 </i>
    <i name="e_0_energy">   -502.30656088 </i>
   </energy>
  </scstep>
  <scstep>
   <time name="diag">    1.87    1.88</time>
   <time name="diis">    8.04    8.08</time>
   <time name="orth">    0.44    0.44</time>
   <time name="total">   11.25   11.31</time>
   <dipole>
    <v name="dipole">      0.00000000       0.00000000      -0.05738845 </v>
    <i name="Tr[quadrupol]">  -6909.58467555 </i>
    <i name="Echarged">      0.00000000 </i>
    <i name="Edipol_quadrupol">      0.00000000 </i>
    <i name="Eion">      0.00000000 </i>
   </dipole>
   <energy>
    <i name="e_fr_energy">   -502.14464690 </i>
    <i name="e_wo_entrp">   -502.17232051 </i>
    <i name="e_0_energy">   -502.15387144 </i>
   </energy>
  </scstep>
  <scstep>
   <time name="diag">    1.88    1.89</time>
   <time name="diis">   10.79   10.86</time>
   <time name="orth">    0.44    0.44</time>
   <time name="total">   14.01   14.10</time>
   <dipole>
    <v name="dipole">      0.00000000       0.00000000      -0.05135912 </v>
    <i name="Tr[quadrupol]">  -6909.68153129 </i>
    <i name="Echarged">      0.00000000 </i>
    <i name="Edipol_quadrupol">      0.00000000 </i>
    <i name="Eion">      0.00000000 </i>
   </dipole>
   <energy>
    <i name="e_fr_energy">   -502.15545417 </i>
    <i name="e_wo_entrp">   -502.18360111 </i>
    <i name="e_0_energy">   -502.16483648 </i>
   </energy>
  </scstep>
  <scstep>
   <time name="diag">    1.88    1.89</time>
   <time name="diis">    9.42    9.47</time>
   <time name="orth">    0.44    0.44</time>
   <time name="total">   12.63   12.71</time>
   <dipole>
    <v name="dipole">      0.00000000       0.00000000      -0.04513879 </v>
    <i name="Tr[quadrupol]">  -6909.56084898 </i>
    <i name="Echarged">      0.00000000 </i>
    <i name="Edipol_quadrupol">      0.00000000 </i>
    <i name="Eion">      0.00000000 </i>
   </dipole>
   <energy>
    <i name="e_fr_energy">   -502.16096734 </i>
    <i name="e_wo_entrp">   -502.18899758 </i>
    <i name="e_0_energy">   -502.17031075 </i>
   </energy>
  </scstep>
  <scstep>
   <time name="diag">    1.90    1.92</time>
   <time name="diis">    9.40    9.45</time>
   <time name="orth">    0.43    0.43</time>
   <time name="total">   12.65   12.72</time>
   <dipole>
    <v name="dipole">      0.00000000       0.00000000      -0.04644816 </v>
    <i name="Tr[quadrupol]">  -6909.58875071 </i>
    <i name="Echarged">      0.00000000 </i>
    <i name="Edipol_quadrupol">      0.00000000 </i>
    <i name="Eion">      0.00000000 </i>
   </dipole>
   <energy>
    <i name="e_fr_energy">   -502.16270287 </i>
    <i name="e_wo_entrp">   -502.19082121 </i>
    <i name="e_0_energy">   -502.17207565 </i>
   </energy>
  </scstep>
  <scstep>
   <time name="diag">    1.89    1.90</time>
   <time name="diis">   11.23   11.30</time>
   <time name="orth">    0.43    0.43</time>
   <time name="total">   14.45   14.53</time>
   <dipole>
    <v name="dipole">      0.00000000       0.00000000      -0.04737747 </v>
    <i name="Tr[quadrupol]">  -6909.59110868 </i>
    <i name="Echarged">      0.00000000 </i>
    <i name="Edipol_quadrupol">      0.00000000 </i>
    <i name="Eion">      0.00000000 </i>
   </dipole>
   <energy>
    <i name="e_fr_energy">   -502.16265378 </i>
    <i name="e_wo_entrp">   -502.19064533 </i>
    <i name="e_0_energy">   -502.17198430 </i>
   </energy>
  </scstep>
  <scstep>
   <time name="diag">    1.89    1.90</time>
   <time name="diis">   11.20   11.26</time>
   <time name="orth">    0.43    0.43</time>
   <time name="total">   14.43   14.51</time>
   <dipole>
    <v name="dipole">      0.00000000       0.00000000      -0.04811967 </v>
    <i name="Tr[quadrupol]">  -6909.58874144 </i>
    <i name="Echarged">      0.00000000 </i>
    <i name="Edipol_quadrupol">      0.00000000 </i>
    <i name="Eion">      0.00000000 </i>
   </dipole>
   <energy>
    <i name="e_fr_energy">   -502.16244553 </i>
    <i name="e_wo_entrp">   -502.19041846 </i>
    <i name="e_0_energy">   -502.17176984 </i>
   </energy>
  </scstep>
  <scstep>
   <time name="diag">    1.89    1.90</time>
   <time name="diis">   10.13   10.19</time>
   <time name="orth">    0.43    0.43</time>
   <time name="total">   13.36   13.44</time>
   <dipole>
    <v name="dipole">      0.00000000       0.00000000      -0.04794490 </v>
    <i name="Tr[quadrupol]">  -6909.59389871 </i>
    <i name="Echarged">      0.00000000 </i>
    <i name="Edipol_quadrupol">      0.00000000 </i>
    <i name="Eion">      0.00000000 </i>
   </dipole>
   <energy>
    <i name="e_fr_energy">   -502.16231810 </i>
    <i name="e_wo_entrp">   -502.19023964 </i>
    <i name="e_0_energy">   -502.17162528 </i>
   </energy>
  </scstep>
  <scstep>
   <time name="diag">    1.90    1.91</time>
   <time name="diis">    9.77    9.83</time>
   <time name="orth">    0.43    0.44</time>
   <time name="total">   13.01   13.09</time>
   <dipole>
    <v name="dipole">      0.00000000       0.00000000      -0.04772847 </v>
    <i name="Tr[quadrupol]">  -6909.59266027 </i>
    <i name="Echarged">      0.00000000 </i>
    <i name="Edipol_quadrupol">      0.00000000 </i>
    <i name="Eion">      0.00000000 </i>
   </dipole>
   <energy>
    <i name="e_fr_energy">   -502.16228297 </i>
    <i name="e_wo_entrp">   -502.19022603 </i>
    <i name="e_0_energy">   -502.17159732 </i>
   </energy>
  </scstep>
  <scstep>
   <time name="diag">    1.90    1.91</time>
   <time name="diis">    8.51    8.56</time>
   <time name="orth">    0.44    0.44</time>
   <time name="total">   11.75   11.83</time>
   <dipole>
    <v name="dipole">      0.00000000       0.00000000      -0.04811306 </v>
    <i name="Tr[quadrupol]">  -6909.59807766 </i>
    <i name="Echarged">      0.00000000 </i>
    <i name="Edipol_quadrupol">      0.00000000 </i>
    <i name="Eion">      0.00000000 </i>
   </dipole>
   <energy>
    <i name="e_fr_energy">   -502.16228826 </i>
    <i name="e_wo_entrp">   -502.19022359 </i>
    <i name="e_0_energy">   -502.17160004 </i>
   </energy>
  </scstep>
  <scstep>
   <time name="diag">    1.90    1.91</time>
   <time name="diis">    8.10    8.15</time>
   <time name="orth">    0.43    0.44</time>
   <time name="total">   11.33   11.39</time>
   <dipole>
    <v name="dipole">      0.00000000       0.00000000      -0.04775952 </v>
    <i name="Tr[quadrupol]">  -6909.60386544 </i>
    <i name="Echarged">      0.00000000 </i>
    <i name="Edipol_quadrupol">      0.00000000 </i>
    <i name="Eion">      0.00000000 </i>
   </dipole>
   <energy>
    <i name="e_fr_energy">   -502.16230911 </i>
    <i name="e_wo_entrp">   -502.19025186 </i>
    <i name="e_0_energy">   -502.17162336 </i>
   </energy>
  </scstep>
  <scstep>
   <time name="diag">    1.90    1.91</time>
   <time name="diis">    6.98    7.02</time>
   <time name="orth">    0.43    0.43</time>
   <time name="total">   10.21   10.27</time>
   <dipole>
    <v name="dipole">      0.00000000       0.00000000      -0.04786945 </v>
    <i name="Tr[quadrupol]">  -6909.61648462 </i>
    <i name="Echarged">      0.00000000 </i>
    <i name="Edipol_quadrupol">      0.00000000 </i>
    <i name="Eion">      0.00000000 </i>
   </dipole>
   <energy>
    <i name="e_fr_energy">   -502.16234470 </i>
    <i name="e_wo_entrp">   -502.19028997 </i>
    <i name="e_0_energy">   -502.17165979 </i>
   </energy>
  </scstep>
  <scstep>
   <time name="diag">    1.91    1.92</time>
   <time name="diis">    5.15    5.18</time>
   <time name="orth">    0.43    0.44</time>
   <time name="total">    7.89    7.93</time>
   <dipole>
    <v name="dipole">      0.00000000       0.00000000      -0.04807998 </v>
    <i name="Tr[quadrupol]">  -6909.62278985 </i>
    <i name="Echarged">      0.00000000 </i>
    <i name="Edipol_quadrupol">      0.00000000 </i>
    <i name="Eion">      0.00000000 </i>
   </dipole>
   <energy>
    <i name="alphaZ">   1737.16993310 </i>
    <i name="ewald"> 205903.53244074 </i>
    <i name="hartreedc">-255279.43102491 </i>
    <i name="XCdc">    963.78982967 </i>
    <i name="pawpsdc">  53744.36070380 </i>
    <i name="pawaedc"> -54881.71115582 </i>
    <i name="eentropy">      0.02793669 </i>
    <i name="bandstr">  -4287.56072618 </i>
    <i name="atom">  51597.65971741 </i>
    <i name="e_fr_energy">   -502.16234550 </i>
    <i name="e_wo_entrp">   -502.19028218 </i>
    <i name="e_0_energy">   -502.17165773 </i>
   </energy>
  </scstep>
  <structure>
   <crystal>
    <varray name="basis" >
     <v>       8.50460000       0.00000000       0.00000000 </v>
     <v>      -0.00109914       8.50909993       0.00000000 </v>
     <v>       0.00000000       0.00000000      23.55660100 </v>
    </varray>
    <i name="volume">   1704.70856049 </i>
    <varray name="rec_basis" >
     <v>       0.11758343       0.00001519       0.00000000 </v>
     <v>       0.00000000       0.11752124       0.00000000 </v>
     <v>       0.00000000       0.00000000       0.04245095 </v>
    </varray>
   </crystal>
   <varray name="positions" >
    <v>       0.99760000       0.00330000       0.24221000 </v>
    <v>       0.66561000       0.99834000       0.00060000 </v>
    <v>       0.65799241       0.99117130       0.36956386 </v>
    <v>       0.83467000       0.16589000       0.18209000 </v>
    <v>       0.99866000       0.33404000       0.12198000 </v>
    <v>       0.33421000       0.33147000       0.00101000 </v>
    <v>       0.33413657       0.33437115       0.36452764 </v>
    <v>       0.83220000       0.50025000       0.06275000 </v>
    <v>       0.83151317       0.49938389       0.30344655 </v>
    <v>       0.33512000       0.67037000       0.00000000 </v>
    <v>       0.34557983       0.66993524       0.37001091 </v>
    <v>       0.33145000       0.66488000       0.12292000 </v>
    <v>       0.50140528       0.83232433       0.30629319 </v>
    <v>       0.67111000       0.66550000       0.12148000 </v>
    <v>       0.99950000       0.00032000       0.00103000 </v>
    <v>       0.99996472       0.00114158       0.36043680 </v>
    <v>       0.16670000       0.16592000       0.06160000 </v>
    <v>       0.99930000       0.00013000       0.12183000 </v>
    <v>       0.16670000       0.16692000       0.18170000 </v>
    <v>       0.16397828       0.16668283       0.30326924 </v>
    <v>       0.33368000       0.99986000       0.00108000 </v>
    <v>       0.32953941       0.00797380       0.36101735 </v>
    <v>       0.50008000       0.16606000       0.06164000 </v>
    <v>       0.33365000       0.99945000       0.12194000 </v>
    <v>       0.50013000       0.16657000       0.18176000 </v>
    <v>       0.33374000       0.99994000       0.24252000 </v>
    <v>       0.50155784       0.16855096       0.30312131 </v>
    <v>       0.83412000       0.16807000       0.06130000 </v>
    <v>       0.66767000       0.99972000       0.12168000 </v>
    <v>       0.66792000       0.00032000       0.24233000 </v>
    <v>       0.83217286       0.16707410       0.30413742 </v>
    <v>       0.00033000       0.33346000       0.00076000 </v>
    <v>       0.00801302       0.32908323       0.36384349 </v>
    <v>       0.16704000       0.50116000       0.06077000 </v>
    <v>       0.16627000       0.49940000       0.18238000 </v>
    <v>       0.00000000       0.33319000       0.24260000 </v>
    <v>       0.16673888       0.50008717       0.30368492 </v>
    <v>       0.49811000       0.50186000       0.06112000 </v>
    <v>       0.33328000       0.33434000       0.12148000 </v>
    <v>       0.50051000       0.50053000       0.18145000 </v>
    <v>       0.33392000       0.33269000       0.24229000 </v>
    <v>       0.50561314       0.49964505       0.30064582 </v>
    <v>       0.66687000       0.33418000       0.00129000 </v>
    <v>       0.66407244       0.33338803       0.36052918 </v>
    <v>       0.66670000       0.33332000       0.12177000 </v>
    <v>       0.83466000       0.49916000       0.18181000 </v>
    <v>       0.66748000       0.33291000       0.24234000 </v>
    <v>       0.99949000       0.66581000       0.00112000 </v>
    <v>       0.00016934       0.66304691       0.35930512 </v>
    <v>       0.16773000       0.83295000       0.06141000 </v>
    <v>       0.00149000       0.66672000       0.12196000 </v>
    <v>       0.16592000       0.83389000       0.18235000 </v>
    <v>       0.99950000       0.66635000       0.24245000 </v>
    <v>       0.16517683       0.83312950       0.30317170 </v>
    <v>       0.49825000       0.83185000       0.06189000 </v>
    <v>       0.50064000       0.83335000       0.18189000 </v>
    <v>       0.33424000       0.66627000       0.24239000 </v>
    <v>       0.66521000       0.66629000       0.00100000 </v>
    <v>       0.83382000       0.83268000       0.06128000 </v>
    <v>       0.83390000       0.83311000       0.18191000 </v>
    <v>       0.66721000       0.66675000       0.24221000 </v>
    <v>       0.83319161       0.83049636       0.30269225 </v>
   </varray>
  </structure>
  <varray name="forces" >
   <v>      -0.00389926      -0.14137504       0.06387636 </v>
   <v>       0.05400819       0.04158124      -0.18439526 </v>
   <v>      -0.06349077      -0.06872993      -0.03022137 </v>
   <v>       0.02983918       0.14468058      -0.18559541 </v>
   <v>      -0.07221820      -0.04377650       0.25851223 </v>
   <v>      -0.04721302      -0.33516221      -0.09852074 </v>
   <v>       0.01275452       0.00625875      -0.02680029 </v>
   <v>      -0.01683763       0.01601577      -0.17383656 </v>
   <v>       0.02266025      -0.01472581       0.00910759 </v>
   <v>      -0.09459234       0.22004139      -0.23052152 </v>
   <v>       0.05413017       0.09620792      -0.00792207 </v>
   <v>      -0.03470322       0.03024353       0.08885314 </v>
   <v>      -0.04462852       0.03392419      -0.15864834 </v>
   <v>       0.08832678      -0.00278711       0.07752748 </v>
   <v>      -0.01453908      -0.00907812       0.42959085 </v>
   <v>      -0.02917951      -0.00357499       0.02595591 </v>
   <v>      -0.26979311      -0.14134345      -0.39862729 </v>
   <v>      -0.01249621       0.02364941       0.10450043 </v>
   <v>       0.01054082       0.02188295      -0.04228510 </v>
   <v>      -0.01907425      -0.04252765      -0.01420036 </v>
   <v>       0.05213183      -0.02171468       0.53591710 </v>
   <v>      -0.07329640       0.04853135       0.08323204 </v>
   <v>       0.06614873       0.07381369      -0.19360849 </v>
   <v>       0.05030699       0.04535138      -0.02347231 </v>
   <v>      -0.02616366       0.01717218      -0.04724068 </v>
   <v>       0.06824173       0.00506201       0.03515766 </v>
   <v>      -0.03215874      -0.00731098       0.03954477 </v>
   <v>       0.17031637       0.08310202      -0.36602647 </v>
   <v>      -0.04201181      -0.02570874       0.21502852 </v>
   <v>       0.01008017      -0.10924075       0.13508536 </v>
   <v>      -0.00714383       0.01053408      -0.03687542 </v>
   <v>       0.14445521      -0.01776010       0.37322144 </v>
   <v>       0.01744970      -0.00222671      -0.01182527 </v>
   <v>      -0.26532285       0.03725495      -0.46100078 </v>
   <v>      -0.06259773      -0.06471610      -0.07130728 </v>
   <v>      -0.08232564       0.07958046       0.14461093 </v>
   <v>      -0.02381780       0.00698819      -0.03253828 </v>
   <v>       0.32499144      -0.01211234      -0.33454405 </v>
   <v>       0.00104133      -0.03621693       0.24654011 </v>
   <v>       0.04841959      -0.02448150      -0.14346611 </v>
   <v>       0.09313428       0.06411845      -0.02362802 </v>
   <v>       0.03168158      -0.00219213       0.02360143 </v>
   <v>      -0.11847363       0.01201928       0.41244458 </v>
   <v>      -0.00146237      -0.03785139       0.03896133 </v>
   <v>       0.03565449      -0.06329770       0.08756774 </v>
   <v>      -0.02449390       0.05683174      -0.09019664 </v>
   <v>      -0.07265663      -0.01675123      -0.13423301 </v>
   <v>       0.09271105       0.02775570       0.39397381 </v>
   <v>       0.04967125       0.00125080       0.04249417 </v>
   <v>      -0.25938571       0.17963332      -0.32237938 </v>
   <v>      -0.03666389       0.01331474       0.13483339 </v>
   <v>       0.03537183       0.02009375       0.02970950 </v>
   <v>      -0.03974054       0.11617586      -0.19327455 </v>
   <v>      -0.02616753       0.03755316      -0.00183174 </v>
   <v>      -0.00249005      -0.08260236      -0.08141744 </v>
   <v>      -0.01339532       0.02461191      -0.19028583 </v>
   <v>       0.03825451      -0.12182967       0.23235999 </v>
   <v>      -0.05718161       0.00241163       0.42403705 </v>
   <v>       0.24674813      -0.09174992      -0.29027489 </v>
   <v>      -0.00005711      -0.03356097      -0.02097421 </v>
   <v>       0.09876091       0.00926506      -0.06361308 </v>
   <v>       0.04184085      -0.03250645      -0.00065668 </v>
  </varray>
  <varray name="stress" >
   <v>     -19.64661975      -0.18461731      -0.17333978 </v>
   <v>      -0.18461734     -20.57287252       0.22060983 </v>
   <v>      -0.17333977       0.22061018      -4.44253801 </v>
  </varray>
  <energy>
   <i name="e_fr_energy">   -502.16234550 </i>
   <i name="e_wo_entrp">   -502.19028218 </i>
   <i name="e_0_energy">   -502.17165773 </i>
  </energy>
  <time name="totalsc">  206.20  207.42</time>
 </calculation>
 <calculation>
  <scstep>
   <time name="dav">   16.75   16.85</time>
   <time name="total">   17.65   17.75</time>
   <dipole>
    <v name="dipole">      0.00000000       0.00000000      -0.04789523 </v>
    <i name="Tr[quadrupol]">  -6911.79567541 </i>
    <i name="Echarged">      0.00000000 </i>
    <i name="Edipol_quadrupol">      0.00000000 </i>
    <i name="Eion">      0.00000000 </i>
   </dipole>
   <energy>
    <i name="alphaZ">   1737.36828414 </i>
    <i name="ewald"> 205908.52415272 </i>
    <i name="hartreedc">-255284.60960383 </i>
    <i name="XCdc">    963.78138373 </i>
    <i name="pawpsdc">  53743.80500238 </i>
    <i name="pawaedc"> -54881.15538974 </i>
    <i name="eentropy">      0.02800642 </i>
    <i name="bandstr">  -4287.34586072 </i>
    <i name="atom">  51597.65971741 </i>
    <i name="e_fr_energy">   -501.94430750 </i>
    <i name="e_wo_entrp">   -501.97231392 </i>
    <i name="e_0_energy">   -501.95364297 </i>
   </energy>
  </scstep>
  <scstep>
   <time name="diag">    1.88    1.89</time>
   <time name="diis">    8.49    8.53</time>
   <time name="orth">    0.44    0.44</time>
   <time name="total">   11.73   11.80</time>
   <dipole>
    <v name="dipole">      0.00000000       0.00000000      -0.05975691 </v>
    <i name="Tr[quadrupol]">  -6911.79775825 </i>
    <i name="Echarged">      0.00000000 </i>
    <i name="Edipol_quadrupol">      0.00000000 </i>
    <i name="Eion">      0.00000000 </i>
   </dipole>
   <energy>
    <i name="e_fr_energy">   -502.11603927 </i>
    <i name="e_wo_entrp">   -502.14351201 </i>
    <i name="e_0_energy">   -502.12519685 </i>
   </energy>
  </scstep>
  <scstep>
   <time name="diag">    1.88    1.89</time>
   <time name="diis">   10.51   10.57</time>
   <time name="orth">    0.43    0.43</time>
   <time name="total">   13.72   13.80</time>
   <dipole>
    <v name="dipole">      0.00000000       0.00000000       0.02073739 </v>
    <i name="Tr[quadrupol]">  -6911.82630156 </i>
    <i name="Echarged">      0.00000000 </i>
    <i name="Edipol_quadrupol">      0.00000000 </i>
    <i name="Eion">      0.00000000 </i>
   </dipole>
   <energy>
    <i name="e_fr_energy">   -502.27289016 </i>
    <i name="e_wo_entrp">   -502.30054136 </i>
    <i name="e_0_energy">   -502.28210722 </i>
   </energy>
  </scstep>
  <scstep>
   <time name="diag">    1.90    1.91</time>
   <time name="diis">    7.90    7.95</time>
   <time name="orth">    0.43    0.43</time>
   <time name="total">   11.14   11.20</time>
   <dipole>
    <v name="dipole">      0.00000000       0.00000000      -0.05779919 </v>
    <i name="Tr[quadrupol]">  -6911.75701822 </i>
    <i name="Echarged">      0.00000000 </i>
    <i name="Edipol_quadrupol">      0.00000000 </i>
    <i name="Eion">      0.00000000 </i>
   </dipole>
   <energy>
    <i name="e_fr_energy">   -502.15449646 </i>
    <i name="e_wo_entrp">   -502.18192523 </i>
    <i name="e_0_energy">   -502.16363938 </i>
   </energy>
  </scstep>
  <scstep>
   <time name="diag">    1.88    1.89</time>
   <time name="diis">   10.73   10.79</time>
   <time name="orth">    0.43    0.43</time>
   <time name="total">   13.95   14.03</time>
   <dipole>
    <v name="dipole">      0.00000000       0.00000000      -0.05149511 </v>
    <i name="Tr[quadrupol]">  -6911.84285605 </i>
    <i name="Echarged">      0.00000000 </i>
    <i name="Edipol_quadrupol">      0.00000000 </i>
    <i name="Eion">      0.00000000 </i>
   </dipole>
   <energy>
    <i name="e_fr_energy">   -502.16315595 </i>
    <i name="e_wo_entrp">   -502.19104171 </i>
    <i name="e_0_energy">   -502.17245120 </i>
   </energy>
  </scstep>
  <scstep>
   <time name="diag">    1.88    1.89</time>
   <time name="diis">    9.38    9.43</time>
   <time name="orth">    0.43    0.44</time>
   <time name="total">   12.60   12.67</time>
   <dipole>
    <v name="dipole">      0.00000000       0.00000000      -0.04616822 </v>
    <i name="Tr[quadrupol]">  -6911.73279670 </i>
    <i name="Echarged">      0.00000000 </i>
    <i name="Edipol_quadrupol">      0.00000000 </i>
    <i name="Eion">      0.00000000 </i>
   </dipole>
   <energy>
    <i name="e_fr_energy">   -502.16733643 </i>
    <i name="e_wo_entrp">   -502.19509219 </i>
    <i name="e_0_energy">   -502.17658835 </i>
   </energy>
  </scstep>
  <scstep>
   <time name="diag">    1.89    1.91</time>
   <time name="diis">    9.33    9.39</time>
   <time name="orth">    0.43    0.44</time>
   <time name="total">   12.57   12.65</time>
   <dipole>
    <v name="dipole">      0.00000000       0.00000000      -0.04730706 </v>
    <i name="Tr[quadrupol]">  -6911.75450019 </i>
    <i name="Echarged">      0.00000000 </i>
    <i name="Edipol_quadrupol">      0.00000000 </i>
    <i name="Eion">      0.00000000 </i>
   </dipole>
   <energy>
    <i name="e_fr_energy">   -502.16871444 </i>
    <i name="e_wo_entrp">   -502.19654456 </i>
    <i name="e_0_energy">   -502.17799115 </i>
   </energy>
  </scstep>
  <scstep>
   <time name="diag">    1.90    1.91</time>
   <time name="diis">   11.25   11.31</time>
   <time name="orth">    0.44    0.44</time>
   <time name="total">   14.48   14.56</time>
   <dipole>
    <v name="dipole">      0.00000000       0.00000000      -0.04797799 </v>
    <i name="Tr[quadrupol]">  -6911.75734940 </i>
    <i name="Echarged">      0.00000000 </i>
    <i name="Edipol_quadrupol">      0.00000000 </i>
    <i name="Eion">      0.00000000 </i>
   </dipole>
   <energy>
    <i name="e_fr_energy">   -502.16869050 </i>
    <i name="e_wo_entrp">   -502.19642251 </i>
    <i name="e_0_energy">   -502.17793450 </i>
   </energy>
  </scstep>
  <scstep>
   <time name="diag">    1.88    1.89</time>
   <time name="diis">   10.94   11.00</time>
   <time name="orth">    0.43    0.43</time>
   <time name="total">   14.15   14.23</time>
   <dipole>
    <v name="dipole">      0.00000000       0.00000000      -0.04855192 </v>
    <i name="Tr[quadrupol]">  -6911.75556601 </i>
    <i name="Echarged">      0.00000000 </i>
    <i name="Edipol_quadrupol">      0.00000000 </i>
    <i name="Eion">      0.00000000 </i>
   </dipole>
   <energy>
    <i name="e_fr_energy">   -502.16854536 </i>
    <i name="e_wo_entrp">   -502.19626299 </i>
    <i name="e_0_energy">   -502.17778457 </i>
   </energy>
  </scstep>
  <scstep>
   <time name="diag">    1.88    1.90</time>
   <time name="diis">    9.86    9.91</time>
   <time name="orth">    0.44    0.44</time>
   <time name="total">   13.08   13.15</time>
   <dipole>
    <v name="dipole">      0.00000000       0.00000000      -0.04841339 </v>
    <i name="Tr[quadrupol]">  -6911.75256834 </i>
    <i name="Echarged">      0.00000000 </i>
    <i name="Edipol_quadrupol">      0.00000000 </i>
    <i name="Eion">      0.00000000 </i>
   </dipole>
   <energy>
    <i name="e_fr_energy">   -502.16846340 </i>
    <i name="e_wo_entrp">   -502.19612994 </i>
    <i name="e_0_energy">   -502.17768558 </i>
   </energy>
  </scstep>
  <scstep>
   <time name="diag">    1.88    1.90</time>
   <time name="diis">    9.24    9.30</time>
   <time name="orth">    0.43    0.44</time>
   <time name="total">   12.47   12.54</time>
   <dipole>
    <v name="dipole">      0.00000000       0.00000000      -0.04833960 </v>
    <i name="Tr[quadrupol]">  -6911.75987654 </i>
    <i name="Echarged">      0.00000000 </i>
    <i name="Edipol_quadrupol">      0.00000000 </i>
    <i name="Eion">      0.00000000 </i>
   </dipole>
   <energy>
    <i name="e_fr_energy">   -502.16844195 </i>
    <i name="e_wo_entrp">   -502.19612759 </i>
    <i name="e_0_energy">   -502.17767050 </i>
   </energy>
  </scstep>
  <scstep>
   <time name="diag">    1.90    1.91</time>
   <time name="diis">    7.98    8.03</time>
   <time name="orth">    0.43    0.44</time>
   <time name="total">   11.23   11.30</time>
   <dipole>
    <v name="dipole">      0.00000000       0.00000000      -0.04862113 </v>
    <i name="Tr[quadrupol]">  -6911.76598868 </i>
    <i name="Echarged">      0.00000000 </i>
    <i name="Edipol_quadrupol">      0.00000000 </i>
    <i name="Eion">      0.00000000 </i>
   </dipole>
   <energy>
    <i name="e_fr_energy">   -502.16845857 </i>
    <i name="e_wo_entrp">   -502.19613958 </i>
    <i name="e_0_energy">   -502.17768557 </i>
   </energy>
  </scstep>
  <scstep>
   <time name="diag">    1.90    1.91</time>
   <time name="diis">    7.69    7.73</time>
   <time name="orth">    0.43    0.43</time>
   <time name="total">   10.92   10.98</time>
   <dipole>
    <v name="dipole">      0.00000000       0.00000000      -0.04830612 </v>
    <i name="Tr[quadrupol]">  -6911.77210614 </i>
    <i name="Echarged">      0.00000000 </i>
    <i name="Edipol_quadrupol">      0.00000000 </i>
    <i name="Eion">      0.00000000 </i>
   </dipole>
   <energy>
    <i name="e_fr_energy">   -502.16849695 </i>
    <i name="e_wo_entrp">   -502.19618572 </i>
    <i name="e_0_energy">   -502.17772654 </i>
   </energy>
  </scstep>
  <scstep>
   <time name="diag">    1.91    1.92</time>
   <time name="diis">    6.21    6.25</time>
   <time name="orth">    0.43    0.43</time>
   <time name="total">    9.46    9.51</time>
   <dipole>
    <v name="dipole">      0.00000000       0.00000000      -0.04844388 </v>
    <i name="Tr[quadrupol]">  -6911.78519585 </i>
    <i name="Echarged">      0.00000000 </i>
    <i name="Edipol_quadrupol">      0.00000000 </i>
    <i name="Eion">      0.00000000 </i>
   </dipole>
   <energy>
    <i name="e_fr_energy">   -502.16852258 </i>
    <i name="e_wo_entrp">   -502.19621109 </i>
    <i name="e_0_energy">   -502.17775208 </i>
   </energy>
  </scstep>
  <scstep>
   <time name="diag">    1.91    1.92</time>
   <time name="diis">    5.03    5.06</time>
   <time name="orth">    0.43    0.43</time>
   <time name="total">    7.78    7.82</time>
   <dipole>
    <v name="dipole">      0.00000000       0.00000000      -0.04857404 </v>
    <i name="Tr[quadrupol]">  -6911.79161965 </i>
    <i name="Echarged">      0.00000000 </i>
    <i name="Edipol_quadrupol">      0.00000000 </i>
    <i name="Eion">      0.00000000 </i>
   </dipole>
   <energy>
    <i name="alphaZ">   1737.16424359 </i>
    <i name="ewald"> 205908.52415272 </i>
    <i name="hartreedc">-255284.78429491 </i>
    <i name="XCdc">    963.77381874 </i>
    <i name="pawpsdc">  53738.35725271 </i>
    <i name="pawaedc"> -54875.66322450 </i>
    <i name="eentropy">      0.02768329 </i>
    <i name="bandstr">  -4287.22787091 </i>
    <i name="atom">  51597.65971741 </i>
    <i name="e_fr_energy">   -502.16852187 </i>
    <i name="e_wo_entrp">   -502.19620516 </i>
    <i name="e_0_energy">   -502.17774963 </i>
   </energy>
  </scstep>
  <structure>
   <crystal>
    <varray name="basis" >
     <v>       8.50460000       0.00000000       0.00000000 </v>
     <v>      -0.00109914       8.50909993       0.00000000 </v>
     <v>       0.00000000       0.00000000      23.55660100 </v>
    </varray>
    <i name="volume">   1704.70856049 </i>
    <varray name="rec_basis" >
     <v>       0.11758343       0.00001519       0.00000000 </v>
     <v>       0.00000000       0.11752124       0.00000000 </v>
     <v>       0.00000000       0.00000000       0.04245095 </v>
    </varray>
   </crystal>
   <varray name="positions" >
    <v>       0.99760000       0.00330000       0.24221000 </v>
    <v>       0.66561000       0.99834000       0.00060000 </v>
    <v>       0.65656395       0.98919044       0.36950802 </v>
    <v>       0.83467000       0.16589000       0.18209000 </v>
    <v>       0.99866000       0.33404000       0.12198000 </v>
    <v>       0.33421000       0.33147000       0.00101000 </v>
    <v>       0.33446935       0.33581254       0.36437009 </v>
    <v>       0.83220000       0.50025000       0.06275000 </v>
    <v>       0.83195387       0.49880257       0.30338543 </v>
    <v>       0.33512000       0.67037000       0.00000000 </v>
    <v>       0.34735473       0.67037883       0.36999315 </v>
    <v>       0.33145000       0.66488000       0.12292000 </v>
    <v>       0.50112558       0.83267031       0.30563309 </v>
    <v>       0.67111000       0.66550000       0.12148000 </v>
    <v>       0.99950000       0.00032000       0.00103000 </v>
    <v>       0.99960970       0.00126857       0.36058546 </v>
    <v>       0.16670000       0.16592000       0.06160000 </v>
    <v>       0.99930000       0.00013000       0.12183000 </v>
    <v>       0.16670000       0.16692000       0.18170000 </v>
    <v>       0.16332832       0.16702353       0.30282183 </v>
    <v>       0.33368000       0.99986000       0.00108000 </v>
    <v>       0.32775160       0.00941520       0.36163372 </v>
    <v>       0.50008000       0.16606000       0.06164000 </v>
    <v>       0.33365000       0.99945000       0.12194000 </v>
    <v>       0.50013000       0.16657000       0.18176000 </v>
    <v>       0.33374000       0.99994000       0.24252000 </v>
    <v>       0.50091580       0.16825219       0.30330750 </v>
    <v>       0.83412000       0.16807000       0.06130000 </v>
    <v>       0.66767000       0.99972000       0.12168000 </v>
    <v>       0.66792000       0.00032000       0.24233000 </v>
    <v>       0.83223420       0.16755435       0.30393557 </v>
    <v>       0.00033000       0.33346000       0.00076000 </v>
    <v>       0.00843255       0.32883584       0.36396434 </v>
    <v>       0.16704000       0.50116000       0.06077000 </v>
    <v>       0.16627000       0.49940000       0.18238000 </v>
    <v>       0.00000000       0.33319000       0.24260000 </v>
    <v>       0.16714841       0.50005918       0.30356309 </v>
    <v>       0.49811000       0.50186000       0.06112000 </v>
    <v>       0.33328000       0.33434000       0.12148000 </v>
    <v>       0.50051000       0.50053000       0.18145000 </v>
    <v>       0.33392000       0.33269000       0.24229000 </v>
    <v>       0.50516253       0.49955583       0.30098715 </v>
    <v>       0.66687000       0.33418000       0.00129000 </v>
    <v>       0.66395184       0.33308942       0.36070659 </v>
    <v>       0.66670000       0.33332000       0.12177000 </v>
    <v>       0.83466000       0.49916000       0.18181000 </v>
    <v>       0.66748000       0.33291000       0.24234000 </v>
    <v>       0.99949000       0.66581000       0.00112000 </v>
    <v>       0.00041496       0.66260499       0.35938336 </v>
    <v>       0.16773000       0.83295000       0.06141000 </v>
    <v>       0.00149000       0.66672000       0.12196000 </v>
    <v>       0.16592000       0.83389000       0.18235000 </v>
    <v>       0.99950000       0.66635000       0.24245000 </v>
    <v>       0.16550752       0.83335143       0.30325166 </v>
    <v>       0.49825000       0.83185000       0.06189000 </v>
    <v>       0.50064000       0.83335000       0.18189000 </v>
    <v>       0.33424000       0.66627000       0.24239000 </v>
    <v>       0.66521000       0.66629000       0.00100000 </v>
    <v>       0.83382000       0.83268000       0.06128000 </v>
    <v>       0.83390000       0.83311000       0.18191000 </v>
    <v>       0.66721000       0.66675000       0.24221000 </v>
    <v>       0.83375112       0.83034403       0.30274188 </v>
   </varray>
  </structure>
  <varray name="forces" >
   <v>      -0.00597986      -0.15315482       0.06490192 </v>
   <v>       0.05365797       0.04196065      -0.18466714 </v>
   <v>      -0.04170347      -0.02854659      -0.05686556 </v>
   <v>       0.02816587       0.14424329      -0.19296253 </v>
   <v>      -0.07221000      -0.04363581       0.25987717 </v>
   <v>      -0.04677152      -0.33495447      -0.09851489 </v>
   <v>      -0.01689528      -0.04913608      -0.00942106 </v>
   <v>      -0.01747777       0.01520516      -0.17695089 </v>
   <v>      -0.00028437       0.01278481       0.02488242 </v>
   <v>      -0.09469813       0.22004534      -0.23037704 </v>
   <v>       0.00637251       0.13037904      -0.01196166 </v>
   <v>      -0.03342008       0.03110278       0.08994299 </v>
   <v>      -0.05328718       0.02963201      -0.06731157 </v>
   <v>       0.08751108      -0.00080672       0.07945337 </v>
   <v>      -0.01447182      -0.00928369       0.42959382 </v>
   <v>      -0.01822051       0.00444793      -0.00387077 </v>
   <v>      -0.26956983      -0.14198933      -0.39968151 </v>
   <v>      -0.01214094       0.02463178       0.10515064 </v>
   <v>       0.01173570       0.02348459      -0.05655389 </v>
   <v>       0.02394925      -0.07743538       0.08970526 </v>
   <v>       0.05235518      -0.02205203       0.53664228 </v>
   <v>      -0.05192777       0.04487571       0.01052784 </v>
   <v>       0.06574231       0.07331172      -0.19366982 </v>
   <v>       0.05000083       0.04464902      -0.02354914 </v>
   <v>      -0.02573852       0.01843332      -0.04429101 </v>
   <v>       0.05180570       0.01837706       0.02870927 </v>
   <v>      -0.00794780       0.00165452       0.03142684 </v>
   <v>       0.17123344       0.08384100      -0.36646697 </v>
   <v>      -0.04198962      -0.02566279       0.21661506 </v>
   <v>       0.01894162      -0.09708897       0.13969227 </v>
   <v>      -0.04549634      -0.05401461       0.03647247 </v>
   <v>       0.14400834      -0.01801680       0.37575225 </v>
   <v>       0.02284093      -0.00378624      -0.03141995 </v>
   <v>      -0.26596882       0.03686352      -0.46155223 </v>
   <v>      -0.06160378      -0.06474265      -0.07614625 </v>
   <v>      -0.08579606       0.10458337       0.10395646 </v>
   <v>      -0.04460336       0.03288794      -0.00206977 </v>
   <v>       0.32559038      -0.01179750      -0.33485475 </v>
   <v>       0.00037515      -0.03704053       0.24775471 </v>
   <v>       0.05130485      -0.02519366      -0.13896700 </v>
   <v>       0.10913586       0.06828436      -0.03037844 </v>
   <v>       0.10710158      -0.00459798      -0.07603705 </v>
   <v>      -0.11817215       0.01276603       0.41295569 </v>
   <v>       0.00978310      -0.04929722       0.01289532 </v>
   <v>       0.03664479      -0.06398492       0.08788521 </v>
   <v>      -0.02499072       0.05526540      -0.09269696 </v>
   <v>      -0.10658635      -0.00982227      -0.10905525 </v>
   <v>       0.09269398       0.02808043       0.39389003 </v>
   <v>       0.06558908       0.01199875       0.02466464 </v>
   <v>      -0.25895814       0.17967155      -0.32187472 </v>
   <v>      -0.03583189       0.01342172       0.13510685 </v>
   <v>       0.03437938       0.02167645       0.02688996 </v>
   <v>      -0.02582647       0.11665375      -0.18192833 </v>
   <v>      -0.04365102       0.02601977       0.00768310 </v>
   <v>      -0.00250773      -0.08213002      -0.08272992 </v>
   <v>      -0.01136003       0.02555764      -0.20536136 </v>
   <v>       0.03256453      -0.13064427       0.22851809 </v>
   <v>      -0.05684799       0.00170960       0.42500320 </v>
   <v>       0.24653217      -0.09214277      -0.29031800 </v>
   <v>      -0.00035099      -0.03698142      -0.02396617 </v>
   <v>       0.09826557      -0.00618713      -0.04163480 </v>
   <v>       0.01500515      -0.02437338      -0.00844274 </v>
  </varray>
  <varray name="stress" >
   <v>     -19.82266614      -0.24926016      -0.16174580 </v>
   <v>      -0.24926038     -20.73045889       0.22381731 </v>
   <v>      -0.16174602       0.22381710      -4.58157221 </v>
  </varray>
  <energy>
   <i name="e_fr_energy">   -502.16852187 </i>
   <i name="e_wo_entrp">   -502.19620516 </i>
   <i name="e_0_energy">   -502.17774963 </i>
  </energy>
  <time name="totalsc">  202.89  204.08</time>
 </calculation>
 <calculation>
  <scstep>
   <time name="dav">   16.74   16.84</time>
   <time name="total">   17.66   17.77</time>
   <dipole>
    <v name="dipole">      0.00000000       0.00000000      -0.04842913 </v>
    <i name="Tr[quadrupol]">  -6910.29855284 </i>
    <i name="Echarged">      0.00000000 </i>
    <i name="Edipol_quadrupol">      0.00000000 </i>
    <i name="Eion">      0.00000000 </i>
   </dipole>
   <energy>
    <i name="alphaZ">   1737.36420253 </i>
    <i name="ewald"> 205937.50124921 </i>
    <i name="hartreedc">-255313.61598165 </i>
    <i name="XCdc">    963.79841262 </i>
    <i name="pawpsdc">  53737.74068270 </i>
    <i name="pawaedc"> -54875.04659729 </i>
    <i name="eentropy">      0.02771253 </i>
    <i name="bandstr">  -4287.45744535 </i>
    <i name="atom">  51597.65971741 </i>
    <i name="e_fr_energy">   -502.02804728 </i>
    <i name="e_wo_entrp">   -502.05575981 </i>
    <i name="e_0_energy">   -502.03728479 </i>
   </energy>
  </scstep>
  <scstep>
   <time name="diag">    1.90    1.91</time>
   <time name="diis">    8.45    8.50</time>
   <time name="orth">    0.44    0.44</time>
   <time name="total">   11.71   11.78</time>
   <dipole>
    <v name="dipole">      0.00000000       0.00000000      -0.04677435 </v>
    <i name="Tr[quadrupol]">  -6910.28387375 </i>
    <i name="Echarged">      0.00000000 </i>
    <i name="Edipol_quadrupol">      0.00000000 </i>
    <i name="Eion">      0.00000000 </i>
   </dipole>
   <energy>
    <i name="e_fr_energy">   -502.14021275 </i>
    <i name="e_wo_entrp">   -502.16788579 </i>
    <i name="e_0_energy">   -502.14943710 </i>
   </energy>
  </scstep>
  <scstep>
   <time name="diag">    1.90    1.91</time>
   <time name="diis">    9.85    9.91</time>
   <time name="orth">    0.44    0.44</time>
   <time name="total">   13.08   13.16</time>
   <dipole>
    <v name="dipole">      0.00000000       0.00000000      -0.06763664 </v>
    <i name="Tr[quadrupol]">  -6910.25732829 </i>
    <i name="Echarged">      0.00000000 </i>
    <i name="Edipol_quadrupol">      0.00000000 </i>
    <i name="Eion">      0.00000000 </i>
   </dipole>
   <energy>
    <i name="e_fr_energy">   -502.17423722 </i>
    <i name="e_wo_entrp">   -502.20081154 </i>
    <i name="e_0_energy">   -502.18309532 </i>
   </energy>
  </scstep>
  <scstep>
   <time name="diag">    1.88    1.89</time>
   <time name="diis">    9.97   10.03</time>
   <time name="orth">    0.43    0.44</time>
   <time name="total">   13.19   13.27</time>
   <dipole>
    <v name="dipole">      0.00000000       0.00000000      -0.02961399 </v>
    <i name="Tr[quadrupol]">  -6910.29321497 </i>
    <i name="Echarged">      0.00000000 </i>
    <i name="Edipol_quadrupol">      0.00000000 </i>
    <i name="Eion">      0.00000000 </i>
   </dipole>
   <energy>
    <i name="e_fr_energy">   -502.17762514 </i>
    <i name="e_wo_entrp">   -502.20558821 </i>
    <i name="e_0_energy">   -502.18694616 </i>
   </energy>
  </scstep>
  <scstep>
   <time name="diag">    1.88    1.89</time>
   <time name="diis">    9.62    9.67</time>
   <time name="orth">    0.43    0.43</time>
   <time name="total">   12.83   12.90</time>
   <dipole>
    <v name="dipole">      0.00000000       0.00000000      -0.05034835 </v>
    <i name="Tr[quadrupol]">  -6910.28516585 </i>
    <i name="Echarged">      0.00000000 </i>
    <i name="Edipol_quadrupol">      0.00000000 </i>
    <i name="Eion">      0.00000000 </i>
   </dipole>
   <energy>
    <i name="e_fr_energy">   -502.17282750 </i>
    <i name="e_wo_entrp">   -502.20034492 </i>
    <i name="e_0_energy">   -502.18199998 </i>
   </energy>
  </scstep>
  <scstep>
   <time name="diag">    1.87    1.89</time>
   <time name="diis">    9.30    9.35</time>
   <time name="orth">    0.43    0.43</time>
   <time name="total">   12.52   12.59</time>
   <dipole>
    <v name="dipole">      0.00000000       0.00000000      -0.04710604 </v>
    <i name="Tr[quadrupol]">  -6910.26701417 </i>
    <i name="Echarged">      0.00000000 </i>
    <i name="Edipol_quadrupol">      0.00000000 </i>
    <i name="Eion">      0.00000000 </i>
   </dipole>
   <energy>
    <i name="e_fr_energy">   -502.17628080 </i>
    <i name="e_wo_entrp">   -502.20376762 </i>
    <i name="e_0_energy">   -502.18544307 </i>
   </energy>
  </scstep>
  <scstep>
   <time name="diag">    1.89    1.90</time>
   <time name="diis">   10.24   10.30</time>
   <time name="orth">    0.43    0.43</time>
   <time name="total">   13.47   13.55</time>
   <dipole>
    <v name="dipole">      0.00000000       0.00000000      -0.04921068 </v>
    <i name="Tr[quadrupol]">  -6910.27479591 </i>
    <i name="Echarged">      0.00000000 </i>
    <i name="Edipol_quadrupol">      0.00000000 </i>
    <i name="Eion">      0.00000000 </i>
   </dipole>
   <energy>
    <i name="e_fr_energy">   -502.17635276 </i>
    <i name="e_wo_entrp">   -502.20387490 </i>
    <i name="e_0_energy">   -502.18552681 </i>
   </energy>
  </scstep>
  <scstep>
   <time name="diag">    1.89    1.90</time>
   <time name="diis">   10.77   10.84</time>
   <time name="orth">    0.43    0.44</time>
   <time name="total">   14.00   14.08</time>
   <dipole>
    <v name="dipole">      0.00000000       0.00000000      -0.04866192 </v>
    <i name="Tr[quadrupol]">  -6910.25905322 </i>
    <i name="Echarged">      0.00000000 </i>
    <i name="Edipol_quadrupol">      0.00000000 </i>
    <i name="Eion">      0.00000000 </i>
   </dipole>
   <energy>
    <i name="e_fr_energy">   -502.17631680 </i>
    <i name="e_wo_entrp">   -502.20380323 </i>
    <i name="e_0_energy">   -502.18547894 </i>
   </energy>
  </scstep>
  <scstep>
   <time name="diag">    1.89    1.90</time>
   <time name="diis">    9.75    9.81</time>
   <time name="orth">    0.43    0.44</time>
   <time name="total">   12.98   13.06</time>
   <dipole>
    <v name="dipole">      0.00000000       0.00000000      -0.04847844 </v>
    <i name="Tr[quadrupol]">  -6910.26835011 </i>
    <i name="Echarged">      0.00000000 </i>
    <i name="Edipol_quadrupol">      0.00000000 </i>
    <i name="Eion">      0.00000000 </i>
   </dipole>
   <energy>
    <i name="e_fr_energy">   -502.17619433 </i>
    <i name="e_wo_entrp">   -502.20367869 </i>
    <i name="e_0_energy">   -502.18535578 </i>
   </energy>
  </scstep>
  <scstep>
   <time name="diag">    1.88    1.90</time>
   <time name="diis">    9.04    9.10</time>
   <time name="orth">    0.44    0.44</time>
   <time name="total">   12.27   12.34</time>
   <dipole>
    <v name="dipole">      0.00000000       0.00000000      -0.04855025 </v>
    <i name="Tr[quadrupol]">  -6910.26350787 </i>
    <i name="Echarged">      0.00000000 </i>
    <i name="Edipol_quadrupol">      0.00000000 </i>
    <i name="Eion">      0.00000000 </i>
   </dipole>
   <energy>
    <i name="e_fr_energy">   -502.17608398 </i>
    <i name="e_wo_entrp">   -502.20356738 </i>
    <i name="e_0_energy">   -502.18524512 </i>
   </energy>
  </scstep>
  <scstep>
   <time name="diag">    1.91    1.92</time>
   <time name="diis">    8.55    8.60</time>
   <time name="orth">    0.43    0.44</time>
   <time name="total">   11.80   11.87</time>
   <dipole>
    <v name="dipole">      0.00000000       0.00000000      -0.04892235 </v>
    <i name="Tr[quadrupol]">  -6910.27782758 </i>
    <i name="Echarged">      0.00000000 </i>
    <i name="Edipol_quadrupol">      0.00000000 </i>
    <i name="Eion">      0.00000000 </i>
   </dipole>
   <energy>
    <i name="e_fr_energy">   -502.17607751 </i>
    <i name="e_wo_entrp">   -502.20353830 </i>
    <i name="e_0_energy">   -502.18523111 </i>
   </energy>
  </scstep>
  <scstep>
   <time name="diag">    1.90    1.91</time>
   <time name="diis">    7.51    7.55</time>
   <time name="orth">    0.44    0.44</time>
   <time name="total">   10.75   10.82</time>
   <dipole>
    <v name="dipole">      0.00000000       0.00000000      -0.04870549 </v>
    <i name="Tr[quadrupol]">  -6910.28492893 </i>
    <i name="Echarged">      0.00000000 </i>
    <i name="Edipol_quadrupol">      0.00000000 </i>
    <i name="Eion">      0.00000000 </i>
   </dipole>
   <energy>
    <i name="e_fr_energy">   -502.17608977 </i>
    <i name="e_wo_entrp">   -502.20356313 </i>
    <i name="e_0_energy">   -502.18524756 </i>
   </energy>
  </scstep>
  <scstep>
   <time name="diag">    1.90    1.91</time>
   <time name="diis">    6.91    6.95</time>
   <time name="orth">    0.43    0.43</time>
   <time name="total">   10.14   10.20</time>
   <dipole>
    <v name="dipole">      0.00000000       0.00000000      -0.04885541 </v>
    <i name="Tr[quadrupol]">  -6910.29208029 </i>
    <i name="Echarged">      0.00000000 </i>
    <i name="Edipol_quadrupol">      0.00000000 </i>
    <i name="Eion">      0.00000000 </i>
   </dipole>
   <energy>
    <i name="e_fr_energy">   -502.17611544 </i>
    <i name="e_wo_entrp">   -502.20358387 </i>
    <i name="e_0_energy">   -502.18527158 </i>
   </energy>
  </scstep>
  <scstep>
   <time name="diag">    1.90    1.91</time>
   <time name="diis">    5.37    5.40</time>
   <time name="orth">    0.43    0.43</time>
   <time name="total">    8.11    8.15</time>
   <dipole>
    <v name="dipole">      0.00000000       0.00000000      -0.04904440 </v>
    <i name="Tr[quadrupol]">  -6910.30675215 </i>
    <i name="Echarged">      0.00000000 </i>
    <i name="Edipol_quadrupol">      0.00000000 </i>
    <i name="Eion">      0.00000000 </i>
   </dipole>
   <energy>
    <i name="alphaZ">   1737.36011808 </i>
    <i name="ewald"> 205937.50124921 </i>
    <i name="hartreedc">-255313.97166747 </i>
    <i name="XCdc">    963.78104180 </i>
    <i name="pawpsdc">  53739.99460305 </i>
    <i name="pawaedc"> -54877.29775788 </i>
    <i name="eentropy">      0.02746078 </i>
    <i name="bandstr">  -4287.23088941 </i>
    <i name="atom">  51597.65971741 </i>
    <i name="e_fr_energy">   -502.17612444 </i>
    <i name="e_wo_entrp">   -502.20358521 </i>
    <i name="e_0_energy">   -502.18527803 </i>
   </energy>
  </scstep>
  <structure>
   <crystal>
    <varray name="basis" >
     <v>       8.50460000       0.00000000       0.00000000 </v>
     <v>      -0.00109914       8.50909993       0.00000000 </v>
     <v>       0.00000000       0.00000000      23.55660100 </v>
    </varray>
    <i name="volume">   1704.70856049 </i>
    <varray name="rec_basis" >
     <v>       0.11758343       0.00001519       0.00000000 </v>
     <v>       0.00000000       0.11752124       0.00000000 </v>
     <v>       0.00000000       0.00000000       0.04245095 </v>
    </varray>
   </crystal>
   <varray name="positions" >
    <v>       0.99760000       0.00330000       0.24221000 </v>
    <v>       0.66561000       0.99834000       0.00060000 </v>
    <v>       0.65547276       0.98803942       0.36923179 </v>
    <v>       0.83467000       0.16589000       0.18209000 </v>
    <v>       0.99866000       0.33404000       0.12198000 </v>
    <v>       0.33421000       0.33147000       0.00101000 </v>
    <v>       0.33439460       0.33578658       0.36426456 </v>
    <v>       0.83220000       0.50025000       0.06275000 </v>
    <v>       0.83212801       0.49872618       0.30347181 </v>
    <v>       0.33512000       0.67037000       0.00000000 </v>
    <v>       0.34814909       0.67216806       0.36993262 </v>
    <v>       0.33145000       0.66488000       0.12292000 </v>
    <v>       0.50035434       0.83317577       0.30506670 </v>
    <v>       0.67111000       0.66550000       0.12148000 </v>
    <v>       0.99950000       0.00032000       0.00103000 </v>
    <v>       0.99924143       0.00137469       0.36062811 </v>
    <v>       0.16670000       0.16592000       0.06160000 </v>
    <v>       0.99930000       0.00013000       0.12183000 </v>
    <v>       0.16670000       0.16692000       0.18170000 </v>
    <v>       0.16336220       0.16620438       0.30304175 </v>
    <v>       0.33368000       0.99986000       0.00108000 </v>
    <v>       0.32638932       0.01055048       0.36192913 </v>
    <v>       0.50008000       0.16606000       0.06164000 </v>
    <v>       0.33365000       0.99945000       0.12194000 </v>
    <v>       0.50013000       0.16657000       0.18176000 </v>
    <v>       0.33374000       0.99994000       0.24252000 </v>
    <v>       0.50055880       0.16815221       0.30352277 </v>
    <v>       0.83412000       0.16807000       0.06130000 </v>
    <v>       0.66767000       0.99972000       0.12168000 </v>
    <v>       0.66792000       0.00032000       0.24233000 </v>
    <v>       0.83169657       0.16708074       0.30401694 </v>
    <v>       0.00033000       0.33346000       0.00076000 </v>
    <v>       0.00888392       0.32868936       0.36387287 </v>
    <v>       0.16704000       0.50116000       0.06077000 </v>
    <v>       0.16627000       0.49940000       0.18238000 </v>
    <v>       0.00000000       0.33319000       0.24260000 </v>
    <v>       0.16676231       0.50045413       0.30350476 </v>
    <v>       0.49811000       0.50186000       0.06112000 </v>
    <v>       0.33328000       0.33434000       0.12148000 </v>
    <v>       0.50051000       0.50053000       0.18145000 </v>
    <v>       0.33392000       0.33269000       0.24229000 </v>
    <v>       0.50630451       0.49946308       0.30078547 </v>
    <v>       0.66687000       0.33418000       0.00129000 </v>
    <v>       0.66402406       0.33236015       0.36083563 </v>
    <v>       0.66670000       0.33332000       0.12177000 </v>
    <v>       0.83466000       0.49916000       0.18181000 </v>
    <v>       0.66748000       0.33291000       0.24234000 </v>
    <v>       0.99949000       0.66581000       0.00112000 </v>
    <v>       0.00132456       0.66257507       0.35952494 </v>
    <v>       0.16773000       0.83295000       0.06141000 </v>
    <v>       0.00149000       0.66672000       0.12196000 </v>
    <v>       0.16592000       0.83389000       0.18235000 </v>
    <v>       0.99950000       0.66635000       0.24245000 </v>
    <v>       0.16510139       0.83376227       0.30331817 </v>
    <v>       0.49825000       0.83185000       0.06189000 </v>
    <v>       0.50064000       0.83335000       0.18189000 </v>
    <v>       0.33424000       0.66627000       0.24239000 </v>
    <v>       0.66521000       0.66629000       0.00100000 </v>
    <v>       0.83382000       0.83268000       0.06128000 </v>
    <v>       0.83390000       0.83311000       0.18191000 </v>
    <v>       0.66721000       0.66675000       0.24221000 </v>
    <v>       0.83416204       0.82998158       0.30272422 </v>
   </varray>
  </structure>
  <varray name="forces" >
   <v>      -0.00937853      -0.15555379       0.06187838 </v>
   <v>       0.05353985       0.04216252      -0.18482953 </v>
   <v>      -0.04124332      -0.03001126      -0.05073653 </v>
   <v>       0.02658629       0.14362181      -0.19290045 </v>
   <v>      -0.07394515      -0.04370214       0.25751126 </v>
   <v>      -0.04602014      -0.33550097      -0.09879003 </v>
   <v>      -0.02089650      -0.01468411      -0.01268167 </v>
   <v>      -0.01672877       0.01405557      -0.17824710 </v>
   <v>       0.00162427       0.01079704       0.02267546 </v>
   <v>      -0.09515849       0.22021407      -0.23062096 </v>
   <v>       0.01179577       0.08188273      -0.04286566 </v>
   <v>      -0.03225873       0.03069929       0.09060318 </v>
   <v>      -0.02371674       0.01303371      -0.00959176 </v>
   <v>       0.08546959       0.00023528       0.08268316 </v>
   <v>      -0.01515112      -0.00918084       0.42984175 </v>
   <v>      -0.03012427      -0.01310654       0.02158305 </v>
   <v>      -0.26920124      -0.14166187      -0.39966693 </v>
   <v>      -0.01350794       0.02409845       0.10473803 </v>
   <v>       0.01177424       0.02609866      -0.04767345 </v>
   <v>      -0.00192651      -0.00477910       0.01440906 </v>
   <v>       0.05225568      -0.02184304       0.53688210 </v>
   <v>      -0.00508443       0.01701024       0.02457566 </v>
   <v>       0.06586200       0.07285580      -0.19301791 </v>
   <v>       0.05036979       0.04348052      -0.02375958 </v>
   <v>      -0.02964803       0.01827607      -0.03912118 </v>
   <v>       0.03443641       0.03486790       0.01462880 </v>
   <v>      -0.00008485       0.00522875      -0.00936434 </v>
   <v>       0.17182545       0.08399993      -0.36650755 </v>
   <v>      -0.04167661      -0.02631397       0.21757667 </v>
   <v>       0.02328710      -0.09568699       0.13658836 </v>
   <v>      -0.01201556      -0.02695070       0.01892789 </v>
   <v>       0.14354277      -0.01815414       0.37714970 </v>
   <v>       0.00802478       0.00051240      -0.02107200 </v>
   <v>      -0.26608273       0.03681176      -0.46128817 </v>
   <v>      -0.06000077      -0.06708703      -0.07383795 </v>
   <v>      -0.08945893       0.08431896       0.11924636 </v>
   <v>       0.02238703       0.00939010       0.01487088 </v>
   <v>       0.32557989      -0.01100675      -0.33479643 </v>
   <v>       0.00074110      -0.03649751       0.24720589 </v>
   <v>       0.04893293      -0.02727145      -0.14423190 </v>
   <v>       0.10665186       0.06261863      -0.00968701 </v>
   <v>       0.02013944       0.00183719      -0.00850915 </v>
   <v>      -0.11782144       0.01343411       0.41291815 </v>
   <v>       0.00898087      -0.03944399       0.00626838 </v>
   <v>       0.03756483      -0.06458560       0.08883212 </v>
   <v>      -0.02150127       0.05118747      -0.09215536 </v>
   <v>      -0.09409118      -0.03138114      -0.10728729 </v>
   <v>       0.09200264       0.02818929       0.39399794 </v>
   <v>       0.03693488       0.02339999       0.02548224 </v>
   <v>      -0.25808619       0.17991735      -0.32129316 </v>
   <v>      -0.03641915       0.01389205       0.13457554 </v>
   <v>       0.03397962       0.02462653       0.02733877 </v>
   <v>      -0.02621292       0.11753815      -0.18672800 </v>
   <v>      -0.01530631       0.00223573      -0.01423549 </v>
   <v>      -0.00240051      -0.08176783      -0.08145029 </v>
   <v>      -0.01356880       0.02726519      -0.22007678 </v>
   <v>       0.01992328      -0.13635148       0.22465038 </v>
   <v>      -0.05644900       0.00118566       0.42435205 </v>
   <v>       0.24705563      -0.09154806      -0.29066864 </v>
   <v>      -0.00005748      -0.03409840      -0.02809886 </v>
   <v>       0.11547094       0.00957295      -0.05129779 </v>
   <v>      -0.02151532      -0.01238314      -0.00490231 </v>
  </varray>
  <varray name="stress" >
   <v>     -19.75367155      -0.29135808      -0.14933999 </v>
   <v>      -0.29135848     -20.66379389       0.20096034 </v>
   <v>      -0.14933965       0.20096080      -4.55063503 </v>
  </varray>
  <energy>
   <i name="e_fr_energy">   -502.17612444 </i>
   <i name="e_wo_entrp">   -502.20358521 </i>
   <i name="e_0_energy">   -502.18527803 </i>
  </energy>
  <time name="totalsc">  190.64  191.77</time>
 </calculation>
 <calculation>
  <scstep>
   <time name="dav">   16.71   16.82</time>
   <time name="total">   17.64   17.74</time>
   <dipole>
    <v name="dipole">      0.00000000       0.00000000      -0.04902091 </v>
    <i name="Tr[quadrupol]">  -6909.14309148 </i>
    <i name="Echarged">      0.00000000 </i>
    <i name="Edipol_quadrupol">      0.00000000 </i>
    <i name="Eion">      0.00000000 </i>
   </dipole>
   <energy>
    <i name="alphaZ">   1737.56130327 </i>
    <i name="ewald"> 205955.90568734 </i>
    <i name="hartreedc">-255332.28160760 </i>
    <i name="XCdc">    963.79508000 </i>
    <i name="pawpsdc">  53739.86929704 </i>
    <i name="pawaedc"> -54877.17256923 </i>
    <i name="eentropy">      0.02743576 </i>
    <i name="bandstr">  -4287.48254522 </i>
    <i name="atom">  51597.65971741 </i>
    <i name="e_fr_energy">   -502.11820123 </i>
    <i name="e_wo_entrp">   -502.14563699 </i>
    <i name="e_0_energy">   -502.12734649 </i>
   </energy>
  </scstep>
  <scstep>
   <time name="diag">    1.89    1.90</time>
   <time name="diis">    8.45    8.50</time>
   <time name="orth">    0.43    0.44</time>
   <time name="total">   11.69   11.77</time>
   <dipole>
    <v name="dipole">      0.00000000       0.00000000      -0.04732175 </v>
    <i name="Tr[quadrupol]">  -6909.11885289 </i>
    <i name="Echarged">      0.00000000 </i>
    <i name="Edipol_quadrupol">      0.00000000 </i>
    <i name="Eion">      0.00000000 </i>
   </dipole>
   <energy>
    <i name="e_fr_energy">   -502.16324064 </i>
    <i name="e_wo_entrp">   -502.19067828 </i>
    <i name="e_0_energy">   -502.17238652 </i>
   </energy>
  </scstep>
  <scstep>
   <time name="diag">    1.91    1.92</time>
   <time name="diis">    9.88    9.94</time>
   <time name="orth">    0.43    0.44</time>
   <time name="total">   13.13   13.20</time>
   <dipole>
    <v name="dipole">      0.00000000       0.00000000      -0.06756602 </v>
    <i name="Tr[quadrupol]">  -6909.09195421 </i>
    <i name="Echarged">      0.00000000 </i>
    <i name="Edipol_quadrupol">      0.00000000 </i>
    <i name="Eion">      0.00000000 </i>
   </dipole>
   <energy>
    <i name="e_fr_energy">   -502.18172304 </i>
    <i name="e_wo_entrp">   -502.20813367 </i>
    <i name="e_0_energy">   -502.19052658 </i>
   </energy>
  </scstep>
  <scstep>
   <time name="diag">    1.89    1.90</time>
   <time name="diis">    9.02    9.08</time>
   <time name="orth">    0.44    0.44</time>
   <time name="total">   12.26   12.33</time>
   <dipole>
    <v name="dipole">      0.00000000       0.00000000      -0.04133128 </v>
    <i name="Tr[quadrupol]">  -6909.12887679 </i>
    <i name="Echarged">      0.00000000 </i>
    <i name="Edipol_quadrupol">      0.00000000 </i>
    <i name="Eion">      0.00000000 </i>
   </dipole>
   <energy>
    <i name="e_fr_energy">   -502.17586419 </i>
    <i name="e_wo_entrp">   -502.20341127 </i>
    <i name="e_0_energy">   -502.18504655 </i>
   </energy>
  </scstep>
  <scstep>
   <time name="diag">    1.89    1.90</time>
   <time name="diis">   10.44   10.49</time>
   <time name="orth">    0.43    0.43</time>
   <time name="total">   13.67   13.74</time>
   <dipole>
    <v name="dipole">      0.00000000       0.00000000      -0.04971490 </v>
    <i name="Tr[quadrupol]">  -6909.11857264 </i>
    <i name="Echarged">      0.00000000 </i>
    <i name="Edipol_quadrupol">      0.00000000 </i>
    <i name="Eion">      0.00000000 </i>
   </dipole>
   <energy>
    <i name="e_fr_energy">   -502.17644171 </i>
    <i name="e_wo_entrp">   -502.20376864 </i>
    <i name="e_0_energy">   -502.18555069 </i>
   </energy>
  </scstep>
  <scstep>
   <time name="diag">    1.90    1.91</time>
   <time name="diis">    9.18    9.23</time>
   <time name="orth">    0.44    0.44</time>
   <time name="total">   12.42   12.49</time>
   <dipole>
    <v name="dipole">      0.00000000       0.00000000      -0.04856686 </v>
    <i name="Tr[quadrupol]">  -6909.12349765 </i>
    <i name="Echarged">      0.00000000 </i>
    <i name="Edipol_quadrupol">      0.00000000 </i>
    <i name="Eion">      0.00000000 </i>
   </dipole>
   <energy>
    <i name="e_fr_energy">   -502.17774481 </i>
    <i name="e_wo_entrp">   -502.20506787 </i>
    <i name="e_0_energy">   -502.18685249 </i>
   </energy>
  </scstep>
  <scstep>
   <time name="diag">    1.91    1.92</time>
   <time name="diis">    9.90    9.95</time>
   <time name="orth">    0.44    0.44</time>
   <time name="total">   13.15   13.23</time>
   <dipole>
    <v name="dipole">      0.00000000       0.00000000      -0.04890607 </v>
    <i name="Tr[quadrupol]">  -6909.10556155 </i>
    <i name="Echarged">      0.00000000 </i>
    <i name="Edipol_quadrupol">      0.00000000 </i>
    <i name="Eion">      0.00000000 </i>
   </dipole>
   <energy>
    <i name="e_fr_energy">   -502.17778300 </i>
    <i name="e_wo_entrp">   -502.20508229 </i>
    <i name="e_0_energy">   -502.18688276 </i>
   </energy>
  </scstep>
  <scstep>
   <time name="diag">    1.91    1.93</time>
   <time name="diis">    8.64    8.68</time>
   <time name="orth">    0.44    0.44</time>
   <time name="total">   11.89   11.95</time>
   <dipole>
    <v name="dipole">      0.00000000       0.00000000      -0.04936101 </v>
    <i name="Tr[quadrupol]">  -6909.10794125 </i>
    <i name="Echarged">      0.00000000 </i>
    <i name="Edipol_quadrupol">      0.00000000 </i>
    <i name="Eion">      0.00000000 </i>
   </dipole>
   <energy>
    <i name="e_fr_energy">   -502.17776120 </i>
    <i name="e_wo_entrp">   -502.20507120 </i>
    <i name="e_0_energy">   -502.18686453 </i>
   </energy>
  </scstep>
  <scstep>
   <time name="diag">    1.91    1.92</time>
   <time name="diis">    7.61    7.65</time>
   <time name="orth">    0.43    0.44</time>
   <time name="total">   10.86   10.92</time>
   <dipole>
    <v name="dipole">      0.00000000       0.00000000      -0.04898181 </v>
    <i name="Tr[quadrupol]">  -6909.11191930 </i>
    <i name="Echarged">      0.00000000 </i>
    <i name="Edipol_quadrupol">      0.00000000 </i>
    <i name="Eion">      0.00000000 </i>
   </dipole>
   <energy>
    <i name="e_fr_energy">   -502.17772515 </i>
    <i name="e_wo_entrp">   -502.20502149 </i>
    <i name="e_0_energy">   -502.18682393 </i>
   </energy>
  </scstep>
  <scstep>
   <time name="diag">    1.91    1.92</time>
   <time name="diis">    8.22    8.26</time>
   <time name="orth">    0.43    0.44</time>
   <time name="total">   11.46   11.53</time>
   <dipole>
    <v name="dipole">      0.00000000       0.00000000      -0.04907193 </v>
    <i name="Tr[quadrupol]">  -6909.11796109 </i>
    <i name="Echarged">      0.00000000 </i>
    <i name="Edipol_quadrupol">      0.00000000 </i>
    <i name="Eion">      0.00000000 </i>
   </dipole>
   <energy>
    <i name="e_fr_energy">   -502.17771195 </i>
    <i name="e_wo_entrp">   -502.20501172 </i>
    <i name="e_0_energy">   -502.18681187 </i>
   </energy>
  </scstep>
  <scstep>
   <time name="diag">    1.93    1.94</time>
   <time name="diis">    6.76    6.80</time>
   <time name="orth">    0.43    0.44</time>
   <time name="total">    9.52    9.58</time>
   <dipole>
    <v name="dipole">      0.00000000       0.00000000      -0.04917277 </v>
    <i name="Tr[quadrupol]">  -6909.11741481 </i>
    <i name="Echarged">      0.00000000 </i>
    <i name="Edipol_quadrupol">      0.00000000 </i>
    <i name="Eion">      0.00000000 </i>
   </dipole>
   <energy>
    <i name="alphaZ">   1736.75291212 </i>
    <i name="ewald"> 205955.90568734 </i>
    <i name="hartreedc">-255332.40709171 </i>
    <i name="XCdc">    963.78486235 </i>
    <i name="pawpsdc">  53741.52517733 </i>
    <i name="pawaedc"> -54878.83202681 </i>
    <i name="eentropy">      0.02728871 </i>
    <i name="bandstr">  -4286.59423834 </i>
    <i name="atom">  51597.65971741 </i>
    <i name="e_fr_energy">   -502.17771160 </i>
    <i name="e_wo_entrp">   -502.20500031 </i>
    <i name="e_0_energy">   -502.18680784 </i>
   </energy>
  </scstep>
  <structure>
   <crystal>
    <varray name="basis" >
     <v>       8.50460000       0.00000000       0.00000000 </v>
     <v>      -0.00109914       8.50909993       0.00000000 </v>
     <v>       0.00000000       0.00000000      23.55660100 </v>
    </varray>
    <i name="volume">   1704.70856049 </i>
    <varray name="rec_basis" >
     <v>       0.11758343       0.00001519       0.00000000 </v>
     <v>       0.00000000       0.11752124       0.00000000 </v>
     <v>       0.00000000       0.00000000       0.04245095 </v>
    </varray>
   </crystal>
   <varray name="positions" >
    <v>       0.99760000       0.00330000       0.24221000 </v>
    <v>       0.66561000       0.99834000       0.00060000 </v>
    <v>       0.65478165       0.98731042       0.36905684 </v>
    <v>       0.83467000       0.16589000       0.18209000 </v>
    <v>       0.99866000       0.33404000       0.12198000 </v>
    <v>       0.33421000       0.33147000       0.00101000 </v>
    <v>       0.33434726       0.33577015       0.36419771 </v>
    <v>       0.83220000       0.50025000       0.06275000 </v>
    <v>       0.83223830       0.49867780       0.30352652 </v>
    <v>       0.33512000       0.67037000       0.00000000 </v>
    <v>       0.34865219       0.67330127       0.36989429 </v>
    <v>       0.33145000       0.66488000       0.12292000 </v>
    <v>       0.49986588       0.83349591       0.30470798 </v>
    <v>       0.67111000       0.66550000       0.12148000 </v>
    <v>       0.99950000       0.00032000       0.00103000 </v>
    <v>       0.99900818       0.00144190       0.36065512 </v>
    <v>       0.16670000       0.16592000       0.06160000 </v>
    <v>       0.99930000       0.00013000       0.12183000 </v>
    <v>       0.16670000       0.16692000       0.18170000 </v>
    <v>       0.16338366       0.16568557       0.30318103 </v>
    <v>       0.33368000       0.99986000       0.00108000 </v>
    <v>       0.32552652       0.01126951       0.36211623 </v>
    <v>       0.50008000       0.16606000       0.06164000 </v>
    <v>       0.33365000       0.99945000       0.12194000 </v>
    <v>       0.50013000       0.16657000       0.18176000 </v>
    <v>       0.33374000       0.99994000       0.24252000 </v>
    <v>       0.50033270       0.16808888       0.30365911 </v>
    <v>       0.83412000       0.16807000       0.06130000 </v>
    <v>       0.66767000       0.99972000       0.12168000 </v>
    <v>       0.66792000       0.00032000       0.24233000 </v>
    <v>       0.83135607       0.16678078       0.30406848 </v>
    <v>       0.00033000       0.33346000       0.00076000 </v>
    <v>       0.00916979       0.32859659       0.36381493 </v>
    <v>       0.16704000       0.50116000       0.06077000 </v>
    <v>       0.16627000       0.49940000       0.18238000 </v>
    <v>       0.00000000       0.33319000       0.24260000 </v>
    <v>       0.16651776       0.50070427       0.30346781 </v>
    <v>       0.49811000       0.50186000       0.06112000 </v>
    <v>       0.33328000       0.33434000       0.12148000 </v>
    <v>       0.50051000       0.50053000       0.18145000 </v>
    <v>       0.33392000       0.33269000       0.24229000 </v>
    <v>       0.50702778       0.49940433       0.30065773 </v>
    <v>       0.66687000       0.33418000       0.00129000 </v>
    <v>       0.66406979       0.33189826       0.36091736 </v>
    <v>       0.66670000       0.33332000       0.12177000 </v>
    <v>       0.83466000       0.49916000       0.18181000 </v>
    <v>       0.66748000       0.33291000       0.24234000 </v>
    <v>       0.99949000       0.66581000       0.00112000 </v>
    <v>       0.00190065       0.66255612       0.35961461 </v>
    <v>       0.16773000       0.83295000       0.06141000 </v>
    <v>       0.00149000       0.66672000       0.12196000 </v>
    <v>       0.16592000       0.83389000       0.18235000 </v>
    <v>       0.99950000       0.66635000       0.24245000 </v>
    <v>       0.16484417       0.83402248       0.30336029 </v>
    <v>       0.49825000       0.83185000       0.06189000 </v>
    <v>       0.50064000       0.83335000       0.18189000 </v>
    <v>       0.33424000       0.66627000       0.24239000 </v>
    <v>       0.66521000       0.66629000       0.00100000 </v>
    <v>       0.83382000       0.83268000       0.06128000 </v>
    <v>       0.83390000       0.83311000       0.18191000 </v>
    <v>       0.66721000       0.66675000       0.24221000 </v>
    <v>       0.83442230       0.82975202       0.30271303 </v>
   </varray>
  </structure>
  <varray name="forces" >
   <v>      -0.01170355      -0.15653772       0.05943212 </v>
   <v>       0.05348548       0.04220606      -0.18483392 </v>
   <v>      -0.04295122      -0.03353691      -0.04814885 </v>
   <v>       0.02611460       0.14340486      -0.19279582 </v>
   <v>      -0.07530941      -0.04367121       0.25589984 </v>
   <v>      -0.04553260      -0.33588990      -0.09881448 </v>
   <v>      -0.02318398       0.00804909      -0.01612863 </v>
   <v>      -0.01555447       0.01281134      -0.17905106 </v>
   <v>       0.00301182       0.00840267       0.02222583 </v>
   <v>      -0.09548114       0.22029718      -0.23074188 </v>
   <v>       0.01652101       0.05562357      -0.06151764 </v>
   <v>      -0.03165401       0.03028143       0.09079292 </v>
   <v>      -0.00479399       0.00293632       0.02335041 </v>
   <v>       0.08453095       0.00077527       0.08449682 </v>
   <v>      -0.01552722      -0.00901104       0.42997544 </v>
   <v>      -0.03875092      -0.02394952       0.03822206 </v>
   <v>      -0.26919644      -0.14118764      -0.39961919 </v>
   <v>      -0.01440621       0.02401609       0.10447845 </v>
   <v>       0.01161286       0.02788521      -0.04192620 </v>
   <v>      -0.01932303       0.03991040      -0.03357532 </v>
   <v>       0.05213605      -0.02154378       0.53682850 </v>
   <v>       0.02212478       0.00099757       0.03693868 </v>
   <v>       0.06616689       0.07274103      -0.19259926 </v>
   <v>       0.05046789       0.04302851      -0.02391207 </v>
   <v>      -0.03190608       0.01828897      -0.03571043 </v>
   <v>       0.02250557       0.04655812       0.00494685 </v>
   <v>       0.00368595       0.00712474      -0.03432420 </v>
   <v>       0.17248165       0.08434935      -0.36642114 </v>
   <v>      -0.04107732      -0.02643661       0.21817656 </v>
   <v>       0.02667585      -0.09448208       0.13413520 </v>
   <v>       0.00780604      -0.01052276       0.00840886 </v>
   <v>       0.14323440      -0.01817337       0.37822153 </v>
   <v>      -0.00056252       0.00270411      -0.01430629 </v>
   <v>      -0.26647303       0.03656341      -0.46112356 </v>
   <v>      -0.05924405      -0.06873440      -0.07239315 </v>
   <v>      -0.09201231       0.07168360       0.12874937 </v>
   <v>       0.06418059      -0.00526433       0.02533936 </v>
   <v>       0.32573675      -0.01075470      -0.33486365 </v>
   <v>       0.00070099      -0.03625792       0.24678123 </v>
   <v>       0.04760055      -0.02871040      -0.14739985 </v>
   <v>       0.10486367       0.05908809       0.00329550 </v>
   <v>      -0.03293869       0.00544278       0.03413425 </v>
   <v>      -0.11735551       0.01386737       0.41295070 </v>
   <v>       0.00919206      -0.03372586       0.00297751 </v>
   <v>       0.03851778      -0.06505637       0.08928935 </v>
   <v>      -0.01893134       0.04841455      -0.09143738 </v>
   <v>      -0.08508311      -0.04552588      -0.10663138 </v>
   <v>       0.09151064       0.02807598       0.39412551 </v>
   <v>       0.01959529       0.02965320       0.02618794 </v>
   <v>      -0.25771784       0.18003785      -0.32092278 </v>
   <v>      -0.03683785       0.01392472       0.13415630 </v>
   <v>       0.03361376       0.02653447       0.02798263 </v>
   <v>      -0.02654805       0.11772682      -0.18992655 </v>
   <v>       0.00181954      -0.01209636      -0.02691460 </v>
   <v>      -0.00217874      -0.08154886      -0.08063857 </v>
   <v>      -0.01482581       0.02837685      -0.22935822 </v>
   <v>       0.01138004      -0.14044368       0.22162228 </v>
   <v>      -0.05586739       0.00069296       0.42372049 </v>
   <v>       0.24774327      -0.09111850      -0.29087785 </v>
   <v>       0.00040480      -0.03208897      -0.03053088 </v>
   <v>       0.12717817       0.01961793      -0.05767843 </v>
   <v>      -0.04367186      -0.00582370      -0.00271927 </v>
  </varray>
  <varray name="stress" >
   <v>     -19.71683417      -0.32254585      -0.14345786 </v>
   <v>      -0.32254603     -20.62373256       0.18882574 </v>
   <v>      -0.14345805       0.18882514      -4.54158905 </v>
  </varray>
  <energy>
   <i name="e_fr_energy">   -502.17771160 </i>
   <i name="e_wo_entrp">   -502.20500031 </i>
   <i name="e_0_energy">   -502.18680784 </i>
  </energy>
  <time name="totalsc">  153.59  154.49</time>
 </calculation>
 <calculation>
  <scstep>
   <time name="dav">   16.91   17.02</time>
   <time name="total">   17.83   17.94</time>
   <dipole>
    <v name="dipole">      0.00000000       0.00000000      -0.04904649 </v>
    <i name="Tr[quadrupol]">  -6908.63950966 </i>
    <i name="Echarged">      0.00000000 </i>
    <i name="Edipol_quadrupol">      0.00000000 </i>
    <i name="Eion">      0.00000000 </i>
   </dipole>
   <energy>
    <i name="alphaZ">   1736.75521384 </i>
    <i name="ewald"> 205960.85861332 </i>
    <i name="hartreedc">-255337.34869413 </i>
    <i name="XCdc">    963.78803362 </i>
    <i name="pawpsdc">  53741.11065048 </i>
    <i name="pawaedc"> -54878.41670905 </i>
    <i name="eentropy">      0.02728543 </i>
    <i name="bandstr">  -4286.60751598 </i>
    <i name="atom">  51597.65971741 </i>
    <i name="e_fr_energy">   -502.17340506 </i>
    <i name="e_wo_entrp">   -502.20069049 </i>
    <i name="e_0_energy">   -502.18250020 </i>
   </energy>
  </scstep>
  <scstep>
   <time name="diag">    1.96    1.97</time>
   <time name="diis">    8.45    8.50</time>
   <time name="orth">    0.44    0.44</time>
   <time name="total">   11.77   11.84</time>
   <dipole>
    <v name="dipole">      0.00000000       0.00000000      -0.04883693 </v>
    <i name="Tr[quadrupol]">  -6908.63939546 </i>
    <i name="Echarged">      0.00000000 </i>
    <i name="Edipol_quadrupol">      0.00000000 </i>
    <i name="Eion">      0.00000000 </i>
   </dipole>
   <energy>
    <i name="e_fr_energy">   -502.17665624 </i>
    <i name="e_wo_entrp">   -502.20393007 </i>
    <i name="e_0_energy">   -502.18574752 </i>
   </energy>
  </scstep>
  <scstep>
   <time name="diag">    1.90    1.91</time>
   <time name="diis">    9.44    9.50</time>
   <time name="orth">    0.43    0.44</time>
   <time name="total">   12.68   12.75</time>
   <dipole>
    <v name="dipole">      0.00000000       0.00000000      -0.05270350 </v>
    <i name="Tr[quadrupol]">  -6908.64193788 </i>
    <i name="Echarged">      0.00000000 </i>
    <i name="Edipol_quadrupol">      0.00000000 </i>
    <i name="Eion">      0.00000000 </i>
   </dipole>
   <energy>
    <i name="e_fr_energy">   -502.17770859 </i>
    <i name="e_wo_entrp">   -502.20481668 </i>
    <i name="e_0_energy">   -502.18674462 </i>
   </energy>
  </scstep>
  <scstep>
   <time name="diag">    1.89    1.90</time>
   <time name="diis">    9.14    9.19</time>
   <time name="orth">    0.43    0.43</time>
   <time name="total">   12.38   12.45</time>
   <dipole>
    <v name="dipole">      0.00000000       0.00000000      -0.04579646 </v>
    <i name="Tr[quadrupol]">  -6908.64553503 </i>
    <i name="Echarged">      0.00000000 </i>
    <i name="Edipol_quadrupol">      0.00000000 </i>
    <i name="Eion">      0.00000000 </i>
   </dipole>
   <energy>
    <i name="e_fr_energy">   -502.17778793 </i>
    <i name="e_wo_entrp">   -502.20515577 </i>
    <i name="e_0_energy">   -502.18691054 </i>
   </energy>
  </scstep>
  <scstep>
   <time name="diag">    1.90    1.91</time>
   <time name="diis">    8.66    8.71</time>
   <time name="orth">    0.43    0.43</time>
   <time name="total">   11.90   11.97</time>
   <dipole>
    <v name="dipole">      0.00000000       0.00000000      -0.04950558 </v>
    <i name="Tr[quadrupol]">  -6908.63621160 </i>
    <i name="Echarged">      0.00000000 </i>
    <i name="Edipol_quadrupol">      0.00000000 </i>
    <i name="Eion">      0.00000000 </i>
   </dipole>
   <energy>
    <i name="e_fr_energy">   -502.17763548 </i>
    <i name="e_wo_entrp">   -502.20486725 </i>
    <i name="e_0_energy">   -502.18671274 </i>
   </energy>
  </scstep>
  <scstep>
   <time name="diag">    1.91    1.92</time>
   <time name="diis">    7.81    7.86</time>
   <time name="orth">    0.44    0.44</time>
   <time name="total">   11.06   11.14</time>
   <dipole>
    <v name="dipole">      0.00000000       0.00000000      -0.04951582 </v>
    <i name="Tr[quadrupol]">  -6908.64860732 </i>
    <i name="Echarged">      0.00000000 </i>
    <i name="Edipol_quadrupol">      0.00000000 </i>
    <i name="Eion">      0.00000000 </i>
   </dipole>
   <energy>
    <i name="e_fr_energy">   -502.17772476 </i>
    <i name="e_wo_entrp">   -502.20498255 </i>
    <i name="e_0_energy">   -502.18681069 </i>
   </energy>
  </scstep>
  <scstep>
   <time name="diag">    1.90    1.91</time>
   <time name="diis">    6.22    6.25</time>
   <time name="orth">    0.44    0.44</time>
   <time name="total">    8.95    9.01</time>
   <dipole>
    <v name="dipole">      0.00000000       0.00000000      -0.04912197 </v>
    <i name="Tr[quadrupol]">  -6908.64035710 </i>
    <i name="Echarged">      0.00000000 </i>
    <i name="Edipol_quadrupol">      0.00000000 </i>
    <i name="Eion">      0.00000000 </i>
   </dipole>
   <energy>
    <i name="alphaZ">   1736.75378195 </i>
    <i name="ewald"> 205960.85861332 </i>
    <i name="hartreedc">-255337.38135931 </i>
    <i name="XCdc">    963.78640524 </i>
    <i name="pawpsdc">  53740.96482423 </i>
    <i name="pawaedc"> -54878.27198324 </i>
    <i name="eentropy">      0.02724642 </i>
    <i name="bandstr">  -4286.57497705 </i>
    <i name="atom">  51597.65971741 </i>
    <i name="e_fr_energy">   -502.17773103 </i>
    <i name="e_wo_entrp">   -502.20497745 </i>
    <i name="e_0_energy">   -502.18681317 </i>
   </energy>
  </scstep>
  <structure>
   <crystal>
    <varray name="basis" >
     <v>       8.50460000       0.00000000       0.00000000 </v>
     <v>      -0.00109914       8.50909993       0.00000000 </v>
     <v>       0.00000000       0.00000000      23.55660100 </v>
    </varray>
    <i name="volume">   1704.70856049 </i>
    <varray name="rec_basis" >
     <v>       0.11758343       0.00001519       0.00000000 </v>
     <v>       0.00000000       0.11752124       0.00000000 </v>
     <v>       0.00000000       0.00000000       0.04245095 </v>
    </varray>
   </crystal>
   <varray name="positions" >
    <v>       0.99760000       0.00330000       0.24221000 </v>
    <v>       0.66561000       0.99834000       0.00060000 </v>
    <v>       0.65459591       0.98711450       0.36900982 </v>
    <v>       0.83467000       0.16589000       0.18209000 </v>
    <v>       0.99866000       0.33404000       0.12198000 </v>
    <v>       0.33421000       0.33147000       0.00101000 </v>
    <v>       0.33433454       0.33576573       0.36417975 </v>
    <v>       0.83220000       0.50025000       0.06275000 </v>
    <v>       0.83226794       0.49866480       0.30354122 </v>
    <v>       0.33512000       0.67037000       0.00000000 </v>
    <v>       0.34878740       0.67360582       0.36988399 </v>
    <v>       0.33145000       0.66488000       0.12292000 </v>
    <v>       0.49973460       0.83358194       0.30461157 </v>
    <v>       0.67111000       0.66550000       0.12148000 </v>
    <v>       0.99950000       0.00032000       0.00103000 </v>
    <v>       0.99894550       0.00145997       0.36066238 </v>
    <v>       0.16670000       0.16592000       0.06160000 </v>
    <v>       0.99930000       0.00013000       0.12183000 </v>
    <v>       0.16670000       0.16692000       0.18170000 </v>
    <v>       0.16338943       0.16554614       0.30321846 </v>
    <v>       0.33368000       0.99986000       0.00108000 </v>
    <v>       0.32529464       0.01146275       0.36216651 </v>
    <v>       0.50008000       0.16606000       0.06164000 </v>
    <v>       0.33365000       0.99945000       0.12194000 </v>
    <v>       0.50013000       0.16657000       0.18176000 </v>
    <v>       0.33374000       0.99994000       0.24252000 </v>
    <v>       0.50027193       0.16807187       0.30369575 </v>
    <v>       0.83412000       0.16807000       0.06130000 </v>
    <v>       0.66767000       0.99972000       0.12168000 </v>
    <v>       0.66792000       0.00032000       0.24233000 </v>
    <v>       0.83126456       0.16670016       0.30408233 </v>
    <v>       0.00033000       0.33346000       0.00076000 </v>
    <v>       0.00924662       0.32857165       0.36379936 </v>
    <v>       0.16704000       0.50116000       0.06077000 </v>
    <v>       0.16627000       0.49940000       0.18238000 </v>
    <v>       0.00000000       0.33319000       0.24260000 </v>
    <v>       0.16645204       0.50077149       0.30345788 </v>
    <v>       0.49811000       0.50186000       0.06112000 </v>
    <v>       0.33328000       0.33434000       0.12148000 </v>
    <v>       0.50051000       0.50053000       0.18145000 </v>
    <v>       0.33392000       0.33269000       0.24229000 </v>
    <v>       0.50722216       0.49938854       0.30062340 </v>
    <v>       0.66687000       0.33418000       0.00129000 </v>
    <v>       0.66408209       0.33177413       0.36093932 </v>
    <v>       0.66670000       0.33332000       0.12177000 </v>
    <v>       0.83466000       0.49916000       0.18181000 </v>
    <v>       0.66748000       0.33291000       0.24234000 </v>
    <v>       0.99949000       0.66581000       0.00112000 </v>
    <v>       0.00205548       0.66255103       0.35963871 </v>
    <v>       0.16773000       0.83295000       0.06141000 </v>
    <v>       0.00149000       0.66672000       0.12196000 </v>
    <v>       0.16592000       0.83389000       0.18235000 </v>
    <v>       0.99950000       0.66635000       0.24245000 </v>
    <v>       0.16477504       0.83409241       0.30337161 </v>
    <v>       0.49825000       0.83185000       0.06189000 </v>
    <v>       0.50064000       0.83335000       0.18189000 </v>
    <v>       0.33424000       0.66627000       0.24239000 </v>
    <v>       0.66521000       0.66629000       0.00100000 </v>
    <v>       0.83382000       0.83268000       0.06128000 </v>
    <v>       0.83390000       0.83311000       0.18191000 </v>
    <v>       0.66721000       0.66675000       0.24221000 </v>
    <v>       0.83449224       0.82969032       0.30271002 </v>
   </varray>
  </structure>
  <varray name="forces" >
   <v>      -0.01234315      -0.15723882       0.05911801 </v>
   <v>       0.05354852       0.04210677      -0.18449821 </v>
   <v>      -0.04260763      -0.03215878      -0.04489459 </v>
   <v>       0.02604817       0.14285849      -0.19275322 </v>
   <v>      -0.07549432      -0.04376556       0.25559614 </v>
   <v>      -0.04531275      -0.33595548      -0.09849338 </v>
   <v>      -0.02239477       0.01459088      -0.01340528 </v>
   <v>      -0.01593325       0.01348969      -0.17920696 </v>
   <v>       0.00136383       0.00759411       0.01952422 </v>
   <v>      -0.09537440       0.22043147      -0.23044432 </v>
   <v>       0.01711884       0.04451424      -0.06761943 </v>
   <v>      -0.03117766       0.03029914       0.09070592 </v>
   <v>      -0.00040126       0.00039853       0.03169160 </v>
   <v>       0.08421870       0.00098925       0.08459951 </v>
   <v>      -0.01553803      -0.00922722       0.43043911 </v>
   <v>      -0.04052121      -0.02708319       0.04299692 </v>
   <v>      -0.26882871      -0.14140762      -0.39949963 </v>
   <v>      -0.01449259       0.02354016       0.10458640 </v>
   <v>       0.01170460       0.02799323      -0.04065676 </v>
   <v>      -0.02398646       0.05232384      -0.04748170 </v>
   <v>       0.05229369      -0.02181194       0.53749367 </v>
   <v>       0.03099200      -0.00494038       0.04004113 </v>
   <v>       0.06611423       0.07242508      -0.19243458 </v>
   <v>       0.05062878       0.04237735      -0.02378252 </v>
   <v>      -0.03256833       0.01796326      -0.03524855 </v>
   <v>       0.01917600       0.04944074       0.00239960 </v>
   <v>       0.00509316       0.00755735      -0.04179780 </v>
   <v>       0.17245075       0.08412985      -0.36625766 </v>
   <v>      -0.04118488      -0.02712261       0.21816638 </v>
   <v>       0.02768700      -0.09452845       0.13338661 </v>
   <v>       0.01366751      -0.00585784       0.00466847 </v>
   <v>       0.14327427      -0.01812821       0.37873602 </v>
   <v>      -0.00352207       0.00354151      -0.01148255 </v>
   <v>      -0.26613695       0.03703270      -0.46078693 </v>
   <v>      -0.05883697      -0.06880516      -0.07231569 </v>
   <v>      -0.09266899       0.06832049       0.13111255 </v>
   <v>       0.07588747      -0.00934020       0.02802695 </v>
   <v>       0.32588743      -0.01013735      -0.33478114 </v>
   <v>       0.00094637      -0.03591150       0.24644690 </v>
   <v>       0.04714821      -0.02854220      -0.14876367 </v>
   <v>       0.10446707       0.05804569       0.00636726 </v>
   <v>      -0.04887594       0.00730450       0.04603160 </v>
   <v>      -0.11752977       0.01412681       0.41339805 </v>
   <v>       0.00923630      -0.03148988       0.00229907 </v>
   <v>       0.03847041      -0.06492132       0.08941353 </v>
   <v>      -0.01852569       0.04811453      -0.09169654 </v>
   <v>      -0.08258716      -0.04940050      -0.10649505 </v>
   <v>       0.09151989       0.02828276       0.39468399 </v>
   <v>       0.01446611       0.03199295       0.02663517 </v>
   <v>      -0.25734621       0.17999378      -0.32076135 </v>
   <v>      -0.03680554       0.01423763       0.13410202 </v>
   <v>       0.03373127       0.02697879       0.02769932 </v>
   <v>      -0.02656177       0.11827802      -0.19072419 </v>
   <v>       0.00681453      -0.01637011      -0.03127049 </v>
   <v>      -0.00206300      -0.08171491      -0.08032041 </v>
   <v>      -0.01513642       0.02851795      -0.23267394 </v>
   <v>       0.00920765      -0.14127431       0.22040946 </v>
   <v>      -0.05605671       0.00074284       0.42447866 </v>
   <v>       0.24755570      -0.09128590      -0.29086100 </v>
   <v>       0.00025130      -0.03157409      -0.03154156 </v>
   <v>       0.13019230       0.02265518      -0.05961731 </v>
   <v>      -0.05034949      -0.00319601      -0.00268782 </v>
  </varray>
  <varray name="stress" >
   <v>     -19.67682870      -0.33204933      -0.13615896 </v>
   <v>      -0.33204897     -20.57943907       0.17886027 </v>
   <v>      -0.13615881       0.17886011      -4.47305193 </v>
  </varray>
  <energy>
   <i name="e_fr_energy">   -502.17773103 </i>
   <i name="e_wo_entrp">   -502.20497745 </i>
   <i name="e_0_energy">   -502.18681317 </i>
  </energy>
  <time name="totalsc">  102.47  103.09</time>
 </calculation>
 <calculation>
  <scstep>
   <time name="dav">   17.17   17.27</time>
   <time name="total">   18.07   18.18</time>
   <dipole>
    <v name="dipole">      0.00000000       0.00000000      -0.04927248 </v>
    <i name="Tr[quadrupol]">  -6907.58762294 </i>
    <i name="Echarged">      0.00000000 </i>
    <i name="Edipol_quadrupol">      0.00000000 </i>
    <i name="Eion">      0.00000000 </i>
   </dipole>
   <energy>
    <i name="alphaZ">   1736.75024886 </i>
    <i name="ewald"> 206003.24260436 </i>
    <i name="hartreedc">-255379.71364114 </i>
    <i name="XCdc">    963.81861661 </i>
    <i name="pawpsdc">  53740.91097119 </i>
    <i name="pawaedc"> -54878.21810375 </i>
    <i name="eentropy">      0.02752044 </i>
    <i name="bandstr">  -4286.49735762 </i>
    <i name="atom">  51597.65971741 </i>
    <i name="e_fr_energy">   -502.01942364 </i>
    <i name="e_wo_entrp">   -502.04694408 </i>
    <i name="e_0_energy">   -502.02859712 </i>
   </energy>
  </scstep>
  <scstep>
   <time name="diag">    1.89    1.90</time>
   <time name="diis">    8.45    8.50</time>
   <time name="orth">    0.43    0.44</time>
   <time name="total">   11.67   11.74</time>
   <dipole>
    <v name="dipole">      0.00000000       0.00000000      -0.05542548 </v>
    <i name="Tr[quadrupol]">  -6907.59119087 </i>
    <i name="Echarged">      0.00000000 </i>
    <i name="Edipol_quadrupol">      0.00000000 </i>
    <i name="Eion">      0.00000000 </i>
   </dipole>
   <energy>
    <i name="e_fr_energy">   -502.14377400 </i>
    <i name="e_wo_entrp">   -502.17092461 </i>
    <i name="e_0_energy">   -502.15282420 </i>
   </energy>
  </scstep>
  <scstep>
   <time name="diag">    1.90    1.91</time>
   <time name="diis">   10.33   10.39</time>
   <time name="orth">    0.44    0.44</time>
   <time name="total">   13.57   13.66</time>
   <dipole>
    <v name="dipole">      0.00000000       0.00000000      -0.00464422 </v>
    <i name="Tr[quadrupol]">  -6907.61303191 </i>
    <i name="Echarged">      0.00000000 </i>
    <i name="Edipol_quadrupol">      0.00000000 </i>
    <i name="Eion">      0.00000000 </i>
   </dipole>
   <energy>
    <i name="e_fr_energy">   -502.22262168 </i>
    <i name="e_wo_entrp">   -502.25054292 </i>
    <i name="e_0_energy">   -502.23192876 </i>
   </energy>
  </scstep>
  <scstep>
   <time name="diag">    1.89    1.91</time>
   <time name="diis">    8.38    8.43</time>
   <time name="orth">    0.43    0.43</time>
   <time name="total">   11.62   11.68</time>
   <dipole>
    <v name="dipole">      0.00000000       0.00000000      -0.05845366 </v>
    <i name="Tr[quadrupol]">  -6907.56827941 </i>
    <i name="Echarged">      0.00000000 </i>
    <i name="Edipol_quadrupol">      0.00000000 </i>
    <i name="Eion">      0.00000000 </i>
   </dipole>
   <energy>
    <i name="e_fr_energy">   -502.17314011 </i>
    <i name="e_wo_entrp">   -502.20008880 </i>
    <i name="e_0_energy">   -502.18212301 </i>
   </energy>
  </scstep>
  <scstep>
   <time name="diag">    1.89    1.90</time>
   <time name="diis">   10.74   10.80</time>
   <time name="orth">    0.43    0.43</time>
   <time name="total">   13.96   14.03</time>
   <dipole>
    <v name="dipole">      0.00000000       0.00000000      -0.05061292 </v>
    <i name="Tr[quadrupol]">  -6907.62397610 </i>
    <i name="Echarged">      0.00000000 </i>
    <i name="Edipol_quadrupol">      0.00000000 </i>
    <i name="Eion">      0.00000000 </i>
   </dipole>
   <energy>
    <i name="e_fr_energy">   -502.17802488 </i>
    <i name="e_wo_entrp">   -502.20545310 </i>
    <i name="e_0_energy">   -502.18716762 </i>
   </energy>
  </scstep>
  <scstep>
   <time name="diag">    1.93    1.94</time>
   <time name="diis">    9.27    9.31</time>
   <time name="orth">    0.43    0.44</time>
   <time name="total">   12.53   12.59</time>
   <dipole>
    <v name="dipole">      0.00000000       0.00000000      -0.04676338 </v>
    <i name="Tr[quadrupol]">  -6907.53525667 </i>
    <i name="Echarged">      0.00000000 </i>
    <i name="Edipol_quadrupol">      0.00000000 </i>
    <i name="Eion">      0.00000000 </i>
   </dipole>
   <energy>
    <i name="e_fr_energy">   -502.18093107 </i>
    <i name="e_wo_entrp">   -502.20831287 </i>
    <i name="e_0_energy">   -502.19005834 </i>
   </energy>
  </scstep>
  <scstep>
   <time name="diag">    1.92    1.93</time>
   <time name="diis">    9.00    9.04</time>
   <time name="orth">    0.44    0.44</time>
   <time name="total">   12.25   12.31</time>
   <dipole>
    <v name="dipole">      0.00000000       0.00000000      -0.04788260 </v>
    <i name="Tr[quadrupol]">  -6907.56704221 </i>
    <i name="Echarged">      0.00000000 </i>
    <i name="Edipol_quadrupol">      0.00000000 </i>
    <i name="Eion">      0.00000000 </i>
   </dipole>
   <energy>
    <i name="e_fr_energy">   -502.18149885 </i>
    <i name="e_wo_entrp">   -502.20894169 </i>
    <i name="e_0_energy">   -502.19064646 </i>
   </energy>
  </scstep>
  <scstep>
   <time name="diag">    1.92    1.93</time>
   <time name="diis">   10.96   11.02</time>
   <time name="orth">    0.43    0.43</time>
   <time name="total">   14.20   14.30</time>
   <dipole>
    <v name="dipole">      0.00000000       0.00000000      -0.04854871 </v>
    <i name="Tr[quadrupol]">  -6907.56569363 </i>
    <i name="Echarged">      0.00000000 </i>
    <i name="Edipol_quadrupol">      0.00000000 </i>
    <i name="Eion">      0.00000000 </i>
   </dipole>
   <energy>
    <i name="e_fr_energy">   -502.18147180 </i>
    <i name="e_wo_entrp">   -502.20885437 </i>
    <i name="e_0_energy">   -502.19059932 </i>
   </energy>
  </scstep>
  <scstep>
   <time name="diag">    1.90    1.91</time>
   <time name="diis">   10.61   10.67</time>
   <time name="orth">    0.44    0.44</time>
   <time name="total">   13.85   13.93</time>
   <dipole>
    <v name="dipole">      0.00000000       0.00000000      -0.04848284 </v>
    <i name="Tr[quadrupol]">  -6907.57178749 </i>
    <i name="Echarged">      0.00000000 </i>
    <i name="Edipol_quadrupol">      0.00000000 </i>
    <i name="Eion">      0.00000000 </i>
   </dipole>
   <energy>
    <i name="e_fr_energy">   -502.18137043 </i>
    <i name="e_wo_entrp">   -502.20875259 </i>
    <i name="e_0_energy">   -502.19049782 </i>
   </energy>
  </scstep>
  <scstep>
   <time name="diag">    1.91    1.92</time>
   <time name="diis">    9.74    9.80</time>
   <time name="orth">    0.43    0.44</time>
   <time name="total">   12.98   13.05</time>
   <dipole>
    <v name="dipole">      0.00000000       0.00000000      -0.04877956 </v>
    <i name="Tr[quadrupol]">  -6907.57408893 </i>
    <i name="Echarged">      0.00000000 </i>
    <i name="Edipol_quadrupol">      0.00000000 </i>
    <i name="Eion">      0.00000000 </i>
   </dipole>
   <energy>
    <i name="e_fr_energy">   -502.18130307 </i>
    <i name="e_wo_entrp">   -502.20865217 </i>
    <i name="e_0_energy">   -502.19041944 </i>
   </energy>
  </scstep>
  <scstep>
   <time name="diag">    1.90    1.91</time>
   <time name="diis">    8.72    8.77</time>
   <time name="orth">    0.43    0.44</time>
   <time name="total">   11.95   12.02</time>
   <dipole>
    <v name="dipole">      0.00000000       0.00000000      -0.04865761 </v>
    <i name="Tr[quadrupol]">  -6907.57352126 </i>
    <i name="Echarged">      0.00000000 </i>
    <i name="Edipol_quadrupol">      0.00000000 </i>
    <i name="Eion">      0.00000000 </i>
   </dipole>
   <energy>
    <i name="e_fr_energy">   -502.18128330 </i>
    <i name="e_wo_entrp">   -502.20865589 </i>
    <i name="e_0_energy">   -502.19040749 </i>
   </energy>
  </scstep>
  <scstep>
   <time name="diag">    1.91    1.92</time>
   <time name="diis">    8.10    8.15</time>
   <time name="orth">    0.43    0.43</time>
   <time name="total">   10.84   10.90</time>
   <dipole>
    <v name="dipole">      0.00000000       0.00000000      -0.04875708 </v>
    <i name="Tr[quadrupol]">  -6907.57314467 </i>
    <i name="Echarged">      0.00000000 </i>
    <i name="Edipol_quadrupol">      0.00000000 </i>
    <i name="Eion">      0.00000000 </i>
   </dipole>
   <energy>
    <i name="alphaZ">   1736.55974020 </i>
    <i name="ewald"> 206003.24260436 </i>
    <i name="hartreedc">-255379.33399187 </i>
    <i name="XCdc">    963.77295864 </i>
    <i name="pawpsdc">  53744.71002624 </i>
    <i name="pawaedc"> -54881.99797639 </i>
    <i name="eentropy">      0.02736116 </i>
    <i name="bandstr">  -4286.82172410 </i>
    <i name="atom">  51597.65971741 </i>
    <i name="e_fr_energy">   -502.18128435 </i>
    <i name="e_wo_entrp">   -502.20864551 </i>
    <i name="e_0_energy">   -502.19040474 </i>
   </energy>
  </scstep>
  <structure>
   <crystal>
    <varray name="basis" >
     <v>       8.50460000       0.00000000       0.00000000 </v>
     <v>      -0.00109914       8.50909993       0.00000000 </v>
     <v>       0.00000000       0.00000000      23.55660100 </v>
    </varray>
    <i name="volume">   1704.70856049 </i>
    <varray name="rec_basis" >
     <v>       0.11758343       0.00001519       0.00000000 </v>
     <v>       0.00000000       0.11752124       0.00000000 </v>
     <v>       0.00000000       0.00000000       0.04245095 </v>
    </varray>
   </crystal>
   <varray name="positions" >
    <v>       0.99760000       0.00330000       0.24221000 </v>
    <v>       0.66561000       0.99834000       0.00060000 </v>
    <v>       0.65321218       0.98583861       0.36858177 </v>
    <v>       0.83467000       0.16589000       0.18209000 </v>
    <v>       0.99866000       0.33404000       0.12198000 </v>
    <v>       0.33421000       0.33147000       0.00101000 </v>
    <v>       0.33396040       0.33595655       0.36403562 </v>
    <v>       0.83220000       0.50025000       0.06275000 </v>
    <v>       0.83241080       0.49871960       0.30370349 </v>
    <v>       0.33512000       0.67037000       0.00000000 </v>
    <v>       0.34959539       0.67551066       0.36949095 </v>
    <v>       0.33145000       0.66488000       0.12292000 </v>
    <v>       0.49918287       0.83394549       0.30437473 </v>
    <v>       0.67111000       0.66550000       0.12148000 </v>
    <v>       0.99950000       0.00032000       0.00103000 </v>
    <v>       0.99810348       0.00114680       0.36091524 </v>
    <v>       0.16670000       0.16592000       0.06160000 </v>
    <v>       0.99930000       0.00013000       0.12183000 </v>
    <v>       0.16670000       0.16692000       0.18170000 </v>
    <v>       0.16306943       0.16571641       0.30312824 </v>
    <v>       0.33368000       0.99986000       0.00108000 </v>
    <v>       0.32477481       0.01219561       0.36258300 </v>
    <v>       0.50008000       0.16606000       0.06164000 </v>
    <v>       0.33365000       0.99945000       0.12194000 </v>
    <v>       0.50013000       0.16657000       0.18176000 </v>
    <v>       0.33374000       0.99994000       0.24252000 </v>
    <v>       0.50009227       0.16810943       0.30363168 </v>
    <v>       0.83412000       0.16807000       0.06130000 </v>
    <v>       0.66767000       0.99972000       0.12168000 </v>
    <v>       0.66792000       0.00032000       0.24233000 </v>
    <v>       0.83108000       0.16628090       0.30416412 </v>
    <v>       0.00033000       0.33346000       0.00076000 </v>
    <v>       0.00951564       0.32851873       0.36367514 </v>
    <v>       0.16704000       0.50116000       0.06077000 </v>
    <v>       0.16627000       0.49940000       0.18238000 </v>
    <v>       0.00000000       0.33319000       0.24260000 </v>
    <v>       0.16726727       0.50091717       0.30356173 </v>
    <v>       0.49811000       0.50186000       0.06112000 </v>
    <v>       0.33328000       0.33434000       0.12148000 </v>
    <v>       0.50051000       0.50053000       0.18145000 </v>
    <v>       0.33392000       0.33269000       0.24229000 </v>
    <v>       0.50732950       0.49942761       0.30071902 </v>
    <v>       0.66687000       0.33418000       0.00129000 </v>
    <v>       0.66426564       0.33080639       0.36104258 </v>
    <v>       0.66670000       0.33332000       0.12177000 </v>
    <v>       0.83466000       0.49916000       0.18181000 </v>
    <v>       0.66748000       0.33291000       0.24234000 </v>
    <v>       0.99949000       0.66581000       0.00112000 </v>
    <v>       0.00290697       0.66298853       0.35987688 </v>
    <v>       0.16773000       0.83295000       0.06141000 </v>
    <v>       0.00149000       0.66672000       0.12196000 </v>
    <v>       0.16592000       0.83389000       0.18235000 </v>
    <v>       0.99950000       0.66635000       0.24245000 </v>
    <v>       0.16458525       0.83414856       0.30325675 </v>
    <v>       0.49825000       0.83185000       0.06189000 </v>
    <v>       0.50064000       0.83335000       0.18189000 </v>
    <v>       0.33424000       0.66627000       0.24239000 </v>
    <v>       0.66521000       0.66629000       0.00100000 </v>
    <v>       0.83382000       0.83268000       0.06128000 </v>
    <v>       0.83390000       0.83311000       0.18191000 </v>
    <v>       0.66721000       0.66675000       0.24221000 </v>
    <v>       0.83406090       0.82938791       0.30268360 </v>
   </varray>
  </structure>
  <varray name="forces" >
   <v>      -0.01539225      -0.16634038       0.06391734 </v>
   <v>       0.05311386       0.04258752      -0.18466629 </v>
   <v>      -0.02743371      -0.01735401      -0.02507007 </v>
   <v>       0.02380131       0.14395291      -0.19016613 </v>
   <v>      -0.07567306      -0.04360472       0.25350173 </v>
   <v>      -0.04514663      -0.33632422      -0.09837843 </v>
   <v>      -0.00973309       0.00544507      -0.00117613 </v>
   <v>      -0.01576827       0.01265789      -0.18033838 </v>
   <v>       0.00687667       0.00611993       0.01290234 </v>
   <v>      -0.09542671       0.22085946      -0.23070188 </v>
   <v>       0.01361182       0.01766189      -0.04695783 </v>
   <v>      -0.03045541       0.03027644       0.09160197 </v>
   <v>       0.01442786      -0.01151174       0.03641215 </v>
   <v>       0.08337577       0.00153147       0.08707570 </v>
   <v>      -0.01492099      -0.00921253       0.42998491 </v>
   <v>      -0.01636351      -0.02115279       0.00246345 </v>
   <v>      -0.26873045      -0.14106813      -0.40006707 </v>
   <v>      -0.01442629       0.02296472       0.10526241 </v>
   <v>       0.00872271       0.02960266      -0.04118141 </v>
   <v>      -0.01447118       0.00450657      -0.02112499 </v>
   <v>       0.05251751      -0.02176506       0.53725673 </v>
   <v>       0.00928737       0.01539907      -0.01832703 </v>
   <v>       0.06659123       0.07206023      -0.19321224 </v>
   <v>       0.05032924       0.04260657      -0.02402432 </v>
   <v>      -0.03427011       0.01982602      -0.03570918 </v>
   <v>       0.00464495       0.06305440      -0.00615451 </v>
   <v>      -0.00250635      -0.00277672      -0.01731246 </v>
   <v>       0.17299635       0.08457670      -0.36480821 </v>
   <v>      -0.04078724      -0.02682026       0.21809134 </v>
   <v>       0.03141337      -0.09344597       0.12190564 </v>
   <v>       0.02095711       0.00181511      -0.00446916 </v>
   <v>       0.14357137      -0.01894833       0.37849690 </v>
   <v>      -0.01152216       0.01059158       0.00265406 </v>
   <v>      -0.26576961       0.03612523      -0.46005348 </v>
   <v>      -0.05922231      -0.06915904      -0.06836384 </v>
   <v>      -0.09505465       0.08046753       0.13818467 </v>
   <v>       0.02827248       0.01038475       0.01692761 </v>
   <v>       0.32640655      -0.01022258      -0.33509713 </v>
   <v>       0.00062882      -0.03635333       0.24751115 </v>
   <v>       0.04824298      -0.02961678      -0.14872809 </v>
   <v>       0.10617031       0.06261190       0.00146208 </v>
   <v>      -0.04216381      -0.00169775       0.04443778 </v>
   <v>      -0.11788850       0.01417652       0.41303969 </v>
   <v>      -0.00287366      -0.01846747      -0.00624100 </v>
   <v>       0.03981677      -0.06531010       0.09005963 </v>
   <v>      -0.01736267       0.04617814      -0.08748440 </v>
   <v>      -0.07552412      -0.04510213      -0.09404135 </v>
   <v>       0.09115379       0.02826440       0.39434145 </v>
   <v>       0.00761561       0.02246374      -0.00838693 </v>
   <v>      -0.25702783       0.18013765      -0.32051089 </v>
   <v>      -0.03707040       0.01482669       0.13435673 </v>
   <v>       0.03126905       0.02964276       0.02434147 </v>
   <v>      -0.02375557       0.10414723      -0.17648393 </v>
   <v>       0.00279566       0.01350451      -0.00300100 </v>
   <v>      -0.00123742      -0.08149572      -0.07948507 </v>
   <v>      -0.01527869       0.02871686      -0.23968821 </v>
   <v>       0.01174838      -0.14795803       0.21209960 </v>
   <v>      -0.05548536      -0.00025595       0.42428849 </v>
   <v>       0.24832945      -0.09095626      -0.29135990 </v>
   <v>      -0.00036905      -0.03154586      -0.03266463 </v>
   <v>       0.12000556       0.01603093      -0.05976653 </v>
   <v>      -0.01958283       0.00269084       0.01262511 </v>
  </varray>
  <varray name="stress" >
   <v>     -19.76081077      -0.35578228      -0.10236143 </v>
   <v>      -0.35578313     -20.64216065       0.19863025 </v>
   <v>      -0.10236083       0.19862974      -4.59367301 </v>
  </varray>
  <energy>
   <i name="e_fr_energy">   -502.18128435 </i>
   <i name="e_wo_entrp">   -502.20864551 </i>
   <i name="e_0_energy">   -502.19040474 </i>
  </energy>
  <time name="totalsc">  173.49  174.50</time>
 </calculation>
 <calculation>
  <scstep>
   <time name="dav">   17.07   17.18</time>
   <time name="total">   18.00   18.11</time>
   <dipole>
    <v name="dipole">      0.00000000       0.00000000      -0.04913838 </v>
    <i name="Tr[quadrupol]">  -6906.94989168 </i>
    <i name="Echarged">      0.00000000 </i>
    <i name="Edipol_quadrupol">      0.00000000 </i>
    <i name="Eion">      0.00000000 </i>
   </dipole>
   <energy>
    <i name="alphaZ">   1736.95425114 </i>
    <i name="ewald"> 206028.64588533 </i>
    <i name="hartreedc">-255404.67728287 </i>
    <i name="XCdc">    963.78782415 </i>
    <i name="pawpsdc">  53743.11932149 </i>
    <i name="pawaedc"> -54880.40833128 </i>
    <i name="eentropy">      0.02748206 </i>
    <i name="bandstr">  -4287.23258011 </i>
    <i name="atom">  51597.65971741 </i>
    <i name="e_fr_energy">   -502.12371268 </i>
    <i name="e_wo_entrp">   -502.15119474 </i>
    <i name="e_0_energy">   -502.13287337 </i>
   </energy>
  </scstep>
  <scstep>
   <time name="diag">    1.89    1.90</time>
   <time name="diis">    8.55    8.60</time>
   <time name="orth">    0.44    0.44</time>
   <time name="total">   11.79   11.86</time>
   <dipole>
    <v name="dipole">      0.00000000       0.00000000      -0.05023831 </v>
    <i name="Tr[quadrupol]">  -6906.95463096 </i>
    <i name="Echarged">      0.00000000 </i>
    <i name="Edipol_quadrupol">      0.00000000 </i>
    <i name="Eion">      0.00000000 </i>
   </dipole>
   <energy>
    <i name="e_fr_energy">   -502.16790511 </i>
    <i name="e_wo_entrp">   -502.19527287 </i>
    <i name="e_0_energy">   -502.17702769 </i>
   </energy>
  </scstep>
  <scstep>
   <time name="diag">    1.91    1.92</time>
   <time name="diis">    9.49    9.55</time>
   <time name="orth">    0.43    0.44</time>
   <time name="total">   12.74   12.81</time>
   <dipole>
    <v name="dipole">      0.00000000       0.00000000      -0.04305741 </v>
    <i name="Tr[quadrupol]">  -6906.93927742 </i>
    <i name="Echarged">      0.00000000 </i>
    <i name="Edipol_quadrupol">      0.00000000 </i>
    <i name="Eion">      0.00000000 </i>
   </dipole>
   <energy>
    <i name="e_fr_energy">   -502.17897944 </i>
    <i name="e_wo_entrp">   -502.20659318 </i>
    <i name="e_0_energy">   -502.18818402 </i>
   </energy>
  </scstep>
  <scstep>
   <time name="diag">    1.89    1.90</time>
   <time name="diis">   10.18   10.23</time>
   <time name="orth">    0.43    0.44</time>
   <time name="total">   13.41   13.48</time>
   <dipole>
    <v name="dipole">      0.00000000       0.00000000      -0.06768317 </v>
    <i name="Tr[quadrupol]">  -6906.93086437 </i>
    <i name="Echarged">      0.00000000 </i>
    <i name="Edipol_quadrupol">      0.00000000 </i>
    <i name="Eion">      0.00000000 </i>
   </dipole>
   <energy>
    <i name="e_fr_energy">   -502.18719411 </i>
    <i name="e_wo_entrp">   -502.21357267 </i>
    <i name="e_0_energy">   -502.19598696 </i>
   </energy>
  </scstep>
  <scstep>
   <time name="diag">    1.90    1.91</time>
   <time name="diis">    8.28    8.33</time>
   <time name="orth">    0.44    0.44</time>
   <time name="total">   11.52   11.59</time>
   <dipole>
    <v name="dipole">      0.00000000       0.00000000      -0.04768398 </v>
    <i name="Tr[quadrupol]">  -6906.96225904 </i>
    <i name="Echarged">      0.00000000 </i>
    <i name="Edipol_quadrupol">      0.00000000 </i>
    <i name="Eion">      0.00000000 </i>
   </dipole>
   <energy>
    <i name="e_fr_energy">   -502.18059767 </i>
    <i name="e_wo_entrp">   -502.20809990 </i>
    <i name="e_0_energy">   -502.18976508 </i>
   </energy>
  </scstep>
  <scstep>
   <time name="diag">    1.89    1.90</time>
   <time name="diis">    9.24    9.29</time>
   <time name="orth">    0.43    0.43</time>
   <time name="total">   12.46   12.53</time>
   <dipole>
    <v name="dipole">      0.00000000       0.00000000      -0.04693566 </v>
    <i name="Tr[quadrupol]">  -6906.91368507 </i>
    <i name="Echarged">      0.00000000 </i>
    <i name="Edipol_quadrupol">      0.00000000 </i>
    <i name="Eion">      0.00000000 </i>
   </dipole>
   <energy>
    <i name="e_fr_energy">   -502.18158029 </i>
    <i name="e_wo_entrp">   -502.20901214 </i>
    <i name="e_0_energy">   -502.19072424 </i>
   </energy>
  </scstep>
  <scstep>
   <time name="diag">    1.91    1.92</time>
   <time name="diis">    9.52    9.57</time>
   <time name="orth">    0.44    0.44</time>
   <time name="total">   12.77   12.84</time>
   <dipole>
    <v name="dipole">      0.00000000       0.00000000      -0.04821256 </v>
    <i name="Tr[quadrupol]">  -6906.93904883 </i>
    <i name="Echarged">      0.00000000 </i>
    <i name="Edipol_quadrupol">      0.00000000 </i>
    <i name="Eion">      0.00000000 </i>
   </dipole>
   <energy>
    <i name="e_fr_energy">   -502.18169171 </i>
    <i name="e_wo_entrp">   -502.20912133 </i>
    <i name="e_0_energy">   -502.19083492 </i>
   </energy>
  </scstep>
  <scstep>
   <time name="diag">    1.90    1.91</time>
   <time name="diis">    9.77    9.82</time>
   <time name="orth">    0.43    0.44</time>
   <time name="total">   12.99   13.06</time>
   <dipole>
    <v name="dipole">      0.00000000       0.00000000      -0.04861943 </v>
    <i name="Tr[quadrupol]">  -6906.93586719 </i>
    <i name="Echarged">      0.00000000 </i>
    <i name="Edipol_quadrupol">      0.00000000 </i>
    <i name="Eion">      0.00000000 </i>
   </dipole>
   <energy>
    <i name="e_fr_energy">   -502.18168961 </i>
    <i name="e_wo_entrp">   -502.20907622 </i>
    <i name="e_0_energy">   -502.19081848 </i>
   </energy>
  </scstep>
  <scstep>
   <time name="diag">    1.90    1.91</time>
   <time name="diis">    8.26    8.31</time>
   <time name="orth">    0.43    0.44</time>
   <time name="total">   11.50   11.56</time>
   <dipole>
    <v name="dipole">      0.00000000       0.00000000      -0.04855323 </v>
    <i name="Tr[quadrupol]">  -6906.93391070 </i>
    <i name="Echarged">      0.00000000 </i>
    <i name="Edipol_quadrupol">      0.00000000 </i>
    <i name="Eion">      0.00000000 </i>
   </dipole>
   <energy>
    <i name="e_fr_energy">   -502.18166195 </i>
    <i name="e_wo_entrp">   -502.20905091 </i>
    <i name="e_0_energy">   -502.19079161 </i>
   </energy>
  </scstep>
  <scstep>
   <time name="diag">    1.90    1.91</time>
   <time name="diis">    7.95    7.99</time>
   <time name="orth">    0.43    0.43</time>
   <time name="total">   11.18   11.25</time>
   <dipole>
    <v name="dipole">      0.00000000       0.00000000      -0.04848757 </v>
    <i name="Tr[quadrupol]">  -6906.93077999 </i>
    <i name="Echarged">      0.00000000 </i>
    <i name="Edipol_quadrupol">      0.00000000 </i>
    <i name="Eion">      0.00000000 </i>
   </dipole>
   <energy>
    <i name="e_fr_energy">   -502.18163953 </i>
    <i name="e_wo_entrp">   -502.20901806 </i>
    <i name="e_0_energy">   -502.19076571 </i>
   </energy>
  </scstep>
  <scstep>
   <time name="diag">    1.93    1.95</time>
   <time name="diis">    6.67    6.71</time>
   <time name="orth">    0.43    0.44</time>
   <time name="total">    9.45    9.50</time>
   <dipole>
    <v name="dipole">      0.00000000       0.00000000      -0.04837050 </v>
    <i name="Tr[quadrupol]">  -6906.93010985 </i>
    <i name="Echarged">      0.00000000 </i>
    <i name="Edipol_quadrupol">      0.00000000 </i>
    <i name="Eion">      0.00000000 </i>
   </dipole>
   <energy>
    <i name="alphaZ">   1736.56826993 </i>
    <i name="ewald"> 206028.64588533 </i>
    <i name="hartreedc">-255404.40996039 </i>
    <i name="XCdc">    963.76250844 </i>
    <i name="pawpsdc">  53743.37398918 </i>
    <i name="pawaedc"> -54880.65718252 </i>
    <i name="eentropy">      0.02739363 </i>
    <i name="bandstr">  -4287.15225956 </i>
    <i name="atom">  51597.65971741 </i>
    <i name="e_fr_energy">   -502.18163854 </i>
    <i name="e_wo_entrp">   -502.20903217 </i>
    <i name="e_0_energy">   -502.19076975 </i>
   </energy>
  </scstep>
  <structure>
   <crystal>
    <varray name="basis" >
     <v>       8.50460000       0.00000000       0.00000000 </v>
     <v>      -0.00109914       8.50909993       0.00000000 </v>
     <v>       0.00000000       0.00000000      23.55660100 </v>
    </varray>
    <i name="volume">   1704.70856049 </i>
    <varray name="rec_basis" >
     <v>       0.11758343       0.00001519       0.00000000 </v>
     <v>       0.00000000       0.11752124       0.00000000 </v>
     <v>       0.00000000       0.00000000       0.04245095 </v>
    </varray>
   </crystal>
   <varray name="positions" >
    <v>       0.99760000       0.00330000       0.24221000 </v>
    <v>       0.66561000       0.99834000       0.00060000 </v>
    <v>       0.65238524       0.98507612       0.36832597 </v>
    <v>       0.83467000       0.16589000       0.18209000 </v>
    <v>       0.99866000       0.33404000       0.12198000 </v>
    <v>       0.33421000       0.33147000       0.00101000 </v>
    <v>       0.33373682       0.33607058       0.36394948 </v>
    <v>       0.83220000       0.50025000       0.06275000 </v>
    <v>       0.83249617       0.49875235       0.30380046 </v>
    <v>       0.33512000       0.67037000       0.00000000 </v>
    <v>       0.35007826       0.67664902       0.36925606 </v>
    <v>       0.33145000       0.66488000       0.12292000 </v>
    <v>       0.49885315       0.83416275       0.30423320 </v>
    <v>       0.67111000       0.66550000       0.12148000 </v>
    <v>       0.99950000       0.00032000       0.00103000 </v>
    <v>       0.99760028       0.00095965       0.36106636 </v>
    <v>       0.16670000       0.16592000       0.06160000 </v>
    <v>       0.99930000       0.00013000       0.12183000 </v>
    <v>       0.16670000       0.16692000       0.18170000 </v>
    <v>       0.16287820       0.16581816       0.30307433 </v>
    <v>       0.33368000       0.99986000       0.00108000 </v>
    <v>       0.32446415       0.01263358       0.36283191 </v>
    <v>       0.50008000       0.16606000       0.06164000 </v>
    <v>       0.33365000       0.99945000       0.12194000 </v>
    <v>       0.50013000       0.16657000       0.18176000 </v>
    <v>       0.33374000       0.99994000       0.24252000 </v>
    <v>       0.49998491       0.16813188       0.30359339 </v>
    <v>       0.83412000       0.16807000       0.06130000 </v>
    <v>       0.66767000       0.99972000       0.12168000 </v>
    <v>       0.66792000       0.00032000       0.24233000 </v>
    <v>       0.83096971       0.16603034       0.30421299 </v>
    <v>       0.00033000       0.33346000       0.00076000 </v>
    <v>       0.00967641       0.32848710       0.36360090 </v>
    <v>       0.16704000       0.50116000       0.06077000 </v>
    <v>       0.16627000       0.49940000       0.18238000 </v>
    <v>       0.00000000       0.33319000       0.24260000 </v>
    <v>       0.16775445       0.50100424       0.30362379 </v>
    <v>       0.49811000       0.50186000       0.06112000 </v>
    <v>       0.33328000       0.33434000       0.12148000 </v>
    <v>       0.50051000       0.50053000       0.18145000 </v>
    <v>       0.33392000       0.33269000       0.24229000 </v>
    <v>       0.50739365       0.49945095       0.30077616 </v>
    <v>       0.66687000       0.33418000       0.00129000 </v>
    <v>       0.66437534       0.33022805       0.36110429 </v>
    <v>       0.66670000       0.33332000       0.12177000 </v>
    <v>       0.83466000       0.49916000       0.18181000 </v>
    <v>       0.66748000       0.33291000       0.24234000 </v>
    <v>       0.99949000       0.66581000       0.00112000 </v>
    <v>       0.00341584       0.66324999       0.36001921 </v>
    <v>       0.16773000       0.83295000       0.06141000 </v>
    <v>       0.00149000       0.66672000       0.12196000 </v>
    <v>       0.16592000       0.83389000       0.18235000 </v>
    <v>       0.99950000       0.66635000       0.24245000 </v>
    <v>       0.16447183       0.83418211       0.30318811 </v>
    <v>       0.49825000       0.83185000       0.06189000 </v>
    <v>       0.50064000       0.83335000       0.18189000 </v>
    <v>       0.33424000       0.66627000       0.24239000 </v>
    <v>       0.66521000       0.66629000       0.00100000 </v>
    <v>       0.83382000       0.83268000       0.06128000 </v>
    <v>       0.83390000       0.83311000       0.18191000 </v>
    <v>       0.66721000       0.66675000       0.24221000 </v>
    <v>       0.83380312       0.82920719       0.30266781 </v>
   </varray>
  </structure>
  <varray name="forces" >
   <v>      -0.01611819      -0.17217741       0.06666190 </v>
   <v>       0.05294372       0.04283535      -0.18498543 </v>
   <v>      -0.01544133      -0.00488570      -0.00964423 </v>
   <v>       0.02183710       0.14559488      -0.18992522 </v>
   <v>      -0.07584376      -0.04252325       0.25087555 </v>
   <v>      -0.04507923      -0.33622423      -0.09848629 </v>
   <v>       0.00031922       0.00042413       0.01000895 </v>
   <v>      -0.01608479       0.01246245      -0.18093591 </v>
   <v>       0.00949007       0.00309845       0.00766742 </v>
   <v>      -0.09538923       0.22085331      -0.23078467 </v>
   <v>       0.01013948      -0.00307644      -0.03208830 </v>
   <v>      -0.02975899       0.02989506       0.09154333 </v>
   <v>       0.02192860      -0.01778234       0.03597361 </v>
   <v>       0.08263787       0.00112765       0.08743439 </v>
   <v>      -0.01445284      -0.00921598       0.42976768 </v>
   <v>      -0.00219911      -0.01751963      -0.02040494 </v>
   <v>      -0.26857502      -0.14032939      -0.40014162 </v>
   <v>      -0.01409872       0.02253232       0.10528236 </v>
   <v>       0.00751329       0.03082869      -0.04195828 </v>
   <v>      -0.00729815      -0.02446472      -0.00474812 </v>
   <v>       0.05270757      -0.02180634       0.53747875 </v>
   <v>      -0.00444150       0.02833577      -0.05119826 </v>
   <v>       0.06682553       0.07220984      -0.19355297 </v>
   <v>       0.05030170       0.04241043      -0.02400802 </v>
   <v>      -0.03563818       0.02113095      -0.03651461 </v>
   <v>      -0.00420620       0.07131160      -0.01170760 </v>
   <v>      -0.00642609      -0.00885702      -0.00179319 </v>
   <v>       0.17305311       0.08552296      -0.36411069 </v>
   <v>      -0.04126011      -0.02707831       0.21768508 </v>
   <v>       0.03311439      -0.09306236       0.11441716 </v>
   <v>       0.02457249       0.00649211      -0.01013102 </v>
   <v>       0.14368840      -0.01911421       0.37894703 </v>
   <v>      -0.01652223       0.01468146       0.01216337 </v>
   <v>      -0.26552091       0.03566603      -0.45916807 </v>
   <v>      -0.05922929      -0.06914845      -0.06639633 </v>
   <v>      -0.09639505       0.08820502       0.14179126 </v>
   <v>      -0.00193586       0.02302392       0.00929085 </v>
   <v>       0.32698811      -0.01012280      -0.33498670 </v>
   <v>       0.00057063      -0.03586930       0.24778453 </v>
   <v>       0.04881485      -0.02985017      -0.14900218 </v>
   <v>       0.10712153       0.06560701      -0.00221259 </v>
   <v>      -0.03755120      -0.00609770       0.04181318 </v>
   <v>      -0.11831960       0.01464213       0.41351609 </v>
   <v>      -0.01039227      -0.01120527      -0.01064185 </v>
   <v>       0.04009925      -0.06477247       0.09011294 </v>
   <v>      -0.01715395       0.04545436      -0.08544745 </v>
   <v>      -0.07159934      -0.04216987      -0.08700219 </v>
   <v>       0.09086359       0.02805633       0.39472009 </v>
   <v>       0.00516496       0.01649449      -0.02780972 </v>
   <v>      -0.25650291       0.17967673      -0.32032546 </v>
   <v>      -0.03713582       0.01461882       0.13433978 </v>
   <v>       0.03051632       0.03060101       0.02180408 </v>
   <v>      -0.02203322       0.09540538      -0.16835978 </v>
   <v>      -0.00003468       0.03104912       0.01327820 </v>
   <v>      -0.00074975      -0.08203118      -0.07859907 </v>
   <v>      -0.01553737       0.02823494      -0.24442485 </v>
   <v>       0.01325632      -0.15223719       0.20592128 </v>
   <v>      -0.05542990      -0.00119555       0.42508931 </v>
   <v>       0.24826041      -0.09151428      -0.29157402 </v>
   <v>      -0.00133653      -0.03231586      -0.03369084 </v>
   <v>       0.11346374       0.01176079      -0.06060273 </v>
   <v>      -0.00050092       0.00640395       0.02199507 </v>
  </varray>
  <varray name="stress" >
   <v>     -19.80390487      -0.35950657      -0.07335821 </v>
   <v>      -0.35950644     -20.66101306       0.20104814 </v>
   <v>      -0.07335734       0.20104873      -4.62932209 </v>
  </varray>
  <energy>
   <i name="e_fr_energy">   -502.18163854 </i>
   <i name="e_wo_entrp">   -502.20903217 </i>
   <i name="e_0_energy">   -502.19076975 </i>
  </energy>
  <time name="totalsc">  153.76  154.66</time>
 </calculation>
 <calculation>
  <scstep>
   <time name="dav">   15.69   15.79</time>
   <time name="total">   16.62   16.72</time>
   <dipole>
    <v name="dipole">      0.00000000       0.00000000      -0.04843946 </v>
    <i name="Tr[quadrupol]">  -6906.89928903 </i>
    <i name="Echarged">      0.00000000 </i>
    <i name="Edipol_quadrupol">      0.00000000 </i>
    <i name="Eion">      0.00000000 </i>
   </dipole>
   <energy>
    <i name="alphaZ">   1736.96438841 </i>
    <i name="ewald"> 206060.71124719 </i>
    <i name="hartreedc">-255436.16055764 </i>
    <i name="XCdc">    963.80155198 </i>
    <i name="pawpsdc">  53742.64665223 </i>
    <i name="pawaedc"> -54879.93014643 </i>
    <i name="eentropy">      0.02761335 </i>
    <i name="bandstr">  -4287.86447967 </i>
    <i name="atom">  51597.65971741 </i>
    <i name="e_fr_energy">   -502.14401317 </i>
    <i name="e_wo_entrp">   -502.17162652 </i>
    <i name="e_0_energy">   -502.15321762 </i>
   </energy>
  </scstep>
  <scstep>
   <time name="diag">    1.89    1.90</time>
   <time name="diis">    8.54    8.59</time>
   <time name="orth">    0.43    0.44</time>
   <time name="total">   11.78   11.85</time>
   <dipole>
    <v name="dipole">      0.00000000       0.00000000      -0.04067366 </v>
    <i name="Tr[quadrupol]">  -6906.87998241 </i>
    <i name="Echarged">      0.00000000 </i>
    <i name="Edipol_quadrupol">      0.00000000 </i>
    <i name="Eion">      0.00000000 </i>
   </dipole>
   <energy>
    <i name="e_fr_energy">   -502.17353540 </i>
    <i name="e_wo_entrp">   -502.20140962 </i>
    <i name="e_0_energy">   -502.18282680 </i>
   </energy>
  </scstep>
  <scstep>
   <time name="diag">    1.89    1.90</time>
   <time name="diis">   11.01   11.08</time>
   <time name="orth">    0.43    0.44</time>
   <time name="total">   14.23   14.33</time>
   <dipole>
    <v name="dipole">      0.00000000       0.00000000      -0.07851353 </v>
    <i name="Tr[quadrupol]">  -6906.84943525 </i>
    <i name="Echarged">      0.00000000 </i>
    <i name="Edipol_quadrupol">      0.00000000 </i>
    <i name="Eion">      0.00000000 </i>
   </dipole>
   <energy>
    <i name="e_fr_energy">   -502.20210982 </i>
    <i name="e_wo_entrp">   -502.22761659 </i>
    <i name="e_0_energy">   -502.21061208 </i>
   </energy>
  </scstep>
  <scstep>
   <time name="diag">    1.88    1.89</time>
   <time name="diis">    7.91    7.96</time>
   <time name="orth">    0.43    0.44</time>
   <time name="total">   11.13   11.20</time>
   <dipole>
    <v name="dipole">      0.00000000       0.00000000      -0.04675149 </v>
    <i name="Tr[quadrupol]">  -6906.90046741 </i>
    <i name="Echarged">      0.00000000 </i>
    <i name="Edipol_quadrupol">      0.00000000 </i>
    <i name="Eion">      0.00000000 </i>
   </dipole>
   <energy>
    <i name="e_fr_energy">   -502.17940075 </i>
    <i name="e_wo_entrp">   -502.20703934 </i>
    <i name="e_0_energy">   -502.18861362 </i>
   </energy>
  </scstep>
  <scstep>
   <time name="diag">    1.91    1.92</time>
   <time name="diis">   10.12   10.18</time>
   <time name="orth">    0.43    0.44</time>
   <time name="total">   13.37   13.45</time>
   <dipole>
    <v name="dipole">      0.00000000       0.00000000      -0.04600364 </v>
    <i name="Tr[quadrupol]">  -6906.85459708 </i>
    <i name="Echarged">      0.00000000 </i>
    <i name="Edipol_quadrupol">      0.00000000 </i>
    <i name="Eion">      0.00000000 </i>
   </dipole>
   <energy>
    <i name="e_fr_energy">   -502.18180136 </i>
    <i name="e_wo_entrp">   -502.20940395 </i>
    <i name="e_0_energy">   -502.19100223 </i>
   </energy>
  </scstep>
  <scstep>
   <time name="diag">    1.89    1.90</time>
   <time name="diis">    8.90    8.96</time>
   <time name="orth">    0.43    0.44</time>
   <time name="total">   12.13   12.20</time>
   <dipole>
    <v name="dipole">      0.00000000       0.00000000      -0.04706636 </v>
    <i name="Tr[quadrupol]">  -6906.89326316 </i>
    <i name="Echarged">      0.00000000 </i>
    <i name="Edipol_quadrupol">      0.00000000 </i>
    <i name="Eion">      0.00000000 </i>
   </dipole>
   <energy>
    <i name="e_fr_energy">   -502.18240753 </i>
    <i name="e_wo_entrp">   -502.21008550 </i>
    <i name="e_0_energy">   -502.19163352 </i>
   </energy>
  </scstep>
  <scstep>
   <time name="diag">    1.93    1.94</time>
   <time name="diis">    9.17    9.22</time>
   <time name="orth">    0.43    0.43</time>
   <time name="total">   12.43   12.50</time>
   <dipole>
    <v name="dipole">      0.00000000       0.00000000      -0.04741344 </v>
    <i name="Tr[quadrupol]">  -6906.87324784 </i>
    <i name="Echarged">      0.00000000 </i>
    <i name="Edipol_quadrupol">      0.00000000 </i>
    <i name="Eion">      0.00000000 </i>
   </dipole>
   <energy>
    <i name="e_fr_energy">   -502.18262194 </i>
    <i name="e_wo_entrp">   -502.21026147 </i>
    <i name="e_0_energy">   -502.19183511 </i>
   </energy>
  </scstep>
  <scstep>
   <time name="diag">    1.90    1.91</time>
   <time name="diis">    9.51    9.57</time>
   <time name="orth">    0.43    0.43</time>
   <time name="total">   12.74   12.83</time>
   <dipole>
    <v name="dipole">      0.00000000       0.00000000      -0.04753516 </v>
    <i name="Tr[quadrupol]">  -6906.87460612 </i>
    <i name="Echarged">      0.00000000 </i>
    <i name="Edipol_quadrupol">      0.00000000 </i>
    <i name="Eion">      0.00000000 </i>
   </dipole>
   <energy>
    <i name="e_fr_energy">   -502.18262095 </i>
    <i name="e_wo_entrp">   -502.21025685 </i>
    <i name="e_0_energy">   -502.19183292 </i>
   </energy>
  </scstep>
  <scstep>
   <time name="diag">    1.93    1.94</time>
   <time name="diis">    8.00    8.05</time>
   <time name="orth">    0.43    0.44</time>
   <time name="total">   11.28   11.34</time>
   <dipole>
    <v name="dipole">      0.00000000       0.00000000      -0.04704134 </v>
    <i name="Tr[quadrupol]">  -6906.87379827 </i>
    <i name="Echarged">      0.00000000 </i>
    <i name="Edipol_quadrupol">      0.00000000 </i>
    <i name="Eion">      0.00000000 </i>
   </dipole>
   <energy>
    <i name="e_fr_energy">   -502.18259846 </i>
    <i name="e_wo_entrp">   -502.21026959 </i>
    <i name="e_0_energy">   -502.19182217 </i>
   </energy>
  </scstep>
  <scstep>
   <time name="diag">    1.90    1.91</time>
   <time name="diis">    8.62    8.67</time>
   <time name="orth">    0.44    0.44</time>
   <time name="total">   11.85   11.93</time>
   <dipole>
    <v name="dipole">      0.00000000       0.00000000      -0.04741480 </v>
    <i name="Tr[quadrupol]">  -6906.88628264 </i>
    <i name="Echarged">      0.00000000 </i>
    <i name="Edipol_quadrupol">      0.00000000 </i>
    <i name="Eion">      0.00000000 </i>
   </dipole>
   <energy>
    <i name="e_fr_energy">   -502.18256525 </i>
    <i name="e_wo_entrp">   -502.21022783 </i>
    <i name="e_0_energy">   -502.19178611 </i>
   </energy>
  </scstep>
  <scstep>
   <time name="diag">    1.90    1.91</time>
   <time name="diis">    6.87    6.91</time>
   <time name="orth">    0.43    0.44</time>
   <time name="total">    9.61    9.67</time>
   <dipole>
    <v name="dipole">      0.00000000       0.00000000      -0.04745002 </v>
    <i name="Tr[quadrupol]">  -6906.89388320 </i>
    <i name="Echarged">      0.00000000 </i>
    <i name="Edipol_quadrupol">      0.00000000 </i>
    <i name="Eion">      0.00000000 </i>
   </dipole>
   <energy>
    <i name="alphaZ">   1736.97912200 </i>
    <i name="ewald"> 206060.71124719 </i>
    <i name="hartreedc">-255435.81483030 </i>
    <i name="XCdc">    963.75351824 </i>
    <i name="pawpsdc">  53745.20454445 </i>
    <i name="pawaedc"> -54882.49515440 </i>
    <i name="eentropy">      0.02767332 </i>
    <i name="bandstr">  -4288.20840398 </i>
    <i name="atom">  51597.65971741 </i>
    <i name="e_fr_energy">   -502.18256606 </i>
    <i name="e_wo_entrp">   -502.21023938 </i>
    <i name="e_0_energy">   -502.19179050 </i>
   </energy>
  </scstep>
  <structure>
   <crystal>
    <varray name="basis" >
     <v>       8.50460000       0.00000000       0.00000000 </v>
     <v>      -0.00109914       8.50909993       0.00000000 </v>
     <v>       0.00000000       0.00000000      23.55660100 </v>
    </varray>
    <i name="volume">   1704.70856049 </i>
    <varray name="rec_basis" >
     <v>       0.11758343       0.00001519       0.00000000 </v>
     <v>       0.00000000       0.11752124       0.00000000 </v>
     <v>       0.00000000       0.00000000       0.04245095 </v>
    </varray>
   </crystal>
   <varray name="positions" >
    <v>       0.99760000       0.00330000       0.24221000 </v>
    <v>       0.66561000       0.99834000       0.00060000 </v>
    <v>       0.65170402       0.98459823       0.36813603 </v>
    <v>       0.83467000       0.16589000       0.18209000 </v>
    <v>       0.99866000       0.33404000       0.12198000 </v>
    <v>       0.33421000       0.33147000       0.00101000 </v>
    <v>       0.33362481       0.33613713       0.36396238 </v>
    <v>       0.83220000       0.50025000       0.06275000 </v>
    <v>       0.83269331       0.49881924       0.30389571 </v>
    <v>       0.33512000       0.67037000       0.00000000 </v>
    <v>       0.35049406       0.67719603       0.36894696 </v>
    <v>       0.33145000       0.66488000       0.12292000 </v>
    <v>       0.49903252       0.83399115       0.30436761 </v>
    <v>       0.67111000       0.66550000       0.12148000 </v>
    <v>       0.99950000       0.00032000       0.00103000 </v>
    <v>       0.99730130       0.00058040       0.36102722 </v>
    <v>       0.16670000       0.16592000       0.06160000 </v>
    <v>       0.99930000       0.00013000       0.12183000 </v>
    <v>       0.16670000       0.16692000       0.18170000 </v>
    <v>       0.16266076       0.16547880       0.30301855 </v>
    <v>       0.33368000       0.99986000       0.00108000 </v>
    <v>       0.32423013       0.01331783       0.36266547 </v>
    <v>       0.50008000       0.16606000       0.06164000 </v>
    <v>       0.33365000       0.99945000       0.12194000 </v>
    <v>       0.50013000       0.16657000       0.18176000 </v>
    <v>       0.33374000       0.99994000       0.24252000 </v>
    <v>       0.49982545       0.16800149       0.30356293 </v>
    <v>       0.83412000       0.16807000       0.06130000 </v>
    <v>       0.66767000       0.99972000       0.12168000 </v>
    <v>       0.66792000       0.00032000       0.24233000 </v>
    <v>       0.83130655       0.16600327       0.30417986 </v>
    <v>       0.00033000       0.33346000       0.00076000 </v>
    <v>       0.00949533       0.32870618       0.36363253 </v>
    <v>       0.16704000       0.50116000       0.06077000 </v>
    <v>       0.16627000       0.49940000       0.18238000 </v>
    <v>       0.00000000       0.33319000       0.24260000 </v>
    <v>       0.16797865       0.50141940       0.30371017 </v>
    <v>       0.49811000       0.50186000       0.06112000 </v>
    <v>       0.33328000       0.33434000       0.12148000 </v>
    <v>       0.50051000       0.50053000       0.18145000 </v>
    <v>       0.33392000       0.33269000       0.24229000 </v>
    <v>       0.50682420       0.49936531       0.30104852 </v>
    <v>       0.66687000       0.33418000       0.00129000 </v>
    <v>       0.66426589       0.32974521       0.36107492 </v>
    <v>       0.66670000       0.33332000       0.12177000 </v>
    <v>       0.83466000       0.49916000       0.18181000 </v>
    <v>       0.66748000       0.33291000       0.24234000 </v>
    <v>       0.99949000       0.66581000       0.00112000 </v>
    <v>       0.00376542       0.66365172       0.35993255 </v>
    <v>       0.16773000       0.83295000       0.06141000 </v>
    <v>       0.00149000       0.66672000       0.12196000 </v>
    <v>       0.16592000       0.83389000       0.18235000 </v>
    <v>       0.99950000       0.66635000       0.24245000 </v>
    <v>       0.16441192       0.83469805       0.30322913 </v>
    <v>       0.49825000       0.83185000       0.06189000 </v>
    <v>       0.50064000       0.83335000       0.18189000 </v>
    <v>       0.33424000       0.66627000       0.24239000 </v>
    <v>       0.66521000       0.66629000       0.00100000 </v>
    <v>       0.83382000       0.83268000       0.06128000 </v>
    <v>       0.83390000       0.83311000       0.18191000 </v>
    <v>       0.66721000       0.66675000       0.24221000 </v>
    <v>       0.83366003       0.82921529       0.30278705 </v>
   </varray>
  </structure>
  <varray name="forces" >
   <v>      -0.02034797      -0.17936056       0.05619472 </v>
   <v>       0.05268641       0.04323474      -0.18488431 </v>
   <v>       0.00241085       0.01229249       0.00780216 </v>
   <v>       0.02051849       0.14615336      -0.18929701 </v>
   <v>      -0.07561603      -0.04111323       0.24953311 </v>
   <v>      -0.04499697      -0.33641080      -0.09869085 </v>
   <v>      -0.00800939      -0.01285713       0.01113202 </v>
   <v>      -0.01640934       0.01281261      -0.18029835 </v>
   <v>      -0.00729842      -0.00404555      -0.00401313 </v>
   <v>      -0.09501280       0.22113091      -0.23069515 </v>
   <v>      -0.00666940       0.00500728       0.00083031 </v>
   <v>      -0.03007976       0.02992897       0.09037833 </v>
   <v>       0.01042361      -0.01173152       0.00134931 </v>
   <v>       0.08258963       0.00049345       0.08582889 </v>
   <v>      -0.01350100      -0.00923877       0.42910631 </v>
   <v>      -0.00049315      -0.00500367      -0.00168312 </v>
   <v>      -0.26886811      -0.14069083      -0.40023935 </v>
   <v>      -0.01337468       0.02231651       0.10523751 </v>
   <v>       0.00674071       0.03025095      -0.04366269 </v>
   <v>      -0.01000101       0.02222168      -0.00229529 </v>
   <v>       0.05209275      -0.02200901       0.53732076 </v>
   <v>       0.00122349       0.01331798      -0.01569238 </v>
   <v>       0.06707738       0.07218958      -0.19361808 </v>
   <v>       0.04993834       0.04294776      -0.02403118 </v>
   <v>      -0.03493137       0.02232742      -0.03505031 </v>
   <v>       0.00028322       0.06613067      -0.01935188 </v>
   <v>       0.00769836       0.00045789      -0.00652239 </v>
   <v>       0.17265044       0.08583521      -0.36304867 </v>
   <v>      -0.04121298      -0.02690622       0.21615480 </v>
   <v>       0.03710278      -0.09402584       0.11281969 </v>
   <v>      -0.00932288       0.00319646      -0.00500200 </v>
   <v>       0.14398549      -0.01971995       0.37843881 </v>
   <v>      -0.00515511       0.01161384      -0.00139358 </v>
   <v>      -0.26518085       0.03511329      -0.45802827 </v>
   <v>      -0.05913690      -0.06781723      -0.06298466 </v>
   <v>      -0.08677536       0.10069479       0.14452212 </v>
   <v>      -0.01399892      -0.00422433      -0.00901908 </v>
   <v>       0.32697401      -0.00965294      -0.33413603 </v>
   <v>       0.00031821      -0.03589882       0.24700339 </v>
   <v>       0.04931335      -0.02875172      -0.14258984 </v>
   <v>       0.09712186       0.06718950       0.00416416 </v>
   <v>       0.01251978      -0.00765834      -0.01836041 </v>
   <v>      -0.11847539       0.01442563       0.41302354 </v>
   <v>      -0.00585209      -0.00748176      -0.00638921 </v>
   <v>       0.04023233      -0.06518424       0.08926928 </v>
   <v>      -0.01783855       0.04532110      -0.08155741 </v>
   <v>      -0.07769570      -0.02968326      -0.06720627 </v>
   <v>       0.09081109       0.02845653       0.39437348 </v>
   <v>       0.00119293       0.00765854      -0.00414719 </v>
   <v>      -0.25625769       0.17963874      -0.32028427 </v>
   <v>      -0.03664202       0.01537903       0.13378352 </v>
   <v>       0.03051112       0.02995929       0.02242272 </v>
   <v>      -0.02052525       0.10240451      -0.16010332 </v>
   <v>       0.00919681      -0.00142298      -0.01135037 </v>
   <v>      -0.00046020      -0.08254720      -0.07830158 </v>
   <v>      -0.01409865       0.02657761      -0.23972586 </v>
   <v>       0.01452870      -0.14659506       0.20990190 </v>
   <v>      -0.05555810      -0.00109380       0.42541806 </v>
   <v>       0.24768269      -0.09174735      -0.29130620 </v>
   <v>      -0.00320140      -0.03394945      -0.03021108 </v>
   <v>       0.10317278      -0.00327694      -0.04397626 </v>
   <v>       0.00199981       0.00342018      -0.00686185 </v>
  </varray>
  <varray name="stress" >
   <v>     -19.76278496      -0.36944770      -0.04232261 </v>
   <v>      -0.36944718     -20.58721204       0.17408659 </v>
   <v>      -0.04232281       0.17408619      -4.55289362 </v>
  </varray>
  <energy>
   <i name="e_fr_energy">   -502.18256606 </i>
   <i name="e_wo_entrp">   -502.21023938 </i>
   <i name="e_0_energy">   -502.19179050 </i>
  </energy>
  <time name="totalsc">  153.11  154.03</time>
 </calculation>
 <calculation>
  <scstep>
   <time name="dav">   16.62   16.71</time>
   <time name="total">   17.52   17.61</time>
   <dipole>
    <v name="dipole">      0.00000000       0.00000000      -0.04736994 </v>
    <i name="Tr[quadrupol]">  -6906.89833397 </i>
    <i name="Echarged">      0.00000000 </i>
    <i name="Edipol_quadrupol">      0.00000000 </i>
    <i name="Eion">      0.00000000 </i>
   </dipole>
   <energy>
    <i name="alphaZ">   1736.98034003 </i>
    <i name="ewald"> 206057.57566598 </i>
    <i name="hartreedc">-255432.71706440 </i>
    <i name="XCdc">    963.74909810 </i>
    <i name="pawpsdc">  53745.03917538 </i>
    <i name="pawaedc"> -54882.33065723 </i>
    <i name="eentropy">      0.02765342 </i>
    <i name="bandstr">  -4288.16615059 </i>
    <i name="atom">  51597.65971741 </i>
    <i name="e_fr_energy">   -502.18222190 </i>
    <i name="e_wo_entrp">   -502.20987532 </i>
    <i name="e_0_energy">   -502.19143971 </i>
   </energy>
  </scstep>
  <scstep>
   <time name="diag">    1.89    1.90</time>
   <time name="diis">    8.22    8.27</time>
   <time name="orth">    0.43    0.44</time>
   <time name="total">   11.47   11.53</time>
   <dipole>
    <v name="dipole">      0.00000000       0.00000000      -0.04861364 </v>
    <i name="Tr[quadrupol]">  -6906.89868800 </i>
    <i name="Echarged">      0.00000000 </i>
    <i name="Edipol_quadrupol">      0.00000000 </i>
    <i name="Eion">      0.00000000 </i>
   </dipole>
   <energy>
    <i name="e_fr_energy">   -502.18253314 </i>
    <i name="e_wo_entrp">   -502.21013881 </i>
    <i name="e_0_energy">   -502.19173503 </i>
   </energy>
  </scstep>
  <scstep>
   <time name="diag">    1.91    1.92</time>
   <time name="diis">   10.22   10.27</time>
   <time name="orth">    0.43    0.43</time>
   <time name="total">   13.47   13.54</time>
   <dipole>
    <v name="dipole">      0.00000000       0.00000000      -0.04531488 </v>
    <i name="Tr[quadrupol]">  -6906.90014195 </i>
    <i name="Echarged">      0.00000000 </i>
    <i name="Edipol_quadrupol">      0.00000000 </i>
    <i name="Eion">      0.00000000 </i>
   </dipole>
   <energy>
    <i name="e_fr_energy">   -502.18267812 </i>
    <i name="e_wo_entrp">   -502.21043453 </i>
    <i name="e_0_energy">   -502.19193026 </i>
   </energy>
  </scstep>
  <scstep>
   <time name="diag">    1.89    1.90</time>
   <time name="diis">    6.15    6.18</time>
   <time name="orth">    0.43    0.44</time>
   <time name="total">    9.38    9.43</time>
   <dipole>
    <v name="dipole">      0.00000000       0.00000000      -0.04764830 </v>
    <i name="Tr[quadrupol]">  -6906.90453698 </i>
    <i name="Echarged">      0.00000000 </i>
    <i name="Edipol_quadrupol">      0.00000000 </i>
    <i name="Eion">      0.00000000 </i>
   </dipole>
   <energy>
    <i name="e_fr_energy">   -502.18257193 </i>
    <i name="e_wo_entrp">   -502.21021788 </i>
    <i name="e_0_energy">   -502.19178725 </i>
   </energy>
  </scstep>
  <scstep>
   <time name="diag">    1.89    1.90</time>
   <time name="diis">    5.18    5.21</time>
   <time name="orth">    0.43    0.43</time>
   <time name="total">    8.39    8.44</time>
   <dipole>
    <v name="dipole">      0.00000000       0.00000000      -0.04763195 </v>
    <i name="Tr[quadrupol]">  -6906.90835232 </i>
    <i name="Echarged">      0.00000000 </i>
    <i name="Edipol_quadrupol">      0.00000000 </i>
    <i name="Eion">      0.00000000 </i>
   </dipole>
   <energy>
    <i name="e_fr_energy">   -502.18259691 </i>
    <i name="e_wo_entrp">   -502.21025218 </i>
    <i name="e_0_energy">   -502.19181533 </i>
   </energy>
  </scstep>
  <scstep>
   <time name="diag">    1.90    1.91</time>
   <time name="diis">    4.88    4.91</time>
   <time name="orth">    0.44    0.44</time>
   <time name="total">    8.12    8.18</time>
   <dipole>
    <v name="dipole">      0.00000000       0.00000000      -0.04746432 </v>
    <i name="Tr[quadrupol]">  -6906.90380809 </i>
    <i name="Echarged">      0.00000000 </i>
    <i name="Edipol_quadrupol">      0.00000000 </i>
    <i name="Eion">      0.00000000 </i>
   </dipole>
   <energy>
    <i name="e_fr_energy">   -502.18260783 </i>
    <i name="e_wo_entrp">   -502.21025562 </i>
    <i name="e_0_energy">   -502.19182376 </i>
   </energy>
  </scstep>
  <scstep>
   <time name="diag">    1.92    1.93</time>
   <time name="diis">    4.87    4.90</time>
   <time name="orth">    0.43    0.44</time>
   <time name="total">    7.62    7.66</time>
   <dipole>
    <v name="dipole">      0.00000000       0.00000000      -0.04757474 </v>
    <i name="Tr[quadrupol]">  -6906.90661987 </i>
    <i name="Echarged">      0.00000000 </i>
    <i name="Edipol_quadrupol">      0.00000000 </i>
    <i name="Eion">      0.00000000 </i>
   </dipole>
   <energy>
    <i name="alphaZ">   1737.17272716 </i>
    <i name="ewald"> 206057.57566598 </i>
    <i name="hartreedc">-255432.78153165 </i>
    <i name="XCdc">    963.75223618 </i>
    <i name="pawpsdc">  53744.39897834 </i>
    <i name="pawaedc"> -54881.69206230 </i>
    <i name="eentropy">      0.02764361 </i>
    <i name="bandstr">  -4288.29598405 </i>
    <i name="atom">  51597.65971741 </i>
    <i name="e_fr_energy">   -502.18260932 </i>
    <i name="e_wo_entrp">   -502.21025293 </i>
    <i name="e_0_energy">   -502.19182385 </i>
   </energy>
  </scstep>
  <structure>
   <crystal>
    <varray name="basis" >
     <v>       8.50460000       0.00000000       0.00000000 </v>
     <v>      -0.00109914       8.50909993       0.00000000 </v>
     <v>       0.00000000       0.00000000      23.55660100 </v>
    </varray>
    <i name="volume">   1704.70856049 </i>
    <varray name="rec_basis" >
     <v>       0.11758343       0.00001519       0.00000000 </v>
     <v>       0.00000000       0.11752124       0.00000000 </v>
     <v>       0.00000000       0.00000000       0.04245095 </v>
    </varray>
   </crystal>
   <varray name="positions" >
    <v>       0.99760000       0.00330000       0.24221000 </v>
    <v>       0.66561000       0.99834000       0.00060000 </v>
    <v>       0.65177054       0.98464489       0.36815458 </v>
    <v>       0.83467000       0.16589000       0.18209000 </v>
    <v>       0.99866000       0.33404000       0.12198000 </v>
    <v>       0.33421000       0.33147000       0.00101000 </v>
    <v>       0.33363574       0.33613063       0.36396112 </v>
    <v>       0.83220000       0.50025000       0.06275000 </v>
    <v>       0.83267406       0.49881271       0.30388641 </v>
    <v>       0.33512000       0.67037000       0.00000000 </v>
    <v>       0.35045346       0.67714262       0.36897715 </v>
    <v>       0.33145000       0.66488000       0.12292000 </v>
    <v>       0.49901501       0.83400791       0.30435449 </v>
    <v>       0.67111000       0.66550000       0.12148000 </v>
    <v>       0.99950000       0.00032000       0.00103000 </v>
    <v>       0.99733050       0.00061743       0.36103104 </v>
    <v>       0.16670000       0.16592000       0.06160000 </v>
    <v>       0.99930000       0.00013000       0.12183000 </v>
    <v>       0.16670000       0.16692000       0.18170000 </v>
    <v>       0.16268199       0.16551194       0.30302400 </v>
    <v>       0.33368000       0.99986000       0.00108000 </v>
    <v>       0.32425298       0.01325102       0.36268172 </v>
    <v>       0.50008000       0.16606000       0.06164000 </v>
    <v>       0.33365000       0.99945000       0.12194000 </v>
    <v>       0.50013000       0.16657000       0.18176000 </v>
    <v>       0.33374000       0.99994000       0.24252000 </v>
    <v>       0.49984102       0.16801422       0.30356591 </v>
    <v>       0.83412000       0.16807000       0.06130000 </v>
    <v>       0.66767000       0.99972000       0.12168000 </v>
    <v>       0.66792000       0.00032000       0.24233000 </v>
    <v>       0.83127366       0.16600591       0.30418310 </v>
    <v>       0.00033000       0.33346000       0.00076000 </v>
    <v>       0.00951301       0.32868479       0.36362944 </v>
    <v>       0.16704000       0.50116000       0.06077000 </v>
    <v>       0.16627000       0.49940000       0.18238000 </v>
    <v>       0.00000000       0.33319000       0.24260000 </v>
    <v>       0.16795676       0.50137886       0.30370174 </v>
    <v>       0.49811000       0.50186000       0.06112000 </v>
    <v>       0.33328000       0.33434000       0.12148000 </v>
    <v>       0.50051000       0.50053000       0.18145000 </v>
    <v>       0.33392000       0.33269000       0.24229000 </v>
    <v>       0.50687980       0.49937367       0.30102192 </v>
    <v>       0.66687000       0.33418000       0.00129000 </v>
    <v>       0.66427658       0.32979235       0.36107779 </v>
    <v>       0.66670000       0.33332000       0.12177000 </v>
    <v>       0.83466000       0.49916000       0.18181000 </v>
    <v>       0.66748000       0.33291000       0.24234000 </v>
    <v>       0.99949000       0.66581000       0.00112000 </v>
    <v>       0.00373128       0.66361249       0.35994101 </v>
    <v>       0.16773000       0.83295000       0.06141000 </v>
    <v>       0.00149000       0.66672000       0.12196000 </v>
    <v>       0.16592000       0.83389000       0.18235000 </v>
    <v>       0.99950000       0.66635000       0.24245000 </v>
    <v>       0.16441777       0.83464767       0.30322512 </v>
    <v>       0.49825000       0.83185000       0.06189000 </v>
    <v>       0.50064000       0.83335000       0.18189000 </v>
    <v>       0.33424000       0.66627000       0.24239000 </v>
    <v>       0.66521000       0.66629000       0.00100000 </v>
    <v>       0.83382000       0.83268000       0.06128000 </v>
    <v>       0.83390000       0.83311000       0.18191000 </v>
    <v>       0.66721000       0.66675000       0.24221000 </v>
    <v>       0.83367400       0.82921450       0.30277541 </v>
   </varray>
  </structure>
  <varray name="forces" >
   <v>      -0.01994996      -0.17790722       0.05754828 </v>
   <v>       0.05271295       0.04337191      -0.18474435 </v>
   <v>       0.00072109       0.01103623       0.00676922 </v>
   <v>       0.02075856       0.14592987      -0.18899244 </v>
   <v>      -0.07604359      -0.04114691       0.24995138 </v>
   <v>      -0.04522102      -0.33635280      -0.09848276 </v>
   <v>      -0.00538327      -0.01179579       0.01073366 </v>
   <v>      -0.01616767       0.01254380      -0.18009994 </v>
   <v>      -0.00716016      -0.00414948      -0.00584377 </v>
   <v>      -0.09528960       0.22116864      -0.23054806 </v>
   <v>      -0.00361117       0.00337518      -0.00166675 </v>
   <v>      -0.03027658       0.03006624       0.09086377 </v>
   <v>       0.01059100      -0.01171613       0.00397690 </v>
   <v>       0.08270975       0.00064956       0.08649759 </v>
   <v>      -0.01377915      -0.00907939       0.42934349 </v>
   <v>       0.00080719      -0.00487975      -0.00384680 </v>
   <v>      -0.26918022      -0.14055218      -0.40013942 </v>
   <v>      -0.01368466       0.02260920       0.10551584 </v>
   <v>       0.00635472       0.03029787      -0.04344485 </v>
   <v>      -0.00825554       0.01902555      -0.00173135 </v>
   <v>       0.05193672      -0.02182328       0.53734754 </v>
   <v>       0.00202542       0.01176630      -0.01797875 </v>
   <v>       0.06701209       0.07223632      -0.19351067 </v>
   <v>       0.04976258       0.04314317      -0.02384240 </v>
   <v>      -0.03502434       0.02228156      -0.03514575 </v>
   <v>      -0.00021370       0.06664657      -0.01815521 </v>
   <v>       0.00742717       0.00015669      -0.00488820 </v>
   <v>       0.17267457       0.08592282      -0.36307825 </v>
   <v>      -0.04115604      -0.02663287       0.21650971 </v>
   <v>       0.03665085      -0.09374075       0.11285162 </v>
   <v>      -0.00755720       0.00381012      -0.00509111 </v>
   <v>       0.14371513      -0.01964937       0.37868625 </v>
   <v>      -0.00591493       0.01122977      -0.00035924 </v>
   <v>      -0.26552433       0.03511110      -0.45820293 </v>
   <v>      -0.05948575      -0.06803021      -0.06330645 </v>
   <v>      -0.08786171       0.09906195       0.14386838 </v>
   <v>      -0.01421248      -0.00364875      -0.00812252 </v>
   <v>       0.32690551      -0.00971706      -0.33426525 </v>
   <v>       0.00008267      -0.03606492       0.24725987 </v>
   <v>       0.04923981      -0.02887128      -0.14315567 </v>
   <v>       0.09803630       0.06695520       0.00342316 </v>
   <v>       0.01026982      -0.00674426      -0.01568502 </v>
   <v>      -0.11840352       0.01441785       0.41318125 </v>
   <v>      -0.00626807      -0.00569445      -0.00639993 </v>
   <v>       0.04030739      -0.06529735       0.08954946 </v>
   <v>      -0.01782836       0.04519658      -0.08198574 </v>
   <v>      -0.07715979      -0.03120319      -0.06951795 </v>
   <v>       0.09057748       0.02849162       0.39449302 </v>
   <v>       0.00009576       0.00707175      -0.00582678 </v>
   <v>      -0.25658403       0.17986336      -0.32032630 </v>
   <v>      -0.03698919       0.01539283       0.13396714 </v>
   <v>       0.03011525       0.03030566       0.02245028 </v>
   <v>      -0.02080108       0.10177625      -0.16107010 </v>
   <v>       0.00820225      -0.00097644      -0.00896509 </v>
   <v>      -0.00057988      -0.08227301      -0.07836515 </v>
   <v>      -0.01430024       0.02700279      -0.24008503 </v>
   <v>       0.01431039      -0.14700980       0.20948015 </v>
   <v>      -0.05549546      -0.00105425       0.42534805 </v>
   <v>       0.24773564      -0.09149349      -0.29126791 </v>
   <v>      -0.00297098      -0.03342424      -0.03041430 </v>
   <v>       0.10400078      -0.00133741      -0.04579915 </v>
   <v>       0.00259482       0.00435174      -0.00526467 </v>
  </varray>
  <varray name="stress" >
   <v>     -19.76306055      -0.36041272      -0.04803846 </v>
   <v>      -0.36041244     -20.58817106       0.17798679 </v>
   <v>      -0.04803866       0.17798790      -4.57317906 </v>
  </varray>
  <energy>
   <i name="e_fr_energy">   -502.18260932 </i>
   <i name="e_wo_entrp">   -502.21025293 </i>
   <i name="e_0_energy">   -502.19182385 </i>
  </energy>
  <time name="totalsc">   91.85   92.37</time>
 </calculation>
 <calculation>
  <scstep>
   <time name="dav">   16.10   16.20</time>
   <time name="total">   17.02   17.13</time>
   <dipole>
    <v name="dipole">      0.00000000       0.00000000      -0.04759417 </v>
    <i name="Tr[quadrupol]">  -6906.90791034 </i>
    <i name="Echarged">      0.00000000 </i>
    <i name="Edipol_quadrupol">      0.00000000 </i>
    <i name="Eion">      0.00000000 </i>
   </dipole>
   <energy>
    <i name="alphaZ">   1737.17252686 </i>
    <i name="ewald"> 206056.45548004 </i>
    <i name="hartreedc">-255431.66848327 </i>
    <i name="XCdc">    963.75108246 </i>
    <i name="pawpsdc">  53744.32155449 </i>
    <i name="pawaedc"> -54881.61486811 </i>
    <i name="eentropy">      0.02763591 </i>
    <i name="bandstr">  -4288.28721172 </i>
    <i name="atom">  51597.65971741 </i>
    <i name="e_fr_energy">   -502.18256592 </i>
    <i name="e_wo_entrp">   -502.21020184 </i>
    <i name="e_0_energy">   -502.19177790 </i>
   </energy>
  </scstep>
  <scstep>
   <time name="diag">    1.90    1.91</time>
   <time name="diis">    7.74    7.79</time>
   <time name="orth">    0.43    0.43</time>
   <time name="total">   10.99   11.05</time>
   <dipole>
    <v name="dipole">      0.00000000       0.00000000      -0.04783818 </v>
    <i name="Tr[quadrupol]">  -6906.90774297 </i>
    <i name="Echarged">      0.00000000 </i>
    <i name="Edipol_quadrupol">      0.00000000 </i>
    <i name="Eion">      0.00000000 </i>
   </dipole>
   <energy>
    <i name="e_fr_energy">   -502.18260323 </i>
    <i name="e_wo_entrp">   -502.21022772 </i>
    <i name="e_0_energy">   -502.19181139 </i>
   </energy>
  </scstep>
  <scstep>
   <time name="diag">    1.90    1.91</time>
   <time name="diis">    6.15    6.18</time>
   <time name="orth">    0.43    0.44</time>
   <time name="total">    9.39    9.44</time>
   <dipole>
    <v name="dipole">      0.00000000       0.00000000      -0.04682397 </v>
    <i name="Tr[quadrupol]">  -6906.90823646 </i>
    <i name="Echarged">      0.00000000 </i>
    <i name="Edipol_quadrupol">      0.00000000 </i>
    <i name="Eion">      0.00000000 </i>
   </dipole>
   <energy>
    <i name="e_fr_energy">   -502.18262422 </i>
    <i name="e_wo_entrp">   -502.21029612 </i>
    <i name="e_0_energy">   -502.19184819 </i>
   </energy>
  </scstep>
  <scstep>
   <time name="diag">    1.91    1.92</time>
   <time name="diis">    4.69    4.72</time>
   <time name="orth">    0.43    0.44</time>
   <time name="total">    7.92    7.97</time>
   <dipole>
    <v name="dipole">      0.00000000       0.00000000      -0.04770274 </v>
    <i name="Tr[quadrupol]">  -6906.91437426 </i>
    <i name="Echarged">      0.00000000 </i>
    <i name="Edipol_quadrupol">      0.00000000 </i>
    <i name="Eion">      0.00000000 </i>
   </dipole>
   <energy>
    <i name="e_fr_energy">   -502.18260920 </i>
    <i name="e_wo_entrp">   -502.21024041 </i>
    <i name="e_0_energy">   -502.19181960 </i>
   </energy>
  </scstep>
  <scstep>
   <time name="diag">    1.90    1.91</time>
   <time name="diis">    4.44    4.47</time>
   <time name="orth">    0.43    0.43</time>
   <time name="total">    7.17    7.21</time>
   <dipole>
    <v name="dipole">      0.00000000       0.00000000      -0.04761579 </v>
    <i name="Tr[quadrupol]">  -6906.91377966 </i>
    <i name="Echarged">      0.00000000 </i>
    <i name="Edipol_quadrupol">      0.00000000 </i>
    <i name="Eion">      0.00000000 </i>
   </dipole>
   <energy>
    <i name="alphaZ">   1737.36789915 </i>
    <i name="ewald"> 206056.45548004 </i>
    <i name="hartreedc">-255431.64375241 </i>
    <i name="XCdc">    963.75160653 </i>
    <i name="pawpsdc">  53744.14169302 </i>
    <i name="pawaedc"> -54881.43530860 </i>
    <i name="eentropy">      0.02763283 </i>
    <i name="bandstr">  -4288.50758015 </i>
    <i name="atom">  51597.65971741 </i>
    <i name="e_fr_energy">   -502.18261219 </i>
    <i name="e_wo_entrp">   -502.21024501 </i>
    <i name="e_0_energy">   -502.19182313 </i>
   </energy>
  </scstep>
  <structure>
   <crystal>
    <varray name="basis" >
     <v>       8.50460000       0.00000000       0.00000000 </v>
     <v>      -0.00109914       8.50909993       0.00000000 </v>
     <v>       0.00000000       0.00000000      23.55660100 </v>
    </varray>
    <i name="volume">   1704.70856049 </i>
    <varray name="rec_basis" >
     <v>       0.11758343       0.00001519       0.00000000 </v>
     <v>       0.00000000       0.11752124       0.00000000 </v>
     <v>       0.00000000       0.00000000       0.04245095 </v>
    </varray>
   </crystal>
   <varray name="positions" >
    <v>       0.99760000       0.00330000       0.24221000 </v>
    <v>       0.66561000       0.99834000       0.00060000 </v>
    <v>       0.65179430       0.98466156       0.36816121 </v>
    <v>       0.83467000       0.16589000       0.18209000 </v>
    <v>       0.99866000       0.33404000       0.12198000 </v>
    <v>       0.33421000       0.33147000       0.00101000 </v>
    <v>       0.33363965       0.33612831       0.36396067 </v>
    <v>       0.83220000       0.50025000       0.06275000 </v>
    <v>       0.83266718       0.49881037       0.30388309 </v>
    <v>       0.33512000       0.67037000       0.00000000 </v>
    <v>       0.35043895       0.67712353       0.36898793 </v>
    <v>       0.33145000       0.66488000       0.12292000 </v>
    <v>       0.49900875       0.83401389       0.30434980 </v>
    <v>       0.67111000       0.66550000       0.12148000 </v>
    <v>       0.99950000       0.00032000       0.00103000 </v>
    <v>       0.99734093       0.00063066       0.36103241 </v>
    <v>       0.16670000       0.16592000       0.06160000 </v>
    <v>       0.99930000       0.00013000       0.12183000 </v>
    <v>       0.16670000       0.16692000       0.18170000 </v>
    <v>       0.16268958       0.16552378       0.30302594 </v>
    <v>       0.33368000       0.99986000       0.00108000 </v>
    <v>       0.32426115       0.01322715       0.36268753 </v>
    <v>       0.50008000       0.16606000       0.06164000 </v>
    <v>       0.33365000       0.99945000       0.12194000 </v>
    <v>       0.50013000       0.16657000       0.18176000 </v>
    <v>       0.33374000       0.99994000       0.24252000 </v>
    <v>       0.49984658       0.16801877       0.30356697 </v>
    <v>       0.83412000       0.16807000       0.06130000 </v>
    <v>       0.66767000       0.99972000       0.12168000 </v>
    <v>       0.66792000       0.00032000       0.24233000 </v>
    <v>       0.83126191       0.16600686       0.30418425 </v>
    <v>       0.00033000       0.33346000       0.00076000 </v>
    <v>       0.00951933       0.32867715       0.36362833 </v>
    <v>       0.16704000       0.50116000       0.06077000 </v>
    <v>       0.16627000       0.49940000       0.18238000 </v>
    <v>       0.00000000       0.33319000       0.24260000 </v>
    <v>       0.16794894       0.50136437       0.30369872 </v>
    <v>       0.49811000       0.50186000       0.06112000 </v>
    <v>       0.33328000       0.33434000       0.12148000 </v>
    <v>       0.50051000       0.50053000       0.18145000 </v>
    <v>       0.33392000       0.33269000       0.24229000 </v>
    <v>       0.50689967       0.49937666       0.30101242 </v>
    <v>       0.66687000       0.33418000       0.00129000 </v>
    <v>       0.66428040       0.32980920       0.36107881 </v>
    <v>       0.66670000       0.33332000       0.12177000 </v>
    <v>       0.83466000       0.49916000       0.18181000 </v>
    <v>       0.66748000       0.33291000       0.24234000 </v>
    <v>       0.99949000       0.66581000       0.00112000 </v>
    <v>       0.00371909       0.66359848       0.35994403 </v>
    <v>       0.16773000       0.83295000       0.06141000 </v>
    <v>       0.00149000       0.66672000       0.12196000 </v>
    <v>       0.16592000       0.83389000       0.18235000 </v>
    <v>       0.99950000       0.66635000       0.24245000 </v>
    <v>       0.16441986       0.83462967       0.30322369 </v>
    <v>       0.49825000       0.83185000       0.06189000 </v>
    <v>       0.50064000       0.83335000       0.18189000 </v>
    <v>       0.33424000       0.66627000       0.24239000 </v>
    <v>       0.66521000       0.66629000       0.00100000 </v>
    <v>       0.83382000       0.83268000       0.06128000 </v>
    <v>       0.83390000       0.83311000       0.18191000 </v>
    <v>       0.66721000       0.66675000       0.24221000 </v>
    <v>       0.83367900       0.82921422       0.30277125 </v>
   </varray>
  </structure>
  <varray name="forces" >
   <v>      -0.01978523      -0.17771807       0.05789601 </v>
   <v>       0.05267954       0.04326692      -0.18488199 </v>
   <v>      -0.00058235       0.00980775       0.00539485 </v>
   <v>       0.02082135       0.14574322      -0.18879801 </v>
   <v>      -0.07585341      -0.04128025       0.25001501 </v>
   <v>      -0.04515335      -0.33636328      -0.09859360 </v>
   <v>      -0.00567354      -0.01114295       0.01095536 </v>
   <v>      -0.01625689       0.01266109      -0.17994572 </v>
   <v>      -0.00591474      -0.00388942      -0.00505660 </v>
   <v>      -0.09522919       0.22115595      -0.23064875 </v>
   <v>      -0.00335565       0.00345059      -0.00242465 </v>
   <v>      -0.03017113       0.03005196       0.09086337 </v>
   <v>       0.01201512      -0.01225406       0.00652091 </v>
   <v>       0.08261181       0.00076291       0.08656851 </v>
   <v>      -0.01376733      -0.00915414       0.42930460 </v>
   <v>      -0.00016653      -0.00682551      -0.00493426 </v>
   <v>      -0.26898044      -0.14061583      -0.39995071 </v>
   <v>      -0.01362601       0.02249598       0.10552334 </v>
   <v>       0.00649138       0.03017259      -0.04332512 </v>
   <v>      -0.00843019       0.01659064      -0.00246759 </v>
   <v>       0.05205801      -0.02191128       0.53733218 </v>
   <v>       0.00120378       0.01464883      -0.02084102 </v>
   <v>       0.06697151       0.07212651      -0.19339084 </v>
   <v>       0.04984044       0.04299812      -0.02385243 </v>
   <v>      -0.03508340       0.02214242      -0.03517737 </v>
   <v>      -0.00027709       0.06664520      -0.01784718 </v>
   <v>       0.00660428      -0.00057731      -0.00498072 </v>
   <v>       0.17268391       0.08572289      -0.36292113 </v>
   <v>      -0.04120889      -0.02679487       0.21653943 </v>
   <v>       0.03649706      -0.09379100       0.11282187 </v>
   <v>      -0.00574877       0.00364726      -0.00570495 </v>
   <v>       0.14382074      -0.01967419       0.37853039 </v>
   <v>      -0.00695513       0.01212626       0.00041317 </v>
   <v>      -0.26523258       0.03519592      -0.45809940 </v>
   <v>      -0.05931432      -0.06801230      -0.06341651 </v>
   <v>      -0.08807544       0.09857728       0.14371402 </v>
   <v>      -0.01328678      -0.00190570      -0.00723821 </v>
   <v>       0.32676853      -0.00964565      -0.33416416 </v>
   <v>       0.00017200      -0.03603559       0.24732689 </v>
   <v>       0.04919683      -0.02884989      -0.14336828 </v>
   <v>       0.09846204       0.06688623       0.00317379 </v>
   <v>       0.00755754      -0.00679060      -0.01246642 </v>
   <v>      -0.11847827       0.01434330       0.41305773 </v>
   <v>      -0.00687415      -0.00724038      -0.00678265 </v>
   <v>       0.04022075      -0.06533179       0.08961815 </v>
   <v>      -0.01783348       0.04527222      -0.08209813 </v>
   <v>      -0.07697625      -0.03162768      -0.07024685 </v>
   <v>       0.09071200       0.02850398       0.39440059 </v>
   <v>       0.00150804       0.00871922      -0.00745475 </v>
   <v>      -0.25640653       0.17980363      -0.32015512 </v>
   <v>      -0.03685491       0.01546296       0.13404049 </v>
   <v>       0.03023769       0.03028655       0.02242212 </v>
   <v>      -0.02073556       0.10157616      -0.16141323 </v>
   <v>       0.00793280       0.00112128      -0.00800197 </v>
   <v>      -0.00058435      -0.08232011      -0.07823539 </v>
   <v>      -0.01435427       0.02701360      -0.24015601 </v>
   <v>       0.01433568      -0.14719872       0.20918973 </v>
   <v>      -0.05559705      -0.00097084       0.42527787 </v>
   <v>       0.24769689      -0.09147519      -0.29109030 </v>
   <v>      -0.00289408      -0.03340767      -0.03054818 </v>
   <v>       0.10424741      -0.00077289      -0.04643704 </v>
   <v>       0.00237017       0.00459773      -0.00378511 </v>
  </varray>
  <varray name="stress" >
   <v>     -19.75608801      -0.35890246      -0.04891603 </v>
   <v>      -0.35890280     -20.58342137       0.17759235 </v>
   <v>      -0.04891633       0.17759251      -4.55214814 </v>
  </varray>
  <energy>
   <i name="e_fr_energy">   -502.18261219 </i>
   <i name="e_wo_entrp">   -502.21024501 </i>
   <i name="e_0_energy">   -502.19182313 </i>
  </energy>
  <time name="totalsc">   68.47   68.90</time>
 </calculation>
 <calculation>
  <scstep>
   <time name="dav">   15.98   16.09</time>
   <time name="total">   16.89   16.99</time>
   <dipole>
    <v name="dipole">      0.00000000       0.00000000      -0.04762053 </v>
    <i name="Tr[quadrupol]">  -6906.91456538 </i>
    <i name="Echarged">      0.00000000 </i>
    <i name="Edipol_quadrupol">      0.00000000 </i>
    <i name="Eion">      0.00000000 </i>
   </dipole>
   <energy>
    <i name="alphaZ">   1737.36786301 </i>
    <i name="ewald"> 206057.00248382 </i>
    <i name="hartreedc">-255432.24937468 </i>
    <i name="XCdc">    963.75293910 </i>
    <i name="pawpsdc">  53744.00601586 </i>
    <i name="pawaedc"> -54881.30007718 </i>
    <i name="eentropy">      0.02763674 </i>
    <i name="bandstr">  -4288.44980808 </i>
    <i name="atom">  51597.65971741 </i>
    <i name="e_fr_energy">   -502.18260400 </i>
    <i name="e_wo_entrp">   -502.21024074 </i>
    <i name="e_0_energy">   -502.19181624 </i>
   </energy>
  </scstep>
  <scstep>
   <time name="diag">    1.90    1.92</time>
   <time name="diis">    6.55    6.59</time>
   <time name="orth">    0.43    0.44</time>
   <time name="total">    9.30    9.36</time>
   <dipole>
    <v name="dipole">      0.00000000       0.00000000      -0.04733719 </v>
    <i name="Tr[quadrupol]">  -6906.91112177 </i>
    <i name="Echarged">      0.00000000 </i>
    <i name="Edipol_quadrupol">      0.00000000 </i>
    <i name="Eion">      0.00000000 </i>
   </dipole>
   <energy>
    <i name="alphaZ">   1737.36975409 </i>
    <i name="ewald"> 206057.00248382 </i>
    <i name="hartreedc">-255432.10995506 </i>
    <i name="XCdc">    963.75252714 </i>
    <i name="pawpsdc">  53743.96913317 </i>
    <i name="pawaedc"> -54881.26311019 </i>
    <i name="eentropy">      0.02764208 </i>
    <i name="bandstr">  -4288.59080634 </i>
    <i name="atom">  51597.65971741 </i>
    <i name="e_fr_energy">   -502.18261389 </i>
    <i name="e_wo_entrp">   -502.21025597 </i>
    <i name="e_0_energy">   -502.19182791 </i>
   </energy>
  </scstep>
  <structure>
   <crystal>
    <varray name="basis" >
     <v>       8.50460000       0.00000000       0.00000000 </v>
     <v>      -0.00109914       8.50909993       0.00000000 </v>
     <v>       0.00000000       0.00000000      23.55660100 </v>
    </varray>
    <i name="volume">   1704.70856049 </i>
    <varray name="rec_basis" >
     <v>       0.11758343       0.00001519       0.00000000 </v>
     <v>       0.00000000       0.11752124       0.00000000 </v>
     <v>       0.00000000       0.00000000       0.04245095 </v>
    </varray>
   </crystal>
   <varray name="positions" >
    <v>       0.99760000       0.00330000       0.24221000 </v>
    <v>       0.66561000       0.99834000       0.00060000 </v>
    <v>       0.65178270       0.98465342       0.36815797 </v>
    <v>       0.83467000       0.16589000       0.18209000 </v>
    <v>       0.99866000       0.33404000       0.12198000 </v>
    <v>       0.33421000       0.33147000       0.00101000 </v>
    <v>       0.33363774       0.33612945       0.36396089 </v>
    <v>       0.83220000       0.50025000       0.06275000 </v>
    <v>       0.83267054       0.49881151       0.30388471 </v>
    <v>       0.33512000       0.67037000       0.00000000 </v>
    <v>       0.35044604       0.67713285       0.36898266 </v>
    <v>       0.33145000       0.66488000       0.12292000 </v>
    <v>       0.49901180       0.83401097       0.30435209 </v>
    <v>       0.67111000       0.66550000       0.12148000 </v>
    <v>       0.99950000       0.00032000       0.00103000 </v>
    <v>       0.99733583       0.00062420       0.36103174 </v>
    <v>       0.16670000       0.16592000       0.06160000 </v>
    <v>       0.99930000       0.00013000       0.12183000 </v>
    <v>       0.16670000       0.16692000       0.18170000 </v>
    <v>       0.16268587       0.16551799       0.30302499 </v>
    <v>       0.33368000       0.99986000       0.00108000 </v>
    <v>       0.32425716       0.01323881       0.36268469 </v>
    <v>       0.50008000       0.16606000       0.06164000 </v>
    <v>       0.33365000       0.99945000       0.12194000 </v>
    <v>       0.50013000       0.16657000       0.18176000 </v>
    <v>       0.33374000       0.99994000       0.24252000 </v>
    <v>       0.49984386       0.16801655       0.30356645 </v>
    <v>       0.83412000       0.16807000       0.06130000 </v>
    <v>       0.66767000       0.99972000       0.12168000 </v>
    <v>       0.66792000       0.00032000       0.24233000 </v>
    <v>       0.83126765       0.16600640       0.30418369 </v>
    <v>       0.00033000       0.33346000       0.00076000 </v>
    <v>       0.00951624       0.32868088       0.36362887 </v>
    <v>       0.16704000       0.50116000       0.06077000 </v>
    <v>       0.16627000       0.49940000       0.18238000 </v>
    <v>       0.00000000       0.33319000       0.24260000 </v>
    <v>       0.16795276       0.50137145       0.30370020 </v>
    <v>       0.49811000       0.50186000       0.06112000 </v>
    <v>       0.33328000       0.33434000       0.12148000 </v>
    <v>       0.50051000       0.50053000       0.18145000 </v>
    <v>       0.33392000       0.33269000       0.24229000 </v>
    <v>       0.50688997       0.49937520       0.30101706 </v>
    <v>       0.66687000       0.33418000       0.00129000 </v>
    <v>       0.66427853       0.32980097       0.36107831 </v>
    <v>       0.66670000       0.33332000       0.12177000 </v>
    <v>       0.83466000       0.49916000       0.18181000 </v>
    <v>       0.66748000       0.33291000       0.24234000 </v>
    <v>       0.99949000       0.66581000       0.00112000 </v>
    <v>       0.00372504       0.66360532       0.35994256 </v>
    <v>       0.16773000       0.83295000       0.06141000 </v>
    <v>       0.00149000       0.66672000       0.12196000 </v>
    <v>       0.16592000       0.83389000       0.18235000 </v>
    <v>       0.99950000       0.66635000       0.24245000 </v>
    <v>       0.16441884       0.83463846       0.30322439 </v>
    <v>       0.49825000       0.83185000       0.06189000 </v>
    <v>       0.50064000       0.83335000       0.18189000 </v>
    <v>       0.33424000       0.66627000       0.24239000 </v>
    <v>       0.66521000       0.66629000       0.00100000 </v>
    <v>       0.83382000       0.83268000       0.06128000 </v>
    <v>       0.83390000       0.83311000       0.18191000 </v>
    <v>       0.66721000       0.66675000       0.24221000 </v>
    <v>       0.83367656       0.82921436       0.30277328 </v>
   </varray>
  </structure>
  <varray name="forces" >
   <v>      -0.02008860      -0.17732789       0.05734365 </v>
   <v>       0.05268829       0.04341770      -0.18510164 </v>
   <v>       0.01736981       0.02252153       0.01942502 </v>
   <v>       0.02095147       0.14606862      -0.18918742 </v>
   <v>      -0.07640698      -0.04118957       0.24993990 </v>
   <v>      -0.04534691      -0.33629385      -0.09882540 </v>
   <v>      -0.00169368      -0.01379440       0.00945926 </v>
   <v>      -0.01631528       0.01274953      -0.17997691 </v>
   <v>      -0.01162122      -0.00581422      -0.01282140 </v>
   <v>      -0.09539068       0.22126771      -0.23090523 </v>
   <v>      -0.01417382      -0.01017931       0.02011461 </v>
   <v>      -0.03026485       0.03010322       0.09072652 </v>
   <v>       0.00646867      -0.00649565      -0.00564096 </v>
   <v>       0.08266145       0.00063548       0.08628946 </v>
   <v>      -0.01389244      -0.00904442       0.42935366 </v>
   <v>       0.00223844      -0.00338468      -0.00328086 </v>
   <v>      -0.26922475      -0.14045583      -0.40008809 </v>
   <v>      -0.01375110       0.02267829       0.10547088 </v>
   <v>       0.00626926       0.03033308      -0.04376589 </v>
   <v>      -0.00740350       0.01972264      -0.00246945 </v>
   <v>       0.05191833      -0.02184591       0.53739503 </v>
   <v>       0.00301783       0.00857569      -0.01653799 </v>
   <v>       0.06688057       0.07225630      -0.19355064 </v>
   <v>       0.04967191       0.04306259      -0.02387769 </v>
   <v>      -0.03506433       0.02232800      -0.03566586 </v>
   <v>      -0.00040241       0.06676607      -0.01820243 </v>
   <v>       0.00773356       0.00076482      -0.00562475 </v>
   <v>       0.17257233       0.08594763      -0.36303359 </v>
   <v>      -0.04128189      -0.02670486       0.21636222 </v>
   <v>       0.03648317      -0.09361011       0.11246547 </v>
   <v>      -0.00862482       0.00394996      -0.00622371 </v>
   <v>       0.14367674      -0.01956291       0.37867407 </v>
   <v>      -0.00541075       0.01041533      -0.00021813 </v>
   <v>      -0.26548707       0.03531756      -0.45814834 </v>
   <v>      -0.05956014      -0.06791323      -0.06373703 </v>
   <v>      -0.08815784       0.09883090       0.14325007 </v>
   <v>      -0.01488793      -0.00489344      -0.00991280 </v>
   <v>       0.32681751      -0.00949865      -0.33426353 </v>
   <v>       0.00001249      -0.03586633       0.24711644 </v>
   <v>       0.04915551      -0.02870003      -0.14367036 </v>
   <v>       0.09808887       0.06696055       0.00301632 </v>
   <v>       0.01165806      -0.00622858      -0.01846299 </v>
   <v>      -0.11858904       0.01450482       0.41319830 </v>
   <v>      -0.00591347      -0.00311744      -0.00574039 </v>
   <v>       0.04014422      -0.06517718       0.08958395 </v>
   <v>      -0.01801535       0.04525205      -0.08254600 </v>
   <v>      -0.07704966      -0.03152555      -0.07026590 </v>
   <v>       0.09054251       0.02860126       0.39449465 </v>
   <v>      -0.00167755       0.00545461      -0.00495363 </v>
   <v>      -0.25659271       0.17990001      -0.32041648 </v>
   <v>      -0.03702875       0.01541947       0.13392043 </v>
   <v>       0.03015360       0.03035048       0.02189313 </v>
   <v>      -0.02083698       0.10177806      -0.16156621 </v>
   <v>       0.00838821      -0.00258720      -0.01019740 </v>
   <v>      -0.00066647      -0.08229896      -0.07836617 </v>
   <v>      -0.01440503       0.02703603      -0.24063608 </v>
   <v>       0.01422975      -0.14703420       0.20902737 </v>
   <v>      -0.05572306      -0.00092139       0.42546190 </v>
   <v>       0.24750249      -0.09146372      -0.29129142 </v>
   <v>      -0.00322812      -0.03338041      -0.03093541 </v>
   <v>       0.10390619      -0.00097874      -0.04651974 </v>
   <v>       0.00297595       0.00431865      -0.00735441 </v>
  </varray>
  <varray name="stress" >
   <v>     -19.73662494      -0.35961195      -0.04704315 </v>
   <v>      -0.35961258     -20.56343143       0.17612227 </v>
   <v>      -0.04704345       0.17612262      -4.48907197 </v>
  </varray>
  <energy>
   <i name="e_fr_energy">   -502.18261389 </i>
   <i name="e_wo_entrp">   -502.21025597 </i>
   <i name="e_0_energy">   -502.19182791 </i>
  </energy>
  <time name="totalsc">   42.05   42.32</time>
 </calculation>
 <calculation>
  <scstep>
   <time name="dav">   19.41   19.52</time>
   <time name="total">   20.32   20.43</time>
   <dipole>
    <v name="dipole">      0.00000000       0.00000000      -0.04813011 </v>
    <i name="Tr[quadrupol]">  -6906.91334564 </i>
    <i name="Echarged">      0.00000000 </i>
    <i name="Edipol_quadrupol">      0.00000000 </i>
    <i name="Eion">      0.00000000 </i>
   </dipole>
   <energy>
    <i name="alphaZ">   1737.36446598 </i>
    <i name="ewald"> 206056.51331313 </i>
    <i name="hartreedc">-255431.69791393 </i>
    <i name="XCdc">    963.75218180 </i>
    <i name="pawpsdc">  53743.96271581 </i>
    <i name="pawaedc"> -54881.25686215 </i>
    <i name="eentropy">      0.02760525 </i>
    <i name="bandstr">  -4288.50783893 </i>
    <i name="atom">  51597.65971741 </i>
    <i name="e_fr_energy">   -502.18261564 </i>
    <i name="e_wo_entrp">   -502.21022089 </i>
    <i name="e_0_energy">   -502.19181739 </i>
   </energy>
  </scstep>
  <scstep>
   <time name="diag">    1.92    1.93</time>
   <time name="diis">    8.65    8.70</time>
   <time name="orth">    0.43    0.44</time>
   <time name="total">   11.93   11.99</time>
   <dipole>
    <v name="dipole">      0.00000000       0.00000000      -0.04343571 </v>
    <i name="Tr[quadrupol]">  -6906.92133113 </i>
    <i name="Echarged">      0.00000000 </i>
    <i name="Edipol_quadrupol">      0.00000000 </i>
    <i name="Eion">      0.00000000 </i>
   </dipole>
   <energy>
    <i name="e_fr_energy">   -502.18304632 </i>
    <i name="e_wo_entrp">   -502.21086135 </i>
    <i name="e_0_energy">   -502.19231800 </i>
   </energy>
  </scstep>
  <scstep>
   <time name="diag">    1.92    1.93</time>
   <time name="diis">    5.87    5.90</time>
   <time name="orth">    0.43    0.44</time>
   <time name="total">    9.12    9.17</time>
   <dipole>
    <v name="dipole">      0.00000000       0.00000000      -0.04757171 </v>
    <i name="Tr[quadrupol]">  -6906.92033686 </i>
    <i name="Echarged">      0.00000000 </i>
    <i name="Edipol_quadrupol">      0.00000000 </i>
    <i name="Eion">      0.00000000 </i>
   </dipole>
   <energy>
    <i name="e_fr_energy">   -502.18259528 </i>
    <i name="e_wo_entrp">   -502.21022713 </i>
    <i name="e_0_energy">   -502.19180590 </i>
   </energy>
  </scstep>
  <scstep>
   <time name="diag">    1.88    1.90</time>
   <time name="diis">    4.54    4.56</time>
   <time name="orth">    0.44    0.44</time>
   <time name="total">    7.75    7.80</time>
   <dipole>
    <v name="dipole">      0.00000000       0.00000000      -0.04766887 </v>
    <i name="Tr[quadrupol]">  -6906.92006195 </i>
    <i name="Echarged">      0.00000000 </i>
    <i name="Edipol_quadrupol">      0.00000000 </i>
    <i name="Eion">      0.00000000 </i>
   </dipole>
   <energy>
    <i name="e_fr_energy">   -502.18261210 </i>
    <i name="e_wo_entrp">   -502.21023862 </i>
    <i name="e_0_energy">   -502.19182094 </i>
   </energy>
  </scstep>
  <scstep>
   <time name="diag">    1.91    1.92</time>
   <time name="diis">    4.25    4.28</time>
   <time name="orth">    0.43    0.44</time>
   <time name="total">    6.99    7.04</time>
   <dipole>
    <v name="dipole">      0.00000000       0.00000000      -0.04763025 </v>
    <i name="Tr[quadrupol]">  -6906.91373269 </i>
    <i name="Echarged">      0.00000000 </i>
    <i name="Edipol_quadrupol">      0.00000000 </i>
    <i name="Eion">      0.00000000 </i>
   </dipole>
   <energy>
    <i name="alphaZ">   1737.36780213 </i>
    <i name="ewald"> 206056.51331313 </i>
    <i name="hartreedc">-255431.71238602 </i>
    <i name="XCdc">    963.75243304 </i>
    <i name="pawpsdc">  53743.88915539 </i>
    <i name="pawaedc"> -54881.18362083 </i>
    <i name="eentropy">      0.02762861 </i>
    <i name="bandstr">  -4288.49665707 </i>
    <i name="atom">  51597.65971741 </i>
    <i name="e_fr_energy">   -502.18261421 </i>
    <i name="e_wo_entrp">   -502.21024281 </i>
    <i name="e_0_energy">   -502.19182374 </i>
   </energy>
  </scstep>
  <structure>
   <crystal>
    <varray name="basis" >
     <v>       8.50460000       0.00000000       0.00000000 </v>
     <v>      -0.00109914       8.50909993       0.00000000 </v>
     <v>       0.00000000       0.00000000      23.55660100 </v>
    </varray>
    <i name="volume">   1704.70856049 </i>
    <varray name="rec_basis" >
     <v>       0.11758343       0.00001519       0.00000000 </v>
     <v>       0.00000000       0.11752124       0.00000000 </v>
     <v>       0.00000000       0.00000000       0.04245095 </v>
    </varray>
   </crystal>
   <varray name="positions" >
    <v>       0.99760000       0.00330000       0.24221000 </v>
    <v>       0.66561000       0.99834000       0.00060000 </v>
    <v>       0.65179308       0.98466070       0.36816086 </v>
    <v>       0.83467000       0.16589000       0.18209000 </v>
    <v>       0.99866000       0.33404000       0.12198000 </v>
    <v>       0.33421000       0.33147000       0.00101000 </v>
    <v>       0.33363945       0.33612843       0.36396070 </v>
    <v>       0.83220000       0.50025000       0.06275000 </v>
    <v>       0.83266754       0.49881049       0.30388326 </v>
    <v>       0.33512000       0.67037000       0.00000000 </v>
    <v>       0.35043970       0.67712452       0.36898737 </v>
    <v>       0.33145000       0.66488000       0.12292000 </v>
    <v>       0.49900907       0.83401359       0.30435004 </v>
    <v>       0.67111000       0.66550000       0.12148000 </v>
    <v>       0.99950000       0.00032000       0.00103000 </v>
    <v>       0.99734039       0.00062998       0.36103234 </v>
    <v>       0.16670000       0.16592000       0.06160000 </v>
    <v>       0.99930000       0.00013000       0.12183000 </v>
    <v>       0.16670000       0.16692000       0.18170000 </v>
    <v>       0.16268918       0.16552317       0.30302584 </v>
    <v>       0.33368000       0.99986000       0.00108000 </v>
    <v>       0.32426072       0.01322838       0.36268723 </v>
    <v>       0.50008000       0.16606000       0.06164000 </v>
    <v>       0.33365000       0.99945000       0.12194000 </v>
    <v>       0.50013000       0.16657000       0.18176000 </v>
    <v>       0.33374000       0.99994000       0.24252000 </v>
    <v>       0.49984629       0.16801853       0.30356691 </v>
    <v>       0.83412000       0.16807000       0.06130000 </v>
    <v>       0.66767000       0.99972000       0.12168000 </v>
    <v>       0.66792000       0.00032000       0.24233000 </v>
    <v>       0.83126251       0.16600681       0.30418419 </v>
    <v>       0.00033000       0.33346000       0.00076000 </v>
    <v>       0.00951900       0.32867754       0.36362839 </v>
    <v>       0.16704000       0.50116000       0.06077000 </v>
    <v>       0.16627000       0.49940000       0.18238000 </v>
    <v>       0.00000000       0.33319000       0.24260000 </v>
    <v>       0.16794934       0.50136512       0.30369888 </v>
    <v>       0.49811000       0.50186000       0.06112000 </v>
    <v>       0.33328000       0.33434000       0.12148000 </v>
    <v>       0.50051000       0.50053000       0.18145000 </v>
    <v>       0.33392000       0.33269000       0.24229000 </v>
    <v>       0.50689864       0.49937650       0.30101291 </v>
    <v>       0.66687000       0.33418000       0.00129000 </v>
    <v>       0.66428020       0.32980833       0.36107876 </v>
    <v>       0.66670000       0.33332000       0.12177000 </v>
    <v>       0.83466000       0.49916000       0.18181000 </v>
    <v>       0.66748000       0.33291000       0.24234000 </v>
    <v>       0.99949000       0.66581000       0.00112000 </v>
    <v>       0.00371972       0.66359920       0.35994388 </v>
    <v>       0.16773000       0.83295000       0.06141000 </v>
    <v>       0.00149000       0.66672000       0.12196000 </v>
    <v>       0.16592000       0.83389000       0.18235000 </v>
    <v>       0.99950000       0.66635000       0.24245000 </v>
    <v>       0.16441975       0.83463060       0.30322377 </v>
    <v>       0.49825000       0.83185000       0.06189000 </v>
    <v>       0.50064000       0.83335000       0.18189000 </v>
    <v>       0.33424000       0.66627000       0.24239000 </v>
    <v>       0.66521000       0.66629000       0.00100000 </v>
    <v>       0.83382000       0.83268000       0.06128000 </v>
    <v>       0.83390000       0.83311000       0.18191000 </v>
    <v>       0.66721000       0.66675000       0.24221000 </v>
    <v>       0.83367874       0.82921423       0.30277147 </v>
   </varray>
  </structure>
  <varray name="forces" >
   <v>      -0.01976394      -0.17783711       0.05802982 </v>
   <v>       0.05267283       0.04330820      -0.18494846 </v>
   <v>      -0.00033978       0.01012405       0.00587524 </v>
   <v>       0.02065982       0.14577498      -0.18872330 </v>
   <v>      -0.07577454      -0.04118235       0.24996180 </v>
   <v>      -0.04519375      -0.33635817      -0.09864849 </v>
   <v>      -0.00519795      -0.01148868       0.01065985 </v>
   <v>      -0.01627922       0.01267145      -0.18009883 </v>
   <v>      -0.00637939      -0.00388611      -0.00482198 </v>
   <v>      -0.09527322       0.22118577      -0.23071502 </v>
   <v>      -0.00340629       0.00354626      -0.00200221 </v>
   <v>      -0.03022228       0.03008200       0.09073785 </v>
   <v>       0.01135496      -0.01204504       0.00530293 </v>
   <v>       0.08260172       0.00082041       0.08652972 </v>
   <v>      -0.01379274      -0.00912961       0.42925782 </v>
   <v>       0.00048322      -0.00577805      -0.00466114 </v>
   <v>      -0.26901878      -0.14056827      -0.40003965 </v>
   <v>      -0.01366340       0.02251852       0.10542926 </v>
   <v>       0.00646434       0.03020209      -0.04323384 </v>
   <v>      -0.00830477       0.01729250      -0.00192294 </v>
   <v>       0.05202320      -0.02188297       0.53728448 </v>
   <v>       0.00159892       0.01313452      -0.01983656 </v>
   <v>       0.06695936       0.07217426      -0.19349058 </v>
   <v>       0.04982415       0.04303208      -0.02389814 </v>
   <v>      -0.03512332       0.02218712      -0.03509925 </v>
   <v>      -0.00023613       0.06663236      -0.01781317 </v>
   <v>       0.00672177      -0.00023018      -0.00488730 </v>
   <v>       0.17266713       0.08577612      -0.36304269 </v>
   <v>      -0.04124329      -0.02678049       0.21650473 </v>
   <v>       0.03647556      -0.09378687       0.11288720 </v>
   <v>      -0.00619496       0.00380345      -0.00532099 </v>
   <v>       0.14377488      -0.01964407       0.37848869 </v>
   <v>      -0.00649499       0.01159632       0.00020379 </v>
   <v>      -0.26528425       0.03519223      -0.45820950 </v>
   <v>      -0.05934034      -0.06798910      -0.06336240 </v>
   <v>      -0.08813667       0.09872628       0.14386839 </v>
   <v>      -0.01385339      -0.00255061      -0.00750466 </v>
   <v>       0.32675573      -0.00963599      -0.33427466 </v>
   <v>       0.00014166      -0.03600494       0.24729273 </v>
   <v>       0.04917720      -0.02885197      -0.14325735 </v>
   <v>       0.09841116       0.06694149       0.00326282 </v>
   <v>       0.00863498      -0.00684051      -0.01363502 </v>
   <v>      -0.11847708       0.01438249       0.41302235 </v>
   <v>      -0.00659290      -0.00620947      -0.00673234 </v>
   <v>       0.04021999      -0.06528021       0.08957566 </v>
   <v>      -0.01784841       0.04530955      -0.08201549 </v>
   <v>      -0.07697633      -0.03148133      -0.07004373 </v>
   <v>       0.09066416       0.02851136       0.39436711 </v>
   <v>       0.00067828       0.00777920      -0.00702544 </v>
   <v>      -0.25643552       0.17979429      -0.32025350 </v>
   <v>      -0.03690569       0.01544968       0.13400525 </v>
   <v>       0.03020361       0.03027490       0.02249624 </v>
   <v>      -0.02080971       0.10155475      -0.16128657 </v>
   <v>       0.00790478       0.00047812      -0.00809897 </v>
   <v>      -0.00060514      -0.08232391      -0.07835689 </v>
   <v>      -0.01434299       0.02702260      -0.24012378 </v>
   <v>       0.01431926      -0.14717194       0.20925389 </v>
   <v>      -0.05558276      -0.00099059       0.42522678 </v>
   <v>       0.24767618      -0.09148151      -0.29117641 </v>
   <v>      -0.00291201      -0.03345841      -0.03045145 </v>
   <v>       0.10423091      -0.00084644      -0.04624925 </v>
   <v>       0.00270614       0.00443548      -0.00426243 </v>
  </varray>
  <varray name="stress" >
   <v>     -19.76375274      -0.35902920      -0.04795757 </v>
   <v>      -0.35902874     -20.59160406       0.17614151 </v>
   <v>      -0.04795774       0.17614200      -4.57255255 </v>
  </varray>
  <energy>
   <i name="e_fr_energy">   -502.18261421 </i>
   <i name="e_wo_entrp">   -502.21024281 </i>
   <i name="e_0_energy">   -502.19182374 </i>
  </energy>
  <time name="totalsc">   72.03   72.44</time>
 </calculation>
 <calculation>
  <scstep>
   <time name="dav">   15.39   15.48</time>
   <time name="total">   16.30   16.39</time>
   <dipole>
    <v name="dipole">      0.00000000       0.00000000      -0.04746798 </v>
    <i name="Tr[quadrupol]">  -6906.87360163 </i>
    <i name="Echarged">      0.00000000 </i>
    <i name="Edipol_quadrupol">      0.00000000 </i>
    <i name="Eion">      0.00000000 </i>
   </dipole>
   <energy>
    <i name="alphaZ">   1737.36853146 </i>
    <i name="ewald"> 206076.25657895 </i>
    <i name="hartreedc">-255451.35076628 </i>
    <i name="XCdc">    963.76358866 </i>
    <i name="pawpsdc">  53743.79290479 </i>
    <i name="pawaedc"> -54881.08763464 </i>
    <i name="eentropy">      0.02769894 </i>
    <i name="bandstr">  -4288.60948422 </i>
    <i name="atom">  51597.65971741 </i>
    <i name="e_fr_energy">   -502.17886494 </i>
    <i name="e_wo_entrp">   -502.20656388 </i>
    <i name="e_0_energy">   -502.18809792 </i>
   </energy>
  </scstep>
  <scstep>
   <time name="diag">    1.90    1.91</time>
   <time name="diis">    8.32    8.36</time>
   <time name="orth">    0.44    0.44</time>
   <time name="total">   11.55   11.62</time>
   <dipole>
    <v name="dipole">      0.00000000       0.00000000      -0.04851680 </v>
    <i name="Tr[quadrupol]">  -6906.86509689 </i>
    <i name="Echarged">      0.00000000 </i>
    <i name="Edipol_quadrupol">      0.00000000 </i>
    <i name="Eion">      0.00000000 </i>
   </dipole>
   <energy>
    <i name="e_fr_energy">   -502.18168141 </i>
    <i name="e_wo_entrp">   -502.20934222 </i>
    <i name="e_0_energy">   -502.19090168 </i>
   </energy>
  </scstep>
  <scstep>
   <time name="diag">    1.91    1.93</time>
   <time name="diis">   10.31   10.37</time>
   <time name="orth">    0.43    0.44</time>
   <time name="total">   13.57   13.64</time>
   <dipole>
    <v name="dipole">      0.00000000       0.00000000      -0.04044687 </v>
    <i name="Tr[quadrupol]">  -6906.85416077 </i>
    <i name="Echarged">      0.00000000 </i>
    <i name="Edipol_quadrupol">      0.00000000 </i>
    <i name="Eion">      0.00000000 </i>
   </dipole>
   <energy>
    <i name="e_fr_energy">   -502.18375072 </i>
    <i name="e_wo_entrp">   -502.21173954 </i>
    <i name="e_0_energy">   -502.19308032 </i>
   </energy>
  </scstep>
  <scstep>
   <time name="diag">    1.88    1.90</time>
   <time name="diis">    8.20    8.25</time>
   <time name="orth">    0.43    0.43</time>
   <time name="total">   11.42   11.49</time>
   <dipole>
    <v name="dipole">      0.00000000       0.00000000      -0.05039299 </v>
    <i name="Tr[quadrupol]">  -6906.84842598 </i>
    <i name="Echarged">      0.00000000 </i>
    <i name="Edipol_quadrupol">      0.00000000 </i>
    <i name="Eion">      0.00000000 </i>
   </dipole>
   <energy>
    <i name="e_fr_energy">   -502.18271639 </i>
    <i name="e_wo_entrp">   -502.21026994 </i>
    <i name="e_0_energy">   -502.19190090 </i>
   </energy>
  </scstep>
  <scstep>
   <time name="diag">    1.91    1.92</time>
   <time name="diis">    9.29    9.34</time>
   <time name="orth">    0.43    0.43</time>
   <time name="total">   12.53   12.60</time>
   <dipole>
    <v name="dipole">      0.00000000       0.00000000      -0.04806277 </v>
    <i name="Tr[quadrupol]">  -6906.86701142 </i>
    <i name="Echarged">      0.00000000 </i>
    <i name="Edipol_quadrupol">      0.00000000 </i>
    <i name="Eion">      0.00000000 </i>
   </dipole>
   <energy>
    <i name="e_fr_energy">   -502.18279077 </i>
    <i name="e_wo_entrp">   -502.21050063 </i>
    <i name="e_0_energy">   -502.19202739 </i>
   </energy>
  </scstep>
  <scstep>
   <time name="diag">    1.90    1.91</time>
   <time name="diis">    7.94    7.98</time>
   <time name="orth">    0.44    0.44</time>
   <time name="total">   11.18   11.25</time>
   <dipole>
    <v name="dipole">      0.00000000       0.00000000      -0.04738032 </v>
    <i name="Tr[quadrupol]">  -6906.85130334 </i>
    <i name="Echarged">      0.00000000 </i>
    <i name="Edipol_quadrupol">      0.00000000 </i>
    <i name="Eion">      0.00000000 </i>
   </dipole>
   <energy>
    <i name="e_fr_energy">   -502.18286192 </i>
    <i name="e_wo_entrp">   -502.21057396 </i>
    <i name="e_0_energy">   -502.19209926 </i>
   </energy>
  </scstep>
  <scstep>
   <time name="diag">    1.92    1.94</time>
   <time name="diis">    6.91    6.95</time>
   <time name="orth">    0.44    0.44</time>
   <time name="total">   10.17   10.23</time>
   <dipole>
    <v name="dipole">      0.00000000       0.00000000      -0.04760852 </v>
    <i name="Tr[quadrupol]">  -6906.86018118 </i>
    <i name="Echarged">      0.00000000 </i>
    <i name="Edipol_quadrupol">      0.00000000 </i>
    <i name="Eion">      0.00000000 </i>
   </dipole>
   <energy>
    <i name="e_fr_energy">   -502.18288413 </i>
    <i name="e_wo_entrp">   -502.21059465 </i>
    <i name="e_0_energy">   -502.19212097 </i>
   </energy>
  </scstep>
  <scstep>
   <time name="diag">    1.92    1.94</time>
   <time name="diis">    4.90    4.92</time>
   <time name="orth">    0.43    0.43</time>
   <time name="total">    7.65    7.69</time>
   <dipole>
    <v name="dipole">      0.00000000       0.00000000      -0.04750862 </v>
    <i name="Tr[quadrupol]">  -6906.86685489 </i>
    <i name="Echarged">      0.00000000 </i>
    <i name="Edipol_quadrupol">      0.00000000 </i>
    <i name="Eion">      0.00000000 </i>
   </dipole>
   <energy>
    <i name="alphaZ">   1737.17309478 </i>
    <i name="ewald"> 206076.25657895 </i>
    <i name="hartreedc">-255451.39791797 </i>
    <i name="XCdc">    963.76122017 </i>
    <i name="pawpsdc">  53744.58980013 </i>
    <i name="pawaedc"> -54881.89161674 </i>
    <i name="eentropy">      0.02772000 </i>
    <i name="bandstr">  -4288.36147899 </i>
    <i name="atom">  51597.65971741 </i>
    <i name="e_fr_energy">   -502.18288227 </i>
    <i name="e_wo_entrp">   -502.21060227 </i>
    <i name="e_0_energy">   -502.19212227 </i>
   </energy>
  </scstep>
  <structure>
   <crystal>
    <varray name="basis" >
     <v>       8.50460000       0.00000000       0.00000000 </v>
     <v>      -0.00109914       8.50909993       0.00000000 </v>
     <v>       0.00000000       0.00000000      23.55660100 </v>
    </varray>
    <i name="volume">   1704.70856049 </i>
    <varray name="rec_basis" >
     <v>       0.11758343       0.00001519       0.00000000 </v>
     <v>       0.00000000       0.11752124       0.00000000 </v>
     <v>       0.00000000       0.00000000       0.04245095 </v>
    </varray>
   </crystal>
   <varray name="positions" >
    <v>       0.99760000       0.00330000       0.24221000 </v>
    <v>       0.66561000       0.99834000       0.00060000 </v>
    <v>       0.65172056       0.98477179       0.36817530 </v>
    <v>       0.83467000       0.16589000       0.18209000 </v>
    <v>       0.99866000       0.33404000       0.12198000 </v>
    <v>       0.33421000       0.33147000       0.00101000 </v>
    <v>       0.33354708       0.33595542       0.36402216 </v>
    <v>       0.83220000       0.50025000       0.06275000 </v>
    <v>       0.83258721       0.49875635       0.30386543 </v>
    <v>       0.33512000       0.67037000       0.00000000 </v>
    <v>       0.35042746       0.67723393       0.36894557 </v>
    <v>       0.33145000       0.66488000       0.12292000 </v>
    <v>       0.49920433       0.83380838       0.30439325 </v>
    <v>       0.67111000       0.66550000       0.12148000 </v>
    <v>       0.99950000       0.00032000       0.00103000 </v>
    <v>       0.99731843       0.00050224       0.36100216 </v>
    <v>       0.16670000       0.16592000       0.06160000 </v>
    <v>       0.99930000       0.00013000       0.12183000 </v>
    <v>       0.16670000       0.16692000       0.18170000 </v>
    <v>       0.16253788       0.16575998       0.30300948 </v>
    <v>       0.33368000       0.99986000       0.00108000 </v>
    <v>       0.32426266       0.01350120       0.36255880 </v>
    <v>       0.50008000       0.16606000       0.06164000 </v>
    <v>       0.33365000       0.99945000       0.12194000 </v>
    <v>       0.50013000       0.16657000       0.18176000 </v>
    <v>       0.33374000       0.99994000       0.24252000 </v>
    <v>       0.49993568       0.16800207       0.30353631 </v>
    <v>       0.83412000       0.16807000       0.06130000 </v>
    <v>       0.66767000       0.99972000       0.12168000 </v>
    <v>       0.66792000       0.00032000       0.24233000 </v>
    <v>       0.83119887       0.16606359       0.30415088 </v>
    <v>       0.00033000       0.33346000       0.00076000 </v>
    <v>       0.00939958       0.32888042       0.36363266 </v>
    <v>       0.16704000       0.50116000       0.06077000 </v>
    <v>       0.16627000       0.49940000       0.18238000 </v>
    <v>       0.00000000       0.33319000       0.24260000 </v>
    <v>       0.16775480       0.50136622       0.30366503 </v>
    <v>       0.49811000       0.50186000       0.06112000 </v>
    <v>       0.33328000       0.33434000       0.12148000 </v>
    <v>       0.50051000       0.50053000       0.18145000 </v>
    <v>       0.33392000       0.33269000       0.24229000 </v>
    <v>       0.50697749       0.49926113       0.30096280 </v>
    <v>       0.66687000       0.33418000       0.00129000 </v>
    <v>       0.66416628       0.32966363       0.36103785 </v>
    <v>       0.66670000       0.33332000       0.12177000 </v>
    <v>       0.83466000       0.49916000       0.18181000 </v>
    <v>       0.66748000       0.33291000       0.24234000 </v>
    <v>       0.99949000       0.66581000       0.00112000 </v>
    <v>       0.00376483       0.66376044       0.35989566 </v>
    <v>       0.16773000       0.83295000       0.06141000 </v>
    <v>       0.00149000       0.66672000       0.12196000 </v>
    <v>       0.16592000       0.83389000       0.18235000 </v>
    <v>       0.99950000       0.66635000       0.24245000 </v>
    <v>       0.16453747       0.83468898       0.30318208 </v>
    <v>       0.49825000       0.83185000       0.06189000 </v>
    <v>       0.50064000       0.83335000       0.18189000 </v>
    <v>       0.33424000       0.66627000       0.24239000 </v>
    <v>       0.66521000       0.66629000       0.00100000 </v>
    <v>       0.83382000       0.83268000       0.06128000 </v>
    <v>       0.83390000       0.83311000       0.18191000 </v>
    <v>       0.66721000       0.66675000       0.24221000 </v>
    <v>       0.83370695       0.82928436       0.30275917 </v>
   </varray>
  </structure>
  <varray name="forces" >
   <v>      -0.01933049      -0.17671991       0.05604028 </v>
   <v>       0.05279719       0.04330106      -0.18443068 </v>
   <v>       0.00476485       0.00761680       0.00681927 </v>
   <v>       0.02050854       0.14527858      -0.18948311 </v>
   <v>      -0.07565030      -0.04097103       0.25052197 </v>
   <v>      -0.04515211      -0.33650173      -0.09831713 </v>
   <v>      -0.00303977      -0.00676992       0.00228876 </v>
   <v>      -0.01644990       0.01261521      -0.17963562 </v>
   <v>      -0.00533792      -0.00036232      -0.00409070 </v>
   <v>      -0.09519154       0.22116403      -0.23040174 </v>
   <v>      -0.00205754      -0.00532139      -0.00041383 </v>
   <v>      -0.03023551       0.02989899       0.09113656 </v>
   <v>       0.00412802      -0.00076926      -0.00189520 </v>
   <v>       0.08276713       0.00071353       0.08674024 </v>
   <v>      -0.01358414      -0.00922021       0.42966308 </v>
   <v>       0.00228643      -0.00023713      -0.00568780 </v>
   <v>      -0.26877014      -0.14084376      -0.40000867 </v>
   <v>      -0.01348726       0.02255040       0.10557816 </v>
   <v>       0.00674266       0.02979611      -0.04396373 </v>
   <v>      -0.00801764       0.01015519      -0.00372028 </v>
   <v>       0.05197866      -0.02179843       0.53771248 </v>
   <v>       0.00207511       0.00700427      -0.00951796 </v>
   <v>       0.06710556       0.07200731      -0.19356650 </v>
   <v>       0.04977589       0.04305098      -0.02365885 </v>
   <v>      -0.03516611       0.02171566      -0.03574152 </v>
   <v>       0.00309079       0.06836548      -0.01618929 </v>
   <v>      -0.00091169      -0.00036164      -0.00912641 </v>
   <v>       0.17282080       0.08573804      -0.36287492 </v>
   <v>      -0.04141700      -0.02700900       0.21667825 </v>
   <v>       0.03658453      -0.09501212       0.10951121 </v>
   <v>      -0.00165444      -0.00136302      -0.00036586 </v>
   <v>       0.14398937      -0.01976071       0.37870344 </v>
   <v>      -0.00906861       0.01230369       0.00026379 </v>
   <v>      -0.26518806       0.03522810      -0.45782281 </v>
   <v>      -0.05904705      -0.06739802      -0.06402642 </v>
   <v>      -0.09412138       0.10132732       0.13635357 </v>
   <v>       0.00103192      -0.00254609      -0.00063850 </v>
   <v>       0.32683651      -0.00940498      -0.33388003 </v>
   <v>       0.00025361      -0.03603119       0.24764383 </v>
   <v>       0.04913421      -0.02876327      -0.14457262 </v>
   <v>       0.09712697       0.06789258       0.00232818 </v>
   <v>      -0.00359880      -0.00340031      -0.00347274 </v>
   <v>      -0.11842568       0.01435992       0.41339282 </v>
   <v>      -0.00448393      -0.00312176       0.00109575 </v>
   <v>       0.04042002      -0.06515942       0.08995367 </v>
   <v>      -0.01791811       0.04536221      -0.08295423 </v>
   <v>      -0.07435568      -0.03232557      -0.07859915 </v>
   <v>       0.09095501       0.02855845       0.39470130 </v>
   <v>      -0.00129757       0.00502674      -0.00355147 </v>
   <v>      -0.25630001       0.17963044      -0.32017100 </v>
   <v>      -0.03661912       0.01538726       0.13439416 </v>
   <v>       0.03107568       0.03018021       0.02200904 </v>
   <v>      -0.02288878       0.10281787      -0.16348693 </v>
   <v>       0.00320656       0.00177188      -0.00832581 </v>
   <v>      -0.00035426      -0.08253063      -0.07792229 </v>
   <v>      -0.01443683       0.02627104      -0.23860478 </v>
   <v>       0.01601047      -0.14904983       0.20744121 </v>
   <v>      -0.05565697      -0.00098126       0.42559734 </v>
   <v>       0.24772751      -0.09156422      -0.29125298 </v>
   <v>      -0.00294013      -0.03360149      -0.03076972 </v>
   <v>       0.10759022      -0.00189963      -0.04924867 </v>
   <v>      -0.00062979       0.00370990      -0.00417839 </v>
  </varray>
  <varray name="stress" >
   <v>     -19.70946609      -0.35339152      -0.02621549 </v>
   <v>      -0.35339148     -20.53634054       0.15408008 </v>
   <v>      -0.02621502       0.15408011      -4.47608307 </v>
  </varray>
  <energy>
   <i name="e_fr_energy">   -502.18288227 </i>
   <i name="e_wo_entrp">   -502.21060227 </i>
   <i name="e_0_energy">   -502.19212227 </i>
  </energy>
  <time name="totalsc">  108.27  108.89</time>
  <eigenvalues>
   <array>
    <dimension dim="1">band</dimension>
    <dimension dim="2">kpoint</dimension>
    <dimension dim="3">spin</dimension>
    <field>eigene</field>
    <field>occ</field>
    <set>
     <set comment="spin 1">
      <set comment="kpoint 1">
       <r>  -42.9798    1.0000 </r>
       <r>  -42.9410    1.0000 </r>
       <r>  -42.9305    1.0000 </r>
       <r>  -42.9055    1.0000 </r>
       <r>  -42.8952    1.0000 </r>
       <r>  -42.8781    1.0000 </r>
       <r>  -42.3806    1.0000 </r>
       <r>  -42.3291    1.0000 </r>
       <r>  -42.2909    1.0000 </r>
       <r>  -42.2519    1.0000 </r>
       <r>  -42.1816    1.0000 </r>
       <r>  -42.1599    1.0000 </r>
       <r>  -42.1195    1.0000 </r>
       <r>  -42.1138    1.0000 </r>
       <r>  -42.0904    1.0000 </r>
       <r>  -42.0220    1.0000 </r>
       <r>  -42.0050    1.0000 </r>
       <r>  -41.9807    1.0000 </r>
       <r>  -41.9643    1.0000 </r>
       <r>  -41.9355    1.0000 </r>
       <r>  -41.9045    1.0000 </r>
       <r>  -41.8841    1.0000 </r>
       <r>  -41.8798    1.0000 </r>
       <r>  -41.8604    1.0000 </r>
       <r>  -41.4891    1.0000 </r>
       <r>  -41.4138    1.0000 </r>
       <r>  -41.3622    1.0000 </r>
       <r>  -41.1445    1.0000 </r>
       <r>  -41.0972    1.0000 </r>
       <r>  -41.0191    1.0000 </r>
       <r>  -40.3795    1.0000 </r>
       <r>  -40.3265    1.0000 </r>
       <r>  -40.3063    1.0000 </r>
       <r>  -40.3054    1.0000 </r>
       <r>  -40.2891    1.0000 </r>
       <r>  -40.2863    1.0000 </r>
       <r>  -40.2437    1.0000 </r>
       <r>  -40.2274    1.0000 </r>
       <r>  -40.2223    1.0000 </r>
       <r>  -40.2182    1.0000 </r>
       <r>  -40.1827    1.0000 </r>
       <r>  -40.1619    1.0000 </r>
       <r>   -7.3681    1.0000 </r>
       <r>   -6.3656    1.0000 </r>
       <r>   -5.4323    1.0000 </r>
       <r>   -5.3704    1.0000 </r>
       <r>   -5.3553    1.0000 </r>
       <r>   -5.2718    1.0000 </r>
       <r>   -5.0081    1.0000 </r>
       <r>   -4.7943    1.0000 </r>
       <r>   -4.7028    1.0000 </r>
       <r>   -4.6603    1.0000 </r>
       <r>   -4.6522    1.0000 </r>
       <r>   -4.2869    1.0000 </r>
       <r>   -4.2694    1.0000 </r>
       <r>   -4.2249    1.0000 </r>
       <r>   -4.2106    1.0000 </r>
       <r>   -4.1749    1.0000 </r>
       <r>   -4.1396    1.0000 </r>
       <r>   -4.1028    1.0000 </r>
       <r>   -4.0441    1.0000 </r>
       <r>   -3.9898    1.0000 </r>
       <r>   -3.9765    1.0000 </r>
       <r>   -3.8673    1.0000 </r>
       <r>   -3.7867    1.0000 </r>
       <r>   -3.7827    1.0000 </r>
       <r>   -3.7467    1.0000 </r>
       <r>   -3.7153    1.0000 </r>
       <r>   -3.5868    1.0000 </r>
       <r>   -3.5602    1.0000 </r>
       <r>   -3.5375    1.0000 </r>
       <r>   -3.5227    1.0000 </r>
       <r>   -3.5104    1.0000 </r>
       <r>   -3.4980    1.0000 </r>
       <r>   -3.4844    1.0000 </r>
       <r>   -3.4835    1.0000 </r>
       <r>   -3.4723    1.0000 </r>
       <r>   -3.4354    1.0000 </r>
       <r>   -3.4288    1.0000 </r>
       <r>   -3.4248    1.0000 </r>
       <r>   -3.3644    1.0000 </r>
       <r>   -3.3554    1.0000 </r>
       <r>   -3.3294    1.0000 </r>
       <r>   -3.3255    1.0000 </r>
       <r>   -3.2808    1.0000 </r>
       <r>   -3.2401    1.0000 </r>
       <r>   -3.2124    1.0000 </r>
       <r>   -3.1811    1.0000 </r>
       <r>   -3.1361    1.0000 </r>
       <r>   -3.1198    1.0000 </r>
       <r>   -3.1012    1.0000 </r>
       <r>   -3.0889    1.0000 </r>
       <r>   -3.0672    1.0000 </r>
       <r>   -3.0588    1.0000 </r>
       <r>   -3.0400    1.0000 </r>
       <r>   -3.0158    1.0000 </r>
       <r>   -3.0041    1.0000 </r>
       <r>   -3.0032    1.0000 </r>
       <r>   -2.9816    1.0000 </r>
       <r>   -2.9693    1.0000 </r>
       <r>   -2.9299    1.0000 </r>
       <r>   -2.9081    1.0000 </r>
       <r>   -2.8647    1.0000 </r>
       <r>   -2.8238    1.0000 </r>
       <r>   -2.8197    1.0000 </r>
       <r>   -2.8097    1.0000 </r>
       <r>   -2.7897    1.0000 </r>
       <r>   -2.7607    1.0000 </r>
       <r>   -2.7156    1.0000 </r>
       <r>   -2.6972    1.0000 </r>
       <r>   -2.6860    1.0000 </r>
       <r>   -2.6635    1.0000 </r>
       <r>   -2.6518    1.0000 </r>
       <r>   -2.6451    1.0000 </r>
       <r>   -2.6412    1.0000 </r>
       <r>   -2.6221    1.0000 </r>
       <r>   -2.6122    1.0000 </r>
       <r>   -2.6067    1.0000 </r>
       <r>   -2.5945    1.0000 </r>
       <r>   -2.5917    1.0000 </r>
       <r>   -2.5806    1.0000 </r>
       <r>   -2.5766    1.0000 </r>
       <r>   -2.5616    1.0000 </r>
       <r>   -2.5526    1.0000 </r>
       <r>   -2.5318    1.0000 </r>
       <r>   -2.5250    1.0000 </r>
       <r>   -2.5090    1.0000 </r>
       <r>   -2.4987    1.0000 </r>
       <r>   -2.4900    1.0000 </r>
       <r>   -2.4805    1.0000 </r>
       <r>   -2.4741    1.0000 </r>
       <r>   -2.4650    1.0000 </r>
       <r>   -2.4552    1.0000 </r>
       <r>   -2.4360    1.0000 </r>
       <r>   -2.4300    1.0000 </r>
       <r>   -2.4245    1.0000 </r>
       <r>   -2.4113    1.0000 </r>
       <r>   -2.3785    1.0000 </r>
       <r>   -2.3755    1.0000 </r>
       <r>   -2.3685    1.0000 </r>
       <r>   -2.3577    1.0000 </r>
       <r>   -2.3498    1.0000 </r>
       <r>   -2.3308    1.0000 </r>
       <r>   -2.3257    1.0000 </r>
       <r>   -2.3049    1.0000 </r>
       <r>   -2.2877    1.0000 </r>
       <r>   -2.2683    1.0000 </r>
       <r>   -2.2561    1.0000 </r>
       <r>   -2.2445    1.0000 </r>
       <r>   -2.2369    1.0000 </r>
       <r>   -2.2201    1.0000 </r>
       <r>   -2.2145    1.0000 </r>
       <r>   -2.2061    1.0000 </r>
       <r>   -2.1967    1.0000 </r>
       <r>   -2.1723    1.0000 </r>
       <r>   -2.1612    1.0000 </r>
       <r>   -2.1575    1.0000 </r>
       <r>   -2.1294    1.0000 </r>
       <r>   -2.1247    1.0000 </r>
       <r>   -2.1094    1.0000 </r>
       <r>   -2.0945    1.0000 </r>
       <r>   -2.0788    1.0000 </r>
       <r>   -2.0642    1.0000 </r>
       <r>   -2.0514    1.0000 </r>
       <r>   -2.0320    1.0000 </r>
       <r>   -2.0166    1.0000 </r>
       <r>   -2.0074    1.0000 </r>
       <r>   -1.9849    1.0000 </r>
       <r>   -1.9753    1.0000 </r>
       <r>   -1.9481    1.0000 </r>
       <r>   -1.9425    1.0000 </r>
       <r>   -1.9215    1.0000 </r>
       <r>   -1.9141    1.0000 </r>
       <r>   -1.8986    1.0000 </r>
       <r>   -1.8690    1.0000 </r>
       <r>   -1.8557    1.0000 </r>
       <r>   -1.8455    1.0000 </r>
       <r>   -1.8299    1.0000 </r>
       <r>   -1.8120    1.0000 </r>
       <r>   -1.7878    1.0000 </r>
       <r>   -1.7528    1.0000 </r>
       <r>   -1.7360    1.0000 </r>
       <r>   -1.7173    1.0000 </r>
       <r>   -1.6863    1.0000 </r>
       <r>   -1.6758    1.0000 </r>
       <r>   -1.6574    1.0000 </r>
       <r>   -1.6209    1.0000 </r>
       <r>   -1.6133    1.0000 </r>
       <r>   -1.6114    1.0000 </r>
       <r>   -1.5891    1.0000 </r>
       <r>   -1.5692    1.0000 </r>
       <r>   -1.5646    1.0000 </r>
       <r>   -1.5441    1.0000 </r>
       <r>   -1.5263    1.0000 </r>
       <r>   -1.5007    1.0000 </r>
       <r>   -1.4872    1.0000 </r>
       <r>   -1.4554    1.0000 </r>
       <r>   -1.4501    1.0000 </r>
       <r>   -1.4277    1.0000 </r>
       <r>   -1.4201    1.0000 </r>
       <r>   -1.3958    1.0000 </r>
       <r>   -1.3795    1.0000 </r>
       <r>   -1.3580    1.0000 </r>
       <r>   -1.3409    1.0000 </r>
       <r>   -1.3193    1.0000 </r>
       <r>   -1.3033    1.0000 </r>
       <r>   -1.2951    1.0000 </r>
       <r>   -1.2771    1.0000 </r>
       <r>   -1.2400    1.0000 </r>
       <r>   -1.2332    1.0000 </r>
       <r>   -1.2213    1.0000 </r>
       <r>   -1.1809    1.0000 </r>
       <r>   -1.1593    1.0000 </r>
       <r>   -1.1479    1.0000 </r>
       <r>   -1.1302    1.0000 </r>
       <r>   -1.1106    1.0000 </r>
       <r>   -1.0952    1.0000 </r>
       <r>   -1.0847    1.0000 </r>
       <r>   -1.0452    1.0000 </r>
       <r>   -1.0373    1.0000 </r>
       <r>   -1.0211    1.0000 </r>
       <r>   -1.0135    1.0000 </r>
       <r>   -0.9971    1.0000 </r>
       <r>   -0.9861    1.0000 </r>
       <r>   -0.9619    1.0000 </r>
       <r>   -0.9476    1.0000 </r>
       <r>   -0.9390    1.0000 </r>
       <r>   -0.9309    1.0000 </r>
       <r>   -0.9137    1.0000 </r>
       <r>   -0.9016    1.0000 </r>
       <r>   -0.8852    1.0000 </r>
       <r>   -0.8537    1.0000 </r>
       <r>   -0.8344    1.0000 </r>
       <r>   -0.8272    1.0000 </r>
       <r>   -0.8104    1.0000 </r>
       <r>   -0.7946    1.0000 </r>
       <r>   -0.7776    1.0000 </r>
       <r>   -0.7701    1.0000 </r>
       <r>   -0.7593    1.0000 </r>
       <r>   -0.7210    1.0000 </r>
       <r>   -0.7104    1.0000 </r>
       <r>   -0.6927    1.0000 </r>
       <r>   -0.6836    1.0000 </r>
       <r>   -0.6704    1.0000 </r>
       <r>   -0.6624    1.0000 </r>
       <r>   -0.6509    1.0000 </r>
       <r>   -0.6467    1.0000 </r>
       <r>   -0.6359    1.0000 </r>
       <r>   -0.6169    1.0000 </r>
       <r>   -0.6105    1.0000 </r>
       <r>   -0.5937    1.0000 </r>
       <r>   -0.5832    1.0000 </r>
       <r>   -0.5798    1.0000 </r>
       <r>   -0.5698    1.0000 </r>
       <r>   -0.5607    1.0000 </r>
       <r>   -0.5449    1.0000 </r>
       <r>   -0.5414    1.0000 </r>
       <r>   -0.5340    1.0000 </r>
       <r>   -0.5236    1.0000 </r>
       <r>   -0.5021    1.0000 </r>
       <r>   -0.4929    1.0000 </r>
       <r>   -0.4903    1.0000 </r>
       <r>   -0.4843    1.0000 </r>
       <r>   -0.4748    1.0000 </r>
       <r>   -0.4636    1.0000 </r>
       <r>   -0.4612    1.0000 </r>
       <r>   -0.4409    1.0000 </r>
       <r>   -0.4302    1.0000 </r>
       <r>   -0.4151    1.0000 </r>
       <r>   -0.4071    1.0000 </r>
       <r>   -0.3966    1.0000 </r>
       <r>   -0.3892    1.0000 </r>
       <r>   -0.3780    1.0000 </r>
       <r>   -0.3661    1.0000 </r>
       <r>   -0.3606    1.0000 </r>
       <r>   -0.3507    1.0000 </r>
       <r>   -0.3442    1.0000 </r>
       <r>   -0.3322    1.0000 </r>
       <r>   -0.3272    1.0000 </r>
       <r>   -0.3184    1.0000 </r>
       <r>   -0.3015    1.0000 </r>
       <r>   -0.2960    1.0000 </r>
       <r>   -0.2763    1.0000 </r>
       <r>   -0.2620    1.0000 </r>
       <r>   -0.2494    1.0000 </r>
       <r>   -0.2309    1.0000 </r>
       <r>   -0.2219    1.0000 </r>
       <r>   -0.2148    1.0000 </r>
       <r>   -0.2054    1.0000 </r>
       <r>   -0.1785    1.0000 </r>
       <r>   -0.1684    1.0000 </r>
       <r>   -0.1590    1.0000 </r>
       <r>   -0.1429    1.0000 </r>
       <r>   -0.1181    1.0000 </r>
       <r>   -0.0911    1.0000 </r>
       <r>   -0.0896    1.0000 </r>
       <r>   -0.0453    1.0000 </r>
       <r>   -0.0112    1.0000 </r>
       <r>    0.0110    1.0000 </r>
       <r>    0.0192    1.0000 </r>
       <r>    0.0692    1.0000 </r>
       <r>    0.0967    1.0000 </r>
       <r>    0.1327    1.0000 </r>
       <r>    0.1380    1.0000 </r>
       <r>    0.1639    1.0000 </r>
       <r>    0.1672    1.0000 </r>
       <r>    0.2563    1.0000 </r>
       <r>    0.2624    1.0000 </r>
       <r>    0.3027    1.0000 </r>
       <r>    0.3567    1.0001 </r>
       <r>    0.3644    1.0002 </r>
       <r>    0.3959    1.0005 </r>
       <r>    0.4469    1.0022 </r>
       <r>    0.4651    1.0035 </r>
       <r>    0.5063    1.0092 </r>
       <r>    0.5215    1.0124 </r>
       <r>    0.5245    1.0132 </r>
       <r>    0.5340    1.0156 </r>
       <r>    0.5430    1.0181 </r>
       <r>    0.5937    1.0327 </r>
       <r>    0.6254    1.0348 </r>
       <r>    0.6339    1.0329 </r>
       <r>    0.6958    0.9571 </r>
       <r>    0.7023    0.9407 </r>
       <r>    0.7313    0.8450 </r>
       <r>    0.7751    0.6366 </r>
       <r>    0.8690    0.1515 </r>
       <r>    0.8713    0.1426 </r>
       <r>    0.9297   -0.0052 </r>
       <r>    1.0119   -0.0312 </r>
       <r>    1.0479   -0.0205 </r>
       <r>    1.0770   -0.0126 </r>
       <r>    1.0996   -0.0080 </r>
       <r>    1.1598   -0.0018 </r>
       <r>    1.1846   -0.0009 </r>
       <r>    1.2025   -0.0005 </r>
       <r>    1.2255   -0.0002 </r>
       <r>    1.2679   -0.0000 </r>
       <r>    1.3650   -0.0000 </r>
       <r>    1.3757   -0.0000 </r>
       <r>    1.4104   -0.0000 </r>
       <r>    1.4309   -0.0000 </r>
       <r>    1.4815   -0.0000 </r>
       <r>    1.5571   -0.0000 </r>
       <r>    1.5814   -0.0000 </r>
       <r>    1.6366   -0.0000 </r>
       <r>    1.6647   -0.0000 </r>
       <r>    1.7123   -0.0000 </r>
       <r>    1.7569   -0.0000 </r>
       <r>    1.7669   -0.0000 </r>
       <r>    1.7900   -0.0000 </r>
       <r>    1.8158   -0.0000 </r>
       <r>    1.8488   -0.0000 </r>
       <r>    1.9103   -0.0000 </r>
       <r>    1.9255   -0.0000 </r>
       <r>    1.9478   -0.0000 </r>
       <r>    1.9591   -0.0000 </r>
       <r>    2.0124   -0.0000 </r>
       <r>    2.0350   -0.0000 </r>
       <r>    2.0646   -0.0000 </r>
       <r>    2.1058   -0.0000 </r>
       <r>    2.1685   -0.0000 </r>
       <r>    2.1849   -0.0000 </r>
      </set>
      <set comment="kpoint 2">
       <r>  -42.9797    1.0000 </r>
       <r>  -42.9410    1.0000 </r>
       <r>  -42.9305    1.0000 </r>
       <r>  -42.9055    1.0000 </r>
       <r>  -42.8952    1.0000 </r>
       <r>  -42.8781    1.0000 </r>
       <r>  -42.3806    1.0000 </r>
       <r>  -42.3291    1.0000 </r>
       <r>  -42.2909    1.0000 </r>
       <r>  -42.2519    1.0000 </r>
       <r>  -42.1816    1.0000 </r>
       <r>  -42.1599    1.0000 </r>
       <r>  -42.1195    1.0000 </r>
       <r>  -42.1137    1.0000 </r>
       <r>  -42.0904    1.0000 </r>
       <r>  -42.0220    1.0000 </r>
       <r>  -42.0050    1.0000 </r>
       <r>  -41.9807    1.0000 </r>
       <r>  -41.9643    1.0000 </r>
       <r>  -41.9355    1.0000 </r>
       <r>  -41.9045    1.0000 </r>
       <r>  -41.8841    1.0000 </r>
       <r>  -41.8798    1.0000 </r>
       <r>  -41.8604    1.0000 </r>
       <r>  -41.4891    1.0000 </r>
       <r>  -41.4138    1.0000 </r>
       <r>  -41.3621    1.0000 </r>
       <r>  -41.1445    1.0000 </r>
       <r>  -41.0972    1.0000 </r>
       <r>  -41.0191    1.0000 </r>
       <r>  -40.3795    1.0000 </r>
       <r>  -40.3265    1.0000 </r>
       <r>  -40.3063    1.0000 </r>
       <r>  -40.3054    1.0000 </r>
       <r>  -40.2891    1.0000 </r>
       <r>  -40.2863    1.0000 </r>
       <r>  -40.2437    1.0000 </r>
       <r>  -40.2274    1.0000 </r>
       <r>  -40.2223    1.0000 </r>
       <r>  -40.2182    1.0000 </r>
       <r>  -40.1827    1.0000 </r>
       <r>  -40.1619    1.0000 </r>
       <r>   -7.2269    1.0000 </r>
       <r>   -6.2447    1.0000 </r>
       <r>   -6.1555    1.0000 </r>
       <r>   -5.3214    1.0000 </r>
       <r>   -5.2631    1.0000 </r>
       <r>   -5.2346    1.0000 </r>
       <r>   -4.9150    1.0000 </r>
       <r>   -4.6332    1.0000 </r>
       <r>   -4.5841    1.0000 </r>
       <r>   -4.5645    1.0000 </r>
       <r>   -4.5521    1.0000 </r>
       <r>   -4.4761    1.0000 </r>
       <r>   -4.3172    1.0000 </r>
       <r>   -4.2536    1.0000 </r>
       <r>   -4.1251    1.0000 </r>
       <r>   -4.0662    1.0000 </r>
       <r>   -4.0504    1.0000 </r>
       <r>   -3.9826    1.0000 </r>
       <r>   -3.9663    1.0000 </r>
       <r>   -3.9346    1.0000 </r>
       <r>   -3.9074    1.0000 </r>
       <r>   -3.8707    1.0000 </r>
       <r>   -3.8164    1.0000 </r>
       <r>   -3.7874    1.0000 </r>
       <r>   -3.7553    1.0000 </r>
       <r>   -3.6943    1.0000 </r>
       <r>   -3.6736    1.0000 </r>
       <r>   -3.6532    1.0000 </r>
       <r>   -3.6378    1.0000 </r>
       <r>   -3.6214    1.0000 </r>
       <r>   -3.5971    1.0000 </r>
       <r>   -3.5567    1.0000 </r>
       <r>   -3.5335    1.0000 </r>
       <r>   -3.4861    1.0000 </r>
       <r>   -3.4472    1.0000 </r>
       <r>   -3.4149    1.0000 </r>
       <r>   -3.3864    1.0000 </r>
       <r>   -3.3629    1.0000 </r>
       <r>   -3.3544    1.0000 </r>
       <r>   -3.3404    1.0000 </r>
       <r>   -3.3203    1.0000 </r>
       <r>   -3.3017    1.0000 </r>
       <r>   -3.2788    1.0000 </r>
       <r>   -3.2679    1.0000 </r>
       <r>   -3.2557    1.0000 </r>
       <r>   -3.2387    1.0000 </r>
       <r>   -3.1733    1.0000 </r>
       <r>   -3.1653    1.0000 </r>
       <r>   -3.1476    1.0000 </r>
       <r>   -3.1303    1.0000 </r>
       <r>   -3.1058    1.0000 </r>
       <r>   -3.0946    1.0000 </r>
       <r>   -3.0724    1.0000 </r>
       <r>   -3.0560    1.0000 </r>
       <r>   -3.0411    1.0000 </r>
       <r>   -3.0074    1.0000 </r>
       <r>   -2.9963    1.0000 </r>
       <r>   -2.9788    1.0000 </r>
       <r>   -2.9538    1.0000 </r>
       <r>   -2.9166    1.0000 </r>
       <r>   -2.8706    1.0000 </r>
       <r>   -2.8510    1.0000 </r>
       <r>   -2.8343    1.0000 </r>
       <r>   -2.8068    1.0000 </r>
       <r>   -2.7987    1.0000 </r>
       <r>   -2.7896    1.0000 </r>
       <r>   -2.7771    1.0000 </r>
       <r>   -2.7531    1.0000 </r>
       <r>   -2.7373    1.0000 </r>
       <r>   -2.7114    1.0000 </r>
       <r>   -2.6928    1.0000 </r>
       <r>   -2.6839    1.0000 </r>
       <r>   -2.6717    1.0000 </r>
       <r>   -2.6650    1.0000 </r>
       <r>   -2.6508    1.0000 </r>
       <r>   -2.6435    1.0000 </r>
       <r>   -2.6192    1.0000 </r>
       <r>   -2.6105    1.0000 </r>
       <r>   -2.5969    1.0000 </r>
       <r>   -2.5829    1.0000 </r>
       <r>   -2.5776    1.0000 </r>
       <r>   -2.5680    1.0000 </r>
       <r>   -2.5544    1.0000 </r>
       <r>   -2.5424    1.0000 </r>
       <r>   -2.5308    1.0000 </r>
       <r>   -2.5215    1.0000 </r>
       <r>   -2.5098    1.0000 </r>
       <r>   -2.4863    1.0000 </r>
       <r>   -2.4710    1.0000 </r>
       <r>   -2.4629    1.0000 </r>
       <r>   -2.4460    1.0000 </r>
       <r>   -2.4374    1.0000 </r>
       <r>   -2.4226    1.0000 </r>
       <r>   -2.4115    1.0000 </r>
       <r>   -2.3875    1.0000 </r>
       <r>   -2.3795    1.0000 </r>
       <r>   -2.3725    1.0000 </r>
       <r>   -2.3622    1.0000 </r>
       <r>   -2.3488    1.0000 </r>
       <r>   -2.3270    1.0000 </r>
       <r>   -2.3209    1.0000 </r>
       <r>   -2.3023    1.0000 </r>
       <r>   -2.2955    1.0000 </r>
       <r>   -2.2903    1.0000 </r>
       <r>   -2.2709    1.0000 </r>
       <r>   -2.2620    1.0000 </r>
       <r>   -2.2441    1.0000 </r>
       <r>   -2.2341    1.0000 </r>
       <r>   -2.2147    1.0000 </r>
       <r>   -2.1987    1.0000 </r>
       <r>   -2.1881    1.0000 </r>
       <r>   -2.1641    1.0000 </r>
       <r>   -2.1526    1.0000 </r>
       <r>   -2.1309    1.0000 </r>
       <r>   -2.1140    1.0000 </r>
       <r>   -2.1080    1.0000 </r>
       <r>   -2.0926    1.0000 </r>
       <r>   -2.0851    1.0000 </r>
       <r>   -2.0627    1.0000 </r>
       <r>   -2.0432    1.0000 </r>
       <r>   -2.0276    1.0000 </r>
       <r>   -2.0174    1.0000 </r>
       <r>   -1.9936    1.0000 </r>
       <r>   -1.9805    1.0000 </r>
       <r>   -1.9761    1.0000 </r>
       <r>   -1.9533    1.0000 </r>
       <r>   -1.9306    1.0000 </r>
       <r>   -1.9208    1.0000 </r>
       <r>   -1.9115    1.0000 </r>
       <r>   -1.8980    1.0000 </r>
       <r>   -1.8736    1.0000 </r>
       <r>   -1.8672    1.0000 </r>
       <r>   -1.8420    1.0000 </r>
       <r>   -1.8285    1.0000 </r>
       <r>   -1.8248    1.0000 </r>
       <r>   -1.8020    1.0000 </r>
       <r>   -1.7832    1.0000 </r>
       <r>   -1.7667    1.0000 </r>
       <r>   -1.7559    1.0000 </r>
       <r>   -1.7462    1.0000 </r>
       <r>   -1.7204    1.0000 </r>
       <r>   -1.7137    1.0000 </r>
       <r>   -1.7073    1.0000 </r>
       <r>   -1.6843    1.0000 </r>
       <r>   -1.6671    1.0000 </r>
       <r>   -1.6543    1.0000 </r>
       <r>   -1.6472    1.0000 </r>
       <r>   -1.6117    1.0000 </r>
       <r>   -1.5933    1.0000 </r>
       <r>   -1.5826    1.0000 </r>
       <r>   -1.5737    1.0000 </r>
       <r>   -1.5504    1.0000 </r>
       <r>   -1.5205    1.0000 </r>
       <r>   -1.5103    1.0000 </r>
       <r>   -1.4800    1.0000 </r>
       <r>   -1.4759    1.0000 </r>
       <r>   -1.4654    1.0000 </r>
       <r>   -1.4400    1.0000 </r>
       <r>   -1.4275    1.0000 </r>
       <r>   -1.4217    1.0000 </r>
       <r>   -1.4037    1.0000 </r>
       <r>   -1.3796    1.0000 </r>
       <r>   -1.3505    1.0000 </r>
       <r>   -1.3381    1.0000 </r>
       <r>   -1.3163    1.0000 </r>
       <r>   -1.3106    1.0000 </r>
       <r>   -1.2951    1.0000 </r>
       <r>   -1.2577    1.0000 </r>
       <r>   -1.2375    1.0000 </r>
       <r>   -1.2198    1.0000 </r>
       <r>   -1.2088    1.0000 </r>
       <r>   -1.1760    1.0000 </r>
       <r>   -1.1565    1.0000 </r>
       <r>   -1.1203    1.0000 </r>
       <r>   -1.1071    1.0000 </r>
       <r>   -1.0747    1.0000 </r>
       <r>   -1.0589    1.0000 </r>
       <r>   -1.0372    1.0000 </r>
       <r>   -1.0224    1.0000 </r>
       <r>   -1.0025    1.0000 </r>
       <r>   -0.9847    1.0000 </r>
       <r>   -0.9624    1.0000 </r>
       <r>   -0.9466    1.0000 </r>
       <r>   -0.9307    1.0000 </r>
       <r>   -0.9127    1.0000 </r>
       <r>   -0.8905    1.0000 </r>
       <r>   -0.8793    1.0000 </r>
       <r>   -0.8527    1.0000 </r>
       <r>   -0.8434    1.0000 </r>
       <r>   -0.8324    1.0000 </r>
       <r>   -0.8246    1.0000 </r>
       <r>   -0.8154    1.0000 </r>
       <r>   -0.7906    1.0000 </r>
       <r>   -0.7799    1.0000 </r>
       <r>   -0.7626    1.0000 </r>
       <r>   -0.7518    1.0000 </r>
       <r>   -0.7385    1.0000 </r>
       <r>   -0.7216    1.0000 </r>
       <r>   -0.7051    1.0000 </r>
       <r>   -0.6955    1.0000 </r>
       <r>   -0.6906    1.0000 </r>
       <r>   -0.6653    1.0000 </r>
       <r>   -0.6590    1.0000 </r>
       <r>   -0.6514    1.0000 </r>
       <r>   -0.6413    1.0000 </r>
       <r>   -0.6239    1.0000 </r>
       <r>   -0.6183    1.0000 </r>
       <r>   -0.6132    1.0000 </r>
       <r>   -0.5975    1.0000 </r>
       <r>   -0.5870    1.0000 </r>
       <r>   -0.5699    1.0000 </r>
       <r>   -0.5627    1.0000 </r>
       <r>   -0.5522    1.0000 </r>
       <r>   -0.5509    1.0000 </r>
       <r>   -0.5295    1.0000 </r>
       <r>   -0.5222    1.0000 </r>
       <r>   -0.5147    1.0000 </r>
       <r>   -0.5064    1.0000 </r>
       <r>   -0.4953    1.0000 </r>
       <r>   -0.4864    1.0000 </r>
       <r>   -0.4780    1.0000 </r>
       <r>   -0.4563    1.0000 </r>
       <r>   -0.4461    1.0000 </r>
       <r>   -0.4422    1.0000 </r>
       <r>   -0.4317    1.0000 </r>
       <r>   -0.4143    1.0000 </r>
       <r>   -0.4035    1.0000 </r>
       <r>   -0.3931    1.0000 </r>
       <r>   -0.3773    1.0000 </r>
       <r>   -0.3676    1.0000 </r>
       <r>   -0.3584    1.0000 </r>
       <r>   -0.3520    1.0000 </r>
       <r>   -0.3392    1.0000 </r>
       <r>   -0.3250    1.0000 </r>
       <r>   -0.3131    1.0000 </r>
       <r>   -0.3029    1.0000 </r>
       <r>   -0.2945    1.0000 </r>
       <r>   -0.2866    1.0000 </r>
       <r>   -0.2712    1.0000 </r>
       <r>   -0.2605    1.0000 </r>
       <r>   -0.2435    1.0000 </r>
       <r>   -0.2255    1.0000 </r>
       <r>   -0.2185    1.0000 </r>
       <r>   -0.2035    1.0000 </r>
       <r>   -0.1916    1.0000 </r>
       <r>   -0.1638    1.0000 </r>
       <r>   -0.1554    1.0000 </r>
       <r>   -0.1334    1.0000 </r>
       <r>   -0.1014    1.0000 </r>
       <r>   -0.0897    1.0000 </r>
       <r>   -0.0787    1.0000 </r>
       <r>   -0.0612    1.0000 </r>
       <r>   -0.0313    1.0000 </r>
       <r>   -0.0062    1.0000 </r>
       <r>    0.0123    1.0000 </r>
       <r>    0.0379    1.0000 </r>
       <r>    0.0563    1.0000 </r>
       <r>    0.0836    1.0000 </r>
       <r>    0.0902    1.0000 </r>
       <r>    0.1213    1.0000 </r>
       <r>    0.1408    1.0000 </r>
       <r>    0.1740    1.0000 </r>
       <r>    0.1937    1.0000 </r>
       <r>    0.2361    1.0000 </r>
       <r>    0.2610    1.0000 </r>
       <r>    0.2778    1.0000 </r>
       <r>    0.2942    1.0000 </r>
       <r>    0.3267    1.0000 </r>
       <r>    0.3794    1.0003 </r>
       <r>    0.4043    1.0006 </r>
       <r>    0.4289    1.0013 </r>
       <r>    0.4475    1.0022 </r>
       <r>    0.4669    1.0037 </r>
       <r>    0.4953    1.0073 </r>
       <r>    0.5149    1.0109 </r>
       <r>    0.5389    1.0169 </r>
       <r>    0.5778    1.0286 </r>
       <r>    0.5883    1.0314 </r>
       <r>    0.6562    1.0200 </r>
       <r>    0.6949    0.9592 </r>
       <r>    0.7487    0.7699 </r>
       <r>    0.7782    0.6199 </r>
       <r>    0.8173    0.4013 </r>
       <r>    0.8684    0.1535 </r>
       <r>    0.8928    0.0707 </r>
       <r>    0.9376   -0.0147 </r>
       <r>    0.9765   -0.0351 </r>
       <r>    0.9913   -0.0351 </r>
       <r>    1.0423   -0.0222 </r>
       <r>    1.0759   -0.0129 </r>
       <r>    1.0994   -0.0080 </r>
       <r>    1.1126   -0.0060 </r>
       <r>    1.1685   -0.0014 </r>
       <r>    1.2104   -0.0004 </r>
       <r>    1.2443   -0.0001 </r>
       <r>    1.2943   -0.0000 </r>
       <r>    1.3318   -0.0000 </r>
       <r>    1.3726   -0.0000 </r>
       <r>    1.4091   -0.0000 </r>
       <r>    1.4243   -0.0000 </r>
       <r>    1.4852   -0.0000 </r>
       <r>    1.5162   -0.0000 </r>
       <r>    1.5503   -0.0000 </r>
       <r>    1.5959   -0.0000 </r>
       <r>    1.6600   -0.0000 </r>
       <r>    1.6817   -0.0000 </r>
       <r>    1.7410   -0.0000 </r>
       <r>    1.7547   -0.0000 </r>
       <r>    1.7996   -0.0000 </r>
       <r>    1.8099   -0.0000 </r>
       <r>    1.8510   -0.0000 </r>
       <r>    1.8743   -0.0000 </r>
       <r>    1.9035   -0.0000 </r>
       <r>    1.9378   -0.0000 </r>
       <r>    1.9709   -0.0000 </r>
       <r>    1.9931   -0.0000 </r>
       <r>    2.0201   -0.0000 </r>
       <r>    2.0517   -0.0000 </r>
       <r>    2.1131   -0.0000 </r>
       <r>    2.1410   -0.0000 </r>
       <r>    2.1520   -0.0000 </r>
      </set>
      <set comment="kpoint 3">
       <r>  -42.9797    1.0000 </r>
       <r>  -42.9410    1.0000 </r>
       <r>  -42.9305    1.0000 </r>
       <r>  -42.9055    1.0000 </r>
       <r>  -42.8952    1.0000 </r>
       <r>  -42.8781    1.0000 </r>
       <r>  -42.3807    1.0000 </r>
       <r>  -42.3291    1.0000 </r>
       <r>  -42.2909    1.0000 </r>
       <r>  -42.2519    1.0000 </r>
       <r>  -42.1816    1.0000 </r>
       <r>  -42.1599    1.0000 </r>
       <r>  -42.1195    1.0000 </r>
       <r>  -42.1137    1.0000 </r>
       <r>  -42.0904    1.0000 </r>
       <r>  -42.0220    1.0000 </r>
       <r>  -42.0050    1.0000 </r>
       <r>  -41.9807    1.0000 </r>
       <r>  -41.9642    1.0000 </r>
       <r>  -41.9355    1.0000 </r>
       <r>  -41.9045    1.0000 </r>
       <r>  -41.8841    1.0000 </r>
       <r>  -41.8798    1.0000 </r>
       <r>  -41.8604    1.0000 </r>
       <r>  -41.4891    1.0000 </r>
       <r>  -41.4138    1.0000 </r>
       <r>  -41.3621    1.0000 </r>
       <r>  -41.1445    1.0000 </r>
       <r>  -41.0972    1.0000 </r>
       <r>  -41.0191    1.0000 </r>
       <r>  -40.3795    1.0000 </r>
       <r>  -40.3264    1.0000 </r>
       <r>  -40.3063    1.0000 </r>
       <r>  -40.3054    1.0000 </r>
       <r>  -40.2891    1.0000 </r>
       <r>  -40.2863    1.0000 </r>
       <r>  -40.2437    1.0000 </r>
       <r>  -40.2274    1.0000 </r>
       <r>  -40.2223    1.0000 </r>
       <r>  -40.2182    1.0000 </r>
       <r>  -40.1827    1.0000 </r>
       <r>  -40.1619    1.0000 </r>
       <r>   -6.8476    1.0000 </r>
       <r>   -6.7767    1.0000 </r>
       <r>   -5.9331    1.0000 </r>
       <r>   -5.7930    1.0000 </r>
       <r>   -5.0175    1.0000 </r>
       <r>   -4.9792    1.0000 </r>
       <r>   -4.9391    1.0000 </r>
       <r>   -4.8860    1.0000 </r>
       <r>   -4.7120    1.0000 </r>
       <r>   -4.5532    1.0000 </r>
       <r>   -4.3481    1.0000 </r>
       <r>   -4.3043    1.0000 </r>
       <r>   -4.1939    1.0000 </r>
       <r>   -4.1443    1.0000 </r>
       <r>   -4.1342    1.0000 </r>
       <r>   -4.0968    1.0000 </r>
       <r>   -3.9088    1.0000 </r>
       <r>   -3.9025    1.0000 </r>
       <r>   -3.8691    1.0000 </r>
       <r>   -3.8562    1.0000 </r>
       <r>   -3.8371    1.0000 </r>
       <r>   -3.8217    1.0000 </r>
       <r>   -3.8136    1.0000 </r>
       <r>   -3.7947    1.0000 </r>
       <r>   -3.7778    1.0000 </r>
       <r>   -3.7712    1.0000 </r>
       <r>   -3.7448    1.0000 </r>
       <r>   -3.7334    1.0000 </r>
       <r>   -3.7246    1.0000 </r>
       <r>   -3.7009    1.0000 </r>
       <r>   -3.6648    1.0000 </r>
       <r>   -3.6428    1.0000 </r>
       <r>   -3.6228    1.0000 </r>
       <r>   -3.5129    1.0000 </r>
       <r>   -3.4526    1.0000 </r>
       <r>   -3.4257    1.0000 </r>
       <r>   -3.3992    1.0000 </r>
       <r>   -3.3908    1.0000 </r>
       <r>   -3.3641    1.0000 </r>
       <r>   -3.3566    1.0000 </r>
       <r>   -3.3291    1.0000 </r>
       <r>   -3.2824    1.0000 </r>
       <r>   -3.2690    1.0000 </r>
       <r>   -3.2561    1.0000 </r>
       <r>   -3.2352    1.0000 </r>
       <r>   -3.2075    1.0000 </r>
       <r>   -3.2012    1.0000 </r>
       <r>   -3.1820    1.0000 </r>
       <r>   -3.1454    1.0000 </r>
       <r>   -3.1424    1.0000 </r>
       <r>   -3.1288    1.0000 </r>
       <r>   -3.1086    1.0000 </r>
       <r>   -3.0768    1.0000 </r>
       <r>   -3.0574    1.0000 </r>
       <r>   -3.0380    1.0000 </r>
       <r>   -3.0249    1.0000 </r>
       <r>   -3.0137    1.0000 </r>
       <r>   -2.9900    1.0000 </r>
       <r>   -2.9711    1.0000 </r>
       <r>   -2.9597    1.0000 </r>
       <r>   -2.9398    1.0000 </r>
       <r>   -2.9180    1.0000 </r>
       <r>   -2.8974    1.0000 </r>
       <r>   -2.8861    1.0000 </r>
       <r>   -2.8630    1.0000 </r>
       <r>   -2.8392    1.0000 </r>
       <r>   -2.8150    1.0000 </r>
       <r>   -2.7815    1.0000 </r>
       <r>   -2.7564    1.0000 </r>
       <r>   -2.7444    1.0000 </r>
       <r>   -2.7150    1.0000 </r>
       <r>   -2.7085    1.0000 </r>
       <r>   -2.6949    1.0000 </r>
       <r>   -2.6780    1.0000 </r>
       <r>   -2.6699    1.0000 </r>
       <r>   -2.6519    1.0000 </r>
       <r>   -2.6435    1.0000 </r>
       <r>   -2.6355    1.0000 </r>
       <r>   -2.6261    1.0000 </r>
       <r>   -2.6187    1.0000 </r>
       <r>   -2.6091    1.0000 </r>
       <r>   -2.5735    1.0000 </r>
       <r>   -2.5683    1.0000 </r>
       <r>   -2.5533    1.0000 </r>
       <r>   -2.5434    1.0000 </r>
       <r>   -2.5385    1.0000 </r>
       <r>   -2.5182    1.0000 </r>
       <r>   -2.4842    1.0000 </r>
       <r>   -2.4769    1.0000 </r>
       <r>   -2.4634    1.0000 </r>
       <r>   -2.4470    1.0000 </r>
       <r>   -2.4455    1.0000 </r>
       <r>   -2.4202    1.0000 </r>
       <r>   -2.4150    1.0000 </r>
       <r>   -2.4055    1.0000 </r>
       <r>   -2.3826    1.0000 </r>
       <r>   -2.3612    1.0000 </r>
       <r>   -2.3572    1.0000 </r>
       <r>   -2.3372    1.0000 </r>
       <r>   -2.3277    1.0000 </r>
       <r>   -2.3107    1.0000 </r>
       <r>   -2.2854    1.0000 </r>
       <r>   -2.2708    1.0000 </r>
       <r>   -2.2398    1.0000 </r>
       <r>   -2.2351    1.0000 </r>
       <r>   -2.2335    1.0000 </r>
       <r>   -2.2022    1.0000 </r>
       <r>   -2.1904    1.0000 </r>
       <r>   -2.1761    1.0000 </r>
       <r>   -2.1535    1.0000 </r>
       <r>   -2.1481    1.0000 </r>
       <r>   -2.1255    1.0000 </r>
       <r>   -2.1249    1.0000 </r>
       <r>   -2.1145    1.0000 </r>
       <r>   -2.1122    1.0000 </r>
       <r>   -2.0873    1.0000 </r>
       <r>   -2.0735    1.0000 </r>
       <r>   -2.0644    1.0000 </r>
       <r>   -2.0485    1.0000 </r>
       <r>   -2.0376    1.0000 </r>
       <r>   -2.0331    1.0000 </r>
       <r>   -2.0164    1.0000 </r>
       <r>   -1.9754    1.0000 </r>
       <r>   -1.9627    1.0000 </r>
       <r>   -1.9565    1.0000 </r>
       <r>   -1.9434    1.0000 </r>
       <r>   -1.9305    1.0000 </r>
       <r>   -1.9200    1.0000 </r>
       <r>   -1.9025    1.0000 </r>
       <r>   -1.8846    1.0000 </r>
       <r>   -1.8595    1.0000 </r>
       <r>   -1.8504    1.0000 </r>
       <r>   -1.8485    1.0000 </r>
       <r>   -1.8276    1.0000 </r>
       <r>   -1.8202    1.0000 </r>
       <r>   -1.8140    1.0000 </r>
       <r>   -1.7948    1.0000 </r>
       <r>   -1.7901    1.0000 </r>
       <r>   -1.7800    1.0000 </r>
       <r>   -1.7492    1.0000 </r>
       <r>   -1.7303    1.0000 </r>
       <r>   -1.7153    1.0000 </r>
       <r>   -1.7033    1.0000 </r>
       <r>   -1.6739    1.0000 </r>
       <r>   -1.6625    1.0000 </r>
       <r>   -1.6558    1.0000 </r>
       <r>   -1.6416    1.0000 </r>
       <r>   -1.6332    1.0000 </r>
       <r>   -1.6226    1.0000 </r>
       <r>   -1.6057    1.0000 </r>
       <r>   -1.5851    1.0000 </r>
       <r>   -1.5664    1.0000 </r>
       <r>   -1.5549    1.0000 </r>
       <r>   -1.5423    1.0000 </r>
       <r>   -1.5058    1.0000 </r>
       <r>   -1.4852    1.0000 </r>
       <r>   -1.4757    1.0000 </r>
       <r>   -1.4612    1.0000 </r>
       <r>   -1.4547    1.0000 </r>
       <r>   -1.4250    1.0000 </r>
       <r>   -1.4185    1.0000 </r>
       <r>   -1.3941    1.0000 </r>
       <r>   -1.3813    1.0000 </r>
       <r>   -1.3712    1.0000 </r>
       <r>   -1.3511    1.0000 </r>
       <r>   -1.3049    1.0000 </r>
       <r>   -1.2903    1.0000 </r>
       <r>   -1.2884    1.0000 </r>
       <r>   -1.2448    1.0000 </r>
       <r>   -1.2342    1.0000 </r>
       <r>   -1.2089    1.0000 </r>
       <r>   -1.1739    1.0000 </r>
       <r>   -1.1577    1.0000 </r>
       <r>   -1.1372    1.0000 </r>
       <r>   -1.0987    1.0000 </r>
       <r>   -1.0661    1.0000 </r>
       <r>   -1.0454    1.0000 </r>
       <r>   -1.0336    1.0000 </r>
       <r>   -1.0269    1.0000 </r>
       <r>   -1.0005    1.0000 </r>
       <r>   -0.9692    1.0000 </r>
       <r>   -0.9544    1.0000 </r>
       <r>   -0.9305    1.0000 </r>
       <r>   -0.9202    1.0000 </r>
       <r>   -0.9167    1.0000 </r>
       <r>   -0.8881    1.0000 </r>
       <r>   -0.8679    1.0000 </r>
       <r>   -0.8424    1.0000 </r>
       <r>   -0.8220    1.0000 </r>
       <r>   -0.8103    1.0000 </r>
       <r>   -0.7993    1.0000 </r>
       <r>   -0.7776    1.0000 </r>
       <r>   -0.7741    1.0000 </r>
       <r>   -0.7622    1.0000 </r>
       <r>   -0.7536    1.0000 </r>
       <r>   -0.7243    1.0000 </r>
       <r>   -0.7167    1.0000 </r>
       <r>   -0.7110    1.0000 </r>
       <r>   -0.7002    1.0000 </r>
       <r>   -0.6895    1.0000 </r>
       <r>   -0.6848    1.0000 </r>
       <r>   -0.6786    1.0000 </r>
       <r>   -0.6649    1.0000 </r>
       <r>   -0.6583    1.0000 </r>
       <r>   -0.6488    1.0000 </r>
       <r>   -0.6427    1.0000 </r>
       <r>   -0.6261    1.0000 </r>
       <r>   -0.6189    1.0000 </r>
       <r>   -0.6096    1.0000 </r>
       <r>   -0.5916    1.0000 </r>
       <r>   -0.5855    1.0000 </r>
       <r>   -0.5726    1.0000 </r>
       <r>   -0.5561    1.0000 </r>
       <r>   -0.5515    1.0000 </r>
       <r>   -0.5328    1.0000 </r>
       <r>   -0.5141    1.0000 </r>
       <r>   -0.5090    1.0000 </r>
       <r>   -0.5005    1.0000 </r>
       <r>   -0.4954    1.0000 </r>
       <r>   -0.4859    1.0000 </r>
       <r>   -0.4568    1.0000 </r>
       <r>   -0.4453    1.0000 </r>
       <r>   -0.4397    1.0000 </r>
       <r>   -0.4356    1.0000 </r>
       <r>   -0.4271    1.0000 </r>
       <r>   -0.4133    1.0000 </r>
       <r>   -0.3857    1.0000 </r>
       <r>   -0.3849    1.0000 </r>
       <r>   -0.3687    1.0000 </r>
       <r>   -0.3616    1.0000 </r>
       <r>   -0.3609    1.0000 </r>
       <r>   -0.3437    1.0000 </r>
       <r>   -0.3235    1.0000 </r>
       <r>   -0.3183    1.0000 </r>
       <r>   -0.3125    1.0000 </r>
       <r>   -0.3067    1.0000 </r>
       <r>   -0.2868    1.0000 </r>
       <r>   -0.2673    1.0000 </r>
       <r>   -0.2625    1.0000 </r>
       <r>   -0.2461    1.0000 </r>
       <r>   -0.2310    1.0000 </r>
       <r>   -0.2048    1.0000 </r>
       <r>   -0.1829    1.0000 </r>
       <r>   -0.1542    1.0000 </r>
       <r>   -0.1406    1.0000 </r>
       <r>   -0.1221    1.0000 </r>
       <r>   -0.1174    1.0000 </r>
       <r>   -0.0938    1.0000 </r>
       <r>   -0.0833    1.0000 </r>
       <r>   -0.0662    1.0000 </r>
       <r>   -0.0411    1.0000 </r>
       <r>   -0.0104    1.0000 </r>
       <r>    0.0096    1.0000 </r>
       <r>    0.0307    1.0000 </r>
       <r>    0.0557    1.0000 </r>
       <r>    0.0729    1.0000 </r>
       <r>    0.1037    1.0000 </r>
       <r>    0.1341    1.0000 </r>
       <r>    0.1482    1.0000 </r>
       <r>    0.1686    1.0000 </r>
       <r>    0.1916    1.0000 </r>
       <r>    0.2151    1.0000 </r>
       <r>    0.2303    1.0000 </r>
       <r>    0.2642    1.0000 </r>
       <r>    0.2788    1.0000 </r>
       <r>    0.3025    1.0000 </r>
       <r>    0.3575    1.0001 </r>
       <r>    0.3800    1.0003 </r>
       <r>    0.4129    1.0008 </r>
       <r>    0.4270    1.0012 </r>
       <r>    0.4560    1.0028 </r>
       <r>    0.4816    1.0053 </r>
       <r>    0.5082    1.0096 </r>
       <r>    0.5314    1.0149 </r>
       <r>    0.5770    1.0283 </r>
       <r>    0.6017    1.0342 </r>
       <r>    0.6058    1.0348 </r>
       <r>    0.6279    1.0344 </r>
       <r>    0.7293    0.8526 </r>
       <r>    0.7513    0.7577 </r>
       <r>    0.7695    0.6661 </r>
       <r>    0.8438    0.2625 </r>
       <r>    0.8656    0.1647 </r>
       <r>    0.8967    0.0600 </r>
       <r>    0.9541   -0.0279 </r>
       <r>    0.9901   -0.0352 </r>
       <r>    1.0080   -0.0322 </r>
       <r>    1.0185   -0.0294 </r>
       <r>    1.0432   -0.0220 </r>
       <r>    1.0773   -0.0125 </r>
       <r>    1.0911   -0.0096 </r>
       <r>    1.1555   -0.0020 </r>
       <r>    1.1687   -0.0014 </r>
       <r>    1.2092   -0.0004 </r>
       <r>    1.2844   -0.0000 </r>
       <r>    1.3174   -0.0000 </r>
       <r>    1.3643   -0.0000 </r>
       <r>    1.3752   -0.0000 </r>
       <r>    1.3813   -0.0000 </r>
       <r>    1.4061   -0.0000 </r>
       <r>    1.4556   -0.0000 </r>
       <r>    1.5209   -0.0000 </r>
       <r>    1.5329   -0.0000 </r>
       <r>    1.5541   -0.0000 </r>
       <r>    1.5644   -0.0000 </r>
       <r>    1.6697   -0.0000 </r>
       <r>    1.6880   -0.0000 </r>
       <r>    1.7534   -0.0000 </r>
       <r>    1.7701   -0.0000 </r>
       <r>    1.7956   -0.0000 </r>
       <r>    1.8401   -0.0000 </r>
       <r>    1.8759   -0.0000 </r>
       <r>    1.8969   -0.0000 </r>
       <r>    1.9494   -0.0000 </r>
       <r>    1.9616   -0.0000 </r>
       <r>    1.9965   -0.0000 </r>
       <r>    2.0199   -0.0000 </r>
       <r>    2.0391   -0.0000 </r>
       <r>    2.0818   -0.0000 </r>
       <r>    2.0956   -0.0000 </r>
       <r>    2.1333   -0.0000 </r>
      </set>
      <set comment="kpoint 4">
       <r>  -42.9797    1.0000 </r>
       <r>  -42.9410    1.0000 </r>
       <r>  -42.9305    1.0000 </r>
       <r>  -42.9055    1.0000 </r>
       <r>  -42.8952    1.0000 </r>
       <r>  -42.8781    1.0000 </r>
       <r>  -42.3806    1.0000 </r>
       <r>  -42.3291    1.0000 </r>
       <r>  -42.2909    1.0000 </r>
       <r>  -42.2519    1.0000 </r>
       <r>  -42.1817    1.0000 </r>
       <r>  -42.1599    1.0000 </r>
       <r>  -42.1195    1.0000 </r>
       <r>  -42.1137    1.0000 </r>
       <r>  -42.0903    1.0000 </r>
       <r>  -42.0220    1.0000 </r>
       <r>  -42.0050    1.0000 </r>
       <r>  -41.9806    1.0000 </r>
       <r>  -41.9643    1.0000 </r>
       <r>  -41.9355    1.0000 </r>
       <r>  -41.9045    1.0000 </r>
       <r>  -41.8841    1.0000 </r>
       <r>  -41.8798    1.0000 </r>
       <r>  -41.8604    1.0000 </r>
       <r>  -41.4891    1.0000 </r>
       <r>  -41.4138    1.0000 </r>
       <r>  -41.3621    1.0000 </r>
       <r>  -41.1445    1.0000 </r>
       <r>  -41.0972    1.0000 </r>
       <r>  -41.0191    1.0000 </r>
       <r>  -40.3794    1.0000 </r>
       <r>  -40.3265    1.0000 </r>
       <r>  -40.3063    1.0000 </r>
       <r>  -40.3054    1.0000 </r>
       <r>  -40.2891    1.0000 </r>
       <r>  -40.2863    1.0000 </r>
       <r>  -40.2437    1.0000 </r>
       <r>  -40.2274    1.0000 </r>
       <r>  -40.2223    1.0000 </r>
       <r>  -40.2182    1.0000 </r>
       <r>  -40.1827    1.0000 </r>
       <r>  -40.1619    1.0000 </r>
       <r>   -7.2269    1.0000 </r>
       <r>   -6.2490    1.0000 </r>
       <r>   -6.1544    1.0000 </r>
       <r>   -5.3214    1.0000 </r>
       <r>   -5.2712    1.0000 </r>
       <r>   -5.2117    1.0000 </r>
       <r>   -4.9156    1.0000 </r>
       <r>   -4.6400    1.0000 </r>
       <r>   -4.5870    1.0000 </r>
       <r>   -4.5692    1.0000 </r>
       <r>   -4.5410    1.0000 </r>
       <r>   -4.4765    1.0000 </r>
       <r>   -4.3247    1.0000 </r>
       <r>   -4.2504    1.0000 </r>
       <r>   -4.1343    1.0000 </r>
       <r>   -4.0859    1.0000 </r>
       <r>   -4.0356    1.0000 </r>
       <r>   -3.9961    1.0000 </r>
       <r>   -3.9524    1.0000 </r>
       <r>   -3.9261    1.0000 </r>
       <r>   -3.9103    1.0000 </r>
       <r>   -3.8657    1.0000 </r>
       <r>   -3.8258    1.0000 </r>
       <r>   -3.7834    1.0000 </r>
       <r>   -3.7479    1.0000 </r>
       <r>   -3.6977    1.0000 </r>
       <r>   -3.6692    1.0000 </r>
       <r>   -3.6579    1.0000 </r>
       <r>   -3.6451    1.0000 </r>
       <r>   -3.6107    1.0000 </r>
       <r>   -3.6025    1.0000 </r>
       <r>   -3.5517    1.0000 </r>
       <r>   -3.4978    1.0000 </r>
       <r>   -3.4793    1.0000 </r>
       <r>   -3.4469    1.0000 </r>
       <r>   -3.4129    1.0000 </r>
       <r>   -3.3908    1.0000 </r>
       <r>   -3.3782    1.0000 </r>
       <r>   -3.3581    1.0000 </r>
       <r>   -3.3386    1.0000 </r>
       <r>   -3.3101    1.0000 </r>
       <r>   -3.2922    1.0000 </r>
       <r>   -3.2810    1.0000 </r>
       <r>   -3.2621    1.0000 </r>
       <r>   -3.2422    1.0000 </r>
       <r>   -3.2391    1.0000 </r>
       <r>   -3.2125    1.0000 </r>
       <r>   -3.1720    1.0000 </r>
       <r>   -3.1505    1.0000 </r>
       <r>   -3.1412    1.0000 </r>
       <r>   -3.1197    1.0000 </r>
       <r>   -3.1008    1.0000 </r>
       <r>   -3.0893    1.0000 </r>
       <r>   -3.0639    1.0000 </r>
       <r>   -3.0405    1.0000 </r>
       <r>   -3.0009    1.0000 </r>
       <r>   -2.9789    1.0000 </r>
       <r>   -2.9710    1.0000 </r>
       <r>   -2.9515    1.0000 </r>
       <r>   -2.9107    1.0000 </r>
       <r>   -2.8794    1.0000 </r>
       <r>   -2.8445    1.0000 </r>
       <r>   -2.8335    1.0000 </r>
       <r>   -2.8252    1.0000 </r>
       <r>   -2.8033    1.0000 </r>
       <r>   -2.7919    1.0000 </r>
       <r>   -2.7701    1.0000 </r>
       <r>   -2.7325    1.0000 </r>
       <r>   -2.7236    1.0000 </r>
       <r>   -2.7055    1.0000 </r>
       <r>   -2.6909    1.0000 </r>
       <r>   -2.6848    1.0000 </r>
       <r>   -2.6719    1.0000 </r>
       <r>   -2.6667    1.0000 </r>
       <r>   -2.6589    1.0000 </r>
       <r>   -2.6431    1.0000 </r>
       <r>   -2.6278    1.0000 </r>
       <r>   -2.6187    1.0000 </r>
       <r>   -2.5970    1.0000 </r>
       <r>   -2.5892    1.0000 </r>
       <r>   -2.5789    1.0000 </r>
       <r>   -2.5705    1.0000 </r>
       <r>   -2.5541    1.0000 </r>
       <r>   -2.5451    1.0000 </r>
       <r>   -2.5329    1.0000 </r>
       <r>   -2.5249    1.0000 </r>
       <r>   -2.5129    1.0000 </r>
       <r>   -2.4977    1.0000 </r>
       <r>   -2.4828    1.0000 </r>
       <r>   -2.4685    1.0000 </r>
       <r>   -2.4546    1.0000 </r>
       <r>   -2.4391    1.0000 </r>
       <r>   -2.4311    1.0000 </r>
       <r>   -2.4182    1.0000 </r>
       <r>   -2.4027    1.0000 </r>
       <r>   -2.3963    1.0000 </r>
       <r>   -2.3677    1.0000 </r>
       <r>   -2.3553    1.0000 </r>
       <r>   -2.3487    1.0000 </r>
       <r>   -2.3345    1.0000 </r>
       <r>   -2.3254    1.0000 </r>
       <r>   -2.3068    1.0000 </r>
       <r>   -2.2866    1.0000 </r>
       <r>   -2.2716    1.0000 </r>
       <r>   -2.2660    1.0000 </r>
       <r>   -2.2464    1.0000 </r>
       <r>   -2.2397    1.0000 </r>
       <r>   -2.2219    1.0000 </r>
       <r>   -2.2070    1.0000 </r>
       <r>   -2.2010    1.0000 </r>
       <r>   -2.1888    1.0000 </r>
       <r>   -2.1754    1.0000 </r>
       <r>   -2.1490    1.0000 </r>
       <r>   -2.1374    1.0000 </r>
       <r>   -2.1237    1.0000 </r>
       <r>   -2.1083    1.0000 </r>
       <r>   -2.0986    1.0000 </r>
       <r>   -2.0824    1.0000 </r>
       <r>   -2.0617    1.0000 </r>
       <r>   -2.0459    1.0000 </r>
       <r>   -2.0378    1.0000 </r>
       <r>   -2.0188    1.0000 </r>
       <r>   -1.9942    1.0000 </r>
       <r>   -1.9872    1.0000 </r>
       <r>   -1.9797    1.0000 </r>
       <r>   -1.9639    1.0000 </r>
       <r>   -1.9367    1.0000 </r>
       <r>   -1.9290    1.0000 </r>
       <r>   -1.9211    1.0000 </r>
       <r>   -1.8951    1.0000 </r>
       <r>   -1.8803    1.0000 </r>
       <r>   -1.8674    1.0000 </r>
       <r>   -1.8501    1.0000 </r>
       <r>   -1.8310    1.0000 </r>
       <r>   -1.8044    1.0000 </r>
       <r>   -1.7853    1.0000 </r>
       <r>   -1.7745    1.0000 </r>
       <r>   -1.7612    1.0000 </r>
       <r>   -1.7458    1.0000 </r>
       <r>   -1.7354    1.0000 </r>
       <r>   -1.7094    1.0000 </r>
       <r>   -1.6952    1.0000 </r>
       <r>   -1.6881    1.0000 </r>
       <r>   -1.6830    1.0000 </r>
       <r>   -1.6677    1.0000 </r>
       <r>   -1.6550    1.0000 </r>
       <r>   -1.6415    1.0000 </r>
       <r>   -1.6292    1.0000 </r>
       <r>   -1.6075    1.0000 </r>
       <r>   -1.5864    1.0000 </r>
       <r>   -1.5763    1.0000 </r>
       <r>   -1.5534    1.0000 </r>
       <r>   -1.5326    1.0000 </r>
       <r>   -1.5069    1.0000 </r>
       <r>   -1.5022    1.0000 </r>
       <r>   -1.4938    1.0000 </r>
       <r>   -1.4691    1.0000 </r>
       <r>   -1.4310    1.0000 </r>
       <r>   -1.4152    1.0000 </r>
       <r>   -1.4013    1.0000 </r>
       <r>   -1.3916    1.0000 </r>
       <r>   -1.3627    1.0000 </r>
       <r>   -1.3492    1.0000 </r>
       <r>   -1.3380    1.0000 </r>
       <r>   -1.2998    1.0000 </r>
       <r>   -1.2803    1.0000 </r>
       <r>   -1.2519    1.0000 </r>
       <r>   -1.2339    1.0000 </r>
       <r>   -1.2217    1.0000 </r>
       <r>   -1.2086    1.0000 </r>
       <r>   -1.1781    1.0000 </r>
       <r>   -1.1419    1.0000 </r>
       <r>   -1.1319    1.0000 </r>
       <r>   -1.1114    1.0000 </r>
       <r>   -1.0914    1.0000 </r>
       <r>   -1.0715    1.0000 </r>
       <r>   -1.0588    1.0000 </r>
       <r>   -1.0493    1.0000 </r>
       <r>   -1.0308    1.0000 </r>
       <r>   -0.9966    1.0000 </r>
       <r>   -0.9862    1.0000 </r>
       <r>   -0.9728    1.0000 </r>
       <r>   -0.9517    1.0000 </r>
       <r>   -0.9315    1.0000 </r>
       <r>   -0.9262    1.0000 </r>
       <r>   -0.9074    1.0000 </r>
       <r>   -0.8940    1.0000 </r>
       <r>   -0.8777    1.0000 </r>
       <r>   -0.8675    1.0000 </r>
       <r>   -0.8509    1.0000 </r>
       <r>   -0.8479    1.0000 </r>
       <r>   -0.8201    1.0000 </r>
       <r>   -0.7880    1.0000 </r>
       <r>   -0.7818    1.0000 </r>
       <r>   -0.7702    1.0000 </r>
       <r>   -0.7496    1.0000 </r>
       <r>   -0.7404    1.0000 </r>
       <r>   -0.7268    1.0000 </r>
       <r>   -0.7171    1.0000 </r>
       <r>   -0.6958    1.0000 </r>
       <r>   -0.6854    1.0000 </r>
       <r>   -0.6751    1.0000 </r>
       <r>   -0.6568    1.0000 </r>
       <r>   -0.6476    1.0000 </r>
       <r>   -0.6362    1.0000 </r>
       <r>   -0.6223    1.0000 </r>
       <r>   -0.6178    1.0000 </r>
       <r>   -0.6092    1.0000 </r>
       <r>   -0.5930    1.0000 </r>
       <r>   -0.5808    1.0000 </r>
       <r>   -0.5704    1.0000 </r>
       <r>   -0.5575    1.0000 </r>
       <r>   -0.5516    1.0000 </r>
       <r>   -0.5472    1.0000 </r>
       <r>   -0.5370    1.0000 </r>
       <r>   -0.5250    1.0000 </r>
       <r>   -0.5205    1.0000 </r>
       <r>   -0.5012    1.0000 </r>
       <r>   -0.4888    1.0000 </r>
       <r>   -0.4788    1.0000 </r>
       <r>   -0.4724    1.0000 </r>
       <r>   -0.4678    1.0000 </r>
       <r>   -0.4505    1.0000 </r>
       <r>   -0.4319    1.0000 </r>
       <r>   -0.4277    1.0000 </r>
       <r>   -0.4112    1.0000 </r>
       <r>   -0.4021    1.0000 </r>
       <r>   -0.3957    1.0000 </r>
       <r>   -0.3801    1.0000 </r>
       <r>   -0.3713    1.0000 </r>
       <r>   -0.3600    1.0000 </r>
       <r>   -0.3474    1.0000 </r>
       <r>   -0.3389    1.0000 </r>
       <r>   -0.3271    1.0000 </r>
       <r>   -0.3159    1.0000 </r>
       <r>   -0.3082    1.0000 </r>
       <r>   -0.2971    1.0000 </r>
       <r>   -0.2872    1.0000 </r>
       <r>   -0.2579    1.0000 </r>
       <r>   -0.2467    1.0000 </r>
       <r>   -0.2347    1.0000 </r>
       <r>   -0.2276    1.0000 </r>
       <r>   -0.2015    1.0000 </r>
       <r>   -0.1927    1.0000 </r>
       <r>   -0.1814    1.0000 </r>
       <r>   -0.1632    1.0000 </r>
       <r>   -0.1466    1.0000 </r>
       <r>   -0.1327    1.0000 </r>
       <r>   -0.1134    1.0000 </r>
       <r>   -0.1014    1.0000 </r>
       <r>   -0.0857    1.0000 </r>
       <r>   -0.0622    1.0000 </r>
       <r>   -0.0467    1.0000 </r>
       <r>   -0.0124    1.0000 </r>
       <r>    0.0117    1.0000 </r>
       <r>    0.0500    1.0000 </r>
       <r>    0.0722    1.0000 </r>
       <r>    0.0769    1.0000 </r>
       <r>    0.0911    1.0000 </r>
       <r>    0.1156    1.0000 </r>
       <r>    0.1490    1.0000 </r>
       <r>    0.1749    1.0000 </r>
       <r>    0.1969    1.0000 </r>
       <r>    0.2268    1.0000 </r>
       <r>    0.2470    1.0000 </r>
       <r>    0.2822    1.0000 </r>
       <r>    0.2901    1.0000 </r>
       <r>    0.3396    1.0001 </r>
       <r>    0.3621    1.0001 </r>
       <r>    0.3844    1.0003 </r>
       <r>    0.4010    1.0006 </r>
       <r>    0.4489    1.0023 </r>
       <r>    0.4671    1.0037 </r>
       <r>    0.4965    1.0075 </r>
       <r>    0.5293    1.0143 </r>
       <r>    0.5487    1.0197 </r>
       <r>    0.5718    1.0268 </r>
       <r>    0.6284    1.0343 </r>
       <r>    0.6572    1.0191 </r>
       <r>    0.7023    0.9407 </r>
       <r>    0.7192    0.8895 </r>
       <r>    0.7733    0.6464 </r>
       <r>    0.8175    0.3998 </r>
       <r>    0.8403    0.2799 </r>
       <r>    0.8652    0.1666 </r>
       <r>    0.9343   -0.0110 </r>
       <r>    0.9562   -0.0291 </r>
       <r>    0.9939   -0.0348 </r>
       <r>    1.0610   -0.0168 </r>
       <r>    1.0887   -0.0100 </r>
       <r>    1.1086   -0.0066 </r>
       <r>    1.1317   -0.0038 </r>
       <r>    1.1627   -0.0016 </r>
       <r>    1.2183   -0.0003 </r>
       <r>    1.2300   -0.0002 </r>
       <r>    1.2895   -0.0000 </r>
       <r>    1.3156   -0.0000 </r>
       <r>    1.3956   -0.0000 </r>
       <r>    1.4059   -0.0000 </r>
       <r>    1.4239   -0.0000 </r>
       <r>    1.5077   -0.0000 </r>
       <r>    1.5442   -0.0000 </r>
       <r>    1.5729   -0.0000 </r>
       <r>    1.6036   -0.0000 </r>
       <r>    1.6391   -0.0000 </r>
       <r>    1.6844   -0.0000 </r>
       <r>    1.7244   -0.0000 </r>
       <r>    1.7648   -0.0000 </r>
       <r>    1.7787   -0.0000 </r>
       <r>    1.8061   -0.0000 </r>
       <r>    1.8366   -0.0000 </r>
       <r>    1.8770   -0.0000 </r>
       <r>    1.9207   -0.0000 </r>
       <r>    1.9410   -0.0000 </r>
       <r>    1.9640   -0.0000 </r>
       <r>    2.0098   -0.0000 </r>
       <r>    2.0271   -0.0000 </r>
       <r>    2.0676   -0.0000 </r>
       <r>    2.1130   -0.0000 </r>
       <r>    2.1238   -0.0000 </r>
       <r>    2.1422   -0.0000 </r>
      </set>
      <set comment="kpoint 5">
       <r>  -42.9797    1.0000 </r>
       <r>  -42.9410    1.0000 </r>
       <r>  -42.9305    1.0000 </r>
       <r>  -42.9055    1.0000 </r>
       <r>  -42.8952    1.0000 </r>
       <r>  -42.8780    1.0000 </r>
       <r>  -42.3806    1.0000 </r>
       <r>  -42.3291    1.0000 </r>
       <r>  -42.2909    1.0000 </r>
       <r>  -42.2519    1.0000 </r>
       <r>  -42.1816    1.0000 </r>
       <r>  -42.1599    1.0000 </r>
       <r>  -42.1195    1.0000 </r>
       <r>  -42.1137    1.0000 </r>
       <r>  -42.0903    1.0000 </r>
       <r>  -42.0220    1.0000 </r>
       <r>  -42.0050    1.0000 </r>
       <r>  -41.9806    1.0000 </r>
       <r>  -41.9643    1.0000 </r>
       <r>  -41.9355    1.0000 </r>
       <r>  -41.9045    1.0000 </r>
       <r>  -41.8841    1.0000 </r>
       <r>  -41.8797    1.0000 </r>
       <r>  -41.8604    1.0000 </r>
       <r>  -41.4891    1.0000 </r>
       <r>  -41.4138    1.0000 </r>
       <r>  -41.3621    1.0000 </r>
       <r>  -41.1445    1.0000 </r>
       <r>  -41.0972    1.0000 </r>
       <r>  -41.0191    1.0000 </r>
       <r>  -40.3794    1.0000 </r>
       <r>  -40.3265    1.0000 </r>
       <r>  -40.3063    1.0000 </r>
       <r>  -40.3054    1.0000 </r>
       <r>  -40.2891    1.0000 </r>
       <r>  -40.2863    1.0000 </r>
       <r>  -40.2437    1.0000 </r>
       <r>  -40.2274    1.0000 </r>
       <r>  -40.2223    1.0000 </r>
       <r>  -40.2182    1.0000 </r>
       <r>  -40.1827    1.0000 </r>
       <r>  -40.1619    1.0000 </r>
       <r>   -7.0872    1.0000 </r>
       <r>   -6.1228    1.0000 </r>
       <r>   -6.0794    1.0000 </r>
       <r>   -5.9802    1.0000 </r>
       <r>   -5.2239    1.0000 </r>
       <r>   -5.1869    1.0000 </r>
       <r>   -5.1221    1.0000 </r>
       <r>   -4.8010    1.0000 </r>
       <r>   -4.4659    1.0000 </r>
       <r>   -4.4200    1.0000 </r>
       <r>   -4.3386    1.0000 </r>
       <r>   -4.2578    1.0000 </r>
       <r>   -4.1849    1.0000 </r>
       <r>   -4.1465    1.0000 </r>
       <r>   -4.1138    1.0000 </r>
       <r>   -4.0818    1.0000 </r>
       <r>   -4.0461    1.0000 </r>
       <r>   -4.0323    1.0000 </r>
       <r>   -3.9742    1.0000 </r>
       <r>   -3.9367    1.0000 </r>
       <r>   -3.8722    1.0000 </r>
       <r>   -3.8619    1.0000 </r>
       <r>   -3.8241    1.0000 </r>
       <r>   -3.7702    1.0000 </r>
       <r>   -3.7662    1.0000 </r>
       <r>   -3.6968    1.0000 </r>
       <r>   -3.6332    1.0000 </r>
       <r>   -3.5685    1.0000 </r>
       <r>   -3.5516    1.0000 </r>
       <r>   -3.5394    1.0000 </r>
       <r>   -3.5238    1.0000 </r>
       <r>   -3.4958    1.0000 </r>
       <r>   -3.4920    1.0000 </r>
       <r>   -3.4733    1.0000 </r>
       <r>   -3.4621    1.0000 </r>
       <r>   -3.4489    1.0000 </r>
       <r>   -3.4275    1.0000 </r>
       <r>   -3.4255    1.0000 </r>
       <r>   -3.4082    1.0000 </r>
       <r>   -3.3848    1.0000 </r>
       <r>   -3.3678    1.0000 </r>
       <r>   -3.3419    1.0000 </r>
       <r>   -3.3316    1.0000 </r>
       <r>   -3.3115    1.0000 </r>
       <r>   -3.2901    1.0000 </r>
       <r>   -3.2571    1.0000 </r>
       <r>   -3.2435    1.0000 </r>
       <r>   -3.2293    1.0000 </r>
       <r>   -3.2142    1.0000 </r>
       <r>   -3.1850    1.0000 </r>
       <r>   -3.1798    1.0000 </r>
       <r>   -3.1414    1.0000 </r>
       <r>   -3.1020    1.0000 </r>
       <r>   -3.0779    1.0000 </r>
       <r>   -3.0443    1.0000 </r>
       <r>   -3.0134    1.0000 </r>
       <r>   -2.9896    1.0000 </r>
       <r>   -2.9447    1.0000 </r>
       <r>   -2.9343    1.0000 </r>
       <r>   -2.9198    1.0000 </r>
       <r>   -2.9026    1.0000 </r>
       <r>   -2.8779    1.0000 </r>
       <r>   -2.8708    1.0000 </r>
       <r>   -2.8409    1.0000 </r>
       <r>   -2.8273    1.0000 </r>
       <r>   -2.8022    1.0000 </r>
       <r>   -2.7864    1.0000 </r>
       <r>   -2.7662    1.0000 </r>
       <r>   -2.7499    1.0000 </r>
       <r>   -2.7415    1.0000 </r>
       <r>   -2.7352    1.0000 </r>
       <r>   -2.7089    1.0000 </r>
       <r>   -2.6983    1.0000 </r>
       <r>   -2.6799    1.0000 </r>
       <r>   -2.6704    1.0000 </r>
       <r>   -2.6587    1.0000 </r>
       <r>   -2.6456    1.0000 </r>
       <r>   -2.6329    1.0000 </r>
       <r>   -2.6240    1.0000 </r>
       <r>   -2.6118    1.0000 </r>
       <r>   -2.6044    1.0000 </r>
       <r>   -2.5901    1.0000 </r>
       <r>   -2.5757    1.0000 </r>
       <r>   -2.5693    1.0000 </r>
       <r>   -2.5519    1.0000 </r>
       <r>   -2.5435    1.0000 </r>
       <r>   -2.5278    1.0000 </r>
       <r>   -2.5161    1.0000 </r>
       <r>   -2.5042    1.0000 </r>
       <r>   -2.4871    1.0000 </r>
       <r>   -2.4641    1.0000 </r>
       <r>   -2.4541    1.0000 </r>
       <r>   -2.4293    1.0000 </r>
       <r>   -2.4208    1.0000 </r>
       <r>   -2.3945    1.0000 </r>
       <r>   -2.3829    1.0000 </r>
       <r>   -2.3670    1.0000 </r>
       <r>   -2.3511    1.0000 </r>
       <r>   -2.3286    1.0000 </r>
       <r>   -2.3077    1.0000 </r>
       <r>   -2.2969    1.0000 </r>
       <r>   -2.2920    1.0000 </r>
       <r>   -2.2839    1.0000 </r>
       <r>   -2.2598    1.0000 </r>
       <r>   -2.2496    1.0000 </r>
       <r>   -2.2455    1.0000 </r>
       <r>   -2.2323    1.0000 </r>
       <r>   -2.2131    1.0000 </r>
       <r>   -2.2074    1.0000 </r>
       <r>   -2.1958    1.0000 </r>
       <r>   -2.1823    1.0000 </r>
       <r>   -2.1635    1.0000 </r>
       <r>   -2.1437    1.0000 </r>
       <r>   -2.1365    1.0000 </r>
       <r>   -2.1164    1.0000 </r>
       <r>   -2.1077    1.0000 </r>
       <r>   -2.0956    1.0000 </r>
       <r>   -2.0796    1.0000 </r>
       <r>   -2.0736    1.0000 </r>
       <r>   -2.0518    1.0000 </r>
       <r>   -2.0340    1.0000 </r>
       <r>   -2.0215    1.0000 </r>
       <r>   -2.0013    1.0000 </r>
       <r>   -1.9924    1.0000 </r>
       <r>   -1.9761    1.0000 </r>
       <r>   -1.9600    1.0000 </r>
       <r>   -1.9495    1.0000 </r>
       <r>   -1.9379    1.0000 </r>
       <r>   -1.9238    1.0000 </r>
       <r>   -1.9072    1.0000 </r>
       <r>   -1.8923    1.0000 </r>
       <r>   -1.8739    1.0000 </r>
       <r>   -1.8491    1.0000 </r>
       <r>   -1.8335    1.0000 </r>
       <r>   -1.8202    1.0000 </r>
       <r>   -1.8079    1.0000 </r>
       <r>   -1.7983    1.0000 </r>
       <r>   -1.7838    1.0000 </r>
       <r>   -1.7742    1.0000 </r>
       <r>   -1.7539    1.0000 </r>
       <r>   -1.7392    1.0000 </r>
       <r>   -1.7145    1.0000 </r>
       <r>   -1.7005    1.0000 </r>
       <r>   -1.6846    1.0000 </r>
       <r>   -1.6715    1.0000 </r>
       <r>   -1.6409    1.0000 </r>
       <r>   -1.6214    1.0000 </r>
       <r>   -1.6154    1.0000 </r>
       <r>   -1.6099    1.0000 </r>
       <r>   -1.5979    1.0000 </r>
       <r>   -1.5823    1.0000 </r>
       <r>   -1.5540    1.0000 </r>
       <r>   -1.5420    1.0000 </r>
       <r>   -1.5291    1.0000 </r>
       <r>   -1.5113    1.0000 </r>
       <r>   -1.4771    1.0000 </r>
       <r>   -1.4432    1.0000 </r>
       <r>   -1.4398    1.0000 </r>
       <r>   -1.4225    1.0000 </r>
       <r>   -1.3980    1.0000 </r>
       <r>   -1.3730    1.0000 </r>
       <r>   -1.3654    1.0000 </r>
       <r>   -1.3413    1.0000 </r>
       <r>   -1.3173    1.0000 </r>
       <r>   -1.3070    1.0000 </r>
       <r>   -1.2769    1.0000 </r>
       <r>   -1.2632    1.0000 </r>
       <r>   -1.2521    1.0000 </r>
       <r>   -1.2136    1.0000 </r>
       <r>   -1.1939    1.0000 </r>
       <r>   -1.1675    1.0000 </r>
       <r>   -1.1461    1.0000 </r>
       <r>   -1.1265    1.0000 </r>
       <r>   -1.1050    1.0000 </r>
       <r>   -1.0859    1.0000 </r>
       <r>   -1.0694    1.0000 </r>
       <r>   -1.0436    1.0000 </r>
       <r>   -1.0266    1.0000 </r>
       <r>   -1.0061    1.0000 </r>
       <r>   -0.9797    1.0000 </r>
       <r>   -0.9612    1.0000 </r>
       <r>   -0.9467    1.0000 </r>
       <r>   -0.9354    1.0000 </r>
       <r>   -0.9173    1.0000 </r>
       <r>   -0.8960    1.0000 </r>
       <r>   -0.8736    1.0000 </r>
       <r>   -0.8567    1.0000 </r>
       <r>   -0.8383    1.0000 </r>
       <r>   -0.8298    1.0000 </r>
       <r>   -0.8139    1.0000 </r>
       <r>   -0.7941    1.0000 </r>
       <r>   -0.7863    1.0000 </r>
       <r>   -0.7755    1.0000 </r>
       <r>   -0.7636    1.0000 </r>
       <r>   -0.7561    1.0000 </r>
       <r>   -0.7354    1.0000 </r>
       <r>   -0.7208    1.0000 </r>
       <r>   -0.7033    1.0000 </r>
       <r>   -0.6880    1.0000 </r>
       <r>   -0.6771    1.0000 </r>
       <r>   -0.6707    1.0000 </r>
       <r>   -0.6558    1.0000 </r>
       <r>   -0.6470    1.0000 </r>
       <r>   -0.6417    1.0000 </r>
       <r>   -0.6216    1.0000 </r>
       <r>   -0.6165    1.0000 </r>
       <r>   -0.6035    1.0000 </r>
       <r>   -0.5917    1.0000 </r>
       <r>   -0.5842    1.0000 </r>
       <r>   -0.5737    1.0000 </r>
       <r>   -0.5588    1.0000 </r>
       <r>   -0.5535    1.0000 </r>
       <r>   -0.5402    1.0000 </r>
       <r>   -0.5288    1.0000 </r>
       <r>   -0.5209    1.0000 </r>
       <r>   -0.5054    1.0000 </r>
       <r>   -0.5003    1.0000 </r>
       <r>   -0.4826    1.0000 </r>
       <r>   -0.4776    1.0000 </r>
       <r>   -0.4724    1.0000 </r>
       <r>   -0.4605    1.0000 </r>
       <r>   -0.4511    1.0000 </r>
       <r>   -0.4402    1.0000 </r>
       <r>   -0.4323    1.0000 </r>
       <r>   -0.4136    1.0000 </r>
       <r>   -0.4051    1.0000 </r>
       <r>   -0.3979    1.0000 </r>
       <r>   -0.3898    1.0000 </r>
       <r>   -0.3778    1.0000 </r>
       <r>   -0.3655    1.0000 </r>
       <r>   -0.3542    1.0000 </r>
       <r>   -0.3459    1.0000 </r>
       <r>   -0.3267    1.0000 </r>
       <r>   -0.3199    1.0000 </r>
       <r>   -0.3112    1.0000 </r>
       <r>   -0.3007    1.0000 </r>
       <r>   -0.2904    1.0000 </r>
       <r>   -0.2758    1.0000 </r>
       <r>   -0.2550    1.0000 </r>
       <r>   -0.2434    1.0000 </r>
       <r>   -0.2367    1.0000 </r>
       <r>   -0.2158    1.0000 </r>
       <r>   -0.1941    1.0000 </r>
       <r>   -0.1819    1.0000 </r>
       <r>   -0.1690    1.0000 </r>
       <r>   -0.1538    1.0000 </r>
       <r>   -0.1400    1.0000 </r>
       <r>   -0.1181    1.0000 </r>
       <r>   -0.0912    1.0000 </r>
       <r>   -0.0807    1.0000 </r>
       <r>   -0.0600    1.0000 </r>
       <r>   -0.0287    1.0000 </r>
       <r>   -0.0143    1.0000 </r>
       <r>    0.0130    1.0000 </r>
       <r>    0.0428    1.0000 </r>
       <r>    0.0651    1.0000 </r>
       <r>    0.0801    1.0000 </r>
       <r>    0.0937    1.0000 </r>
       <r>    0.1113    1.0000 </r>
       <r>    0.1226    1.0000 </r>
       <r>    0.1504    1.0000 </r>
       <r>    0.1893    1.0000 </r>
       <r>    0.2071    1.0000 </r>
       <r>    0.2349    1.0000 </r>
       <r>    0.2702    1.0000 </r>
       <r>    0.3037    1.0000 </r>
       <r>    0.3180    1.0000 </r>
       <r>    0.3537    1.0001 </r>
       <r>    0.3849    1.0003 </r>
       <r>    0.4074    1.0007 </r>
       <r>    0.4163    1.0009 </r>
       <r>    0.4396    1.0018 </r>
       <r>    0.4528    1.0026 </r>
       <r>    0.4992    1.0079 </r>
       <r>    0.5148    1.0109 </r>
       <r>    0.5305    1.0147 </r>
       <r>    0.5905    1.0320 </r>
       <r>    0.6173    1.0354 </r>
       <r>    0.6491    1.0255 </r>
       <r>    0.6821    0.9858 </r>
       <r>    0.7331    0.8377 </r>
       <r>    0.7917    0.5448 </r>
       <r>    0.8456    0.2536 </r>
       <r>    0.8756    0.1265 </r>
       <r>    0.8904    0.0778 </r>
       <r>    0.9386   -0.0157 </r>
       <r>    0.9764   -0.0351 </r>
       <r>    1.0203   -0.0289 </r>
       <r>    1.0443   -0.0216 </r>
       <r>    1.0639   -0.0160 </r>
       <r>    1.1072   -0.0068 </r>
       <r>    1.1510   -0.0023 </r>
       <r>    1.1787   -0.0010 </r>
       <r>    1.2382   -0.0001 </r>
       <r>    1.2662   -0.0000 </r>
       <r>    1.3097   -0.0000 </r>
       <r>    1.3394   -0.0000 </r>
       <r>    1.3773   -0.0000 </r>
       <r>    1.4298   -0.0000 </r>
       <r>    1.4789   -0.0000 </r>
       <r>    1.5135   -0.0000 </r>
       <r>    1.5354   -0.0000 </r>
       <r>    1.5535   -0.0000 </r>
       <r>    1.6017   -0.0000 </r>
       <r>    1.6742   -0.0000 </r>
       <r>    1.6882   -0.0000 </r>
       <r>    1.6961   -0.0000 </r>
       <r>    1.7314   -0.0000 </r>
       <r>    1.7665   -0.0000 </r>
       <r>    1.7883   -0.0000 </r>
       <r>    1.8654   -0.0000 </r>
       <r>    1.8739   -0.0000 </r>
       <r>    1.9210   -0.0000 </r>
       <r>    1.9466   -0.0000 </r>
       <r>    1.9839   -0.0000 </r>
       <r>    1.9968   -0.0000 </r>
       <r>    2.0320   -0.0000 </r>
       <r>    2.0687   -0.0000 </r>
       <r>    2.1070   -0.0000 </r>
       <r>    2.1439   -0.0000 </r>
       <r>    2.1569   -0.0000 </r>
      </set>
      <set comment="kpoint 6">
       <r>  -42.9797    1.0000 </r>
       <r>  -42.9410    1.0000 </r>
       <r>  -42.9305    1.0000 </r>
       <r>  -42.9055    1.0000 </r>
       <r>  -42.8952    1.0000 </r>
       <r>  -42.8780    1.0000 </r>
       <r>  -42.3806    1.0000 </r>
       <r>  -42.3291    1.0000 </r>
       <r>  -42.2909    1.0000 </r>
       <r>  -42.2519    1.0000 </r>
       <r>  -42.1816    1.0000 </r>
       <r>  -42.1599    1.0000 </r>
       <r>  -42.1195    1.0000 </r>
       <r>  -42.1137    1.0000 </r>
       <r>  -42.0903    1.0000 </r>
       <r>  -42.0220    1.0000 </r>
       <r>  -42.0050    1.0000 </r>
       <r>  -41.9806    1.0000 </r>
       <r>  -41.9643    1.0000 </r>
       <r>  -41.9355    1.0000 </r>
       <r>  -41.9045    1.0000 </r>
       <r>  -41.8841    1.0000 </r>
       <r>  -41.8797    1.0000 </r>
       <r>  -41.8604    1.0000 </r>
       <r>  -41.4891    1.0000 </r>
       <r>  -41.4138    1.0000 </r>
       <r>  -41.3621    1.0000 </r>
       <r>  -41.1445    1.0000 </r>
       <r>  -41.0972    1.0000 </r>
       <r>  -41.0191    1.0000 </r>
       <r>  -40.3794    1.0000 </r>
       <r>  -40.3264    1.0000 </r>
       <r>  -40.3063    1.0000 </r>
       <r>  -40.3054    1.0000 </r>
       <r>  -40.2890    1.0000 </r>
       <r>  -40.2863    1.0000 </r>
       <r>  -40.2437    1.0000 </r>
       <r>  -40.2274    1.0000 </r>
       <r>  -40.2223    1.0000 </r>
       <r>  -40.2182    1.0000 </r>
       <r>  -40.1827    1.0000 </r>
       <r>  -40.1619    1.0000 </r>
       <r>   -6.7133    1.0000 </r>
       <r>   -6.6424    1.0000 </r>
       <r>   -5.8143    1.0000 </r>
       <r>   -5.7060    1.0000 </r>
       <r>   -5.6903    1.0000 </r>
       <r>   -5.6174    1.0000 </r>
       <r>   -4.8925    1.0000 </r>
       <r>   -4.7810    1.0000 </r>
       <r>   -4.6186    1.0000 </r>
       <r>   -4.4139    1.0000 </r>
       <r>   -4.2566    1.0000 </r>
       <r>   -4.2022    1.0000 </r>
       <r>   -4.0478    1.0000 </r>
       <r>   -4.0099    1.0000 </r>
       <r>   -3.9737    1.0000 </r>
       <r>   -3.9579    1.0000 </r>
       <r>   -3.9245    1.0000 </r>
       <r>   -3.9028    1.0000 </r>
       <r>   -3.8572    1.0000 </r>
       <r>   -3.8283    1.0000 </r>
       <r>   -3.8204    1.0000 </r>
       <r>   -3.8044    1.0000 </r>
       <r>   -3.7842    1.0000 </r>
       <r>   -3.7507    1.0000 </r>
       <r>   -3.7331    1.0000 </r>
       <r>   -3.7223    1.0000 </r>
       <r>   -3.6957    1.0000 </r>
       <r>   -3.6837    1.0000 </r>
       <r>   -3.6673    1.0000 </r>
       <r>   -3.6500    1.0000 </r>
       <r>   -3.6262    1.0000 </r>
       <r>   -3.6083    1.0000 </r>
       <r>   -3.5799    1.0000 </r>
       <r>   -3.5408    1.0000 </r>
       <r>   -3.4547    1.0000 </r>
       <r>   -3.4484    1.0000 </r>
       <r>   -3.4159    1.0000 </r>
       <r>   -3.3969    1.0000 </r>
       <r>   -3.3748    1.0000 </r>
       <r>   -3.3588    1.0000 </r>
       <r>   -3.3527    1.0000 </r>
       <r>   -3.3388    1.0000 </r>
       <r>   -3.3329    1.0000 </r>
       <r>   -3.3077    1.0000 </r>
       <r>   -3.2944    1.0000 </r>
       <r>   -3.2772    1.0000 </r>
       <r>   -3.2658    1.0000 </r>
       <r>   -3.2446    1.0000 </r>
       <r>   -3.2369    1.0000 </r>
       <r>   -3.2270    1.0000 </r>
       <r>   -3.2101    1.0000 </r>
       <r>   -3.1834    1.0000 </r>
       <r>   -3.1044    1.0000 </r>
       <r>   -3.0995    1.0000 </r>
       <r>   -3.0649    1.0000 </r>
       <r>   -3.0359    1.0000 </r>
       <r>   -3.0224    1.0000 </r>
       <r>   -2.9922    1.0000 </r>
       <r>   -2.9824    1.0000 </r>
       <r>   -2.9480    1.0000 </r>
       <r>   -2.9191    1.0000 </r>
       <r>   -2.9122    1.0000 </r>
       <r>   -2.9006    1.0000 </r>
       <r>   -2.8715    1.0000 </r>
       <r>   -2.8388    1.0000 </r>
       <r>   -2.8206    1.0000 </r>
       <r>   -2.8061    1.0000 </r>
       <r>   -2.7963    1.0000 </r>
       <r>   -2.7613    1.0000 </r>
       <r>   -2.7493    1.0000 </r>
       <r>   -2.7261    1.0000 </r>
       <r>   -2.7153    1.0000 </r>
       <r>   -2.7120    1.0000 </r>
       <r>   -2.7032    1.0000 </r>
       <r>   -2.6835    1.0000 </r>
       <r>   -2.6728    1.0000 </r>
       <r>   -2.6577    1.0000 </r>
       <r>   -2.6550    1.0000 </r>
       <r>   -2.6414    1.0000 </r>
       <r>   -2.6258    1.0000 </r>
       <r>   -2.6174    1.0000 </r>
       <r>   -2.6056    1.0000 </r>
       <r>   -2.5946    1.0000 </r>
       <r>   -2.5888    1.0000 </r>
       <r>   -2.5660    1.0000 </r>
       <r>   -2.5524    1.0000 </r>
       <r>   -2.5444    1.0000 </r>
       <r>   -2.5242    1.0000 </r>
       <r>   -2.5085    1.0000 </r>
       <r>   -2.4999    1.0000 </r>
       <r>   -2.4765    1.0000 </r>
       <r>   -2.4647    1.0000 </r>
       <r>   -2.4426    1.0000 </r>
       <r>   -2.4165    1.0000 </r>
       <r>   -2.4128    1.0000 </r>
       <r>   -2.3981    1.0000 </r>
       <r>   -2.3850    1.0000 </r>
       <r>   -2.3698    1.0000 </r>
       <r>   -2.3517    1.0000 </r>
       <r>   -2.3229    1.0000 </r>
       <r>   -2.3094    1.0000 </r>
       <r>   -2.2933    1.0000 </r>
       <r>   -2.2827    1.0000 </r>
       <r>   -2.2702    1.0000 </r>
       <r>   -2.2520    1.0000 </r>
       <r>   -2.2415    1.0000 </r>
       <r>   -2.2145    1.0000 </r>
       <r>   -2.2020    1.0000 </r>
       <r>   -2.1908    1.0000 </r>
       <r>   -2.1766    1.0000 </r>
       <r>   -2.1589    1.0000 </r>
       <r>   -2.1505    1.0000 </r>
       <r>   -2.1467    1.0000 </r>
       <r>   -2.1302    1.0000 </r>
       <r>   -2.1170    1.0000 </r>
       <r>   -2.0903    1.0000 </r>
       <r>   -2.0794    1.0000 </r>
       <r>   -2.0738    1.0000 </r>
       <r>   -2.0597    1.0000 </r>
       <r>   -2.0477    1.0000 </r>
       <r>   -2.0301    1.0000 </r>
       <r>   -2.0159    1.0000 </r>
       <r>   -2.0121    1.0000 </r>
       <r>   -2.0003    1.0000 </r>
       <r>   -1.9900    1.0000 </r>
       <r>   -1.9596    1.0000 </r>
       <r>   -1.9548    1.0000 </r>
       <r>   -1.9413    1.0000 </r>
       <r>   -1.9317    1.0000 </r>
       <r>   -1.9131    1.0000 </r>
       <r>   -1.8981    1.0000 </r>
       <r>   -1.8792    1.0000 </r>
       <r>   -1.8599    1.0000 </r>
       <r>   -1.8511    1.0000 </r>
       <r>   -1.8416    1.0000 </r>
       <r>   -1.8234    1.0000 </r>
       <r>   -1.8071    1.0000 </r>
       <r>   -1.7917    1.0000 </r>
       <r>   -1.7709    1.0000 </r>
       <r>   -1.7598    1.0000 </r>
       <r>   -1.7457    1.0000 </r>
       <r>   -1.7248    1.0000 </r>
       <r>   -1.6998    1.0000 </r>
       <r>   -1.6863    1.0000 </r>
       <r>   -1.6714    1.0000 </r>
       <r>   -1.6545    1.0000 </r>
       <r>   -1.6468    1.0000 </r>
       <r>   -1.6322    1.0000 </r>
       <r>   -1.6084    1.0000 </r>
       <r>   -1.5995    1.0000 </r>
       <r>   -1.5703    1.0000 </r>
       <r>   -1.5642    1.0000 </r>
       <r>   -1.5476    1.0000 </r>
       <r>   -1.5204    1.0000 </r>
       <r>   -1.5124    1.0000 </r>
       <r>   -1.4892    1.0000 </r>
       <r>   -1.4669    1.0000 </r>
       <r>   -1.4257    1.0000 </r>
       <r>   -1.3884    1.0000 </r>
       <r>   -1.3790    1.0000 </r>
       <r>   -1.3588    1.0000 </r>
       <r>   -1.3358    1.0000 </r>
       <r>   -1.3299    1.0000 </r>
       <r>   -1.3094    1.0000 </r>
       <r>   -1.2763    1.0000 </r>
       <r>   -1.2531    1.0000 </r>
       <r>   -1.2349    1.0000 </r>
       <r>   -1.2186    1.0000 </r>
       <r>   -1.1994    1.0000 </r>
       <r>   -1.1751    1.0000 </r>
       <r>   -1.1593    1.0000 </r>
       <r>   -1.1267    1.0000 </r>
       <r>   -1.1148    1.0000 </r>
       <r>   -1.0925    1.0000 </r>
       <r>   -1.0551    1.0000 </r>
       <r>   -1.0293    1.0000 </r>
       <r>   -1.0200    1.0000 </r>
       <r>   -1.0072    1.0000 </r>
       <r>   -0.9838    1.0000 </r>
       <r>   -0.9713    1.0000 </r>
       <r>   -0.9606    1.0000 </r>
       <r>   -0.9261    1.0000 </r>
       <r>   -0.9173    1.0000 </r>
       <r>   -0.8953    1.0000 </r>
       <r>   -0.8791    1.0000 </r>
       <r>   -0.8692    1.0000 </r>
       <r>   -0.8518    1.0000 </r>
       <r>   -0.8389    1.0000 </r>
       <r>   -0.8254    1.0000 </r>
       <r>   -0.8083    1.0000 </r>
       <r>   -0.8033    1.0000 </r>
       <r>   -0.7746    1.0000 </r>
       <r>   -0.7635    1.0000 </r>
       <r>   -0.7511    1.0000 </r>
       <r>   -0.7441    1.0000 </r>
       <r>   -0.7237    1.0000 </r>
       <r>   -0.7192    1.0000 </r>
       <r>   -0.6960    1.0000 </r>
       <r>   -0.6870    1.0000 </r>
       <r>   -0.6712    1.0000 </r>
       <r>   -0.6637    1.0000 </r>
       <r>   -0.6500    1.0000 </r>
       <r>   -0.6419    1.0000 </r>
       <r>   -0.6320    1.0000 </r>
       <r>   -0.6168    1.0000 </r>
       <r>   -0.6021    1.0000 </r>
       <r>   -0.5978    1.0000 </r>
       <r>   -0.5904    1.0000 </r>
       <r>   -0.5830    1.0000 </r>
       <r>   -0.5675    1.0000 </r>
       <r>   -0.5546    1.0000 </r>
       <r>   -0.5503    1.0000 </r>
       <r>   -0.5404    1.0000 </r>
       <r>   -0.5215    1.0000 </r>
       <r>   -0.5194    1.0000 </r>
       <r>   -0.5077    1.0000 </r>
       <r>   -0.4938    1.0000 </r>
       <r>   -0.4814    1.0000 </r>
       <r>   -0.4717    1.0000 </r>
       <r>   -0.4692    1.0000 </r>
       <r>   -0.4576    1.0000 </r>
       <r>   -0.4458    1.0000 </r>
       <r>   -0.4389    1.0000 </r>
       <r>   -0.4247    1.0000 </r>
       <r>   -0.4107    1.0000 </r>
       <r>   -0.4006    1.0000 </r>
       <r>   -0.3944    1.0000 </r>
       <r>   -0.3844    1.0000 </r>
       <r>   -0.3793    1.0000 </r>
       <r>   -0.3691    1.0000 </r>
       <r>   -0.3570    1.0000 </r>
       <r>   -0.3453    1.0000 </r>
       <r>   -0.3334    1.0000 </r>
       <r>   -0.3097    1.0000 </r>
       <r>   -0.3014    1.0000 </r>
       <r>   -0.2955    1.0000 </r>
       <r>   -0.2823    1.0000 </r>
       <r>   -0.2638    1.0000 </r>
       <r>   -0.2460    1.0000 </r>
       <r>   -0.2303    1.0000 </r>
       <r>   -0.2091    1.0000 </r>
       <r>   -0.1939    1.0000 </r>
       <r>   -0.1877    1.0000 </r>
       <r>   -0.1496    1.0000 </r>
       <r>   -0.1381    1.0000 </r>
       <r>   -0.1253    1.0000 </r>
       <r>   -0.0941    1.0000 </r>
       <r>   -0.0796    1.0000 </r>
       <r>   -0.0686    1.0000 </r>
       <r>   -0.0423    1.0000 </r>
       <r>   -0.0253    1.0000 </r>
       <r>   -0.0168    1.0000 </r>
       <r>    0.0018    1.0000 </r>
       <r>    0.0241    1.0000 </r>
       <r>    0.0631    1.0000 </r>
       <r>    0.0782    1.0000 </r>
       <r>    0.0930    1.0000 </r>
       <r>    0.1203    1.0000 </r>
       <r>    0.1257    1.0000 </r>
       <r>    0.1607    1.0000 </r>
       <r>    0.1870    1.0000 </r>
       <r>    0.2145    1.0000 </r>
       <r>    0.2343    1.0000 </r>
       <r>    0.2707    1.0000 </r>
       <r>    0.2917    1.0000 </r>
       <r>    0.3080    1.0000 </r>
       <r>    0.3304    1.0000 </r>
       <r>    0.3444    1.0001 </r>
       <r>    0.3639    1.0002 </r>
       <r>    0.3969    1.0005 </r>
       <r>    0.4143    1.0008 </r>
       <r>    0.4537    1.0026 </r>
       <r>    0.4666    1.0037 </r>
       <r>    0.4873    1.0061 </r>
       <r>    0.5303    1.0146 </r>
       <r>    0.5853    1.0307 </r>
       <r>    0.6258    1.0347 </r>
       <r>    0.6810    0.9877 </r>
       <r>    0.7153    0.9024 </r>
       <r>    0.7427    0.7972 </r>
       <r>    0.7768    0.6275 </r>
       <r>    0.8293    0.3363 </r>
       <r>    0.8464    0.2498 </r>
       <r>    0.8731    0.1357 </r>
       <r>    0.9231    0.0043 </r>
       <r>    0.9506   -0.0257 </r>
       <r>    0.9690   -0.0339 </r>
       <r>    1.0295   -0.0262 </r>
       <r>    1.0686   -0.0147 </r>
       <r>    1.0979   -0.0083 </r>
       <r>    1.1464   -0.0026 </r>
       <r>    1.1622   -0.0017 </r>
       <r>    1.1992   -0.0005 </r>
       <r>    1.2503   -0.0001 </r>
       <r>    1.2640   -0.0001 </r>
       <r>    1.3225   -0.0000 </r>
       <r>    1.3525   -0.0000 </r>
       <r>    1.3627   -0.0000 </r>
       <r>    1.4097   -0.0000 </r>
       <r>    1.4728   -0.0000 </r>
       <r>    1.4991   -0.0000 </r>
       <r>    1.5319   -0.0000 </r>
       <r>    1.5640   -0.0000 </r>
       <r>    1.5969   -0.0000 </r>
       <r>    1.6330   -0.0000 </r>
       <r>    1.6765   -0.0000 </r>
       <r>    1.7326   -0.0000 </r>
       <r>    1.7568   -0.0000 </r>
       <r>    1.7694   -0.0000 </r>
       <r>    1.7981   -0.0000 </r>
       <r>    1.8332   -0.0000 </r>
       <r>    1.8837   -0.0000 </r>
       <r>    1.9174   -0.0000 </r>
       <r>    1.9429   -0.0000 </r>
       <r>    1.9851   -0.0000 </r>
       <r>    2.0021   -0.0000 </r>
       <r>    2.0492   -0.0000 </r>
       <r>    2.0678   -0.0000 </r>
       <r>    2.0925   -0.0000 </r>
       <r>    2.1444   -0.0000 </r>
       <r>    2.1995   -0.0000 </r>
      </set>
      <set comment="kpoint 7">
       <r>  -42.9797    1.0000 </r>
       <r>  -42.9410    1.0000 </r>
       <r>  -42.9305    1.0000 </r>
       <r>  -42.9055    1.0000 </r>
       <r>  -42.8952    1.0000 </r>
       <r>  -42.8780    1.0000 </r>
       <r>  -42.3806    1.0000 </r>
       <r>  -42.3291    1.0000 </r>
       <r>  -42.2909    1.0000 </r>
       <r>  -42.2519    1.0000 </r>
       <r>  -42.1816    1.0000 </r>
       <r>  -42.1599    1.0000 </r>
       <r>  -42.1195    1.0000 </r>
       <r>  -42.1137    1.0000 </r>
       <r>  -42.0903    1.0000 </r>
       <r>  -42.0220    1.0000 </r>
       <r>  -42.0050    1.0000 </r>
       <r>  -41.9806    1.0000 </r>
       <r>  -41.9643    1.0000 </r>
       <r>  -41.9355    1.0000 </r>
       <r>  -41.9045    1.0000 </r>
       <r>  -41.8841    1.0000 </r>
       <r>  -41.8798    1.0000 </r>
       <r>  -41.8604    1.0000 </r>
       <r>  -41.4891    1.0000 </r>
       <r>  -41.4138    1.0000 </r>
       <r>  -41.3621    1.0000 </r>
       <r>  -41.1445    1.0000 </r>
       <r>  -41.0972    1.0000 </r>
       <r>  -41.0191    1.0000 </r>
       <r>  -40.3794    1.0000 </r>
       <r>  -40.3265    1.0000 </r>
       <r>  -40.3063    1.0000 </r>
       <r>  -40.3054    1.0000 </r>
       <r>  -40.2890    1.0000 </r>
       <r>  -40.2863    1.0000 </r>
       <r>  -40.2437    1.0000 </r>
       <r>  -40.2274    1.0000 </r>
       <r>  -40.2223    1.0000 </r>
       <r>  -40.2182    1.0000 </r>
       <r>  -40.1827    1.0000 </r>
       <r>  -40.1619    1.0000 </r>
       <r>   -7.0872    1.0000 </r>
       <r>   -6.1304    1.0000 </r>
       <r>   -6.0659    1.0000 </r>
       <r>   -5.9870    1.0000 </r>
       <r>   -5.2377    1.0000 </r>
       <r>   -5.1807    1.0000 </r>
       <r>   -5.1078    1.0000 </r>
       <r>   -4.8065    1.0000 </r>
       <r>   -4.4727    1.0000 </r>
       <r>   -4.4081    1.0000 </r>
       <r>   -4.3422    1.0000 </r>
       <r>   -4.2348    1.0000 </r>
       <r>   -4.1853    1.0000 </r>
       <r>   -4.1681    1.0000 </r>
       <r>   -4.1279    1.0000 </r>
       <r>   -4.0777    1.0000 </r>
       <r>   -4.0358    1.0000 </r>
       <r>   -4.0173    1.0000 </r>
       <r>   -3.9872    1.0000 </r>
       <r>   -3.9520    1.0000 </r>
       <r>   -3.8719    1.0000 </r>
       <r>   -3.8617    1.0000 </r>
       <r>   -3.8124    1.0000 </r>
       <r>   -3.7790    1.0000 </r>
       <r>   -3.7510    1.0000 </r>
       <r>   -3.7034    1.0000 </r>
       <r>   -3.6022    1.0000 </r>
       <r>   -3.5890    1.0000 </r>
       <r>   -3.5460    1.0000 </r>
       <r>   -3.5368    1.0000 </r>
       <r>   -3.5232    1.0000 </r>
       <r>   -3.5044    1.0000 </r>
       <r>   -3.4998    1.0000 </r>
       <r>   -3.4746    1.0000 </r>
       <r>   -3.4725    1.0000 </r>
       <r>   -3.4613    1.0000 </r>
       <r>   -3.4431    1.0000 </r>
       <r>   -3.4207    1.0000 </r>
       <r>   -3.4152    1.0000 </r>
       <r>   -3.3955    1.0000 </r>
       <r>   -3.3550    1.0000 </r>
       <r>   -3.3356    1.0000 </r>
       <r>   -3.3265    1.0000 </r>
       <r>   -3.3107    1.0000 </r>
       <r>   -3.2807    1.0000 </r>
       <r>   -3.2667    1.0000 </r>
       <r>   -3.2338    1.0000 </r>
       <r>   -3.2275    1.0000 </r>
       <r>   -3.2065    1.0000 </r>
       <r>   -3.1714    1.0000 </r>
       <r>   -3.1590    1.0000 </r>
       <r>   -3.1374    1.0000 </r>
       <r>   -3.1141    1.0000 </r>
       <r>   -3.0896    1.0000 </r>
       <r>   -3.0446    1.0000 </r>
       <r>   -3.0230    1.0000 </r>
       <r>   -2.9976    1.0000 </r>
       <r>   -2.9582    1.0000 </r>
       <r>   -2.9446    1.0000 </r>
       <r>   -2.9116    1.0000 </r>
       <r>   -2.9017    1.0000 </r>
       <r>   -2.8804    1.0000 </r>
       <r>   -2.8631    1.0000 </r>
       <r>   -2.8317    1.0000 </r>
       <r>   -2.8160    1.0000 </r>
       <r>   -2.8045    1.0000 </r>
       <r>   -2.7753    1.0000 </r>
       <r>   -2.7666    1.0000 </r>
       <r>   -2.7617    1.0000 </r>
       <r>   -2.7389    1.0000 </r>
       <r>   -2.7212    1.0000 </r>
       <r>   -2.7101    1.0000 </r>
       <r>   -2.6994    1.0000 </r>
       <r>   -2.6851    1.0000 </r>
       <r>   -2.6657    1.0000 </r>
       <r>   -2.6521    1.0000 </r>
       <r>   -2.6443    1.0000 </r>
       <r>   -2.6363    1.0000 </r>
       <r>   -2.6217    1.0000 </r>
       <r>   -2.6134    1.0000 </r>
       <r>   -2.6025    1.0000 </r>
       <r>   -2.5973    1.0000 </r>
       <r>   -2.5790    1.0000 </r>
       <r>   -2.5733    1.0000 </r>
       <r>   -2.5580    1.0000 </r>
       <r>   -2.5487    1.0000 </r>
       <r>   -2.5194    1.0000 </r>
       <r>   -2.5066    1.0000 </r>
       <r>   -2.4968    1.0000 </r>
       <r>   -2.4921    1.0000 </r>
       <r>   -2.4738    1.0000 </r>
       <r>   -2.4465    1.0000 </r>
       <r>   -2.4309    1.0000 </r>
       <r>   -2.4129    1.0000 </r>
       <r>   -2.3925    1.0000 </r>
       <r>   -2.3827    1.0000 </r>
       <r>   -2.3686    1.0000 </r>
       <r>   -2.3587    1.0000 </r>
       <r>   -2.3428    1.0000 </r>
       <r>   -2.3323    1.0000 </r>
       <r>   -2.3160    1.0000 </r>
       <r>   -2.3011    1.0000 </r>
       <r>   -2.2814    1.0000 </r>
       <r>   -2.2710    1.0000 </r>
       <r>   -2.2567    1.0000 </r>
       <r>   -2.2458    1.0000 </r>
       <r>   -2.2186    1.0000 </r>
       <r>   -2.2164    1.0000 </r>
       <r>   -2.1979    1.0000 </r>
       <r>   -2.1917    1.0000 </r>
       <r>   -2.1729    1.0000 </r>
       <r>   -2.1690    1.0000 </r>
       <r>   -2.1452    1.0000 </r>
       <r>   -2.1382    1.0000 </r>
       <r>   -2.1214    1.0000 </r>
       <r>   -2.1101    1.0000 </r>
       <r>   -2.0929    1.0000 </r>
       <r>   -2.0752    1.0000 </r>
       <r>   -2.0571    1.0000 </r>
       <r>   -2.0444    1.0000 </r>
       <r>   -2.0220    1.0000 </r>
       <r>   -2.0117    1.0000 </r>
       <r>   -2.0037    1.0000 </r>
       <r>   -1.9972    1.0000 </r>
       <r>   -1.9698    1.0000 </r>
       <r>   -1.9585    1.0000 </r>
       <r>   -1.9468    1.0000 </r>
       <r>   -1.9267    1.0000 </r>
       <r>   -1.9026    1.0000 </r>
       <r>   -1.8949    1.0000 </r>
       <r>   -1.8774    1.0000 </r>
       <r>   -1.8623    1.0000 </r>
       <r>   -1.8559    1.0000 </r>
       <r>   -1.8456    1.0000 </r>
       <r>   -1.8314    1.0000 </r>
       <r>   -1.8067    1.0000 </r>
       <r>   -1.7978    1.0000 </r>
       <r>   -1.7849    1.0000 </r>
       <r>   -1.7738    1.0000 </r>
       <r>   -1.7553    1.0000 </r>
       <r>   -1.7365    1.0000 </r>
       <r>   -1.7177    1.0000 </r>
       <r>   -1.7072    1.0000 </r>
       <r>   -1.6969    1.0000 </r>
       <r>   -1.6792    1.0000 </r>
       <r>   -1.6591    1.0000 </r>
       <r>   -1.6484    1.0000 </r>
       <r>   -1.6334    1.0000 </r>
       <r>   -1.6188    1.0000 </r>
       <r>   -1.5955    1.0000 </r>
       <r>   -1.5627    1.0000 </r>
       <r>   -1.5569    1.0000 </r>
       <r>   -1.5407    1.0000 </r>
       <r>   -1.5350    1.0000 </r>
       <r>   -1.5048    1.0000 </r>
       <r>   -1.4835    1.0000 </r>
       <r>   -1.4639    1.0000 </r>
       <r>   -1.4403    1.0000 </r>
       <r>   -1.4151    1.0000 </r>
       <r>   -1.4125    1.0000 </r>
       <r>   -1.3738    1.0000 </r>
       <r>   -1.3607    1.0000 </r>
       <r>   -1.3453    1.0000 </r>
       <r>   -1.3187    1.0000 </r>
       <r>   -1.2873    1.0000 </r>
       <r>   -1.2721    1.0000 </r>
       <r>   -1.2358    1.0000 </r>
       <r>   -1.2170    1.0000 </r>
       <r>   -1.1970    1.0000 </r>
       <r>   -1.1726    1.0000 </r>
       <r>   -1.1513    1.0000 </r>
       <r>   -1.1374    1.0000 </r>
       <r>   -1.1105    1.0000 </r>
       <r>   -1.0973    1.0000 </r>
       <r>   -1.0850    1.0000 </r>
       <r>   -1.0600    1.0000 </r>
       <r>   -1.0498    1.0000 </r>
       <r>   -1.0250    1.0000 </r>
       <r>   -1.0063    1.0000 </r>
       <r>   -0.9815    1.0000 </r>
       <r>   -0.9640    1.0000 </r>
       <r>   -0.9501    1.0000 </r>
       <r>   -0.9283    1.0000 </r>
       <r>   -0.9210    1.0000 </r>
       <r>   -0.8996    1.0000 </r>
       <r>   -0.8905    1.0000 </r>
       <r>   -0.8563    1.0000 </r>
       <r>   -0.8510    1.0000 </r>
       <r>   -0.8339    1.0000 </r>
       <r>   -0.8171    1.0000 </r>
       <r>   -0.7911    1.0000 </r>
       <r>   -0.7864    1.0000 </r>
       <r>   -0.7817    1.0000 </r>
       <r>   -0.7720    1.0000 </r>
       <r>   -0.7543    1.0000 </r>
       <r>   -0.7478    1.0000 </r>
       <r>   -0.7271    1.0000 </r>
       <r>   -0.7199    1.0000 </r>
       <r>   -0.6994    1.0000 </r>
       <r>   -0.6920    1.0000 </r>
       <r>   -0.6761    1.0000 </r>
       <r>   -0.6644    1.0000 </r>
       <r>   -0.6523    1.0000 </r>
       <r>   -0.6430    1.0000 </r>
       <r>   -0.6240    1.0000 </r>
       <r>   -0.6152    1.0000 </r>
       <r>   -0.6112    1.0000 </r>
       <r>   -0.6034    1.0000 </r>
       <r>   -0.5941    1.0000 </r>
       <r>   -0.5709    1.0000 </r>
       <r>   -0.5574    1.0000 </r>
       <r>   -0.5524    1.0000 </r>
       <r>   -0.5386    1.0000 </r>
       <r>   -0.5356    1.0000 </r>
       <r>   -0.5152    1.0000 </r>
       <r>   -0.5099    1.0000 </r>
       <r>   -0.5024    1.0000 </r>
       <r>   -0.4935    1.0000 </r>
       <r>   -0.4842    1.0000 </r>
       <r>   -0.4775    1.0000 </r>
       <r>   -0.4607    1.0000 </r>
       <r>   -0.4535    1.0000 </r>
       <r>   -0.4385    1.0000 </r>
       <r>   -0.4349    1.0000 </r>
       <r>   -0.4115    1.0000 </r>
       <r>   -0.4060    1.0000 </r>
       <r>   -0.3920    1.0000 </r>
       <r>   -0.3852    1.0000 </r>
       <r>   -0.3815    1.0000 </r>
       <r>   -0.3765    1.0000 </r>
       <r>   -0.3553    1.0000 </r>
       <r>   -0.3423    1.0000 </r>
       <r>   -0.3335    1.0000 </r>
       <r>   -0.3185    1.0000 </r>
       <r>   -0.3160    1.0000 </r>
       <r>   -0.2953    1.0000 </r>
       <r>   -0.2888    1.0000 </r>
       <r>   -0.2767    1.0000 </r>
       <r>   -0.2570    1.0000 </r>
       <r>   -0.2355    1.0000 </r>
       <r>   -0.2170    1.0000 </r>
       <r>   -0.2132    1.0000 </r>
       <r>   -0.1851    1.0000 </r>
       <r>   -0.1753    1.0000 </r>
       <r>   -0.1597    1.0000 </r>
       <r>   -0.1487    1.0000 </r>
       <r>   -0.1324    1.0000 </r>
       <r>   -0.1087    1.0000 </r>
       <r>   -0.0965    1.0000 </r>
       <r>   -0.0677    1.0000 </r>
       <r>   -0.0588    1.0000 </r>
       <r>   -0.0411    1.0000 </r>
       <r>   -0.0089    1.0000 </r>
       <r>    0.0216    1.0000 </r>
       <r>    0.0323    1.0000 </r>
       <r>    0.0618    1.0000 </r>
       <r>    0.0803    1.0000 </r>
       <r>    0.1035    1.0000 </r>
       <r>    0.1158    1.0000 </r>
       <r>    0.1453    1.0000 </r>
       <r>    0.1701    1.0000 </r>
       <r>    0.1952    1.0000 </r>
       <r>    0.2098    1.0000 </r>
       <r>    0.2515    1.0000 </r>
       <r>    0.2620    1.0000 </r>
       <r>    0.2758    1.0000 </r>
       <r>    0.3042    1.0000 </r>
       <r>    0.3386    1.0001 </r>
       <r>    0.3602    1.0001 </r>
       <r>    0.3869    1.0003 </r>
       <r>    0.4120    1.0008 </r>
       <r>    0.4357    1.0016 </r>
       <r>    0.4596    1.0031 </r>
       <r>    0.5043    1.0088 </r>
       <r>    0.5247    1.0132 </r>
       <r>    0.5578    1.0225 </r>
       <r>    0.6028    1.0344 </r>
       <r>    0.6331    1.0331 </r>
       <r>    0.6666    1.0090 </r>
       <r>    0.7051    0.9331 </r>
       <r>    0.7420    0.8003 </r>
       <r>    0.7761    0.6311 </r>
       <r>    0.8023    0.4853 </r>
       <r>    0.8326    0.3188 </r>
       <r>    0.9012    0.0484 </r>
       <r>    0.9397   -0.0168 </r>
       <r>    0.9716   -0.0344 </r>
       <r>    1.0030   -0.0333 </r>
       <r>    1.0664   -0.0153 </r>
       <r>    1.1056   -0.0070 </r>
       <r>    1.1268   -0.0043 </r>
       <r>    1.1672   -0.0014 </r>
       <r>    1.1928   -0.0007 </r>
       <r>    1.2360   -0.0002 </r>
       <r>    1.2605   -0.0001 </r>
       <r>    1.3260   -0.0000 </r>
       <r>    1.3435   -0.0000 </r>
       <r>    1.3843   -0.0000 </r>
       <r>    1.4216   -0.0000 </r>
       <r>    1.4390   -0.0000 </r>
       <r>    1.4955   -0.0000 </r>
       <r>    1.5190   -0.0000 </r>
       <r>    1.5426   -0.0000 </r>
       <r>    1.6033   -0.0000 </r>
       <r>    1.6216   -0.0000 </r>
       <r>    1.6480   -0.0000 </r>
       <r>    1.7408   -0.0000 </r>
       <r>    1.7733   -0.0000 </r>
       <r>    1.8069   -0.0000 </r>
       <r>    1.8350   -0.0000 </r>
       <r>    1.8409   -0.0000 </r>
       <r>    1.8988   -0.0000 </r>
       <r>    1.9237   -0.0000 </r>
       <r>    1.9411   -0.0000 </r>
       <r>    1.9667   -0.0000 </r>
       <r>    1.9802   -0.0000 </r>
       <r>    2.0038   -0.0000 </r>
       <r>    2.0232   -0.0000 </r>
       <r>    2.1163   -0.0000 </r>
       <r>    2.1568   -0.0000 </r>
       <r>    2.1724   -0.0000 </r>
      </set>
      <set comment="kpoint 8">
       <r>  -42.9797    1.0000 </r>
       <r>  -42.9410    1.0000 </r>
       <r>  -42.9305    1.0000 </r>
       <r>  -42.9055    1.0000 </r>
       <r>  -42.8952    1.0000 </r>
       <r>  -42.8780    1.0000 </r>
       <r>  -42.3806    1.0000 </r>
       <r>  -42.3291    1.0000 </r>
       <r>  -42.2909    1.0000 </r>
       <r>  -42.2519    1.0000 </r>
       <r>  -42.1817    1.0000 </r>
       <r>  -42.1598    1.0000 </r>
       <r>  -42.1196    1.0000 </r>
       <r>  -42.1137    1.0000 </r>
       <r>  -42.0903    1.0000 </r>
       <r>  -42.0220    1.0000 </r>
       <r>  -42.0050    1.0000 </r>
       <r>  -41.9805    1.0000 </r>
       <r>  -41.9644    1.0000 </r>
       <r>  -41.9355    1.0000 </r>
       <r>  -41.9045    1.0000 </r>
       <r>  -41.8841    1.0000 </r>
       <r>  -41.8798    1.0000 </r>
       <r>  -41.8604    1.0000 </r>
       <r>  -41.4891    1.0000 </r>
       <r>  -41.4138    1.0000 </r>
       <r>  -41.3621    1.0000 </r>
       <r>  -41.1445    1.0000 </r>
       <r>  -41.0972    1.0000 </r>
       <r>  -41.0191    1.0000 </r>
       <r>  -40.3793    1.0000 </r>
       <r>  -40.3265    1.0000 </r>
       <r>  -40.3063    1.0000 </r>
       <r>  -40.3055    1.0000 </r>
       <r>  -40.2891    1.0000 </r>
       <r>  -40.2864    1.0000 </r>
       <r>  -40.2437    1.0000 </r>
       <r>  -40.2274    1.0000 </r>
       <r>  -40.2223    1.0000 </r>
       <r>  -40.2182    1.0000 </r>
       <r>  -40.1827    1.0000 </r>
       <r>  -40.1619    1.0000 </r>
       <r>   -6.8300    1.0000 </r>
       <r>   -6.7980    1.0000 </r>
       <r>   -5.9328    1.0000 </r>
       <r>   -5.7915    1.0000 </r>
       <r>   -5.0069    1.0000 </r>
       <r>   -4.9670    1.0000 </r>
       <r>   -4.9391    1.0000 </r>
       <r>   -4.8915    1.0000 </r>
       <r>   -4.6739    1.0000 </r>
       <r>   -4.5960    1.0000 </r>
       <r>   -4.3474    1.0000 </r>
       <r>   -4.3038    1.0000 </r>
       <r>   -4.2106    1.0000 </r>
       <r>   -4.1551    1.0000 </r>
       <r>   -4.1391    1.0000 </r>
       <r>   -4.0863    1.0000 </r>
       <r>   -3.9198    1.0000 </r>
       <r>   -3.9021    1.0000 </r>
       <r>   -3.8722    1.0000 </r>
       <r>   -3.8661    1.0000 </r>
       <r>   -3.8446    1.0000 </r>
       <r>   -3.8108    1.0000 </r>
       <r>   -3.8101    1.0000 </r>
       <r>   -3.7941    1.0000 </r>
       <r>   -3.7759    1.0000 </r>
       <r>   -3.7655    1.0000 </r>
       <r>   -3.7529    1.0000 </r>
       <r>   -3.7272    1.0000 </r>
       <r>   -3.7097    1.0000 </r>
       <r>   -3.6869    1.0000 </r>
       <r>   -3.6686    1.0000 </r>
       <r>   -3.6425    1.0000 </r>
       <r>   -3.6195    1.0000 </r>
       <r>   -3.4862    1.0000 </r>
       <r>   -3.4411    1.0000 </r>
       <r>   -3.4273    1.0000 </r>
       <r>   -3.3896    1.0000 </r>
       <r>   -3.3851    1.0000 </r>
       <r>   -3.3617    1.0000 </r>
       <r>   -3.3348    1.0000 </r>
       <r>   -3.3085    1.0000 </r>
       <r>   -3.2948    1.0000 </r>
       <r>   -3.2790    1.0000 </r>
       <r>   -3.2394    1.0000 </r>
       <r>   -3.2244    1.0000 </r>
       <r>   -3.2068    1.0000 </r>
       <r>   -3.1969    1.0000 </r>
       <r>   -3.1765    1.0000 </r>
       <r>   -3.1679    1.0000 </r>
       <r>   -3.1436    1.0000 </r>
       <r>   -3.1321    1.0000 </r>
       <r>   -3.1105    1.0000 </r>
       <r>   -3.0932    1.0000 </r>
       <r>   -3.0792    1.0000 </r>
       <r>   -3.0697    1.0000 </r>
       <r>   -3.0571    1.0000 </r>
       <r>   -3.0020    1.0000 </r>
       <r>   -2.9869    1.0000 </r>
       <r>   -2.9761    1.0000 </r>
       <r>   -2.9683    1.0000 </r>
       <r>   -2.9369    1.0000 </r>
       <r>   -2.9309    1.0000 </r>
       <r>   -2.9050    1.0000 </r>
       <r>   -2.8912    1.0000 </r>
       <r>   -2.8777    1.0000 </r>
       <r>   -2.8453    1.0000 </r>
       <r>   -2.8363    1.0000 </r>
       <r>   -2.7996    1.0000 </r>
       <r>   -2.7914    1.0000 </r>
       <r>   -2.7287    1.0000 </r>
       <r>   -2.7280    1.0000 </r>
       <r>   -2.7072    1.0000 </r>
       <r>   -2.6964    1.0000 </r>
       <r>   -2.6889    1.0000 </r>
       <r>   -2.6706    1.0000 </r>
       <r>   -2.6564    1.0000 </r>
       <r>   -2.6392    1.0000 </r>
       <r>   -2.6240    1.0000 </r>
       <r>   -2.6136    1.0000 </r>
       <r>   -2.6074    1.0000 </r>
       <r>   -2.5925    1.0000 </r>
       <r>   -2.5784    1.0000 </r>
       <r>   -2.5740    1.0000 </r>
       <r>   -2.5663    1.0000 </r>
       <r>   -2.5588    1.0000 </r>
       <r>   -2.5323    1.0000 </r>
       <r>   -2.5250    1.0000 </r>
       <r>   -2.5083    1.0000 </r>
       <r>   -2.4811    1.0000 </r>
       <r>   -2.4723    1.0000 </r>
       <r>   -2.4632    1.0000 </r>
       <r>   -2.4361    1.0000 </r>
       <r>   -2.4350    1.0000 </r>
       <r>   -2.4243    1.0000 </r>
       <r>   -2.4090    1.0000 </r>
       <r>   -2.3971    1.0000 </r>
       <r>   -2.3586    1.0000 </r>
       <r>   -2.3340    1.0000 </r>
       <r>   -2.3285    1.0000 </r>
       <r>   -2.3133    1.0000 </r>
       <r>   -2.2857    1.0000 </r>
       <r>   -2.2719    1.0000 </r>
       <r>   -2.2637    1.0000 </r>
       <r>   -2.2391    1.0000 </r>
       <r>   -2.2231    1.0000 </r>
       <r>   -2.2189    1.0000 </r>
       <r>   -2.2017    1.0000 </r>
       <r>   -2.1960    1.0000 </r>
       <r>   -2.1760    1.0000 </r>
       <r>   -2.1713    1.0000 </r>
       <r>   -2.1627    1.0000 </r>
       <r>   -2.1359    1.0000 </r>
       <r>   -2.1296    1.0000 </r>
       <r>   -2.1180    1.0000 </r>
       <r>   -2.1153    1.0000 </r>
       <r>   -2.0829    1.0000 </r>
       <r>   -2.0695    1.0000 </r>
       <r>   -2.0638    1.0000 </r>
       <r>   -2.0490    1.0000 </r>
       <r>   -2.0480    1.0000 </r>
       <r>   -2.0241    1.0000 </r>
       <r>   -2.0165    1.0000 </r>
       <r>   -1.9938    1.0000 </r>
       <r>   -1.9875    1.0000 </r>
       <r>   -1.9506    1.0000 </r>
       <r>   -1.9469    1.0000 </r>
       <r>   -1.9392    1.0000 </r>
       <r>   -1.9294    1.0000 </r>
       <r>   -1.9131    1.0000 </r>
       <r>   -1.8797    1.0000 </r>
       <r>   -1.8740    1.0000 </r>
       <r>   -1.8514    1.0000 </r>
       <r>   -1.8378    1.0000 </r>
       <r>   -1.8203    1.0000 </r>
       <r>   -1.8105    1.0000 </r>
       <r>   -1.8080    1.0000 </r>
       <r>   -1.7835    1.0000 </r>
       <r>   -1.7601    1.0000 </r>
       <r>   -1.7496    1.0000 </r>
       <r>   -1.7388    1.0000 </r>
       <r>   -1.7194    1.0000 </r>
       <r>   -1.7017    1.0000 </r>
       <r>   -1.6972    1.0000 </r>
       <r>   -1.6764    1.0000 </r>
       <r>   -1.6643    1.0000 </r>
       <r>   -1.6558    1.0000 </r>
       <r>   -1.6357    1.0000 </r>
       <r>   -1.6334    1.0000 </r>
       <r>   -1.5966    1.0000 </r>
       <r>   -1.5946    1.0000 </r>
       <r>   -1.5858    1.0000 </r>
       <r>   -1.5548    1.0000 </r>
       <r>   -1.5326    1.0000 </r>
       <r>   -1.5231    1.0000 </r>
       <r>   -1.5164    1.0000 </r>
       <r>   -1.5017    1.0000 </r>
       <r>   -1.4740    1.0000 </r>
       <r>   -1.4646    1.0000 </r>
       <r>   -1.4607    1.0000 </r>
       <r>   -1.4442    1.0000 </r>
       <r>   -1.4108    1.0000 </r>
       <r>   -1.3724    1.0000 </r>
       <r>   -1.3578    1.0000 </r>
       <r>   -1.3429    1.0000 </r>
       <r>   -1.3230    1.0000 </r>
       <r>   -1.3107    1.0000 </r>
       <r>   -1.2702    1.0000 </r>
       <r>   -1.2437    1.0000 </r>
       <r>   -1.2299    1.0000 </r>
       <r>   -1.2138    1.0000 </r>
       <r>   -1.1884    1.0000 </r>
       <r>   -1.1666    1.0000 </r>
       <r>   -1.1485    1.0000 </r>
       <r>   -1.1203    1.0000 </r>
       <r>   -1.0860    1.0000 </r>
       <r>   -1.0752    1.0000 </r>
       <r>   -1.0623    1.0000 </r>
       <r>   -1.0514    1.0000 </r>
       <r>   -1.0321    1.0000 </r>
       <r>   -1.0174    1.0000 </r>
       <r>   -0.9940    1.0000 </r>
       <r>   -0.9643    1.0000 </r>
       <r>   -0.9333    1.0000 </r>
       <r>   -0.9266    1.0000 </r>
       <r>   -0.9074    1.0000 </r>
       <r>   -0.8873    1.0000 </r>
       <r>   -0.8742    1.0000 </r>
       <r>   -0.8476    1.0000 </r>
       <r>   -0.8461    1.0000 </r>
       <r>   -0.8133    1.0000 </r>
       <r>   -0.8010    1.0000 </r>
       <r>   -0.7916    1.0000 </r>
       <r>   -0.7768    1.0000 </r>
       <r>   -0.7723    1.0000 </r>
       <r>   -0.7546    1.0000 </r>
       <r>   -0.7493    1.0000 </r>
       <r>   -0.7354    1.0000 </r>
       <r>   -0.7145    1.0000 </r>
       <r>   -0.7093    1.0000 </r>
       <r>   -0.7040    1.0000 </r>
       <r>   -0.6876    1.0000 </r>
       <r>   -0.6731    1.0000 </r>
       <r>   -0.6605    1.0000 </r>
       <r>   -0.6585    1.0000 </r>
       <r>   -0.6474    1.0000 </r>
       <r>   -0.6325    1.0000 </r>
       <r>   -0.6288    1.0000 </r>
       <r>   -0.6136    1.0000 </r>
       <r>   -0.5975    1.0000 </r>
       <r>   -0.5890    1.0000 </r>
       <r>   -0.5746    1.0000 </r>
       <r>   -0.5696    1.0000 </r>
       <r>   -0.5590    1.0000 </r>
       <r>   -0.5439    1.0000 </r>
       <r>   -0.5267    1.0000 </r>
       <r>   -0.5100    1.0000 </r>
       <r>   -0.5090    1.0000 </r>
       <r>   -0.4962    1.0000 </r>
       <r>   -0.4890    1.0000 </r>
       <r>   -0.4821    1.0000 </r>
       <r>   -0.4693    1.0000 </r>
       <r>   -0.4651    1.0000 </r>
       <r>   -0.4354    1.0000 </r>
       <r>   -0.4248    1.0000 </r>
       <r>   -0.4202    1.0000 </r>
       <r>   -0.4162    1.0000 </r>
       <r>   -0.4048    1.0000 </r>
       <r>   -0.3944    1.0000 </r>
       <r>   -0.3733    1.0000 </r>
       <r>   -0.3624    1.0000 </r>
       <r>   -0.3513    1.0000 </r>
       <r>   -0.3378    1.0000 </r>
       <r>   -0.3278    1.0000 </r>
       <r>   -0.3156    1.0000 </r>
       <r>   -0.3077    1.0000 </r>
       <r>   -0.2827    1.0000 </r>
       <r>   -0.2760    1.0000 </r>
       <r>   -0.2593    1.0000 </r>
       <r>   -0.2513    1.0000 </r>
       <r>   -0.2279    1.0000 </r>
       <r>   -0.2176    1.0000 </r>
       <r>   -0.2101    1.0000 </r>
       <r>   -0.1925    1.0000 </r>
       <r>   -0.1530    1.0000 </r>
       <r>   -0.1464    1.0000 </r>
       <r>   -0.1186    1.0000 </r>
       <r>   -0.1019    1.0000 </r>
       <r>   -0.0764    1.0000 </r>
       <r>   -0.0704    1.0000 </r>
       <r>   -0.0546    1.0000 </r>
       <r>   -0.0256    1.0000 </r>
       <r>   -0.0100    1.0000 </r>
       <r>    0.0008    1.0000 </r>
       <r>    0.0427    1.0000 </r>
       <r>    0.0610    1.0000 </r>
       <r>    0.0902    1.0000 </r>
       <r>    0.1114    1.0000 </r>
       <r>    0.1475    1.0000 </r>
       <r>    0.1568    1.0000 </r>
       <r>    0.1723    1.0000 </r>
       <r>    0.1879    1.0000 </r>
       <r>    0.2147    1.0000 </r>
       <r>    0.2263    1.0000 </r>
       <r>    0.2693    1.0000 </r>
       <r>    0.2915    1.0000 </r>
       <r>    0.3117    1.0000 </r>
       <r>    0.3283    1.0000 </r>
       <r>    0.3432    1.0001 </r>
       <r>    0.3631    1.0002 </r>
       <r>    0.4133    1.0008 </r>
       <r>    0.4429    1.0020 </r>
       <r>    0.4861    1.0059 </r>
       <r>    0.5253    1.0133 </r>
       <r>    0.5456    1.0188 </r>
       <r>    0.5613    1.0236 </r>
       <r>    0.5757    1.0280 </r>
       <r>    0.6434    1.0289 </r>
       <r>    0.6515    1.0238 </r>
       <r>    0.7102    0.9184 </r>
       <r>    0.7210    0.8833 </r>
       <r>    0.7725    0.6503 </r>
       <r>    0.8067    0.4602 </r>
       <r>    0.8472    0.2460 </r>
       <r>    0.8852    0.0936 </r>
       <r>    0.9332   -0.0097 </r>
       <r>    0.9463   -0.0226 </r>
       <r>    0.9761   -0.0351 </r>
       <r>    0.9885   -0.0353 </r>
       <r>    1.0306   -0.0258 </r>
       <r>    1.0910   -0.0096 </r>
       <r>    1.1234   -0.0046 </r>
       <r>    1.1963   -0.0006 </r>
       <r>    1.2382   -0.0001 </r>
       <r>    1.2417   -0.0001 </r>
       <r>    1.2620   -0.0001 </r>
       <r>    1.3342   -0.0000 </r>
       <r>    1.3582   -0.0000 </r>
       <r>    1.3683   -0.0000 </r>
       <r>    1.4075   -0.0000 </r>
       <r>    1.4449   -0.0000 </r>
       <r>    1.4751   -0.0000 </r>
       <r>    1.5208   -0.0000 </r>
       <r>    1.5488   -0.0000 </r>
       <r>    1.6005   -0.0000 </r>
       <r>    1.6218   -0.0000 </r>
       <r>    1.6588   -0.0000 </r>
       <r>    1.6985   -0.0000 </r>
       <r>    1.7088   -0.0000 </r>
       <r>    1.7343   -0.0000 </r>
       <r>    1.7877   -0.0000 </r>
       <r>    1.8268   -0.0000 </r>
       <r>    1.8720   -0.0000 </r>
       <r>    1.9071   -0.0000 </r>
       <r>    1.9219   -0.0000 </r>
       <r>    1.9273   -0.0000 </r>
       <r>    1.9807   -0.0000 </r>
       <r>    1.9969   -0.0000 </r>
       <r>    2.0377   -0.0000 </r>
       <r>    2.0859   -0.0000 </r>
       <r>    2.1323   -0.0000 </r>
       <r>    2.1415   -0.0000 </r>
      </set>
      <set comment="kpoint 9">
       <r>  -42.9797    1.0000 </r>
       <r>  -42.9410    1.0000 </r>
       <r>  -42.9305    1.0000 </r>
       <r>  -42.9055    1.0000 </r>
       <r>  -42.8952    1.0000 </r>
       <r>  -42.8780    1.0000 </r>
       <r>  -42.3806    1.0000 </r>
       <r>  -42.3291    1.0000 </r>
       <r>  -42.2909    1.0000 </r>
       <r>  -42.2518    1.0000 </r>
       <r>  -42.1817    1.0000 </r>
       <r>  -42.1599    1.0000 </r>
       <r>  -42.1196    1.0000 </r>
       <r>  -42.1136    1.0000 </r>
       <r>  -42.0903    1.0000 </r>
       <r>  -42.0220    1.0000 </r>
       <r>  -42.0050    1.0000 </r>
       <r>  -41.9805    1.0000 </r>
       <r>  -41.9644    1.0000 </r>
       <r>  -41.9355    1.0000 </r>
       <r>  -41.9045    1.0000 </r>
       <r>  -41.8841    1.0000 </r>
       <r>  -41.8797    1.0000 </r>
       <r>  -41.8604    1.0000 </r>
       <r>  -41.4891    1.0000 </r>
       <r>  -41.4138    1.0000 </r>
       <r>  -41.3621    1.0000 </r>
       <r>  -41.1445    1.0000 </r>
       <r>  -41.0972    1.0000 </r>
       <r>  -41.0191    1.0000 </r>
       <r>  -40.3793    1.0000 </r>
       <r>  -40.3265    1.0000 </r>
       <r>  -40.3063    1.0000 </r>
       <r>  -40.3055    1.0000 </r>
       <r>  -40.2890    1.0000 </r>
       <r>  -40.2864    1.0000 </r>
       <r>  -40.2437    1.0000 </r>
       <r>  -40.2274    1.0000 </r>
       <r>  -40.2223    1.0000 </r>
       <r>  -40.2182    1.0000 </r>
       <r>  -40.1827    1.0000 </r>
       <r>  -40.1619    1.0000 </r>
       <r>   -6.6957    1.0000 </r>
       <r>   -6.6639    1.0000 </r>
       <r>   -5.8085    1.0000 </r>
       <r>   -5.7052    1.0000 </r>
       <r>   -5.6808    1.0000 </r>
       <r>   -5.6286    1.0000 </r>
       <r>   -4.8944    1.0000 </r>
       <r>   -4.7776    1.0000 </r>
       <r>   -4.5842    1.0000 </r>
       <r>   -4.4590    1.0000 </r>
       <r>   -4.2367    1.0000 </r>
       <r>   -4.2220    1.0000 </r>
       <r>   -4.0533    1.0000 </r>
       <r>   -4.0044    1.0000 </r>
       <r>   -3.9762    1.0000 </r>
       <r>   -3.9479    1.0000 </r>
       <r>   -3.9236    1.0000 </r>
       <r>   -3.8953    1.0000 </r>
       <r>   -3.8590    1.0000 </r>
       <r>   -3.8440    1.0000 </r>
       <r>   -3.8259    1.0000 </r>
       <r>   -3.8036    1.0000 </r>
       <r>   -3.7765    1.0000 </r>
       <r>   -3.7461    1.0000 </r>
       <r>   -3.7274    1.0000 </r>
       <r>   -3.7124    1.0000 </r>
       <r>   -3.7052    1.0000 </r>
       <r>   -3.6977    1.0000 </r>
       <r>   -3.6777    1.0000 </r>
       <r>   -3.6475    1.0000 </r>
       <r>   -3.6229    1.0000 </r>
       <r>   -3.6015    1.0000 </r>
       <r>   -3.5614    1.0000 </r>
       <r>   -3.5397    1.0000 </r>
       <r>   -3.4554    1.0000 </r>
       <r>   -3.4344    1.0000 </r>
       <r>   -3.4170    1.0000 </r>
       <r>   -3.3956    1.0000 </r>
       <r>   -3.3757    1.0000 </r>
       <r>   -3.3662    1.0000 </r>
       <r>   -3.3558    1.0000 </r>
       <r>   -3.3344    1.0000 </r>
       <r>   -3.3187    1.0000 </r>
       <r>   -3.3088    1.0000 </r>
       <r>   -3.2739    1.0000 </r>
       <r>   -3.2669    1.0000 </r>
       <r>   -3.2534    1.0000 </r>
       <r>   -3.2460    1.0000 </r>
       <r>   -3.2278    1.0000 </r>
       <r>   -3.2172    1.0000 </r>
       <r>   -3.2053    1.0000 </r>
       <r>   -3.1728    1.0000 </r>
       <r>   -3.1365    1.0000 </r>
       <r>   -3.0968    1.0000 </r>
       <r>   -3.0774    1.0000 </r>
       <r>   -3.0527    1.0000 </r>
       <r>   -3.0420    1.0000 </r>
       <r>   -3.0140    1.0000 </r>
       <r>   -2.9910    1.0000 </r>
       <r>   -2.9749    1.0000 </r>
       <r>   -2.9365    1.0000 </r>
       <r>   -2.9049    1.0000 </r>
       <r>   -2.8906    1.0000 </r>
       <r>   -2.8705    1.0000 </r>
       <r>   -2.8572    1.0000 </r>
       <r>   -2.8393    1.0000 </r>
       <r>   -2.8141    1.0000 </r>
       <r>   -2.7923    1.0000 </r>
       <r>   -2.7680    1.0000 </r>
       <r>   -2.7574    1.0000 </r>
       <r>   -2.7463    1.0000 </r>
       <r>   -2.7234    1.0000 </r>
       <r>   -2.7118    1.0000 </r>
       <r>   -2.6946    1.0000 </r>
       <r>   -2.6856    1.0000 </r>
       <r>   -2.6730    1.0000 </r>
       <r>   -2.6647    1.0000 </r>
       <r>   -2.6489    1.0000 </r>
       <r>   -2.6422    1.0000 </r>
       <r>   -2.6281    1.0000 </r>
       <r>   -2.6145    1.0000 </r>
       <r>   -2.6104    1.0000 </r>
       <r>   -2.6037    1.0000 </r>
       <r>   -2.5782    1.0000 </r>
       <r>   -2.5616    1.0000 </r>
       <r>   -2.5519    1.0000 </r>
       <r>   -2.5305    1.0000 </r>
       <r>   -2.5225    1.0000 </r>
       <r>   -2.5101    1.0000 </r>
       <r>   -2.4945    1.0000 </r>
       <r>   -2.4834    1.0000 </r>
       <r>   -2.4623    1.0000 </r>
       <r>   -2.4445    1.0000 </r>
       <r>   -2.4372    1.0000 </r>
       <r>   -2.4033    1.0000 </r>
       <r>   -2.3856    1.0000 </r>
       <r>   -2.3718    1.0000 </r>
       <r>   -2.3534    1.0000 </r>
       <r>   -2.3408    1.0000 </r>
       <r>   -2.3300    1.0000 </r>
       <r>   -2.3003    1.0000 </r>
       <r>   -2.2822    1.0000 </r>
       <r>   -2.2749    1.0000 </r>
       <r>   -2.2704    1.0000 </r>
       <r>   -2.2535    1.0000 </r>
       <r>   -2.2405    1.0000 </r>
       <r>   -2.2227    1.0000 </r>
       <r>   -2.2073    1.0000 </r>
       <r>   -2.2036    1.0000 </r>
       <r>   -2.1843    1.0000 </r>
       <r>   -2.1735    1.0000 </r>
       <r>   -2.1565    1.0000 </r>
       <r>   -2.1500    1.0000 </r>
       <r>   -2.1403    1.0000 </r>
       <r>   -2.1112    1.0000 </r>
       <r>   -2.1024    1.0000 </r>
       <r>   -2.0849    1.0000 </r>
       <r>   -2.0750    1.0000 </r>
       <r>   -2.0562    1.0000 </r>
       <r>   -2.0445    1.0000 </r>
       <r>   -2.0372    1.0000 </r>
       <r>   -2.0094    1.0000 </r>
       <r>   -2.0003    1.0000 </r>
       <r>   -1.9921    1.0000 </r>
       <r>   -1.9685    1.0000 </r>
       <r>   -1.9641    1.0000 </r>
       <r>   -1.9512    1.0000 </r>
       <r>   -1.9376    1.0000 </r>
       <r>   -1.9250    1.0000 </r>
       <r>   -1.9176    1.0000 </r>
       <r>   -1.9126    1.0000 </r>
       <r>   -1.8838    1.0000 </r>
       <r>   -1.8692    1.0000 </r>
       <r>   -1.8443    1.0000 </r>
       <r>   -1.8261    1.0000 </r>
       <r>   -1.8116    1.0000 </r>
       <r>   -1.7931    1.0000 </r>
       <r>   -1.7772    1.0000 </r>
       <r>   -1.7678    1.0000 </r>
       <r>   -1.7524    1.0000 </r>
       <r>   -1.7479    1.0000 </r>
       <r>   -1.7224    1.0000 </r>
       <r>   -1.6955    1.0000 </r>
       <r>   -1.6943    1.0000 </r>
       <r>   -1.6699    1.0000 </r>
       <r>   -1.6508    1.0000 </r>
       <r>   -1.6397    1.0000 </r>
       <r>   -1.6243    1.0000 </r>
       <r>   -1.6152    1.0000 </r>
       <r>   -1.5907    1.0000 </r>
       <r>   -1.5696    1.0000 </r>
       <r>   -1.5590    1.0000 </r>
       <r>   -1.5220    1.0000 </r>
       <r>   -1.5053    1.0000 </r>
       <r>   -1.4949    1.0000 </r>
       <r>   -1.4780    1.0000 </r>
       <r>   -1.4526    1.0000 </r>
       <r>   -1.4394    1.0000 </r>
       <r>   -1.4144    1.0000 </r>
       <r>   -1.3816    1.0000 </r>
       <r>   -1.3525    1.0000 </r>
       <r>   -1.3466    1.0000 </r>
       <r>   -1.3062    1.0000 </r>
       <r>   -1.2965    1.0000 </r>
       <r>   -1.2798    1.0000 </r>
       <r>   -1.2551    1.0000 </r>
       <r>   -1.2433    1.0000 </r>
       <r>   -1.2190    1.0000 </r>
       <r>   -1.2014    1.0000 </r>
       <r>   -1.1776    1.0000 </r>
       <r>   -1.1537    1.0000 </r>
       <r>   -1.1352    1.0000 </r>
       <r>   -1.1192    1.0000 </r>
       <r>   -1.0967    1.0000 </r>
       <r>   -1.0665    1.0000 </r>
       <r>   -1.0531    1.0000 </r>
       <r>   -1.0303    1.0000 </r>
       <r>   -1.0200    1.0000 </r>
       <r>   -1.0010    1.0000 </r>
       <r>   -0.9860    1.0000 </r>
       <r>   -0.9531    1.0000 </r>
       <r>   -0.9307    1.0000 </r>
       <r>   -0.9211    1.0000 </r>
       <r>   -0.9043    1.0000 </r>
       <r>   -0.8768    1.0000 </r>
       <r>   -0.8694    1.0000 </r>
       <r>   -0.8352    1.0000 </r>
       <r>   -0.8283    1.0000 </r>
       <r>   -0.8156    1.0000 </r>
       <r>   -0.7991    1.0000 </r>
       <r>   -0.7880    1.0000 </r>
       <r>   -0.7790    1.0000 </r>
       <r>   -0.7555    1.0000 </r>
       <r>   -0.7449    1.0000 </r>
       <r>   -0.7381    1.0000 </r>
       <r>   -0.7293    1.0000 </r>
       <r>   -0.7027    1.0000 </r>
       <r>   -0.6940    1.0000 </r>
       <r>   -0.6802    1.0000 </r>
       <r>   -0.6774    1.0000 </r>
       <r>   -0.6636    1.0000 </r>
       <r>   -0.6514    1.0000 </r>
       <r>   -0.6434    1.0000 </r>
       <r>   -0.6297    1.0000 </r>
       <r>   -0.6190    1.0000 </r>
       <r>   -0.6093    1.0000 </r>
       <r>   -0.6003    1.0000 </r>
       <r>   -0.5907    1.0000 </r>
       <r>   -0.5853    1.0000 </r>
       <r>   -0.5714    1.0000 </r>
       <r>   -0.5668    1.0000 </r>
       <r>   -0.5509    1.0000 </r>
       <r>   -0.5396    1.0000 </r>
       <r>   -0.5358    1.0000 </r>
       <r>   -0.5170    1.0000 </r>
       <r>   -0.5128    1.0000 </r>
       <r>   -0.5037    1.0000 </r>
       <r>   -0.4996    1.0000 </r>
       <r>   -0.4796    1.0000 </r>
       <r>   -0.4738    1.0000 </r>
       <r>   -0.4647    1.0000 </r>
       <r>   -0.4495    1.0000 </r>
       <r>   -0.4413    1.0000 </r>
       <r>   -0.4191    1.0000 </r>
       <r>   -0.4091    1.0000 </r>
       <r>   -0.4041    1.0000 </r>
       <r>   -0.4007    1.0000 </r>
       <r>   -0.3788    1.0000 </r>
       <r>   -0.3725    1.0000 </r>
       <r>   -0.3581    1.0000 </r>
       <r>   -0.3506    1.0000 </r>
       <r>   -0.3364    1.0000 </r>
       <r>   -0.3206    1.0000 </r>
       <r>   -0.3101    1.0000 </r>
       <r>   -0.3011    1.0000 </r>
       <r>   -0.2862    1.0000 </r>
       <r>   -0.2761    1.0000 </r>
       <r>   -0.2630    1.0000 </r>
       <r>   -0.2356    1.0000 </r>
       <r>   -0.2102    1.0000 </r>
       <r>   -0.2000    1.0000 </r>
       <r>   -0.1896    1.0000 </r>
       <r>   -0.1621    1.0000 </r>
       <r>   -0.1463    1.0000 </r>
       <r>   -0.1330    1.0000 </r>
       <r>   -0.1171    1.0000 </r>
       <r>   -0.0957    1.0000 </r>
       <r>   -0.0751    1.0000 </r>
       <r>   -0.0670    1.0000 </r>
       <r>   -0.0507    1.0000 </r>
       <r>   -0.0273    1.0000 </r>
       <r>   -0.0030    1.0000 </r>
       <r>    0.0124    1.0000 </r>
       <r>    0.0363    1.0000 </r>
       <r>    0.0600    1.0000 </r>
       <r>    0.0739    1.0000 </r>
       <r>    0.0953    1.0000 </r>
       <r>    0.1335    1.0000 </r>
       <r>    0.1456    1.0000 </r>
       <r>    0.1568    1.0000 </r>
       <r>    0.1781    1.0000 </r>
       <r>    0.2069    1.0000 </r>
       <r>    0.2420    1.0000 </r>
       <r>    0.2473    1.0000 </r>
       <r>    0.2819    1.0000 </r>
       <r>    0.3032    1.0000 </r>
       <r>    0.3190    1.0000 </r>
       <r>    0.3363    1.0001 </r>
       <r>    0.3814    1.0003 </r>
       <r>    0.3994    1.0005 </r>
       <r>    0.4246    1.0012 </r>
       <r>    0.4518    1.0025 </r>
       <r>    0.4744    1.0045 </r>
       <r>    0.5020    1.0084 </r>
       <r>    0.5403    1.0173 </r>
       <r>    0.5618    1.0237 </r>
       <r>    0.6101    1.0352 </r>
       <r>    0.6634    1.0128 </r>
       <r>    0.6854    0.9797 </r>
       <r>    0.7325    0.8399 </r>
       <r>    0.7668    0.6804 </r>
       <r>    0.7941    0.5314 </r>
       <r>    0.8589    0.1930 </r>
       <r>    0.8793    0.1133 </r>
       <r>    0.9269   -0.0015 </r>
       <r>    0.9584   -0.0302 </r>
       <r>    0.9911   -0.0351 </r>
       <r>    1.0159   -0.0301 </r>
       <r>    1.0701   -0.0143 </r>
       <r>    1.0830   -0.0113 </r>
       <r>    1.1249   -0.0045 </r>
       <r>    1.1918   -0.0007 </r>
       <r>    1.2144   -0.0003 </r>
       <r>    1.2476   -0.0001 </r>
       <r>    1.2821   -0.0000 </r>
       <r>    1.3157   -0.0000 </r>
       <r>    1.3313   -0.0000 </r>
       <r>    1.3868   -0.0000 </r>
       <r>    1.4328   -0.0000 </r>
       <r>    1.4527   -0.0000 </r>
       <r>    1.5089   -0.0000 </r>
       <r>    1.5243   -0.0000 </r>
       <r>    1.5720   -0.0000 </r>
       <r>    1.6180   -0.0000 </r>
       <r>    1.6426   -0.0000 </r>
       <r>    1.6629   -0.0000 </r>
       <r>    1.7233   -0.0000 </r>
       <r>    1.7532   -0.0000 </r>
       <r>    1.7851   -0.0000 </r>
       <r>    1.8185   -0.0000 </r>
       <r>    1.8533   -0.0000 </r>
       <r>    1.8769   -0.0000 </r>
       <r>    1.9119   -0.0000 </r>
       <r>    1.9495   -0.0000 </r>
       <r>    1.9686   -0.0000 </r>
       <r>    2.0037   -0.0000 </r>
       <r>    2.0275   -0.0000 </r>
       <r>    2.0825   -0.0000 </r>
       <r>    2.0914   -0.0000 </r>
       <r>    2.1392   -0.0000 </r>
       <r>    2.1704   -0.0000 </r>
      </set>
      <set comment="kpoint 10">
       <r>  -42.9797    1.0000 </r>
       <r>  -42.9410    1.0000 </r>
       <r>  -42.9305    1.0000 </r>
       <r>  -42.9055    1.0000 </r>
       <r>  -42.8952    1.0000 </r>
       <r>  -42.8781    1.0000 </r>
       <r>  -42.3806    1.0000 </r>
       <r>  -42.3291    1.0000 </r>
       <r>  -42.2909    1.0000 </r>
       <r>  -42.2519    1.0000 </r>
       <r>  -42.1817    1.0000 </r>
       <r>  -42.1599    1.0000 </r>
       <r>  -42.1196    1.0000 </r>
       <r>  -42.1136    1.0000 </r>
       <r>  -42.0903    1.0000 </r>
       <r>  -42.0220    1.0000 </r>
       <r>  -42.0050    1.0000 </r>
       <r>  -41.9805    1.0000 </r>
       <r>  -41.9644    1.0000 </r>
       <r>  -41.9355    1.0000 </r>
       <r>  -41.9045    1.0000 </r>
       <r>  -41.8842    1.0000 </r>
       <r>  -41.8797    1.0000 </r>
       <r>  -41.8604    1.0000 </r>
       <r>  -41.4891    1.0000 </r>
       <r>  -41.4138    1.0000 </r>
       <r>  -41.3621    1.0000 </r>
       <r>  -41.1445    1.0000 </r>
       <r>  -41.0972    1.0000 </r>
       <r>  -41.0191    1.0000 </r>
       <r>  -40.3794    1.0000 </r>
       <r>  -40.3265    1.0000 </r>
       <r>  -40.3063    1.0000 </r>
       <r>  -40.3055    1.0000 </r>
       <r>  -40.2891    1.0000 </r>
       <r>  -40.2864    1.0000 </r>
       <r>  -40.2437    1.0000 </r>
       <r>  -40.2274    1.0000 </r>
       <r>  -40.2223    1.0000 </r>
       <r>  -40.2182    1.0000 </r>
       <r>  -40.1827    1.0000 </r>
       <r>  -40.1619    1.0000 </r>
       <r>   -6.3551    1.0000 </r>
       <r>   -6.3264    1.0000 </r>
       <r>   -6.2408    1.0000 </r>
       <r>   -6.2157    1.0000 </r>
       <r>   -5.4866    1.0000 </r>
       <r>   -5.4097    1.0000 </r>
       <r>   -5.3709    1.0000 </r>
       <r>   -5.1920    1.0000 </r>
       <r>   -4.3618    1.0000 </r>
       <r>   -4.2743    1.0000 </r>
       <r>   -4.2189    1.0000 </r>
       <r>   -4.0555    1.0000 </r>
       <r>   -4.0005    1.0000 </r>
       <r>   -3.9823    1.0000 </r>
       <r>   -3.8127    1.0000 </r>
       <r>   -3.7926    1.0000 </r>
       <r>   -3.7896    1.0000 </r>
       <r>   -3.7830    1.0000 </r>
       <r>   -3.7715    1.0000 </r>
       <r>   -3.7609    1.0000 </r>
       <r>   -3.7512    1.0000 </r>
       <r>   -3.7360    1.0000 </r>
       <r>   -3.7270    1.0000 </r>
       <r>   -3.7089    1.0000 </r>
       <r>   -3.6834    1.0000 </r>
       <r>   -3.6713    1.0000 </r>
       <r>   -3.6641    1.0000 </r>
       <r>   -3.6300    1.0000 </r>
       <r>   -3.6262    1.0000 </r>
       <r>   -3.6067    1.0000 </r>
       <r>   -3.6006    1.0000 </r>
       <r>   -3.5817    1.0000 </r>
       <r>   -3.5696    1.0000 </r>
       <r>   -3.5585    1.0000 </r>
       <r>   -3.5429    1.0000 </r>
       <r>   -3.5345    1.0000 </r>
       <r>   -3.5136    1.0000 </r>
       <r>   -3.5050    1.0000 </r>
       <r>   -3.4735    1.0000 </r>
       <r>   -3.4675    1.0000 </r>
       <r>   -3.4419    1.0000 </r>
       <r>   -3.4185    1.0000 </r>
       <r>   -3.4057    1.0000 </r>
       <r>   -3.3894    1.0000 </r>
       <r>   -3.3738    1.0000 </r>
       <r>   -3.3556    1.0000 </r>
       <r>   -3.2935    1.0000 </r>
       <r>   -3.2892    1.0000 </r>
       <r>   -3.2423    1.0000 </r>
       <r>   -3.2021    1.0000 </r>
       <r>   -3.1952    1.0000 </r>
       <r>   -3.1523    1.0000 </r>
       <r>   -3.1126    1.0000 </r>
       <r>   -3.1014    1.0000 </r>
       <r>   -3.0700    1.0000 </r>
       <r>   -3.0564    1.0000 </r>
       <r>   -3.0196    1.0000 </r>
       <r>   -3.0069    1.0000 </r>
       <r>   -2.9807    1.0000 </r>
       <r>   -2.9616    1.0000 </r>
       <r>   -2.9547    1.0000 </r>
       <r>   -2.9180    1.0000 </r>
       <r>   -2.8983    1.0000 </r>
       <r>   -2.8714    1.0000 </r>
       <r>   -2.8563    1.0000 </r>
       <r>   -2.8445    1.0000 </r>
       <r>   -2.8135    1.0000 </r>
       <r>   -2.8082    1.0000 </r>
       <r>   -2.7938    1.0000 </r>
       <r>   -2.7777    1.0000 </r>
       <r>   -2.7642    1.0000 </r>
       <r>   -2.7542    1.0000 </r>
       <r>   -2.7213    1.0000 </r>
       <r>   -2.7177    1.0000 </r>
       <r>   -2.7095    1.0000 </r>
       <r>   -2.7008    1.0000 </r>
       <r>   -2.6773    1.0000 </r>
       <r>   -2.6702    1.0000 </r>
       <r>   -2.6557    1.0000 </r>
       <r>   -2.6498    1.0000 </r>
       <r>   -2.6430    1.0000 </r>
       <r>   -2.6242    1.0000 </r>
       <r>   -2.6155    1.0000 </r>
       <r>   -2.6018    1.0000 </r>
       <r>   -2.5745    1.0000 </r>
       <r>   -2.5732    1.0000 </r>
       <r>   -2.5626    1.0000 </r>
       <r>   -2.5498    1.0000 </r>
       <r>   -2.5365    1.0000 </r>
       <r>   -2.5196    1.0000 </r>
       <r>   -2.4938    1.0000 </r>
       <r>   -2.4897    1.0000 </r>
       <r>   -2.4661    1.0000 </r>
       <r>   -2.4558    1.0000 </r>
       <r>   -2.4383    1.0000 </r>
       <r>   -2.4206    1.0000 </r>
       <r>   -2.3915    1.0000 </r>
       <r>   -2.3887    1.0000 </r>
       <r>   -2.3564    1.0000 </r>
       <r>   -2.3416    1.0000 </r>
       <r>   -2.3285    1.0000 </r>
       <r>   -2.3137    1.0000 </r>
       <r>   -2.2943    1.0000 </r>
       <r>   -2.2838    1.0000 </r>
       <r>   -2.2686    1.0000 </r>
       <r>   -2.2639    1.0000 </r>
       <r>   -2.2279    1.0000 </r>
       <r>   -2.2250    1.0000 </r>
       <r>   -2.2123    1.0000 </r>
       <r>   -2.1771    1.0000 </r>
       <r>   -2.1758    1.0000 </r>
       <r>   -2.1593    1.0000 </r>
       <r>   -2.1472    1.0000 </r>
       <r>   -2.1383    1.0000 </r>
       <r>   -2.1179    1.0000 </r>
       <r>   -2.1066    1.0000 </r>
       <r>   -2.0942    1.0000 </r>
       <r>   -2.0927    1.0000 </r>
       <r>   -2.0631    1.0000 </r>
       <r>   -2.0439    1.0000 </r>
       <r>   -2.0390    1.0000 </r>
       <r>   -2.0283    1.0000 </r>
       <r>   -2.0088    1.0000 </r>
       <r>   -1.9956    1.0000 </r>
       <r>   -1.9912    1.0000 </r>
       <r>   -1.9625    1.0000 </r>
       <r>   -1.9563    1.0000 </r>
       <r>   -1.9347    1.0000 </r>
       <r>   -1.9313    1.0000 </r>
       <r>   -1.9015    1.0000 </r>
       <r>   -1.8954    1.0000 </r>
       <r>   -1.8829    1.0000 </r>
       <r>   -1.8692    1.0000 </r>
       <r>   -1.8563    1.0000 </r>
       <r>   -1.8407    1.0000 </r>
       <r>   -1.8299    1.0000 </r>
       <r>   -1.8037    1.0000 </r>
       <r>   -1.8006    1.0000 </r>
       <r>   -1.7823    1.0000 </r>
       <r>   -1.7620    1.0000 </r>
       <r>   -1.7577    1.0000 </r>
       <r>   -1.7463    1.0000 </r>
       <r>   -1.7117    1.0000 </r>
       <r>   -1.6947    1.0000 </r>
       <r>   -1.6744    1.0000 </r>
       <r>   -1.6445    1.0000 </r>
       <r>   -1.6298    1.0000 </r>
       <r>   -1.6003    1.0000 </r>
       <r>   -1.5835    1.0000 </r>
       <r>   -1.5674    1.0000 </r>
       <r>   -1.5619    1.0000 </r>
       <r>   -1.5334    1.0000 </r>
       <r>   -1.5249    1.0000 </r>
       <r>   -1.5140    1.0000 </r>
       <r>   -1.4862    1.0000 </r>
       <r>   -1.4672    1.0000 </r>
       <r>   -1.4484    1.0000 </r>
       <r>   -1.4124    1.0000 </r>
       <r>   -1.3845    1.0000 </r>
       <r>   -1.3558    1.0000 </r>
       <r>   -1.3395    1.0000 </r>
       <r>   -1.3090    1.0000 </r>
       <r>   -1.3013    1.0000 </r>
       <r>   -1.2733    1.0000 </r>
       <r>   -1.2581    1.0000 </r>
       <r>   -1.2246    1.0000 </r>
       <r>   -1.2082    1.0000 </r>
       <r>   -1.2066    1.0000 </r>
       <r>   -1.1640    1.0000 </r>
       <r>   -1.1372    1.0000 </r>
       <r>   -1.1277    1.0000 </r>
       <r>   -1.1254    1.0000 </r>
       <r>   -1.0963    1.0000 </r>
       <r>   -1.0738    1.0000 </r>
       <r>   -1.0504    1.0000 </r>
       <r>   -1.0274    1.0000 </r>
       <r>   -1.0036    1.0000 </r>
       <r>   -0.9809    1.0000 </r>
       <r>   -0.9620    1.0000 </r>
       <r>   -0.9344    1.0000 </r>
       <r>   -0.9220    1.0000 </r>
       <r>   -0.9048    1.0000 </r>
       <r>   -0.8870    1.0000 </r>
       <r>   -0.8810    1.0000 </r>
       <r>   -0.8663    1.0000 </r>
       <r>   -0.8466    1.0000 </r>
       <r>   -0.8313    1.0000 </r>
       <r>   -0.8174    1.0000 </r>
       <r>   -0.7954    1.0000 </r>
       <r>   -0.7880    1.0000 </r>
       <r>   -0.7798    1.0000 </r>
       <r>   -0.7625    1.0000 </r>
       <r>   -0.7461    1.0000 </r>
       <r>   -0.7318    1.0000 </r>
       <r>   -0.7232    1.0000 </r>
       <r>   -0.7050    1.0000 </r>
       <r>   -0.6888    1.0000 </r>
       <r>   -0.6660    1.0000 </r>
       <r>   -0.6581    1.0000 </r>
       <r>   -0.6505    1.0000 </r>
       <r>   -0.6428    1.0000 </r>
       <r>   -0.6310    1.0000 </r>
       <r>   -0.6132    1.0000 </r>
       <r>   -0.6005    1.0000 </r>
       <r>   -0.5940    1.0000 </r>
       <r>   -0.5768    1.0000 </r>
       <r>   -0.5708    1.0000 </r>
       <r>   -0.5670    1.0000 </r>
       <r>   -0.5586    1.0000 </r>
       <r>   -0.5585    1.0000 </r>
       <r>   -0.5438    1.0000 </r>
       <r>   -0.5401    1.0000 </r>
       <r>   -0.5304    1.0000 </r>
       <r>   -0.5154    1.0000 </r>
       <r>   -0.5042    1.0000 </r>
       <r>   -0.4850    1.0000 </r>
       <r>   -0.4824    1.0000 </r>
       <r>   -0.4724    1.0000 </r>
       <r>   -0.4581    1.0000 </r>
       <r>   -0.4533    1.0000 </r>
       <r>   -0.4461    1.0000 </r>
       <r>   -0.4321    1.0000 </r>
       <r>   -0.4266    1.0000 </r>
       <r>   -0.4257    1.0000 </r>
       <r>   -0.4129    1.0000 </r>
       <r>   -0.4116    1.0000 </r>
       <r>   -0.3826    1.0000 </r>
       <r>   -0.3716    1.0000 </r>
       <r>   -0.3622    1.0000 </r>
       <r>   -0.3596    1.0000 </r>
       <r>   -0.3543    1.0000 </r>
       <r>   -0.3361    1.0000 </r>
       <r>   -0.3167    1.0000 </r>
       <r>   -0.3034    1.0000 </r>
       <r>   -0.2943    1.0000 </r>
       <r>   -0.2780    1.0000 </r>
       <r>   -0.2695    1.0000 </r>
       <r>   -0.2446    1.0000 </r>
       <r>   -0.2376    1.0000 </r>
       <r>   -0.2299    1.0000 </r>
       <r>   -0.2057    1.0000 </r>
       <r>   -0.1963    1.0000 </r>
       <r>   -0.1747    1.0000 </r>
       <r>   -0.1468    1.0000 </r>
       <r>   -0.1311    1.0000 </r>
       <r>   -0.1236    1.0000 </r>
       <r>   -0.1095    1.0000 </r>
       <r>   -0.0890    1.0000 </r>
       <r>   -0.0648    1.0000 </r>
       <r>   -0.0570    1.0000 </r>
       <r>   -0.0347    1.0000 </r>
       <r>    0.0006    1.0000 </r>
       <r>    0.0041    1.0000 </r>
       <r>    0.0292    1.0000 </r>
       <r>    0.0359    1.0000 </r>
       <r>    0.0619    1.0000 </r>
       <r>    0.0929    1.0000 </r>
       <r>    0.1022    1.0000 </r>
       <r>    0.1498    1.0000 </r>
       <r>    0.1550    1.0000 </r>
       <r>    0.1693    1.0000 </r>
       <r>    0.2005    1.0000 </r>
       <r>    0.2154    1.0000 </r>
       <r>    0.2623    1.0000 </r>
       <r>    0.2690    1.0000 </r>
       <r>    0.3002    1.0000 </r>
       <r>    0.3158    1.0000 </r>
       <r>    0.3441    1.0001 </r>
       <r>    0.3793    1.0003 </r>
       <r>    0.3938    1.0004 </r>
       <r>    0.4344    1.0015 </r>
       <r>    0.4384    1.0017 </r>
       <r>    0.4898    1.0064 </r>
       <r>    0.5115    1.0102 </r>
       <r>    0.5690    1.0260 </r>
       <r>    0.5918    1.0323 </r>
       <r>    0.6248    1.0349 </r>
       <r>    0.6628    1.0134 </r>
       <r>    0.7217    0.8807 </r>
       <r>    0.7882    0.5646 </r>
       <r>    0.8024    0.4846 </r>
       <r>    0.8244    0.3623 </r>
       <r>    0.8577    0.1981 </r>
       <r>    0.8678    0.1562 </r>
       <r>    0.9162    0.0160 </r>
       <r>    0.9526   -0.0271 </r>
       <r>    0.9989   -0.0340 </r>
       <r>    1.0143   -0.0306 </r>
       <r>    1.0482   -0.0205 </r>
       <r>    1.1009   -0.0078 </r>
       <r>    1.1455   -0.0026 </r>
       <r>    1.1708   -0.0013 </r>
       <r>    1.1819   -0.0009 </r>
       <r>    1.2362   -0.0002 </r>
       <r>    1.2859   -0.0000 </r>
       <r>    1.3244   -0.0000 </r>
       <r>    1.3627   -0.0000 </r>
       <r>    1.3756   -0.0000 </r>
       <r>    1.3973   -0.0000 </r>
       <r>    1.4527   -0.0000 </r>
       <r>    1.5131   -0.0000 </r>
       <r>    1.5547   -0.0000 </r>
       <r>    1.6063   -0.0000 </r>
       <r>    1.6684   -0.0000 </r>
       <r>    1.6830   -0.0000 </r>
       <r>    1.7229   -0.0000 </r>
       <r>    1.7482   -0.0000 </r>
       <r>    1.7723   -0.0000 </r>
       <r>    1.7865   -0.0000 </r>
       <r>    1.8076   -0.0000 </r>
       <r>    1.8491   -0.0000 </r>
       <r>    1.8730   -0.0000 </r>
       <r>    1.9033   -0.0000 </r>
       <r>    1.9551   -0.0000 </r>
       <r>    1.9769   -0.0000 </r>
       <r>    1.9927   -0.0000 </r>
       <r>    2.0710   -0.0000 </r>
       <r>    2.0956   -0.0000 </r>
       <r>    2.1157   -0.0000 </r>
       <r>    2.1463   -0.0000 </r>
       <r>    2.1727   -0.0000 </r>
      </set>
     </set>
     <set comment="spin 2">
      <set comment="kpoint 1">
       <r>  -43.5307    1.0000 </r>
       <r>  -43.5273    1.0000 </r>
       <r>  -43.5105    1.0000 </r>
       <r>  -43.5022    1.0000 </r>
       <r>  -43.4997    1.0000 </r>
       <r>  -43.4825    1.0000 </r>
       <r>  -43.4770    1.0000 </r>
       <r>  -43.4702    1.0000 </r>
       <r>  -43.4566    1.0000 </r>
       <r>  -43.4505    1.0000 </r>
       <r>  -43.4416    1.0000 </r>
       <r>  -43.4338    1.0000 </r>
       <r>  -43.4211    1.0000 </r>
       <r>  -43.4191    1.0000 </r>
       <r>  -43.4096    1.0000 </r>
       <r>  -43.3459    1.0000 </r>
       <r>  -43.3167    1.0000 </r>
       <r>  -43.2993    1.0000 </r>
       <r>  -43.2538    1.0000 </r>
       <r>  -43.1924    1.0000 </r>
       <r>  -43.1763    1.0000 </r>
       <r>  -43.1717    1.0000 </r>
       <r>  -43.1173    1.0000 </r>
       <r>  -42.9702    1.0000 </r>
       <r>  -42.9664    1.0000 </r>
       <r>  -42.9523    1.0000 </r>
       <r>  -42.8238    1.0000 </r>
       <r>  -42.7841    1.0000 </r>
       <r>  -42.7721    1.0000 </r>
       <r>  -42.6752    1.0000 </r>
       <r>  -42.6120    1.0000 </r>
       <r>  -42.4695    1.0000 </r>
       <r>  -42.3736    1.0000 </r>
       <r>  -42.3100    1.0000 </r>
       <r>  -42.1829    1.0000 </r>
       <r>  -42.0079    1.0000 </r>
       <r>  -39.8884    1.0000 </r>
       <r>  -39.8061    1.0000 </r>
       <r>  -39.7988    1.0000 </r>
       <r>  -39.7278    1.0000 </r>
       <r>  -39.6747    1.0000 </r>
       <r>  -39.6159    1.0000 </r>
       <r>   -7.2674    1.0000 </r>
       <r>   -6.2739    1.0000 </r>
       <r>   -5.2324    1.0000 </r>
       <r>   -5.1904    1.0000 </r>
       <r>   -5.1813    1.0000 </r>
       <r>   -5.1413    1.0000 </r>
       <r>   -4.8579    1.0000 </r>
       <r>   -4.4955    1.0000 </r>
       <r>   -4.4466    1.0000 </r>
       <r>   -4.4002    1.0000 </r>
       <r>   -4.3627    1.0000 </r>
       <r>   -3.8365    1.0000 </r>
       <r>   -3.7770    1.0000 </r>
       <r>   -3.7436    1.0000 </r>
       <r>   -3.7386    1.0000 </r>
       <r>   -3.6145    1.0000 </r>
       <r>   -3.5780    1.0000 </r>
       <r>   -3.5589    1.0000 </r>
       <r>   -3.5267    1.0000 </r>
       <r>   -3.3458    1.0000 </r>
       <r>   -3.0297    1.0000 </r>
       <r>   -3.0267    1.0000 </r>
       <r>   -2.9950    1.0000 </r>
       <r>   -2.9508    1.0000 </r>
       <r>   -2.9392    1.0000 </r>
       <r>   -2.8728    1.0000 </r>
       <r>   -2.8637    1.0000 </r>
       <r>   -2.8445    1.0000 </r>
       <r>   -2.7703    1.0000 </r>
       <r>   -2.6420    1.0000 </r>
       <r>   -2.5983    1.0000 </r>
       <r>   -2.5510    1.0000 </r>
       <r>   -2.5083    1.0000 </r>
       <r>   -2.4900    1.0000 </r>
       <r>   -2.4640    1.0000 </r>
       <r>   -2.4268    1.0000 </r>
       <r>   -2.3964    1.0000 </r>
       <r>   -2.3577    1.0000 </r>
       <r>   -2.3481    1.0000 </r>
       <r>   -2.3096    1.0000 </r>
       <r>   -2.2754    1.0000 </r>
       <r>   -2.2575    1.0000 </r>
       <r>   -2.2445    1.0000 </r>
       <r>   -2.2155    1.0000 </r>
       <r>   -2.1788    1.0000 </r>
       <r>   -2.1643    1.0000 </r>
       <r>   -2.1466    1.0000 </r>
       <r>   -2.1247    1.0000 </r>
       <r>   -2.0889    1.0000 </r>
       <r>   -2.0580    1.0000 </r>
       <r>   -2.0209    1.0000 </r>
       <r>   -1.9764    1.0000 </r>
       <r>   -1.9699    1.0000 </r>
       <r>   -1.8983    1.0000 </r>
       <r>   -1.8871    1.0000 </r>
       <r>   -1.8709    1.0000 </r>
       <r>   -1.8100    1.0000 </r>
       <r>   -1.7800    1.0000 </r>
       <r>   -1.7465    1.0000 </r>
       <r>   -1.7270    1.0000 </r>
       <r>   -1.6935    1.0000 </r>
       <r>   -1.6771    1.0000 </r>
       <r>   -1.6699    1.0000 </r>
       <r>   -1.6329    1.0000 </r>
       <r>   -1.6296    1.0000 </r>
       <r>   -1.6016    1.0000 </r>
       <r>   -1.5883    1.0000 </r>
       <r>   -1.5660    1.0000 </r>
       <r>   -1.5632    1.0000 </r>
       <r>   -1.5423    1.0000 </r>
       <r>   -1.5203    1.0000 </r>
       <r>   -1.4789    1.0000 </r>
       <r>   -1.4691    1.0000 </r>
       <r>   -1.4553    1.0000 </r>
       <r>   -1.4399    1.0000 </r>
       <r>   -1.4307    1.0000 </r>
       <r>   -1.4178    1.0000 </r>
       <r>   -1.3984    1.0000 </r>
       <r>   -1.3728    1.0000 </r>
       <r>   -1.3627    1.0000 </r>
       <r>   -1.3489    1.0000 </r>
       <r>   -1.3194    1.0000 </r>
       <r>   -1.2801    1.0000 </r>
       <r>   -1.2688    1.0000 </r>
       <r>   -1.2560    1.0000 </r>
       <r>   -1.2482    1.0000 </r>
       <r>   -1.2319    1.0000 </r>
       <r>   -1.2228    1.0000 </r>
       <r>   -1.1920    1.0000 </r>
       <r>   -1.1802    1.0000 </r>
       <r>   -1.1585    1.0000 </r>
       <r>   -1.1447    1.0000 </r>
       <r>   -1.1307    1.0000 </r>
       <r>   -1.1258    1.0000 </r>
       <r>   -1.0887    1.0000 </r>
       <r>   -1.0756    1.0000 </r>
       <r>   -1.0695    1.0000 </r>
       <r>   -1.0439    1.0000 </r>
       <r>   -1.0386    1.0000 </r>
       <r>   -1.0196    1.0000 </r>
       <r>   -1.0088    1.0000 </r>
       <r>   -0.9927    1.0000 </r>
       <r>   -0.9755    1.0000 </r>
       <r>   -0.9600    1.0000 </r>
       <r>   -0.9278    1.0000 </r>
       <r>   -0.9166    1.0000 </r>
       <r>   -0.8896    1.0000 </r>
       <r>   -0.8737    1.0000 </r>
       <r>   -0.8685    1.0000 </r>
       <r>   -0.8555    1.0000 </r>
       <r>   -0.8392    1.0000 </r>
       <r>   -0.8251    1.0000 </r>
       <r>   -0.8086    1.0000 </r>
       <r>   -0.8036    1.0000 </r>
       <r>   -0.7716    1.0000 </r>
       <r>   -0.7674    1.0000 </r>
       <r>   -0.7583    1.0000 </r>
       <r>   -0.7357    1.0000 </r>
       <r>   -0.7193    1.0000 </r>
       <r>   -0.7040    1.0000 </r>
       <r>   -0.6837    1.0000 </r>
       <r>   -0.6795    1.0000 </r>
       <r>   -0.6341    1.0000 </r>
       <r>   -0.6144    1.0000 </r>
       <r>   -0.5804    1.0000 </r>
       <r>   -0.5725    1.0000 </r>
       <r>   -0.5573    1.0000 </r>
       <r>   -0.5152    1.0000 </r>
       <r>   -0.5002    1.0000 </r>
       <r>   -0.4870    1.0000 </r>
       <r>   -0.4663    1.0000 </r>
       <r>   -0.4562    1.0000 </r>
       <r>   -0.4462    1.0000 </r>
       <r>   -0.4120    1.0000 </r>
       <r>   -0.3915    1.0000 </r>
       <r>   -0.3697    1.0000 </r>
       <r>   -0.3506    1.0000 </r>
       <r>   -0.3484    1.0000 </r>
       <r>   -0.3289    1.0000 </r>
       <r>   -0.3091    1.0000 </r>
       <r>   -0.2827    1.0000 </r>
       <r>   -0.2567    1.0000 </r>
       <r>   -0.2384    1.0000 </r>
       <r>   -0.2245    1.0000 </r>
       <r>   -0.1822    1.0000 </r>
       <r>   -0.1558    1.0000 </r>
       <r>   -0.1112    1.0000 </r>
       <r>   -0.1023    1.0000 </r>
       <r>   -0.0969    1.0000 </r>
       <r>   -0.0676    1.0000 </r>
       <r>   -0.0508    1.0000 </r>
       <r>   -0.0390    1.0000 </r>
       <r>   -0.0138    1.0000 </r>
       <r>    0.0003    1.0000 </r>
       <r>    0.0328    1.0000 </r>
       <r>    0.0634    1.0000 </r>
       <r>    0.0709    1.0000 </r>
       <r>    0.0848    1.0000 </r>
       <r>    0.1054    1.0000 </r>
       <r>    0.1221    1.0000 </r>
       <r>    0.1450    1.0000 </r>
       <r>    0.1691    1.0000 </r>
       <r>    0.1835    1.0000 </r>
       <r>    0.1913    1.0000 </r>
       <r>    0.1993    1.0000 </r>
       <r>    0.2149    1.0000 </r>
       <r>    0.2486    1.0000 </r>
       <r>    0.2880    1.0000 </r>
       <r>    0.2981    1.0000 </r>
       <r>    0.3368    1.0001 </r>
       <r>    0.3612    1.0001 </r>
       <r>    0.3946    1.0005 </r>
       <r>    0.3980    1.0005 </r>
       <r>    0.4053    1.0006 </r>
       <r>    0.4449    1.0021 </r>
       <r>    0.4589    1.0030 </r>
       <r>    0.4961    1.0074 </r>
       <r>    0.5139    1.0107 </r>
       <r>    0.5485    1.0197 </r>
       <r>    0.5676    1.0255 </r>
       <r>    0.5966    1.0333 </r>
       <r>    0.6310    1.0337 </r>
       <r>    0.6476    1.0265 </r>
       <r>    0.6871    0.9762 </r>
       <r>    0.7584    0.7235 </r>
       <r>    0.7670    0.6796 </r>
       <r>    0.8142    0.4182 </r>
       <r>    0.8255    0.3565 </r>
       <r>    0.8838    0.0982 </r>
       <r>    0.8891    0.0815 </r>
       <r>    0.9251    0.0012 </r>
       <r>    0.9485   -0.0243 </r>
       <r>    0.9544   -0.0281 </r>
       <r>    0.9784   -0.0353 </r>
       <r>    0.9935   -0.0348 </r>
       <r>    1.0140   -0.0307 </r>
       <r>    1.0380   -0.0236 </r>
       <r>    1.0543   -0.0187 </r>
       <r>    1.0761   -0.0128 </r>
       <r>    1.1054   -0.0071 </r>
       <r>    1.1142   -0.0058 </r>
       <r>    1.1319   -0.0038 </r>
       <r>    1.1497   -0.0024 </r>
       <r>    1.1672   -0.0014 </r>
       <r>    1.1815   -0.0009 </r>
       <r>    1.2005   -0.0005 </r>
       <r>    1.2233   -0.0002 </r>
       <r>    1.2246   -0.0002 </r>
       <r>    1.2362   -0.0002 </r>
       <r>    1.2444   -0.0001 </r>
       <r>    1.2591   -0.0001 </r>
       <r>    1.2753   -0.0000 </r>
       <r>    1.2991   -0.0000 </r>
       <r>    1.3313   -0.0000 </r>
       <r>    1.3467   -0.0000 </r>
       <r>    1.3524   -0.0000 </r>
       <r>    1.3599   -0.0000 </r>
       <r>    1.3740   -0.0000 </r>
       <r>    1.4061   -0.0000 </r>
       <r>    1.4323   -0.0000 </r>
       <r>    1.4381   -0.0000 </r>
       <r>    1.4726   -0.0000 </r>
       <r>    1.4965   -0.0000 </r>
       <r>    1.5090   -0.0000 </r>
       <r>    1.5341   -0.0000 </r>
       <r>    1.5615   -0.0000 </r>
       <r>    1.5702   -0.0000 </r>
       <r>    1.5901   -0.0000 </r>
       <r>    1.5982   -0.0000 </r>
       <r>    1.6204   -0.0000 </r>
       <r>    1.6248   -0.0000 </r>
       <r>    1.6387   -0.0000 </r>
       <r>    1.6608   -0.0000 </r>
       <r>    1.6748   -0.0000 </r>
       <r>    1.6841   -0.0000 </r>
       <r>    1.6966   -0.0000 </r>
       <r>    1.7077   -0.0000 </r>
       <r>    1.7482   -0.0000 </r>
       <r>    1.7637   -0.0000 </r>
       <r>    1.7728   -0.0000 </r>
       <r>    1.7863   -0.0000 </r>
       <r>    1.8300   -0.0000 </r>
       <r>    1.8334   -0.0000 </r>
       <r>    1.8397   -0.0000 </r>
       <r>    1.8575   -0.0000 </r>
       <r>    1.8735   -0.0000 </r>
       <r>    1.8815   -0.0000 </r>
       <r>    1.8909   -0.0000 </r>
       <r>    1.9020   -0.0000 </r>
       <r>    1.9197   -0.0000 </r>
       <r>    1.9338   -0.0000 </r>
       <r>    1.9516   -0.0000 </r>
       <r>    1.9594   -0.0000 </r>
       <r>    1.9687   -0.0000 </r>
       <r>    1.9740   -0.0000 </r>
       <r>    1.9909   -0.0000 </r>
       <r>    2.0086   -0.0000 </r>
       <r>    2.0204   -0.0000 </r>
       <r>    2.0359   -0.0000 </r>
       <r>    2.0424   -0.0000 </r>
       <r>    2.0452   -0.0000 </r>
       <r>    2.0696   -0.0000 </r>
       <r>    2.0762   -0.0000 </r>
       <r>    2.0862   -0.0000 </r>
       <r>    2.0958   -0.0000 </r>
       <r>    2.1073   -0.0000 </r>
       <r>    2.1265   -0.0000 </r>
       <r>    2.1315   -0.0000 </r>
       <r>    2.1401   -0.0000 </r>
       <r>    2.1438   -0.0000 </r>
       <r>    2.1552   -0.0000 </r>
       <r>    2.1642   -0.0000 </r>
       <r>    2.1679   -0.0000 </r>
       <r>    2.1890   -0.0000 </r>
       <r>    2.1971   -0.0000 </r>
       <r>    2.2061   -0.0000 </r>
       <r>    2.2088   -0.0000 </r>
       <r>    2.2260   -0.0000 </r>
       <r>    2.2318   -0.0000 </r>
       <r>    2.2392   -0.0000 </r>
       <r>    2.2504   -0.0000 </r>
       <r>    2.2577   -0.0000 </r>
       <r>    2.2684   -0.0000 </r>
       <r>    2.2739   -0.0000 </r>
       <r>    2.2826   -0.0000 </r>
       <r>    2.2936   -0.0000 </r>
       <r>    2.2970   -0.0000 </r>
       <r>    2.3090   -0.0000 </r>
       <r>    2.3239   -0.0000 </r>
       <r>    2.3279   -0.0000 </r>
       <r>    2.3323   -0.0000 </r>
       <r>    2.3437   -0.0000 </r>
       <r>    2.3597   -0.0000 </r>
       <r>    2.3720   -0.0000 </r>
       <r>    2.3808   -0.0000 </r>
       <r>    2.4216   -0.0000 </r>
       <r>    2.4265   -0.0000 </r>
       <r>    2.4309   -0.0000 </r>
       <r>    2.4436   -0.0000 </r>
       <r>    2.4639   -0.0000 </r>
       <r>    2.4668   -0.0000 </r>
       <r>    2.4751   -0.0000 </r>
       <r>    2.4858   -0.0000 </r>
       <r>    2.5014   -0.0000 </r>
       <r>    2.5081   -0.0000 </r>
       <r>    2.5268   -0.0000 </r>
       <r>    2.5322   -0.0000 </r>
       <r>    2.5380   -0.0000 </r>
       <r>    2.5519   -0.0000 </r>
       <r>    2.5796   -0.0000 </r>
       <r>    2.6318   -0.0000 </r>
       <r>    2.6454   -0.0000 </r>
       <r>    2.6698   -0.0000 </r>
       <r>    2.6930   -0.0000 </r>
       <r>    2.7141   -0.0000 </r>
       <r>    2.7595   -0.0000 </r>
       <r>    2.7936   -0.0000 </r>
       <r>    2.8030   -0.0000 </r>
       <r>    2.8057   -0.0000 </r>
       <r>    2.8224   -0.0000 </r>
       <r>    2.8887   -0.0000 </r>
      </set>
      <set comment="kpoint 2">
       <r>  -43.5307    1.0000 </r>
       <r>  -43.5273    1.0000 </r>
       <r>  -43.5105    1.0000 </r>
       <r>  -43.5022    1.0000 </r>
       <r>  -43.4997    1.0000 </r>
       <r>  -43.4825    1.0000 </r>
       <r>  -43.4770    1.0000 </r>
       <r>  -43.4701    1.0000 </r>
       <r>  -43.4566    1.0000 </r>
       <r>  -43.4505    1.0000 </r>
       <r>  -43.4415    1.0000 </r>
       <r>  -43.4338    1.0000 </r>
       <r>  -43.4211    1.0000 </r>
       <r>  -43.4191    1.0000 </r>
       <r>  -43.4096    1.0000 </r>
       <r>  -43.3459    1.0000 </r>
       <r>  -43.3167    1.0000 </r>
       <r>  -43.2993    1.0000 </r>
       <r>  -43.2538    1.0000 </r>
       <r>  -43.1923    1.0000 </r>
       <r>  -43.1763    1.0000 </r>
       <r>  -43.1717    1.0000 </r>
       <r>  -43.1173    1.0000 </r>
       <r>  -42.9702    1.0000 </r>
       <r>  -42.9664    1.0000 </r>
       <r>  -42.9523    1.0000 </r>
       <r>  -42.8238    1.0000 </r>
       <r>  -42.7841    1.0000 </r>
       <r>  -42.7721    1.0000 </r>
       <r>  -42.6752    1.0000 </r>
       <r>  -42.6120    1.0000 </r>
       <r>  -42.4694    1.0000 </r>
       <r>  -42.3736    1.0000 </r>
       <r>  -42.3100    1.0000 </r>
       <r>  -42.1829    1.0000 </r>
       <r>  -42.0079    1.0000 </r>
       <r>  -39.8884    1.0000 </r>
       <r>  -39.8061    1.0000 </r>
       <r>  -39.7988    1.0000 </r>
       <r>  -39.7278    1.0000 </r>
       <r>  -39.6746    1.0000 </r>
       <r>  -39.6159    1.0000 </r>
       <r>   -7.1249    1.0000 </r>
       <r>   -6.1517    1.0000 </r>
       <r>   -6.0275    1.0000 </r>
       <r>   -5.1670    1.0000 </r>
       <r>   -5.0760    1.0000 </r>
       <r>   -5.0647    1.0000 </r>
       <r>   -4.7390    1.0000 </r>
       <r>   -4.3531    1.0000 </r>
       <r>   -4.3082    1.0000 </r>
       <r>   -4.2814    1.0000 </r>
       <r>   -4.2486    1.0000 </r>
       <r>   -4.2134    1.0000 </r>
       <r>   -3.9647    1.0000 </r>
       <r>   -3.7347    1.0000 </r>
       <r>   -3.5493    1.0000 </r>
       <r>   -3.5003    1.0000 </r>
       <r>   -3.4432    1.0000 </r>
       <r>   -3.4209    1.0000 </r>
       <r>   -3.3660    1.0000 </r>
       <r>   -3.3484    1.0000 </r>
       <r>   -3.2787    1.0000 </r>
       <r>   -3.2107    1.0000 </r>
       <r>   -3.0010    1.0000 </r>
       <r>   -2.9415    1.0000 </r>
       <r>   -2.8759    1.0000 </r>
       <r>   -2.8500    1.0000 </r>
       <r>   -2.7742    1.0000 </r>
       <r>   -2.7340    1.0000 </r>
       <r>   -2.6967    1.0000 </r>
       <r>   -2.6692    1.0000 </r>
       <r>   -2.6532    1.0000 </r>
       <r>   -2.6005    1.0000 </r>
       <r>   -2.5742    1.0000 </r>
       <r>   -2.5572    1.0000 </r>
       <r>   -2.5116    1.0000 </r>
       <r>   -2.4794    1.0000 </r>
       <r>   -2.4465    1.0000 </r>
       <r>   -2.4068    1.0000 </r>
       <r>   -2.3558    1.0000 </r>
       <r>   -2.3228    1.0000 </r>
       <r>   -2.2868    1.0000 </r>
       <r>   -2.2501    1.0000 </r>
       <r>   -2.2321    1.0000 </r>
       <r>   -2.2054    1.0000 </r>
       <r>   -2.1836    1.0000 </r>
       <r>   -2.1637    1.0000 </r>
       <r>   -2.1454    1.0000 </r>
       <r>   -2.1067    1.0000 </r>
       <r>   -2.1002    1.0000 </r>
       <r>   -2.0691    1.0000 </r>
       <r>   -2.0381    1.0000 </r>
       <r>   -2.0028    1.0000 </r>
       <r>   -1.9856    1.0000 </r>
       <r>   -1.9664    1.0000 </r>
       <r>   -1.9221    1.0000 </r>
       <r>   -1.9045    1.0000 </r>
       <r>   -1.8727    1.0000 </r>
       <r>   -1.8341    1.0000 </r>
       <r>   -1.7821    1.0000 </r>
       <r>   -1.7533    1.0000 </r>
       <r>   -1.7317    1.0000 </r>
       <r>   -1.7067    1.0000 </r>
       <r>   -1.6971    1.0000 </r>
       <r>   -1.6665    1.0000 </r>
       <r>   -1.6503    1.0000 </r>
       <r>   -1.6421    1.0000 </r>
       <r>   -1.6226    1.0000 </r>
       <r>   -1.5934    1.0000 </r>
       <r>   -1.5678    1.0000 </r>
       <r>   -1.5547    1.0000 </r>
       <r>   -1.5298    1.0000 </r>
       <r>   -1.5147    1.0000 </r>
       <r>   -1.4897    1.0000 </r>
       <r>   -1.4599    1.0000 </r>
       <r>   -1.4428    1.0000 </r>
       <r>   -1.4106    1.0000 </r>
       <r>   -1.3880    1.0000 </r>
       <r>   -1.3648    1.0000 </r>
       <r>   -1.3545    1.0000 </r>
       <r>   -1.3284    1.0000 </r>
       <r>   -1.3148    1.0000 </r>
       <r>   -1.3050    1.0000 </r>
       <r>   -1.2899    1.0000 </r>
       <r>   -1.2709    1.0000 </r>
       <r>   -1.2521    1.0000 </r>
       <r>   -1.2451    1.0000 </r>
       <r>   -1.2249    1.0000 </r>
       <r>   -1.2125    1.0000 </r>
       <r>   -1.1766    1.0000 </r>
       <r>   -1.1642    1.0000 </r>
       <r>   -1.1469    1.0000 </r>
       <r>   -1.1353    1.0000 </r>
       <r>   -1.1225    1.0000 </r>
       <r>   -1.1065    1.0000 </r>
       <r>   -1.0951    1.0000 </r>
       <r>   -1.0731    1.0000 </r>
       <r>   -1.0490    1.0000 </r>
       <r>   -1.0380    1.0000 </r>
       <r>   -1.0302    1.0000 </r>
       <r>   -1.0072    1.0000 </r>
       <r>   -0.9865    1.0000 </r>
       <r>   -0.9825    1.0000 </r>
       <r>   -0.9630    1.0000 </r>
       <r>   -0.9330    1.0000 </r>
       <r>   -0.9163    1.0000 </r>
       <r>   -0.9090    1.0000 </r>
       <r>   -0.9033    1.0000 </r>
       <r>   -0.8687    1.0000 </r>
       <r>   -0.8557    1.0000 </r>
       <r>   -0.8478    1.0000 </r>
       <r>   -0.8157    1.0000 </r>
       <r>   -0.8085    1.0000 </r>
       <r>   -0.7927    1.0000 </r>
       <r>   -0.7795    1.0000 </r>
       <r>   -0.7587    1.0000 </r>
       <r>   -0.7460    1.0000 </r>
       <r>   -0.7175    1.0000 </r>
       <r>   -0.7070    1.0000 </r>
       <r>   -0.6895    1.0000 </r>
       <r>   -0.6605    1.0000 </r>
       <r>   -0.6437    1.0000 </r>
       <r>   -0.6260    1.0000 </r>
       <r>   -0.6049    1.0000 </r>
       <r>   -0.5740    1.0000 </r>
       <r>   -0.5634    1.0000 </r>
       <r>   -0.5580    1.0000 </r>
       <r>   -0.5324    1.0000 </r>
       <r>   -0.5099    1.0000 </r>
       <r>   -0.4975    1.0000 </r>
       <r>   -0.4771    1.0000 </r>
       <r>   -0.4553    1.0000 </r>
       <r>   -0.4442    1.0000 </r>
       <r>   -0.4388    1.0000 </r>
       <r>   -0.3996    1.0000 </r>
       <r>   -0.3955    1.0000 </r>
       <r>   -0.3742    1.0000 </r>
       <r>   -0.3534    1.0000 </r>
       <r>   -0.3404    1.0000 </r>
       <r>   -0.3197    1.0000 </r>
       <r>   -0.3095    1.0000 </r>
       <r>   -0.2827    1.0000 </r>
       <r>   -0.2714    1.0000 </r>
       <r>   -0.2537    1.0000 </r>
       <r>   -0.2410    1.0000 </r>
       <r>   -0.2095    1.0000 </r>
       <r>   -0.1972    1.0000 </r>
       <r>   -0.1916    1.0000 </r>
       <r>   -0.1410    1.0000 </r>
       <r>   -0.1225    1.0000 </r>
       <r>   -0.1135    1.0000 </r>
       <r>   -0.0887    1.0000 </r>
       <r>   -0.0673    1.0000 </r>
       <r>   -0.0557    1.0000 </r>
       <r>   -0.0343    1.0000 </r>
       <r>   -0.0243    1.0000 </r>
       <r>    0.0108    1.0000 </r>
       <r>    0.0210    1.0000 </r>
       <r>    0.0412    1.0000 </r>
       <r>    0.0701    1.0000 </r>
       <r>    0.0797    1.0000 </r>
       <r>    0.1197    1.0000 </r>
       <r>    0.1471    1.0000 </r>
       <r>    0.1651    1.0000 </r>
       <r>    0.1954    1.0000 </r>
       <r>    0.2096    1.0000 </r>
       <r>    0.2273    1.0000 </r>
       <r>    0.2620    1.0000 </r>
       <r>    0.2719    1.0000 </r>
       <r>    0.2983    1.0000 </r>
       <r>    0.3289    1.0000 </r>
       <r>    0.3438    1.0001 </r>
       <r>    0.3735    1.0002 </r>
       <r>    0.3909    1.0004 </r>
       <r>    0.4215    1.0011 </r>
       <r>    0.4375    1.0017 </r>
       <r>    0.4743    1.0045 </r>
       <r>    0.4810    1.0052 </r>
       <r>    0.5257    1.0134 </r>
       <r>    0.5359    1.0161 </r>
       <r>    0.5644    1.0245 </r>
       <r>    0.6281    1.0343 </r>
       <r>    0.6465    1.0272 </r>
       <r>    0.6741    0.9989 </r>
       <r>    0.7111    0.9155 </r>
       <r>    0.7305    0.8478 </r>
       <r>    0.7511    0.7587 </r>
       <r>    0.7939    0.5322 </r>
       <r>    0.8492    0.2367 </r>
       <r>    0.8649    0.1678 </r>
       <r>    0.9021    0.0461 </r>
       <r>    0.9298   -0.0054 </r>
       <r>    0.9570   -0.0295 </r>
       <r>    0.9809   -0.0354 </r>
       <r>    1.0036   -0.0331 </r>
       <r>    1.0250   -0.0275 </r>
       <r>    1.0362   -0.0241 </r>
       <r>    1.0716   -0.0139 </r>
       <r>    1.0867   -0.0105 </r>
       <r>    1.1075   -0.0067 </r>
       <r>    1.1264   -0.0043 </r>
       <r>    1.1416   -0.0029 </r>
       <r>    1.1702   -0.0013 </r>
       <r>    1.1807   -0.0010 </r>
       <r>    1.2108   -0.0004 </r>
       <r>    1.2243   -0.0002 </r>
       <r>    1.2416   -0.0001 </r>
       <r>    1.2597   -0.0001 </r>
       <r>    1.2860   -0.0000 </r>
       <r>    1.3015   -0.0000 </r>
       <r>    1.3092   -0.0000 </r>
       <r>    1.3293   -0.0000 </r>
       <r>    1.3617   -0.0000 </r>
       <r>    1.3704   -0.0000 </r>
       <r>    1.3900   -0.0000 </r>
       <r>    1.4049   -0.0000 </r>
       <r>    1.4206   -0.0000 </r>
       <r>    1.4274   -0.0000 </r>
       <r>    1.4512   -0.0000 </r>
       <r>    1.4682   -0.0000 </r>
       <r>    1.4847   -0.0000 </r>
       <r>    1.4953   -0.0000 </r>
       <r>    1.5118   -0.0000 </r>
       <r>    1.5299   -0.0000 </r>
       <r>    1.5405   -0.0000 </r>
       <r>    1.5625   -0.0000 </r>
       <r>    1.5849   -0.0000 </r>
       <r>    1.5945   -0.0000 </r>
       <r>    1.6038   -0.0000 </r>
       <r>    1.6258   -0.0000 </r>
       <r>    1.6324   -0.0000 </r>
       <r>    1.6465   -0.0000 </r>
       <r>    1.6549   -0.0000 </r>
       <r>    1.6707   -0.0000 </r>
       <r>    1.6869   -0.0000 </r>
       <r>    1.7025   -0.0000 </r>
       <r>    1.7311   -0.0000 </r>
       <r>    1.7500   -0.0000 </r>
       <r>    1.7535   -0.0000 </r>
       <r>    1.7722   -0.0000 </r>
       <r>    1.7827   -0.0000 </r>
       <r>    1.7930   -0.0000 </r>
       <r>    1.8184   -0.0000 </r>
       <r>    1.8300   -0.0000 </r>
       <r>    1.8477   -0.0000 </r>
       <r>    1.8547   -0.0000 </r>
       <r>    1.8750   -0.0000 </r>
       <r>    1.8811   -0.0000 </r>
       <r>    1.8970   -0.0000 </r>
       <r>    1.9115   -0.0000 </r>
       <r>    1.9169   -0.0000 </r>
       <r>    1.9405   -0.0000 </r>
       <r>    1.9483   -0.0000 </r>
       <r>    1.9632   -0.0000 </r>
       <r>    1.9677   -0.0000 </r>
       <r>    1.9759   -0.0000 </r>
       <r>    1.9874   -0.0000 </r>
       <r>    1.9952   -0.0000 </r>
       <r>    2.0189   -0.0000 </r>
       <r>    2.0269   -0.0000 </r>
       <r>    2.0312   -0.0000 </r>
       <r>    2.0422   -0.0000 </r>
       <r>    2.0542   -0.0000 </r>
       <r>    2.0655   -0.0000 </r>
       <r>    2.0753   -0.0000 </r>
       <r>    2.0914   -0.0000 </r>
       <r>    2.1042   -0.0000 </r>
       <r>    2.1065   -0.0000 </r>
       <r>    2.1306   -0.0000 </r>
       <r>    2.1385   -0.0000 </r>
       <r>    2.1514   -0.0000 </r>
       <r>    2.1622   -0.0000 </r>
       <r>    2.1756   -0.0000 </r>
       <r>    2.1826   -0.0000 </r>
       <r>    2.1904   -0.0000 </r>
       <r>    2.2009   -0.0000 </r>
       <r>    2.2137   -0.0000 </r>
       <r>    2.2187   -0.0000 </r>
       <r>    2.2263   -0.0000 </r>
       <r>    2.2364   -0.0000 </r>
       <r>    2.2533   -0.0000 </r>
       <r>    2.2586   -0.0000 </r>
       <r>    2.2742   -0.0000 </r>
       <r>    2.2837   -0.0000 </r>
       <r>    2.2975   -0.0000 </r>
       <r>    2.3077   -0.0000 </r>
       <r>    2.3173   -0.0000 </r>
       <r>    2.3299   -0.0000 </r>
       <r>    2.3345   -0.0000 </r>
       <r>    2.3380   -0.0000 </r>
       <r>    2.3505   -0.0000 </r>
       <r>    2.3584   -0.0000 </r>
       <r>    2.3700   -0.0000 </r>
       <r>    2.3795   -0.0000 </r>
       <r>    2.3873   -0.0000 </r>
       <r>    2.4005   -0.0000 </r>
       <r>    2.4148   -0.0000 </r>
       <r>    2.4258   -0.0000 </r>
       <r>    2.4365   -0.0000 </r>
       <r>    2.4390   -0.0000 </r>
       <r>    2.4545   -0.0000 </r>
       <r>    2.4701   -0.0000 </r>
       <r>    2.4764   -0.0000 </r>
       <r>    2.4877   -0.0000 </r>
       <r>    2.4999   -0.0000 </r>
       <r>    2.5155   -0.0000 </r>
       <r>    2.5218   -0.0000 </r>
       <r>    2.5428   -0.0000 </r>
       <r>    2.5678   -0.0000 </r>
       <r>    2.5861   -0.0000 </r>
       <r>    2.5963   -0.0000 </r>
       <r>    2.6116   -0.0000 </r>
       <r>    2.6245   -0.0000 </r>
       <r>    2.6442   -0.0000 </r>
       <r>    2.6588   -0.0000 </r>
       <r>    2.6797   -0.0000 </r>
       <r>    2.6905   -0.0000 </r>
       <r>    2.6970   -0.0000 </r>
       <r>    2.7091   -0.0000 </r>
       <r>    2.7199   -0.0000 </r>
       <r>    2.7450   -0.0000 </r>
       <r>    2.8158   -0.0000 </r>
      </set>
      <set comment="kpoint 3">
       <r>  -43.5307    1.0000 </r>
       <r>  -43.5273    1.0000 </r>
       <r>  -43.5105    1.0000 </r>
       <r>  -43.5022    1.0000 </r>
       <r>  -43.4997    1.0000 </r>
       <r>  -43.4825    1.0000 </r>
       <r>  -43.4770    1.0000 </r>
       <r>  -43.4701    1.0000 </r>
       <r>  -43.4566    1.0000 </r>
       <r>  -43.4505    1.0000 </r>
       <r>  -43.4415    1.0000 </r>
       <r>  -43.4338    1.0000 </r>
       <r>  -43.4211    1.0000 </r>
       <r>  -43.4191    1.0000 </r>
       <r>  -43.4096    1.0000 </r>
       <r>  -43.3459    1.0000 </r>
       <r>  -43.3166    1.0000 </r>
       <r>  -43.2993    1.0000 </r>
       <r>  -43.2537    1.0000 </r>
       <r>  -43.1923    1.0000 </r>
       <r>  -43.1763    1.0000 </r>
       <r>  -43.1717    1.0000 </r>
       <r>  -43.1173    1.0000 </r>
       <r>  -42.9702    1.0000 </r>
       <r>  -42.9664    1.0000 </r>
       <r>  -42.9523    1.0000 </r>
       <r>  -42.8238    1.0000 </r>
       <r>  -42.7841    1.0000 </r>
       <r>  -42.7721    1.0000 </r>
       <r>  -42.6752    1.0000 </r>
       <r>  -42.6120    1.0000 </r>
       <r>  -42.4694    1.0000 </r>
       <r>  -42.3736    1.0000 </r>
       <r>  -42.3099    1.0000 </r>
       <r>  -42.1829    1.0000 </r>
       <r>  -42.0078    1.0000 </r>
       <r>  -39.8884    1.0000 </r>
       <r>  -39.8061    1.0000 </r>
       <r>  -39.7988    1.0000 </r>
       <r>  -39.7278    1.0000 </r>
       <r>  -39.6746    1.0000 </r>
       <r>  -39.6158    1.0000 </r>
       <r>   -6.7335    1.0000 </r>
       <r>   -6.6776    1.0000 </r>
       <r>   -5.8091    1.0000 </r>
       <r>   -5.6952    1.0000 </r>
       <r>   -4.7818    1.0000 </r>
       <r>   -4.7750    1.0000 </r>
       <r>   -4.7344    1.0000 </r>
       <r>   -4.7042    1.0000 </r>
       <r>   -4.4933    1.0000 </r>
       <r>   -4.3471    1.0000 </r>
       <r>   -4.0330    1.0000 </r>
       <r>   -4.0119    1.0000 </r>
       <r>   -3.9487    1.0000 </r>
       <r>   -3.8573    1.0000 </r>
       <r>   -3.3951    1.0000 </r>
       <r>   -3.3447    1.0000 </r>
       <r>   -3.3070    1.0000 </r>
       <r>   -3.2783    1.0000 </r>
       <r>   -3.2289    1.0000 </r>
       <r>   -3.1911    1.0000 </r>
       <r>   -3.1529    1.0000 </r>
       <r>   -3.1469    1.0000 </r>
       <r>   -3.1311    1.0000 </r>
       <r>   -3.0676    1.0000 </r>
       <r>   -3.0071    1.0000 </r>
       <r>   -2.9986    1.0000 </r>
       <r>   -2.9340    1.0000 </r>
       <r>   -2.9086    1.0000 </r>
       <r>   -2.8616    1.0000 </r>
       <r>   -2.6912    1.0000 </r>
       <r>   -2.6244    1.0000 </r>
       <r>   -2.6159    1.0000 </r>
       <r>   -2.5554    1.0000 </r>
       <r>   -2.5209    1.0000 </r>
       <r>   -2.4830    1.0000 </r>
       <r>   -2.4526    1.0000 </r>
       <r>   -2.4029    1.0000 </r>
       <r>   -2.3950    1.0000 </r>
       <r>   -2.3516    1.0000 </r>
       <r>   -2.3240    1.0000 </r>
       <r>   -2.2981    1.0000 </r>
       <r>   -2.2699    1.0000 </r>
       <r>   -2.2385    1.0000 </r>
       <r>   -2.2308    1.0000 </r>
       <r>   -2.1776    1.0000 </r>
       <r>   -2.1575    1.0000 </r>
       <r>   -2.1273    1.0000 </r>
       <r>   -2.1139    1.0000 </r>
       <r>   -2.0785    1.0000 </r>
       <r>   -2.0751    1.0000 </r>
       <r>   -2.0621    1.0000 </r>
       <r>   -2.0098    1.0000 </r>
       <r>   -1.9984    1.0000 </r>
       <r>   -1.9845    1.0000 </r>
       <r>   -1.9640    1.0000 </r>
       <r>   -1.9233    1.0000 </r>
       <r>   -1.9023    1.0000 </r>
       <r>   -1.8756    1.0000 </r>
       <r>   -1.8374    1.0000 </r>
       <r>   -1.8248    1.0000 </r>
       <r>   -1.7799    1.0000 </r>
       <r>   -1.7438    1.0000 </r>
       <r>   -1.7087    1.0000 </r>
       <r>   -1.6970    1.0000 </r>
       <r>   -1.6813    1.0000 </r>
       <r>   -1.6763    1.0000 </r>
       <r>   -1.6497    1.0000 </r>
       <r>   -1.6377    1.0000 </r>
       <r>   -1.6308    1.0000 </r>
       <r>   -1.6107    1.0000 </r>
       <r>   -1.5582    1.0000 </r>
       <r>   -1.5199    1.0000 </r>
       <r>   -1.5126    1.0000 </r>
       <r>   -1.4986    1.0000 </r>
       <r>   -1.4708    1.0000 </r>
       <r>   -1.4027    1.0000 </r>
       <r>   -1.3860    1.0000 </r>
       <r>   -1.3817    1.0000 </r>
       <r>   -1.3519    1.0000 </r>
       <r>   -1.3384    1.0000 </r>
       <r>   -1.3088    1.0000 </r>
       <r>   -1.2898    1.0000 </r>
       <r>   -1.2836    1.0000 </r>
       <r>   -1.2734    1.0000 </r>
       <r>   -1.2478    1.0000 </r>
       <r>   -1.2318    1.0000 </r>
       <r>   -1.2214    1.0000 </r>
       <r>   -1.2003    1.0000 </r>
       <r>   -1.1678    1.0000 </r>
       <r>   -1.1607    1.0000 </r>
       <r>   -1.1400    1.0000 </r>
       <r>   -1.1314    1.0000 </r>
       <r>   -1.1209    1.0000 </r>
       <r>   -1.1012    1.0000 </r>
       <r>   -1.0798    1.0000 </r>
       <r>   -1.0555    1.0000 </r>
       <r>   -1.0448    1.0000 </r>
       <r>   -1.0372    1.0000 </r>
       <r>   -0.9956    1.0000 </r>
       <r>   -0.9701    1.0000 </r>
       <r>   -0.9591    1.0000 </r>
       <r>   -0.9431    1.0000 </r>
       <r>   -0.9200    1.0000 </r>
       <r>   -0.8974    1.0000 </r>
       <r>   -0.8870    1.0000 </r>
       <r>   -0.8646    1.0000 </r>
       <r>   -0.8550    1.0000 </r>
       <r>   -0.8314    1.0000 </r>
       <r>   -0.8286    1.0000 </r>
       <r>   -0.8040    1.0000 </r>
       <r>   -0.7854    1.0000 </r>
       <r>   -0.7568    1.0000 </r>
       <r>   -0.7338    1.0000 </r>
       <r>   -0.7185    1.0000 </r>
       <r>   -0.7024    1.0000 </r>
       <r>   -0.6906    1.0000 </r>
       <r>   -0.6813    1.0000 </r>
       <r>   -0.6622    1.0000 </r>
       <r>   -0.6419    1.0000 </r>
       <r>   -0.6342    1.0000 </r>
       <r>   -0.6242    1.0000 </r>
       <r>   -0.5989    1.0000 </r>
       <r>   -0.5870    1.0000 </r>
       <r>   -0.5805    1.0000 </r>
       <r>   -0.5658    1.0000 </r>
       <r>   -0.5379    1.0000 </r>
       <r>   -0.5262    1.0000 </r>
       <r>   -0.5199    1.0000 </r>
       <r>   -0.5063    1.0000 </r>
       <r>   -0.4895    1.0000 </r>
       <r>   -0.4621    1.0000 </r>
       <r>   -0.4461    1.0000 </r>
       <r>   -0.4394    1.0000 </r>
       <r>   -0.4242    1.0000 </r>
       <r>   -0.4103    1.0000 </r>
       <r>   -0.3905    1.0000 </r>
       <r>   -0.3565    1.0000 </r>
       <r>   -0.3351    1.0000 </r>
       <r>   -0.3288    1.0000 </r>
       <r>   -0.3174    1.0000 </r>
       <r>   -0.2936    1.0000 </r>
       <r>   -0.2903    1.0000 </r>
       <r>   -0.2821    1.0000 </r>
       <r>   -0.2649    1.0000 </r>
       <r>   -0.2417    1.0000 </r>
       <r>   -0.2293    1.0000 </r>
       <r>   -0.2031    1.0000 </r>
       <r>   -0.1879    1.0000 </r>
       <r>   -0.1617    1.0000 </r>
       <r>   -0.1381    1.0000 </r>
       <r>   -0.1231    1.0000 </r>
       <r>   -0.0877    1.0000 </r>
       <r>   -0.0768    1.0000 </r>
       <r>   -0.0570    1.0000 </r>
       <r>   -0.0418    1.0000 </r>
       <r>   -0.0175    1.0000 </r>
       <r>   -0.0000    1.0000 </r>
       <r>    0.0194    1.0000 </r>
       <r>    0.0373    1.0000 </r>
       <r>    0.0585    1.0000 </r>
       <r>    0.0695    1.0000 </r>
       <r>    0.0808    1.0000 </r>
       <r>    0.1104    1.0000 </r>
       <r>    0.1365    1.0000 </r>
       <r>    0.1681    1.0000 </r>
       <r>    0.1933    1.0000 </r>
       <r>    0.2449    1.0000 </r>
       <r>    0.2742    1.0000 </r>
       <r>    0.2869    1.0000 </r>
       <r>    0.3259    1.0000 </r>
       <r>    0.3502    1.0001 </r>
       <r>    0.3520    1.0001 </r>
       <r>    0.3833    1.0003 </r>
       <r>    0.4353    1.0016 </r>
       <r>    0.4388    1.0017 </r>
       <r>    0.4749    1.0045 </r>
       <r>    0.5079    1.0095 </r>
       <r>    0.5491    1.0199 </r>
       <r>    0.5653    1.0248 </r>
       <r>    0.5970    1.0334 </r>
       <r>    0.6385    1.0312 </r>
       <r>    0.6525    1.0231 </r>
       <r>    0.6770    0.9945 </r>
       <r>    0.6909    0.9684 </r>
       <r>    0.7149    0.9037 </r>
       <r>    0.7308    0.8469 </r>
       <r>    0.7842    0.5868 </r>
       <r>    0.7933    0.5361 </r>
       <r>    0.8776    0.1193 </r>
       <r>    0.8864    0.0901 </r>
       <r>    0.9285   -0.0037 </r>
       <r>    0.9495   -0.0250 </r>
       <r>    1.0256   -0.0274 </r>
       <r>    1.0307   -0.0258 </r>
       <r>    1.0548   -0.0185 </r>
       <r>    1.0568   -0.0179 </r>
       <r>    1.1032   -0.0074 </r>
       <r>    1.1116   -0.0061 </r>
       <r>    1.1613   -0.0017 </r>
       <r>    1.1642   -0.0016 </r>
       <r>    1.1809   -0.0010 </r>
       <r>    1.2118   -0.0004 </r>
       <r>    1.2302   -0.0002 </r>
       <r>    1.2464   -0.0001 </r>
       <r>    1.2636   -0.0001 </r>
       <r>    1.2904   -0.0000 </r>
       <r>    1.3092   -0.0000 </r>
       <r>    1.3415   -0.0000 </r>
       <r>    1.3491   -0.0000 </r>
       <r>    1.3611   -0.0000 </r>
       <r>    1.3857   -0.0000 </r>
       <r>    1.3981   -0.0000 </r>
       <r>    1.4335   -0.0000 </r>
       <r>    1.4462   -0.0000 </r>
       <r>    1.4631   -0.0000 </r>
       <r>    1.4735   -0.0000 </r>
       <r>    1.4858   -0.0000 </r>
       <r>    1.5117   -0.0000 </r>
       <r>    1.5210   -0.0000 </r>
       <r>    1.5300   -0.0000 </r>
       <r>    1.5427   -0.0000 </r>
       <r>    1.5771   -0.0000 </r>
       <r>    1.5864   -0.0000 </r>
       <r>    1.5905   -0.0000 </r>
       <r>    1.6071   -0.0000 </r>
       <r>    1.6208   -0.0000 </r>
       <r>    1.6298   -0.0000 </r>
       <r>    1.6501   -0.0000 </r>
       <r>    1.6609   -0.0000 </r>
       <r>    1.6816   -0.0000 </r>
       <r>    1.6863   -0.0000 </r>
       <r>    1.7028   -0.0000 </r>
       <r>    1.7347   -0.0000 </r>
       <r>    1.7532   -0.0000 </r>
       <r>    1.7564   -0.0000 </r>
       <r>    1.7741   -0.0000 </r>
       <r>    1.7813   -0.0000 </r>
       <r>    1.7942   -0.0000 </r>
       <r>    1.7997   -0.0000 </r>
       <r>    1.8126   -0.0000 </r>
       <r>    1.8162   -0.0000 </r>
       <r>    1.8293   -0.0000 </r>
       <r>    1.8397   -0.0000 </r>
       <r>    1.8532   -0.0000 </r>
       <r>    1.8627   -0.0000 </r>
       <r>    1.8634   -0.0000 </r>
       <r>    1.8711   -0.0000 </r>
       <r>    1.8800   -0.0000 </r>
       <r>    1.8939   -0.0000 </r>
       <r>    1.9113   -0.0000 </r>
       <r>    1.9329   -0.0000 </r>
       <r>    1.9391   -0.0000 </r>
       <r>    1.9447   -0.0000 </r>
       <r>    1.9487   -0.0000 </r>
       <r>    1.9664   -0.0000 </r>
       <r>    1.9701   -0.0000 </r>
       <r>    1.9792   -0.0000 </r>
       <r>    1.9894   -0.0000 </r>
       <r>    1.9964   -0.0000 </r>
       <r>    2.0004   -0.0000 </r>
       <r>    2.0280   -0.0000 </r>
       <r>    2.0305   -0.0000 </r>
       <r>    2.0381   -0.0000 </r>
       <r>    2.0707   -0.0000 </r>
       <r>    2.0852   -0.0000 </r>
       <r>    2.0936   -0.0000 </r>
       <r>    2.1040   -0.0000 </r>
       <r>    2.1074   -0.0000 </r>
       <r>    2.1274   -0.0000 </r>
       <r>    2.1309   -0.0000 </r>
       <r>    2.1452   -0.0000 </r>
       <r>    2.1459   -0.0000 </r>
       <r>    2.1680   -0.0000 </r>
       <r>    2.1695   -0.0000 </r>
       <r>    2.1860   -0.0000 </r>
       <r>    2.1956   -0.0000 </r>
       <r>    2.2233   -0.0000 </r>
       <r>    2.2364   -0.0000 </r>
       <r>    2.2612   -0.0000 </r>
       <r>    2.2650   -0.0000 </r>
       <r>    2.2718   -0.0000 </r>
       <r>    2.2799   -0.0000 </r>
       <r>    2.3007   -0.0000 </r>
       <r>    2.3162   -0.0000 </r>
       <r>    2.3216   -0.0000 </r>
       <r>    2.3382   -0.0000 </r>
       <r>    2.3422   -0.0000 </r>
       <r>    2.3508   -0.0000 </r>
       <r>    2.3579   -0.0000 </r>
       <r>    2.3670   -0.0000 </r>
       <r>    2.3787   -0.0000 </r>
       <r>    2.3927   -0.0000 </r>
       <r>    2.3964   -0.0000 </r>
       <r>    2.4090   -0.0000 </r>
       <r>    2.4185   -0.0000 </r>
       <r>    2.4236   -0.0000 </r>
       <r>    2.4374   -0.0000 </r>
       <r>    2.4461   -0.0000 </r>
       <r>    2.4496   -0.0000 </r>
       <r>    2.4665   -0.0000 </r>
       <r>    2.4741   -0.0000 </r>
       <r>    2.4844   -0.0000 </r>
       <r>    2.4984   -0.0000 </r>
       <r>    2.5049   -0.0000 </r>
       <r>    2.5203   -0.0000 </r>
       <r>    2.5280   -0.0000 </r>
       <r>    2.5373   -0.0000 </r>
       <r>    2.5607   -0.0000 </r>
       <r>    2.5638   -0.0000 </r>
       <r>    2.5905   -0.0000 </r>
       <r>    2.5970   -0.0000 </r>
       <r>    2.6211   -0.0000 </r>
       <r>    2.6295   -0.0000 </r>
       <r>    2.6895   -0.0000 </r>
       <r>    2.7033   -0.0000 </r>
       <r>    2.7407   -0.0000 </r>
       <r>    2.7595   -0.0000 </r>
       <r>    2.7766   -0.0000 </r>
       <r>    2.7877   -0.0000 </r>
       <r>    2.8239   -0.0000 </r>
       <r>    2.8417   -0.0000 </r>
      </set>
      <set comment="kpoint 4">
       <r>  -43.5307    1.0000 </r>
       <r>  -43.5273    1.0000 </r>
       <r>  -43.5105    1.0000 </r>
       <r>  -43.5022    1.0000 </r>
       <r>  -43.4996    1.0000 </r>
       <r>  -43.4825    1.0000 </r>
       <r>  -43.4770    1.0000 </r>
       <r>  -43.4701    1.0000 </r>
       <r>  -43.4566    1.0000 </r>
       <r>  -43.4505    1.0000 </r>
       <r>  -43.4415    1.0000 </r>
       <r>  -43.4338    1.0000 </r>
       <r>  -43.4211    1.0000 </r>
       <r>  -43.4191    1.0000 </r>
       <r>  -43.4096    1.0000 </r>
       <r>  -43.3458    1.0000 </r>
       <r>  -43.3167    1.0000 </r>
       <r>  -43.2993    1.0000 </r>
       <r>  -43.2538    1.0000 </r>
       <r>  -43.1923    1.0000 </r>
       <r>  -43.1763    1.0000 </r>
       <r>  -43.1717    1.0000 </r>
       <r>  -43.1173    1.0000 </r>
       <r>  -42.9702    1.0000 </r>
       <r>  -42.9663    1.0000 </r>
       <r>  -42.9523    1.0000 </r>
       <r>  -42.8238    1.0000 </r>
       <r>  -42.7841    1.0000 </r>
       <r>  -42.7721    1.0000 </r>
       <r>  -42.6752    1.0000 </r>
       <r>  -42.6120    1.0000 </r>
       <r>  -42.4694    1.0000 </r>
       <r>  -42.3736    1.0000 </r>
       <r>  -42.3100    1.0000 </r>
       <r>  -42.1829    1.0000 </r>
       <r>  -42.0079    1.0000 </r>
       <r>  -39.8884    1.0000 </r>
       <r>  -39.8061    1.0000 </r>
       <r>  -39.7988    1.0000 </r>
       <r>  -39.7278    1.0000 </r>
       <r>  -39.6746    1.0000 </r>
       <r>  -39.6159    1.0000 </r>
       <r>   -7.1248    1.0000 </r>
       <r>   -6.1505    1.0000 </r>
       <r>   -6.0317    1.0000 </r>
       <r>   -5.1685    1.0000 </r>
       <r>   -5.0828    1.0000 </r>
       <r>   -5.0456    1.0000 </r>
       <r>   -4.7472    1.0000 </r>
       <r>   -4.3480    1.0000 </r>
       <r>   -4.3185    1.0000 </r>
       <r>   -4.2782    1.0000 </r>
       <r>   -4.2353    1.0000 </r>
       <r>   -4.2132    1.0000 </r>
       <r>   -3.9834    1.0000 </r>
       <r>   -3.7359    1.0000 </r>
       <r>   -3.5634    1.0000 </r>
       <r>   -3.5087    1.0000 </r>
       <r>   -3.4307    1.0000 </r>
       <r>   -3.4045    1.0000 </r>
       <r>   -3.3640    1.0000 </r>
       <r>   -3.3414    1.0000 </r>
       <r>   -3.2699    1.0000 </r>
       <r>   -3.2160    1.0000 </r>
       <r>   -3.0221    1.0000 </r>
       <r>   -2.9609    1.0000 </r>
       <r>   -2.8535    1.0000 </r>
       <r>   -2.8111    1.0000 </r>
       <r>   -2.7749    1.0000 </r>
       <r>   -2.7484    1.0000 </r>
       <r>   -2.7045    1.0000 </r>
       <r>   -2.6642    1.0000 </r>
       <r>   -2.6324    1.0000 </r>
       <r>   -2.5998    1.0000 </r>
       <r>   -2.5951    1.0000 </r>
       <r>   -2.5498    1.0000 </r>
       <r>   -2.4947    1.0000 </r>
       <r>   -2.4760    1.0000 </r>
       <r>   -2.4603    1.0000 </r>
       <r>   -2.3877    1.0000 </r>
       <r>   -2.3649    1.0000 </r>
       <r>   -2.3315    1.0000 </r>
       <r>   -2.3082    1.0000 </r>
       <r>   -2.2614    1.0000 </r>
       <r>   -2.2346    1.0000 </r>
       <r>   -2.2034    1.0000 </r>
       <r>   -2.1832    1.0000 </r>
       <r>   -2.1634    1.0000 </r>
       <r>   -2.1324    1.0000 </r>
       <r>   -2.1213    1.0000 </r>
       <r>   -2.0901    1.0000 </r>
       <r>   -2.0512    1.0000 </r>
       <r>   -2.0369    1.0000 </r>
       <r>   -2.0074    1.0000 </r>
       <r>   -1.9974    1.0000 </r>
       <r>   -1.9855    1.0000 </r>
       <r>   -1.9522    1.0000 </r>
       <r>   -1.9178    1.0000 </r>
       <r>   -1.8584    1.0000 </r>
       <r>   -1.8133    1.0000 </r>
       <r>   -1.7918    1.0000 </r>
       <r>   -1.7521    1.0000 </r>
       <r>   -1.7364    1.0000 </r>
       <r>   -1.7102    1.0000 </r>
       <r>   -1.7064    1.0000 </r>
       <r>   -1.6820    1.0000 </r>
       <r>   -1.6533    1.0000 </r>
       <r>   -1.6160    1.0000 </r>
       <r>   -1.6101    1.0000 </r>
       <r>   -1.5732    1.0000 </r>
       <r>   -1.5664    1.0000 </r>
       <r>   -1.5504    1.0000 </r>
       <r>   -1.5245    1.0000 </r>
       <r>   -1.4903    1.0000 </r>
       <r>   -1.4696    1.0000 </r>
       <r>   -1.4597    1.0000 </r>
       <r>   -1.4456    1.0000 </r>
       <r>   -1.4088    1.0000 </r>
       <r>   -1.4014    1.0000 </r>
       <r>   -1.3706    1.0000 </r>
       <r>   -1.3600    1.0000 </r>
       <r>   -1.3403    1.0000 </r>
       <r>   -1.3335    1.0000 </r>
       <r>   -1.3128    1.0000 </r>
       <r>   -1.2879    1.0000 </r>
       <r>   -1.2675    1.0000 </r>
       <r>   -1.2612    1.0000 </r>
       <r>   -1.2480    1.0000 </r>
       <r>   -1.2225    1.0000 </r>
       <r>   -1.2088    1.0000 </r>
       <r>   -1.1904    1.0000 </r>
       <r>   -1.1747    1.0000 </r>
       <r>   -1.1633    1.0000 </r>
       <r>   -1.1317    1.0000 </r>
       <r>   -1.1251    1.0000 </r>
       <r>   -1.1061    1.0000 </r>
       <r>   -1.0988    1.0000 </r>
       <r>   -1.0835    1.0000 </r>
       <r>   -1.0597    1.0000 </r>
       <r>   -1.0394    1.0000 </r>
       <r>   -1.0186    1.0000 </r>
       <r>   -1.0048    1.0000 </r>
       <r>   -0.9650    1.0000 </r>
       <r>   -0.9588    1.0000 </r>
       <r>   -0.9447    1.0000 </r>
       <r>   -0.9363    1.0000 </r>
       <r>   -0.9172    1.0000 </r>
       <r>   -0.9110    1.0000 </r>
       <r>   -0.8808    1.0000 </r>
       <r>   -0.8533    1.0000 </r>
       <r>   -0.8433    1.0000 </r>
       <r>   -0.8322    1.0000 </r>
       <r>   -0.8274    1.0000 </r>
       <r>   -0.8059    1.0000 </r>
       <r>   -0.7948    1.0000 </r>
       <r>   -0.7788    1.0000 </r>
       <r>   -0.7651    1.0000 </r>
       <r>   -0.7505    1.0000 </r>
       <r>   -0.7363    1.0000 </r>
       <r>   -0.7120    1.0000 </r>
       <r>   -0.6908    1.0000 </r>
       <r>   -0.6608    1.0000 </r>
       <r>   -0.6427    1.0000 </r>
       <r>   -0.6227    1.0000 </r>
       <r>   -0.5988    1.0000 </r>
       <r>   -0.5748    1.0000 </r>
       <r>   -0.5702    1.0000 </r>
       <r>   -0.5493    1.0000 </r>
       <r>   -0.5285    1.0000 </r>
       <r>   -0.5262    1.0000 </r>
       <r>   -0.5144    1.0000 </r>
       <r>   -0.4784    1.0000 </r>
       <r>   -0.4582    1.0000 </r>
       <r>   -0.4438    1.0000 </r>
       <r>   -0.4162    1.0000 </r>
       <r>   -0.4113    1.0000 </r>
       <r>   -0.3826    1.0000 </r>
       <r>   -0.3770    1.0000 </r>
       <r>   -0.3494    1.0000 </r>
       <r>   -0.3316    1.0000 </r>
       <r>   -0.3114    1.0000 </r>
       <r>   -0.2954    1.0000 </r>
       <r>   -0.2897    1.0000 </r>
       <r>   -0.2762    1.0000 </r>
       <r>   -0.2595    1.0000 </r>
       <r>   -0.2454    1.0000 </r>
       <r>   -0.2216    1.0000 </r>
       <r>   -0.1868    1.0000 </r>
       <r>   -0.1755    1.0000 </r>
       <r>   -0.1511    1.0000 </r>
       <r>   -0.1188    1.0000 </r>
       <r>   -0.1144    1.0000 </r>
       <r>   -0.0902    1.0000 </r>
       <r>   -0.0769    1.0000 </r>
       <r>   -0.0653    1.0000 </r>
       <r>   -0.0388    1.0000 </r>
       <r>   -0.0114    1.0000 </r>
       <r>   -0.0034    1.0000 </r>
       <r>    0.0372    1.0000 </r>
       <r>    0.0537    1.0000 </r>
       <r>    0.0777    1.0000 </r>
       <r>    0.0935    1.0000 </r>
       <r>    0.1196    1.0000 </r>
       <r>    0.1287    1.0000 </r>
       <r>    0.1528    1.0000 </r>
       <r>    0.1671    1.0000 </r>
       <r>    0.1891    1.0000 </r>
       <r>    0.2106    1.0000 </r>
       <r>    0.2388    1.0000 </r>
       <r>    0.2740    1.0000 </r>
       <r>    0.3077    1.0000 </r>
       <r>    0.3244    1.0000 </r>
       <r>    0.3365    1.0001 </r>
       <r>    0.3598    1.0001 </r>
       <r>    0.4060    1.0007 </r>
       <r>    0.4200    1.0010 </r>
       <r>    0.4396    1.0018 </r>
       <r>    0.4566    1.0028 </r>
       <r>    0.4808    1.0052 </r>
       <r>    0.5322    1.0151 </r>
       <r>    0.5688    1.0259 </r>
       <r>    0.6103    1.0353 </r>
       <r>    0.6323    1.0333 </r>
       <r>    0.6551    1.0209 </r>
       <r>    0.6900    0.9703 </r>
       <r>    0.7454    0.7851 </r>
       <r>    0.7534    0.7478 </r>
       <r>    0.7695    0.6666 </r>
       <r>    0.8094    0.4451 </r>
       <r>    0.8225    0.3729 </r>
       <r>    0.8539    0.2149 </r>
       <r>    0.8829    0.1014 </r>
       <r>    0.9110    0.0261 </r>
       <r>    0.9400   -0.0171 </r>
       <r>    0.9742   -0.0348 </r>
       <r>    0.9964   -0.0344 </r>
       <r>    1.0238   -0.0279 </r>
       <r>    1.0582   -0.0175 </r>
       <r>    1.0769   -0.0126 </r>
       <r>    1.1017   -0.0077 </r>
       <r>    1.1190   -0.0052 </r>
       <r>    1.1314   -0.0038 </r>
       <r>    1.1406   -0.0030 </r>
       <r>    1.1596   -0.0018 </r>
       <r>    1.1786   -0.0010 </r>
       <r>    1.1968   -0.0006 </r>
       <r>    1.2085   -0.0004 </r>
       <r>    1.2322   -0.0002 </r>
       <r>    1.2486   -0.0001 </r>
       <r>    1.2735   -0.0000 </r>
       <r>    1.2986   -0.0000 </r>
       <r>    1.3073   -0.0000 </r>
       <r>    1.3222   -0.0000 </r>
       <r>    1.3363   -0.0000 </r>
       <r>    1.3633   -0.0000 </r>
       <r>    1.3828   -0.0000 </r>
       <r>    1.4062   -0.0000 </r>
       <r>    1.4218   -0.0000 </r>
       <r>    1.4412   -0.0000 </r>
       <r>    1.4573   -0.0000 </r>
       <r>    1.4644   -0.0000 </r>
       <r>    1.4899   -0.0000 </r>
       <r>    1.5043   -0.0000 </r>
       <r>    1.5215   -0.0000 </r>
       <r>    1.5319   -0.0000 </r>
       <r>    1.5514   -0.0000 </r>
       <r>    1.5680   -0.0000 </r>
       <r>    1.5868   -0.0000 </r>
       <r>    1.5931   -0.0000 </r>
       <r>    1.6114   -0.0000 </r>
       <r>    1.6222   -0.0000 </r>
       <r>    1.6382   -0.0000 </r>
       <r>    1.6592   -0.0000 </r>
       <r>    1.6637   -0.0000 </r>
       <r>    1.6828   -0.0000 </r>
       <r>    1.6982   -0.0000 </r>
       <r>    1.7176   -0.0000 </r>
       <r>    1.7243   -0.0000 </r>
       <r>    1.7455   -0.0000 </r>
       <r>    1.7561   -0.0000 </r>
       <r>    1.7662   -0.0000 </r>
       <r>    1.7743   -0.0000 </r>
       <r>    1.7871   -0.0000 </r>
       <r>    1.8062   -0.0000 </r>
       <r>    1.8170   -0.0000 </r>
       <r>    1.8384   -0.0000 </r>
       <r>    1.8505   -0.0000 </r>
       <r>    1.8650   -0.0000 </r>
       <r>    1.8800   -0.0000 </r>
       <r>    1.8946   -0.0000 </r>
       <r>    1.9042   -0.0000 </r>
       <r>    1.9115   -0.0000 </r>
       <r>    1.9245   -0.0000 </r>
       <r>    1.9394   -0.0000 </r>
       <r>    1.9472   -0.0000 </r>
       <r>    1.9627   -0.0000 </r>
       <r>    1.9716   -0.0000 </r>
       <r>    1.9821   -0.0000 </r>
       <r>    1.9980   -0.0000 </r>
       <r>    2.0084   -0.0000 </r>
       <r>    2.0214   -0.0000 </r>
       <r>    2.0333   -0.0000 </r>
       <r>    2.0496   -0.0000 </r>
       <r>    2.0554   -0.0000 </r>
       <r>    2.0607   -0.0000 </r>
       <r>    2.0709   -0.0000 </r>
       <r>    2.0906   -0.0000 </r>
       <r>    2.1065   -0.0000 </r>
       <r>    2.1134   -0.0000 </r>
       <r>    2.1164   -0.0000 </r>
       <r>    2.1389   -0.0000 </r>
       <r>    2.1575   -0.0000 </r>
       <r>    2.1656   -0.0000 </r>
       <r>    2.1715   -0.0000 </r>
       <r>    2.1793   -0.0000 </r>
       <r>    2.1920   -0.0000 </r>
       <r>    2.2067   -0.0000 </r>
       <r>    2.2145   -0.0000 </r>
       <r>    2.2242   -0.0000 </r>
       <r>    2.2416   -0.0000 </r>
       <r>    2.2526   -0.0000 </r>
       <r>    2.2574   -0.0000 </r>
       <r>    2.2659   -0.0000 </r>
       <r>    2.2781   -0.0000 </r>
       <r>    2.2881   -0.0000 </r>
       <r>    2.2937   -0.0000 </r>
       <r>    2.3023   -0.0000 </r>
       <r>    2.3173   -0.0000 </r>
       <r>    2.3310   -0.0000 </r>
       <r>    2.3387   -0.0000 </r>
       <r>    2.3465   -0.0000 </r>
       <r>    2.3530   -0.0000 </r>
       <r>    2.3690   -0.0000 </r>
       <r>    2.3775   -0.0000 </r>
       <r>    2.3902   -0.0000 </r>
       <r>    2.3974   -0.0000 </r>
       <r>    2.4110   -0.0000 </r>
       <r>    2.4165   -0.0000 </r>
       <r>    2.4326   -0.0000 </r>
       <r>    2.4373   -0.0000 </r>
       <r>    2.4400   -0.0000 </r>
       <r>    2.4626   -0.0000 </r>
       <r>    2.4713   -0.0000 </r>
       <r>    2.4778   -0.0000 </r>
       <r>    2.4841   -0.0000 </r>
       <r>    2.4949   -0.0000 </r>
       <r>    2.5044   -0.0000 </r>
       <r>    2.5163   -0.0000 </r>
       <r>    2.5328   -0.0000 </r>
       <r>    2.5457   -0.0000 </r>
       <r>    2.5735   -0.0000 </r>
       <r>    2.5847   -0.0000 </r>
       <r>    2.6111   -0.0000 </r>
       <r>    2.6312   -0.0000 </r>
       <r>    2.6411   -0.0000 </r>
       <r>    2.6595   -0.0000 </r>
       <r>    2.6746   -0.0000 </r>
       <r>    2.6838   -0.0000 </r>
       <r>    2.7019   -0.0000 </r>
       <r>    2.7200   -0.0000 </r>
       <r>    2.7394   -0.0000 </r>
       <r>    2.7788   -0.0000 </r>
       <r>    2.8078   -0.0000 </r>
      </set>
      <set comment="kpoint 5">
       <r>  -43.5307    1.0000 </r>
       <r>  -43.5273    1.0000 </r>
       <r>  -43.5105    1.0000 </r>
       <r>  -43.5022    1.0000 </r>
       <r>  -43.4996    1.0000 </r>
       <r>  -43.4825    1.0000 </r>
       <r>  -43.4770    1.0000 </r>
       <r>  -43.4701    1.0000 </r>
       <r>  -43.4566    1.0000 </r>
       <r>  -43.4505    1.0000 </r>
       <r>  -43.4415    1.0000 </r>
       <r>  -43.4338    1.0000 </r>
       <r>  -43.4211    1.0000 </r>
       <r>  -43.4191    1.0000 </r>
       <r>  -43.4096    1.0000 </r>
       <r>  -43.3458    1.0000 </r>
       <r>  -43.3167    1.0000 </r>
       <r>  -43.2993    1.0000 </r>
       <r>  -43.2537    1.0000 </r>
       <r>  -43.1923    1.0000 </r>
       <r>  -43.1763    1.0000 </r>
       <r>  -43.1717    1.0000 </r>
       <r>  -43.1173    1.0000 </r>
       <r>  -42.9702    1.0000 </r>
       <r>  -42.9663    1.0000 </r>
       <r>  -42.9523    1.0000 </r>
       <r>  -42.8238    1.0000 </r>
       <r>  -42.7841    1.0000 </r>
       <r>  -42.7721    1.0000 </r>
       <r>  -42.6752    1.0000 </r>
       <r>  -42.6120    1.0000 </r>
       <r>  -42.4694    1.0000 </r>
       <r>  -42.3736    1.0000 </r>
       <r>  -42.3099    1.0000 </r>
       <r>  -42.1829    1.0000 </r>
       <r>  -42.0078    1.0000 </r>
       <r>  -39.8884    1.0000 </r>
       <r>  -39.8061    1.0000 </r>
       <r>  -39.7987    1.0000 </r>
       <r>  -39.7278    1.0000 </r>
       <r>  -39.6746    1.0000 </r>
       <r>  -39.6159    1.0000 </r>
       <r>   -6.9835    1.0000 </r>
       <r>   -6.0255    1.0000 </r>
       <r>   -5.9287    1.0000 </r>
       <r>   -5.8777    1.0000 </r>
       <r>   -5.0555    1.0000 </r>
       <r>   -5.0367    1.0000 </r>
       <r>   -4.9415    1.0000 </r>
       <r>   -4.6184    1.0000 </r>
       <r>   -4.1642    1.0000 </r>
       <r>   -4.1330    1.0000 </r>
       <r>   -4.1136    1.0000 </r>
       <r>   -3.9023    1.0000 </r>
       <r>   -3.7935    1.0000 </r>
       <r>   -3.6445    1.0000 </r>
       <r>   -3.6189    1.0000 </r>
       <r>   -3.5667    1.0000 </r>
       <r>   -3.5498    1.0000 </r>
       <r>   -3.2885    1.0000 </r>
       <r>   -3.2543    1.0000 </r>
       <r>   -3.2007    1.0000 </r>
       <r>   -3.1271    1.0000 </r>
       <r>   -3.0406    1.0000 </r>
       <r>   -2.9740    1.0000 </r>
       <r>   -2.9455    1.0000 </r>
       <r>   -2.9086    1.0000 </r>
       <r>   -2.8735    1.0000 </r>
       <r>   -2.8390    1.0000 </r>
       <r>   -2.8051    1.0000 </r>
       <r>   -2.7761    1.0000 </r>
       <r>   -2.7134    1.0000 </r>
       <r>   -2.6707    1.0000 </r>
       <r>   -2.6186    1.0000 </r>
       <r>   -2.5917    1.0000 </r>
       <r>   -2.5430    1.0000 </r>
       <r>   -2.5044    1.0000 </r>
       <r>   -2.4661    1.0000 </r>
       <r>   -2.4330    1.0000 </r>
       <r>   -2.4119    1.0000 </r>
       <r>   -2.3738    1.0000 </r>
       <r>   -2.3576    1.0000 </r>
       <r>   -2.3190    1.0000 </r>
       <r>   -2.3043    1.0000 </r>
       <r>   -2.2935    1.0000 </r>
       <r>   -2.2569    1.0000 </r>
       <r>   -2.2304    1.0000 </r>
       <r>   -2.1915    1.0000 </r>
       <r>   -2.1738    1.0000 </r>
       <r>   -2.1484    1.0000 </r>
       <r>   -2.1205    1.0000 </r>
       <r>   -2.0880    1.0000 </r>
       <r>   -2.0727    1.0000 </r>
       <r>   -2.0470    1.0000 </r>
       <r>   -2.0144    1.0000 </r>
       <r>   -2.0046    1.0000 </r>
       <r>   -1.9791    1.0000 </r>
       <r>   -1.9085    1.0000 </r>
       <r>   -1.8895    1.0000 </r>
       <r>   -1.8490    1.0000 </r>
       <r>   -1.8172    1.0000 </r>
       <r>   -1.8063    1.0000 </r>
       <r>   -1.7988    1.0000 </r>
       <r>   -1.7240    1.0000 </r>
       <r>   -1.7041    1.0000 </r>
       <r>   -1.6902    1.0000 </r>
       <r>   -1.6522    1.0000 </r>
       <r>   -1.6420    1.0000 </r>
       <r>   -1.6120    1.0000 </r>
       <r>   -1.5952    1.0000 </r>
       <r>   -1.5788    1.0000 </r>
       <r>   -1.5527    1.0000 </r>
       <r>   -1.5343    1.0000 </r>
       <r>   -1.5204    1.0000 </r>
       <r>   -1.5065    1.0000 </r>
       <r>   -1.4824    1.0000 </r>
       <r>   -1.4310    1.0000 </r>
       <r>   -1.4212    1.0000 </r>
       <r>   -1.4141    1.0000 </r>
       <r>   -1.3930    1.0000 </r>
       <r>   -1.3814    1.0000 </r>
       <r>   -1.3602    1.0000 </r>
       <r>   -1.3341    1.0000 </r>
       <r>   -1.3154    1.0000 </r>
       <r>   -1.3047    1.0000 </r>
       <r>   -1.2914    1.0000 </r>
       <r>   -1.2769    1.0000 </r>
       <r>   -1.2604    1.0000 </r>
       <r>   -1.2330    1.0000 </r>
       <r>   -1.2193    1.0000 </r>
       <r>   -1.1980    1.0000 </r>
       <r>   -1.1795    1.0000 </r>
       <r>   -1.1502    1.0000 </r>
       <r>   -1.1417    1.0000 </r>
       <r>   -1.1258    1.0000 </r>
       <r>   -1.1043    1.0000 </r>
       <r>   -1.0935    1.0000 </r>
       <r>   -1.0743    1.0000 </r>
       <r>   -1.0551    1.0000 </r>
       <r>   -1.0328    1.0000 </r>
       <r>   -1.0078    1.0000 </r>
       <r>   -0.9927    1.0000 </r>
       <r>   -0.9634    1.0000 </r>
       <r>   -0.9538    1.0000 </r>
       <r>   -0.9400    1.0000 </r>
       <r>   -0.9120    1.0000 </r>
       <r>   -0.8946    1.0000 </r>
       <r>   -0.8833    1.0000 </r>
       <r>   -0.8459    1.0000 </r>
       <r>   -0.8409    1.0000 </r>
       <r>   -0.8288    1.0000 </r>
       <r>   -0.8081    1.0000 </r>
       <r>   -0.7898    1.0000 </r>
       <r>   -0.7749    1.0000 </r>
       <r>   -0.7537    1.0000 </r>
       <r>   -0.7441    1.0000 </r>
       <r>   -0.7250    1.0000 </r>
       <r>   -0.7211    1.0000 </r>
       <r>   -0.7008    1.0000 </r>
       <r>   -0.6917    1.0000 </r>
       <r>   -0.6607    1.0000 </r>
       <r>   -0.6566    1.0000 </r>
       <r>   -0.6326    1.0000 </r>
       <r>   -0.6102    1.0000 </r>
       <r>   -0.6006    1.0000 </r>
       <r>   -0.5888    1.0000 </r>
       <r>   -0.5767    1.0000 </r>
       <r>   -0.5632    1.0000 </r>
       <r>   -0.5352    1.0000 </r>
       <r>   -0.5244    1.0000 </r>
       <r>   -0.4994    1.0000 </r>
       <r>   -0.4823    1.0000 </r>
       <r>   -0.4612    1.0000 </r>
       <r>   -0.4498    1.0000 </r>
       <r>   -0.4308    1.0000 </r>
       <r>   -0.4095    1.0000 </r>
       <r>   -0.3944    1.0000 </r>
       <r>   -0.3818    1.0000 </r>
       <r>   -0.3667    1.0000 </r>
       <r>   -0.3466    1.0000 </r>
       <r>   -0.3153    1.0000 </r>
       <r>   -0.2888    1.0000 </r>
       <r>   -0.2760    1.0000 </r>
       <r>   -0.2560    1.0000 </r>
       <r>   -0.2410    1.0000 </r>
       <r>   -0.2215    1.0000 </r>
       <r>   -0.2092    1.0000 </r>
       <r>   -0.1971    1.0000 </r>
       <r>   -0.1726    1.0000 </r>
       <r>   -0.1458    1.0000 </r>
       <r>   -0.1369    1.0000 </r>
       <r>   -0.1189    1.0000 </r>
       <r>   -0.0942    1.0000 </r>
       <r>   -0.0801    1.0000 </r>
       <r>   -0.0658    1.0000 </r>
       <r>   -0.0526    1.0000 </r>
       <r>   -0.0245    1.0000 </r>
       <r>   -0.0085    1.0000 </r>
       <r>    0.0164    1.0000 </r>
       <r>    0.0303    1.0000 </r>
       <r>    0.0611    1.0000 </r>
       <r>    0.0812    1.0000 </r>
       <r>    0.1051    1.0000 </r>
       <r>    0.1585    1.0000 </r>
       <r>    0.1650    1.0000 </r>
       <r>    0.1981    1.0000 </r>
       <r>    0.2158    1.0000 </r>
       <r>    0.2343    1.0000 </r>
       <r>    0.2653    1.0000 </r>
       <r>    0.2832    1.0000 </r>
       <r>    0.3037    1.0000 </r>
       <r>    0.3337    1.0001 </r>
       <r>    0.3494    1.0001 </r>
       <r>    0.3756    1.0002 </r>
       <r>    0.3927    1.0004 </r>
       <r>    0.4213    1.0010 </r>
       <r>    0.4332    1.0015 </r>
       <r>    0.4684    1.0039 </r>
       <r>    0.5101    1.0099 </r>
       <r>    0.5478    1.0195 </r>
       <r>    0.5678    1.0256 </r>
       <r>    0.5931    1.0326 </r>
       <r>    0.6409    1.0302 </r>
       <r>    0.6499    1.0250 </r>
       <r>    0.6797    0.9899 </r>
       <r>    0.7073    0.9269 </r>
       <r>    0.7559    0.7355 </r>
       <r>    0.7781    0.6204 </r>
       <r>    0.8041    0.4749 </r>
       <r>    0.8285    0.3407 </r>
       <r>    0.8810    0.1076 </r>
       <r>    0.9208    0.0081 </r>
       <r>    0.9223    0.0055 </r>
       <r>    0.9590   -0.0304 </r>
       <r>    0.9662   -0.0331 </r>
       <r>    1.0065   -0.0325 </r>
       <r>    1.0246   -0.0277 </r>
       <r>    1.0436   -0.0218 </r>
       <r>    1.0508   -0.0197 </r>
       <r>    1.0772   -0.0126 </r>
       <r>    1.1007   -0.0078 </r>
       <r>    1.1284   -0.0041 </r>
       <r>    1.1605   -0.0017 </r>
       <r>    1.1896   -0.0007 </r>
       <r>    1.2033   -0.0005 </r>
       <r>    1.2238   -0.0002 </r>
       <r>    1.2308   -0.0002 </r>
       <r>    1.2577   -0.0001 </r>
       <r>    1.2756   -0.0000 </r>
       <r>    1.2967   -0.0000 </r>
       <r>    1.3293   -0.0000 </r>
       <r>    1.3452   -0.0000 </r>
       <r>    1.3560   -0.0000 </r>
       <r>    1.3941   -0.0000 </r>
       <r>    1.4165   -0.0000 </r>
       <r>    1.4233   -0.0000 </r>
       <r>    1.4440   -0.0000 </r>
       <r>    1.4598   -0.0000 </r>
       <r>    1.4652   -0.0000 </r>
       <r>    1.4919   -0.0000 </r>
       <r>    1.5024   -0.0000 </r>
       <r>    1.5222   -0.0000 </r>
       <r>    1.5411   -0.0000 </r>
       <r>    1.5493   -0.0000 </r>
       <r>    1.5667   -0.0000 </r>
       <r>    1.5736   -0.0000 </r>
       <r>    1.5895   -0.0000 </r>
       <r>    1.6070   -0.0000 </r>
       <r>    1.6140   -0.0000 </r>
       <r>    1.6367   -0.0000 </r>
       <r>    1.6503   -0.0000 </r>
       <r>    1.6604   -0.0000 </r>
       <r>    1.6743   -0.0000 </r>
       <r>    1.6816   -0.0000 </r>
       <r>    1.6957   -0.0000 </r>
       <r>    1.7258   -0.0000 </r>
       <r>    1.7315   -0.0000 </r>
       <r>    1.7440   -0.0000 </r>
       <r>    1.7593   -0.0000 </r>
       <r>    1.7736   -0.0000 </r>
       <r>    1.7817   -0.0000 </r>
       <r>    1.7960   -0.0000 </r>
       <r>    1.8160   -0.0000 </r>
       <r>    1.8252   -0.0000 </r>
       <r>    1.8383   -0.0000 </r>
       <r>    1.8504   -0.0000 </r>
       <r>    1.8711   -0.0000 </r>
       <r>    1.8864   -0.0000 </r>
       <r>    1.8957   -0.0000 </r>
       <r>    1.9014   -0.0000 </r>
       <r>    1.9083   -0.0000 </r>
       <r>    1.9186   -0.0000 </r>
       <r>    1.9316   -0.0000 </r>
       <r>    1.9379   -0.0000 </r>
       <r>    1.9512   -0.0000 </r>
       <r>    1.9674   -0.0000 </r>
       <r>    1.9748   -0.0000 </r>
       <r>    1.9897   -0.0000 </r>
       <r>    1.9968   -0.0000 </r>
       <r>    2.0051   -0.0000 </r>
       <r>    2.0186   -0.0000 </r>
       <r>    2.0246   -0.0000 </r>
       <r>    2.0382   -0.0000 </r>
       <r>    2.0544   -0.0000 </r>
       <r>    2.0620   -0.0000 </r>
       <r>    2.0760   -0.0000 </r>
       <r>    2.0877   -0.0000 </r>
       <r>    2.1006   -0.0000 </r>
       <r>    2.1115   -0.0000 </r>
       <r>    2.1198   -0.0000 </r>
       <r>    2.1323   -0.0000 </r>
       <r>    2.1403   -0.0000 </r>
       <r>    2.1509   -0.0000 </r>
       <r>    2.1707   -0.0000 </r>
       <r>    2.1759   -0.0000 </r>
       <r>    2.1916   -0.0000 </r>
       <r>    2.1967   -0.0000 </r>
       <r>    2.2036   -0.0000 </r>
       <r>    2.2112   -0.0000 </r>
       <r>    2.2209   -0.0000 </r>
       <r>    2.2359   -0.0000 </r>
       <r>    2.2452   -0.0000 </r>
       <r>    2.2519   -0.0000 </r>
       <r>    2.2654   -0.0000 </r>
       <r>    2.2769   -0.0000 </r>
       <r>    2.2873   -0.0000 </r>
       <r>    2.2993   -0.0000 </r>
       <r>    2.3051   -0.0000 </r>
       <r>    2.3195   -0.0000 </r>
       <r>    2.3332   -0.0000 </r>
       <r>    2.3403   -0.0000 </r>
       <r>    2.3507   -0.0000 </r>
       <r>    2.3683   -0.0000 </r>
       <r>    2.3716   -0.0000 </r>
       <r>    2.3843   -0.0000 </r>
       <r>    2.3880   -0.0000 </r>
       <r>    2.3955   -0.0000 </r>
       <r>    2.4021   -0.0000 </r>
       <r>    2.4169   -0.0000 </r>
       <r>    2.4250   -0.0000 </r>
       <r>    2.4309   -0.0000 </r>
       <r>    2.4569   -0.0000 </r>
       <r>    2.4776   -0.0000 </r>
       <r>    2.4964   -0.0000 </r>
       <r>    2.5179   -0.0000 </r>
       <r>    2.5241   -0.0000 </r>
       <r>    2.5387   -0.0000 </r>
       <r>    2.5581   -0.0000 </r>
       <r>    2.5713   -0.0000 </r>
       <r>    2.5818   -0.0000 </r>
       <r>    2.5905   -0.0000 </r>
       <r>    2.6111   -0.0000 </r>
       <r>    2.6164   -0.0000 </r>
       <r>    2.6409   -0.0000 </r>
       <r>    2.6421   -0.0000 </r>
       <r>    2.6686   -0.0000 </r>
       <r>    2.6725   -0.0000 </r>
       <r>    2.6914   -0.0000 </r>
       <r>    2.7002   -0.0000 </r>
       <r>    2.7185   -0.0000 </r>
       <r>    2.7314   -0.0000 </r>
       <r>    2.7397   -0.0000 </r>
       <r>    2.7654   -0.0000 </r>
      </set>
      <set comment="kpoint 6">
       <r>  -43.5307    1.0000 </r>
       <r>  -43.5273    1.0000 </r>
       <r>  -43.5105    1.0000 </r>
       <r>  -43.5022    1.0000 </r>
       <r>  -43.4996    1.0000 </r>
       <r>  -43.4825    1.0000 </r>
       <r>  -43.4770    1.0000 </r>
       <r>  -43.4701    1.0000 </r>
       <r>  -43.4566    1.0000 </r>
       <r>  -43.4505    1.0000 </r>
       <r>  -43.4415    1.0000 </r>
       <r>  -43.4338    1.0000 </r>
       <r>  -43.4211    1.0000 </r>
       <r>  -43.4191    1.0000 </r>
       <r>  -43.4096    1.0000 </r>
       <r>  -43.3458    1.0000 </r>
       <r>  -43.3166    1.0000 </r>
       <r>  -43.2993    1.0000 </r>
       <r>  -43.2537    1.0000 </r>
       <r>  -43.1923    1.0000 </r>
       <r>  -43.1763    1.0000 </r>
       <r>  -43.1717    1.0000 </r>
       <r>  -43.1173    1.0000 </r>
       <r>  -42.9702    1.0000 </r>
       <r>  -42.9663    1.0000 </r>
       <r>  -42.9523    1.0000 </r>
       <r>  -42.8238    1.0000 </r>
       <r>  -42.7841    1.0000 </r>
       <r>  -42.7721    1.0000 </r>
       <r>  -42.6752    1.0000 </r>
       <r>  -42.6120    1.0000 </r>
       <r>  -42.4694    1.0000 </r>
       <r>  -42.3736    1.0000 </r>
       <r>  -42.3099    1.0000 </r>
       <r>  -42.1829    1.0000 </r>
       <r>  -42.0078    1.0000 </r>
       <r>  -39.8884    1.0000 </r>
       <r>  -39.8061    1.0000 </r>
       <r>  -39.7987    1.0000 </r>
       <r>  -39.7278    1.0000 </r>
       <r>  -39.6746    1.0000 </r>
       <r>  -39.6159    1.0000 </r>
       <r>   -6.5972    1.0000 </r>
       <r>   -6.5407    1.0000 </r>
       <r>   -5.6862    1.0000 </r>
       <r>   -5.5940    1.0000 </r>
       <r>   -5.5556    1.0000 </r>
       <r>   -5.4854    1.0000 </r>
       <r>   -4.7232    1.0000 </r>
       <r>   -4.6171    1.0000 </r>
       <r>   -4.3725    1.0000 </r>
       <r>   -4.2219    1.0000 </r>
       <r>   -3.9148    1.0000 </r>
       <r>   -3.8526    1.0000 </r>
       <r>   -3.5958    1.0000 </r>
       <r>   -3.4602    1.0000 </r>
       <r>   -3.3811    1.0000 </r>
       <r>   -3.3138    1.0000 </r>
       <r>   -3.2888    1.0000 </r>
       <r>   -3.2442    1.0000 </r>
       <r>   -3.1974    1.0000 </r>
       <r>   -3.1749    1.0000 </r>
       <r>   -3.1301    1.0000 </r>
       <r>   -3.0730    1.0000 </r>
       <r>   -3.0465    1.0000 </r>
       <r>   -3.0191    1.0000 </r>
       <r>   -2.9889    1.0000 </r>
       <r>   -2.9366    1.0000 </r>
       <r>   -2.8945    1.0000 </r>
       <r>   -2.8858    1.0000 </r>
       <r>   -2.8218    1.0000 </r>
       <r>   -2.6689    1.0000 </r>
       <r>   -2.6421    1.0000 </r>
       <r>   -2.6379    1.0000 </r>
       <r>   -2.5989    1.0000 </r>
       <r>   -2.5577    1.0000 </r>
       <r>   -2.5252    1.0000 </r>
       <r>   -2.5062    1.0000 </r>
       <r>   -2.4730    1.0000 </r>
       <r>   -2.4516    1.0000 </r>
       <r>   -2.4105    1.0000 </r>
       <r>   -2.3896    1.0000 </r>
       <r>   -2.3837    1.0000 </r>
       <r>   -2.3236    1.0000 </r>
       <r>   -2.2893    1.0000 </r>
       <r>   -2.2799    1.0000 </r>
       <r>   -2.2648    1.0000 </r>
       <r>   -2.2197    1.0000 </r>
       <r>   -2.1972    1.0000 </r>
       <r>   -2.1573    1.0000 </r>
       <r>   -2.1230    1.0000 </r>
       <r>   -2.1066    1.0000 </r>
       <r>   -2.0638    1.0000 </r>
       <r>   -2.0563    1.0000 </r>
       <r>   -2.0268    1.0000 </r>
       <r>   -1.9941    1.0000 </r>
       <r>   -1.9798    1.0000 </r>
       <r>   -1.9338    1.0000 </r>
       <r>   -1.8942    1.0000 </r>
       <r>   -1.8672    1.0000 </r>
       <r>   -1.8513    1.0000 </r>
       <r>   -1.8312    1.0000 </r>
       <r>   -1.8067    1.0000 </r>
       <r>   -1.7797    1.0000 </r>
       <r>   -1.7611    1.0000 </r>
       <r>   -1.7548    1.0000 </r>
       <r>   -1.6956    1.0000 </r>
       <r>   -1.6736    1.0000 </r>
       <r>   -1.6479    1.0000 </r>
       <r>   -1.6223    1.0000 </r>
       <r>   -1.6007    1.0000 </r>
       <r>   -1.5778    1.0000 </r>
       <r>   -1.5575    1.0000 </r>
       <r>   -1.5440    1.0000 </r>
       <r>   -1.5100    1.0000 </r>
       <r>   -1.4924    1.0000 </r>
       <r>   -1.4618    1.0000 </r>
       <r>   -1.4377    1.0000 </r>
       <r>   -1.4325    1.0000 </r>
       <r>   -1.4189    1.0000 </r>
       <r>   -1.3834    1.0000 </r>
       <r>   -1.3741    1.0000 </r>
       <r>   -1.3588    1.0000 </r>
       <r>   -1.3359    1.0000 </r>
       <r>   -1.3155    1.0000 </r>
       <r>   -1.3008    1.0000 </r>
       <r>   -1.2733    1.0000 </r>
       <r>   -1.2572    1.0000 </r>
       <r>   -1.2479    1.0000 </r>
       <r>   -1.2299    1.0000 </r>
       <r>   -1.2232    1.0000 </r>
       <r>   -1.1844    1.0000 </r>
       <r>   -1.1558    1.0000 </r>
       <r>   -1.1504    1.0000 </r>
       <r>   -1.1229    1.0000 </r>
       <r>   -1.1164    1.0000 </r>
       <r>   -1.0863    1.0000 </r>
       <r>   -1.0693    1.0000 </r>
       <r>   -1.0548    1.0000 </r>
       <r>   -1.0281    1.0000 </r>
       <r>   -1.0151    1.0000 </r>
       <r>   -0.9879    1.0000 </r>
       <r>   -0.9524    1.0000 </r>
       <r>   -0.9391    1.0000 </r>
       <r>   -0.9101    1.0000 </r>
       <r>   -0.8900    1.0000 </r>
       <r>   -0.8722    1.0000 </r>
       <r>   -0.8569    1.0000 </r>
       <r>   -0.8417    1.0000 </r>
       <r>   -0.8094    1.0000 </r>
       <r>   -0.8010    1.0000 </r>
       <r>   -0.7859    1.0000 </r>
       <r>   -0.7656    1.0000 </r>
       <r>   -0.7545    1.0000 </r>
       <r>   -0.7414    1.0000 </r>
       <r>   -0.7126    1.0000 </r>
       <r>   -0.7021    1.0000 </r>
       <r>   -0.6723    1.0000 </r>
       <r>   -0.6609    1.0000 </r>
       <r>   -0.6496    1.0000 </r>
       <r>   -0.6308    1.0000 </r>
       <r>   -0.6194    1.0000 </r>
       <r>   -0.5984    1.0000 </r>
       <r>   -0.5809    1.0000 </r>
       <r>   -0.5687    1.0000 </r>
       <r>   -0.5532    1.0000 </r>
       <r>   -0.5440    1.0000 </r>
       <r>   -0.5227    1.0000 </r>
       <r>   -0.5134    1.0000 </r>
       <r>   -0.5089    1.0000 </r>
       <r>   -0.4954    1.0000 </r>
       <r>   -0.4635    1.0000 </r>
       <r>   -0.4561    1.0000 </r>
       <r>   -0.4378    1.0000 </r>
       <r>   -0.4169    1.0000 </r>
       <r>   -0.4079    1.0000 </r>
       <r>   -0.3953    1.0000 </r>
       <r>   -0.3761    1.0000 </r>
       <r>   -0.3680    1.0000 </r>
       <r>   -0.3587    1.0000 </r>
       <r>   -0.3335    1.0000 </r>
       <r>   -0.3161    1.0000 </r>
       <r>   -0.3016    1.0000 </r>
       <r>   -0.2702    1.0000 </r>
       <r>   -0.2636    1.0000 </r>
       <r>   -0.2477    1.0000 </r>
       <r>   -0.2348    1.0000 </r>
       <r>   -0.2166    1.0000 </r>
       <r>   -0.1924    1.0000 </r>
       <r>   -0.1616    1.0000 </r>
       <r>   -0.1506    1.0000 </r>
       <r>   -0.1310    1.0000 </r>
       <r>   -0.1130    1.0000 </r>
       <r>   -0.0931    1.0000 </r>
       <r>   -0.0606    1.0000 </r>
       <r>   -0.0381    1.0000 </r>
       <r>   -0.0176    1.0000 </r>
       <r>   -0.0062    1.0000 </r>
       <r>    0.0103    1.0000 </r>
       <r>    0.0271    1.0000 </r>
       <r>    0.0661    1.0000 </r>
       <r>    0.0779    1.0000 </r>
       <r>    0.0969    1.0000 </r>
       <r>    0.1125    1.0000 </r>
       <r>    0.1551    1.0000 </r>
       <r>    0.1806    1.0000 </r>
       <r>    0.1988    1.0000 </r>
       <r>    0.2337    1.0000 </r>
       <r>    0.2751    1.0000 </r>
       <r>    0.3124    1.0000 </r>
       <r>    0.3291    1.0000 </r>
       <r>    0.3390    1.0001 </r>
       <r>    0.3718    1.0002 </r>
       <r>    0.3773    1.0003 </r>
       <r>    0.4058    1.0006 </r>
       <r>    0.4428    1.0020 </r>
       <r>    0.4639    1.0034 </r>
       <r>    0.4711    1.0041 </r>
       <r>    0.5143    1.0108 </r>
       <r>    0.5286    1.0142 </r>
       <r>    0.5597    1.0231 </r>
       <r>    0.5714    1.0267 </r>
       <r>    0.5969    1.0334 </r>
       <r>    0.6359    1.0322 </r>
       <r>    0.6622    1.0142 </r>
       <r>    0.7100    0.9190 </r>
       <r>    0.7380    0.8174 </r>
       <r>    0.7724    0.6509 </r>
       <r>    0.8265    0.3511 </r>
       <r>    0.8329    0.3173 </r>
       <r>    0.8788    0.1151 </r>
       <r>    0.9005    0.0501 </r>
       <r>    0.9328   -0.0092 </r>
       <r>    0.9835   -0.0355 </r>
       <r>    1.0069   -0.0324 </r>
       <r>    1.0237   -0.0279 </r>
       <r>    1.0401   -0.0229 </r>
       <r>    1.0585   -0.0175 </r>
       <r>    1.0762   -0.0128 </r>
       <r>    1.1106   -0.0063 </r>
       <r>    1.1199   -0.0050 </r>
       <r>    1.1320   -0.0038 </r>
       <r>    1.1808   -0.0010 </r>
       <r>    1.1943   -0.0006 </r>
       <r>    1.2327   -0.0002 </r>
       <r>    1.2503   -0.0001 </r>
       <r>    1.2848   -0.0000 </r>
       <r>    1.3025   -0.0000 </r>
       <r>    1.3175   -0.0000 </r>
       <r>    1.3277   -0.0000 </r>
       <r>    1.3391   -0.0000 </r>
       <r>    1.3672   -0.0000 </r>
       <r>    1.3886   -0.0000 </r>
       <r>    1.3982   -0.0000 </r>
       <r>    1.4174   -0.0000 </r>
       <r>    1.4497   -0.0000 </r>
       <r>    1.4606   -0.0000 </r>
       <r>    1.4728   -0.0000 </r>
       <r>    1.4975   -0.0000 </r>
       <r>    1.5253   -0.0000 </r>
       <r>    1.5339   -0.0000 </r>
       <r>    1.5523   -0.0000 </r>
       <r>    1.5594   -0.0000 </r>
       <r>    1.5749   -0.0000 </r>
       <r>    1.5891   -0.0000 </r>
       <r>    1.6035   -0.0000 </r>
       <r>    1.6217   -0.0000 </r>
       <r>    1.6404   -0.0000 </r>
       <r>    1.6502   -0.0000 </r>
       <r>    1.6694   -0.0000 </r>
       <r>    1.6808   -0.0000 </r>
       <r>    1.6952   -0.0000 </r>
       <r>    1.7020   -0.0000 </r>
       <r>    1.7169   -0.0000 </r>
       <r>    1.7250   -0.0000 </r>
       <r>    1.7350   -0.0000 </r>
       <r>    1.7597   -0.0000 </r>
       <r>    1.7681   -0.0000 </r>
       <r>    1.7783   -0.0000 </r>
       <r>    1.7910   -0.0000 </r>
       <r>    1.7980   -0.0000 </r>
       <r>    1.8225   -0.0000 </r>
       <r>    1.8287   -0.0000 </r>
       <r>    1.8351   -0.0000 </r>
       <r>    1.8492   -0.0000 </r>
       <r>    1.8539   -0.0000 </r>
       <r>    1.8644   -0.0000 </r>
       <r>    1.8753   -0.0000 </r>
       <r>    1.8877   -0.0000 </r>
       <r>    1.8989   -0.0000 </r>
       <r>    1.9128   -0.0000 </r>
       <r>    1.9210   -0.0000 </r>
       <r>    1.9326   -0.0000 </r>
       <r>    1.9482   -0.0000 </r>
       <r>    1.9540   -0.0000 </r>
       <r>    1.9683   -0.0000 </r>
       <r>    1.9761   -0.0000 </r>
       <r>    1.9835   -0.0000 </r>
       <r>    1.9987   -0.0000 </r>
       <r>    2.0124   -0.0000 </r>
       <r>    2.0256   -0.0000 </r>
       <r>    2.0370   -0.0000 </r>
       <r>    2.0484   -0.0000 </r>
       <r>    2.0574   -0.0000 </r>
       <r>    2.0710   -0.0000 </r>
       <r>    2.0810   -0.0000 </r>
       <r>    2.0949   -0.0000 </r>
       <r>    2.1070   -0.0000 </r>
       <r>    2.1186   -0.0000 </r>
       <r>    2.1348   -0.0000 </r>
       <r>    2.1402   -0.0000 </r>
       <r>    2.1539   -0.0000 </r>
       <r>    2.1647   -0.0000 </r>
       <r>    2.1690   -0.0000 </r>
       <r>    2.1794   -0.0000 </r>
       <r>    2.1874   -0.0000 </r>
       <r>    2.2001   -0.0000 </r>
       <r>    2.2034   -0.0000 </r>
       <r>    2.2135   -0.0000 </r>
       <r>    2.2235   -0.0000 </r>
       <r>    2.2323   -0.0000 </r>
       <r>    2.2502   -0.0000 </r>
       <r>    2.2600   -0.0000 </r>
       <r>    2.2719   -0.0000 </r>
       <r>    2.2851   -0.0000 </r>
       <r>    2.2939   -0.0000 </r>
       <r>    2.3082   -0.0000 </r>
       <r>    2.3192   -0.0000 </r>
       <r>    2.3291   -0.0000 </r>
       <r>    2.3358   -0.0000 </r>
       <r>    2.3451   -0.0000 </r>
       <r>    2.3609   -0.0000 </r>
       <r>    2.3663   -0.0000 </r>
       <r>    2.3770   -0.0000 </r>
       <r>    2.3834   -0.0000 </r>
       <r>    2.3876   -0.0000 </r>
       <r>    2.3969   -0.0000 </r>
       <r>    2.4132   -0.0000 </r>
       <r>    2.4212   -0.0000 </r>
       <r>    2.4247   -0.0000 </r>
       <r>    2.4336   -0.0000 </r>
       <r>    2.4472   -0.0000 </r>
       <r>    2.4538   -0.0000 </r>
       <r>    2.4607   -0.0000 </r>
       <r>    2.4711   -0.0000 </r>
       <r>    2.4885   -0.0000 </r>
       <r>    2.4929   -0.0000 </r>
       <r>    2.4962   -0.0000 </r>
       <r>    2.5168   -0.0000 </r>
       <r>    2.5388   -0.0000 </r>
       <r>    2.5813   -0.0000 </r>
       <r>    2.5982   -0.0000 </r>
       <r>    2.6027   -0.0000 </r>
       <r>    2.6359   -0.0000 </r>
       <r>    2.6502   -0.0000 </r>
       <r>    2.6673   -0.0000 </r>
       <r>    2.6728   -0.0000 </r>
       <r>    2.6881   -0.0000 </r>
       <r>    2.7011   -0.0000 </r>
       <r>    2.7428   -0.0000 </r>
       <r>    2.7581   -0.0000 </r>
       <r>    2.8096   -0.0000 </r>
       <r>    2.8385   -0.0000 </r>
      </set>
      <set comment="kpoint 7">
       <r>  -43.5307    1.0000 </r>
       <r>  -43.5273    1.0000 </r>
       <r>  -43.5105    1.0000 </r>
       <r>  -43.5022    1.0000 </r>
       <r>  -43.4996    1.0000 </r>
       <r>  -43.4825    1.0000 </r>
       <r>  -43.4770    1.0000 </r>
       <r>  -43.4701    1.0000 </r>
       <r>  -43.4566    1.0000 </r>
       <r>  -43.4505    1.0000 </r>
       <r>  -43.4415    1.0000 </r>
       <r>  -43.4338    1.0000 </r>
       <r>  -43.4211    1.0000 </r>
       <r>  -43.4191    1.0000 </r>
       <r>  -43.4096    1.0000 </r>
       <r>  -43.3458    1.0000 </r>
       <r>  -43.3167    1.0000 </r>
       <r>  -43.2993    1.0000 </r>
       <r>  -43.2537    1.0000 </r>
       <r>  -43.1923    1.0000 </r>
       <r>  -43.1763    1.0000 </r>
       <r>  -43.1717    1.0000 </r>
       <r>  -43.1173    1.0000 </r>
       <r>  -42.9702    1.0000 </r>
       <r>  -42.9663    1.0000 </r>
       <r>  -42.9523    1.0000 </r>
       <r>  -42.8238    1.0000 </r>
       <r>  -42.7841    1.0000 </r>
       <r>  -42.7721    1.0000 </r>
       <r>  -42.6752    1.0000 </r>
       <r>  -42.6120    1.0000 </r>
       <r>  -42.4694    1.0000 </r>
       <r>  -42.3736    1.0000 </r>
       <r>  -42.3099    1.0000 </r>
       <r>  -42.1829    1.0000 </r>
       <r>  -42.0078    1.0000 </r>
       <r>  -39.8884    1.0000 </r>
       <r>  -39.8061    1.0000 </r>
       <r>  -39.7987    1.0000 </r>
       <r>  -39.7278    1.0000 </r>
       <r>  -39.6746    1.0000 </r>
       <r>  -39.6159    1.0000 </r>
       <r>   -6.9839    1.0000 </r>
       <r>   -6.0262    1.0000 </r>
       <r>   -5.9307    1.0000 </r>
       <r>   -5.8726    1.0000 </r>
       <r>   -5.0555    1.0000 </r>
       <r>   -5.0408    1.0000 </r>
       <r>   -4.9349    1.0000 </r>
       <r>   -4.6227    1.0000 </r>
       <r>   -4.1712    1.0000 </r>
       <r>   -4.1335    1.0000 </r>
       <r>   -4.1063    1.0000 </r>
       <r>   -3.8974    1.0000 </r>
       <r>   -3.8153    1.0000 </r>
       <r>   -3.6535    1.0000 </r>
       <r>   -3.6288    1.0000 </r>
       <r>   -3.5637    1.0000 </r>
       <r>   -3.5282    1.0000 </r>
       <r>   -3.2823    1.0000 </r>
       <r>   -3.2463    1.0000 </r>
       <r>   -3.1861    1.0000 </r>
       <r>   -3.1333    1.0000 </r>
       <r>   -3.0528    1.0000 </r>
       <r>   -2.9746    1.0000 </r>
       <r>   -2.9527    1.0000 </r>
       <r>   -2.9102    1.0000 </r>
       <r>   -2.8818    1.0000 </r>
       <r>   -2.8306    1.0000 </r>
       <r>   -2.8144    1.0000 </r>
       <r>   -2.7646    1.0000 </r>
       <r>   -2.7009    1.0000 </r>
       <r>   -2.6726    1.0000 </r>
       <r>   -2.6052    1.0000 </r>
       <r>   -2.5728    1.0000 </r>
       <r>   -2.5409    1.0000 </r>
       <r>   -2.5178    1.0000 </r>
       <r>   -2.4952    1.0000 </r>
       <r>   -2.4093    1.0000 </r>
       <r>   -2.4017    1.0000 </r>
       <r>   -2.3733    1.0000 </r>
       <r>   -2.3546    1.0000 </r>
       <r>   -2.3288    1.0000 </r>
       <r>   -2.2981    1.0000 </r>
       <r>   -2.2848    1.0000 </r>
       <r>   -2.2727    1.0000 </r>
       <r>   -2.2303    1.0000 </r>
       <r>   -2.1940    1.0000 </r>
       <r>   -2.1764    1.0000 </r>
       <r>   -2.1469    1.0000 </r>
       <r>   -2.1282    1.0000 </r>
       <r>   -2.1118    1.0000 </r>
       <r>   -2.0725    1.0000 </r>
       <r>   -2.0376    1.0000 </r>
       <r>   -2.0206    1.0000 </r>
       <r>   -2.0144    1.0000 </r>
       <r>   -1.9491    1.0000 </r>
       <r>   -1.9007    1.0000 </r>
       <r>   -1.8764    1.0000 </r>
       <r>   -1.8716    1.0000 </r>
       <r>   -1.8529    1.0000 </r>
       <r>   -1.8206    1.0000 </r>
       <r>   -1.7780    1.0000 </r>
       <r>   -1.7287    1.0000 </r>
       <r>   -1.6936    1.0000 </r>
       <r>   -1.6740    1.0000 </r>
       <r>   -1.6506    1.0000 </r>
       <r>   -1.6239    1.0000 </r>
       <r>   -1.6096    1.0000 </r>
       <r>   -1.6008    1.0000 </r>
       <r>   -1.5714    1.0000 </r>
       <r>   -1.5556    1.0000 </r>
       <r>   -1.5330    1.0000 </r>
       <r>   -1.5081    1.0000 </r>
       <r>   -1.4967    1.0000 </r>
       <r>   -1.4716    1.0000 </r>
       <r>   -1.4487    1.0000 </r>
       <r>   -1.4265    1.0000 </r>
       <r>   -1.4164    1.0000 </r>
       <r>   -1.3978    1.0000 </r>
       <r>   -1.3873    1.0000 </r>
       <r>   -1.3660    1.0000 </r>
       <r>   -1.3513    1.0000 </r>
       <r>   -1.3173    1.0000 </r>
       <r>   -1.3016    1.0000 </r>
       <r>   -1.2904    1.0000 </r>
       <r>   -1.2739    1.0000 </r>
       <r>   -1.2423    1.0000 </r>
       <r>   -1.2332    1.0000 </r>
       <r>   -1.2214    1.0000 </r>
       <r>   -1.1997    1.0000 </r>
       <r>   -1.1795    1.0000 </r>
       <r>   -1.1649    1.0000 </r>
       <r>   -1.1399    1.0000 </r>
       <r>   -1.1277    1.0000 </r>
       <r>   -1.1020    1.0000 </r>
       <r>   -1.0849    1.0000 </r>
       <r>   -1.0634    1.0000 </r>
       <r>   -1.0561    1.0000 </r>
       <r>   -1.0400    1.0000 </r>
       <r>   -1.0194    1.0000 </r>
       <r>   -0.9912    1.0000 </r>
       <r>   -0.9789    1.0000 </r>
       <r>   -0.9560    1.0000 </r>
       <r>   -0.9355    1.0000 </r>
       <r>   -0.9212    1.0000 </r>
       <r>   -0.8969    1.0000 </r>
       <r>   -0.8745    1.0000 </r>
       <r>   -0.8628    1.0000 </r>
       <r>   -0.8529    1.0000 </r>
       <r>   -0.8345    1.0000 </r>
       <r>   -0.8028    1.0000 </r>
       <r>   -0.7943    1.0000 </r>
       <r>   -0.7804    1.0000 </r>
       <r>   -0.7670    1.0000 </r>
       <r>   -0.7438    1.0000 </r>
       <r>   -0.7196    1.0000 </r>
       <r>   -0.7075    1.0000 </r>
       <r>   -0.6873    1.0000 </r>
       <r>   -0.6776    1.0000 </r>
       <r>   -0.6564    1.0000 </r>
       <r>   -0.6525    1.0000 </r>
       <r>   -0.6348    1.0000 </r>
       <r>   -0.6251    1.0000 </r>
       <r>   -0.6151    1.0000 </r>
       <r>   -0.5945    1.0000 </r>
       <r>   -0.5813    1.0000 </r>
       <r>   -0.5548    1.0000 </r>
       <r>   -0.5363    1.0000 </r>
       <r>   -0.5263    1.0000 </r>
       <r>   -0.4992    1.0000 </r>
       <r>   -0.4931    1.0000 </r>
       <r>   -0.4566    1.0000 </r>
       <r>   -0.4468    1.0000 </r>
       <r>   -0.4315    1.0000 </r>
       <r>   -0.4065    1.0000 </r>
       <r>   -0.3836    1.0000 </r>
       <r>   -0.3653    1.0000 </r>
       <r>   -0.3502    1.0000 </r>
       <r>   -0.3299    1.0000 </r>
       <r>   -0.3178    1.0000 </r>
       <r>   -0.3012    1.0000 </r>
       <r>   -0.2886    1.0000 </r>
       <r>   -0.2763    1.0000 </r>
       <r>   -0.2513    1.0000 </r>
       <r>   -0.2220    1.0000 </r>
       <r>   -0.1937    1.0000 </r>
       <r>   -0.1772    1.0000 </r>
       <r>   -0.1653    1.0000 </r>
       <r>   -0.1394    1.0000 </r>
       <r>   -0.1330    1.0000 </r>
       <r>   -0.1056    1.0000 </r>
       <r>   -0.0916    1.0000 </r>
       <r>   -0.0728    1.0000 </r>
       <r>   -0.0497    1.0000 </r>
       <r>   -0.0432    1.0000 </r>
       <r>   -0.0355    1.0000 </r>
       <r>   -0.0087    1.0000 </r>
       <r>    0.0091    1.0000 </r>
       <r>    0.0281    1.0000 </r>
       <r>    0.0460    1.0000 </r>
       <r>    0.0836    1.0000 </r>
       <r>    0.1036    1.0000 </r>
       <r>    0.1303    1.0000 </r>
       <r>    0.1704    1.0000 </r>
       <r>    0.2004    1.0000 </r>
       <r>    0.2102    1.0000 </r>
       <r>    0.2371    1.0000 </r>
       <r>    0.2636    1.0000 </r>
       <r>    0.2960    1.0000 </r>
       <r>    0.3037    1.0000 </r>
       <r>    0.3207    1.0000 </r>
       <r>    0.3634    1.0002 </r>
       <r>    0.3831    1.0003 </r>
       <r>    0.3968    1.0005 </r>
       <r>    0.4285    1.0013 </r>
       <r>    0.4413    1.0019 </r>
       <r>    0.4832    1.0055 </r>
       <r>    0.4953    1.0073 </r>
       <r>    0.5394    1.0170 </r>
       <r>    0.5665    1.0252 </r>
       <r>    0.5898    1.0318 </r>
       <r>    0.6387    1.0311 </r>
       <r>    0.6620    1.0143 </r>
       <r>    0.6946    0.9599 </r>
       <r>    0.7163    0.8990 </r>
       <r>    0.7398    0.8099 </r>
       <r>    0.7802    0.6089 </r>
       <r>    0.8039    0.4760 </r>
       <r>    0.8146    0.4161 </r>
       <r>    0.8505    0.2305 </r>
       <r>    0.8973    0.0583 </r>
       <r>    0.9289   -0.0041 </r>
       <r>    0.9704   -0.0342 </r>
       <r>    0.9873   -0.0354 </r>
       <r>    0.9925   -0.0349 </r>
       <r>    1.0088   -0.0320 </r>
       <r>    1.0387   -0.0234 </r>
       <r>    1.0517   -0.0194 </r>
       <r>    1.0770   -0.0126 </r>
       <r>    1.0934   -0.0091 </r>
       <r>    1.1206   -0.0050 </r>
       <r>    1.1438   -0.0028 </r>
       <r>    1.1531   -0.0022 </r>
       <r>    1.1843   -0.0009 </r>
       <r>    1.2257   -0.0002 </r>
       <r>    1.2455   -0.0001 </r>
       <r>    1.2662   -0.0000 </r>
       <r>    1.2905   -0.0000 </r>
       <r>    1.3021   -0.0000 </r>
       <r>    1.3292   -0.0000 </r>
       <r>    1.3425   -0.0000 </r>
       <r>    1.3638   -0.0000 </r>
       <r>    1.3948   -0.0000 </r>
       <r>    1.4051   -0.0000 </r>
       <r>    1.4299   -0.0000 </r>
       <r>    1.4413   -0.0000 </r>
       <r>    1.4522   -0.0000 </r>
       <r>    1.4712   -0.0000 </r>
       <r>    1.4901   -0.0000 </r>
       <r>    1.5059   -0.0000 </r>
       <r>    1.5188   -0.0000 </r>
       <r>    1.5505   -0.0000 </r>
       <r>    1.5605   -0.0000 </r>
       <r>    1.5708   -0.0000 </r>
       <r>    1.5835   -0.0000 </r>
       <r>    1.5956   -0.0000 </r>
       <r>    1.6100   -0.0000 </r>
       <r>    1.6249   -0.0000 </r>
       <r>    1.6393   -0.0000 </r>
       <r>    1.6492   -0.0000 </r>
       <r>    1.6641   -0.0000 </r>
       <r>    1.6802   -0.0000 </r>
       <r>    1.6930   -0.0000 </r>
       <r>    1.7070   -0.0000 </r>
       <r>    1.7175   -0.0000 </r>
       <r>    1.7443   -0.0000 </r>
       <r>    1.7566   -0.0000 </r>
       <r>    1.7655   -0.0000 </r>
       <r>    1.7727   -0.0000 </r>
       <r>    1.7823   -0.0000 </r>
       <r>    1.7936   -0.0000 </r>
       <r>    1.8037   -0.0000 </r>
       <r>    1.8215   -0.0000 </r>
       <r>    1.8360   -0.0000 </r>
       <r>    1.8540   -0.0000 </r>
       <r>    1.8648   -0.0000 </r>
       <r>    1.8808   -0.0000 </r>
       <r>    1.8903   -0.0000 </r>
       <r>    1.8931   -0.0000 </r>
       <r>    1.9058   -0.0000 </r>
       <r>    1.9191   -0.0000 </r>
       <r>    1.9295   -0.0000 </r>
       <r>    1.9436   -0.0000 </r>
       <r>    1.9512   -0.0000 </r>
       <r>    1.9669   -0.0000 </r>
       <r>    1.9804   -0.0000 </r>
       <r>    1.9911   -0.0000 </r>
       <r>    1.9969   -0.0000 </r>
       <r>    2.0111   -0.0000 </r>
       <r>    2.0182   -0.0000 </r>
       <r>    2.0355   -0.0000 </r>
       <r>    2.0374   -0.0000 </r>
       <r>    2.0569   -0.0000 </r>
       <r>    2.0625   -0.0000 </r>
       <r>    2.0699   -0.0000 </r>
       <r>    2.0800   -0.0000 </r>
       <r>    2.0962   -0.0000 </r>
       <r>    2.1088   -0.0000 </r>
       <r>    2.1162   -0.0000 </r>
       <r>    2.1304   -0.0000 </r>
       <r>    2.1342   -0.0000 </r>
       <r>    2.1481   -0.0000 </r>
       <r>    2.1597   -0.0000 </r>
       <r>    2.1698   -0.0000 </r>
       <r>    2.1759   -0.0000 </r>
       <r>    2.1926   -0.0000 </r>
       <r>    2.2119   -0.0000 </r>
       <r>    2.2297   -0.0000 </r>
       <r>    2.2354   -0.0000 </r>
       <r>    2.2485   -0.0000 </r>
       <r>    2.2511   -0.0000 </r>
       <r>    2.2589   -0.0000 </r>
       <r>    2.2708   -0.0000 </r>
       <r>    2.2776   -0.0000 </r>
       <r>    2.2880   -0.0000 </r>
       <r>    2.2965   -0.0000 </r>
       <r>    2.3112   -0.0000 </r>
       <r>    2.3218   -0.0000 </r>
       <r>    2.3316   -0.0000 </r>
       <r>    2.3432   -0.0000 </r>
       <r>    2.3502   -0.0000 </r>
       <r>    2.3624   -0.0000 </r>
       <r>    2.3764   -0.0000 </r>
       <r>    2.3843   -0.0000 </r>
       <r>    2.3917   -0.0000 </r>
       <r>    2.4046   -0.0000 </r>
       <r>    2.4130   -0.0000 </r>
       <r>    2.4163   -0.0000 </r>
       <r>    2.4291   -0.0000 </r>
       <r>    2.4349   -0.0000 </r>
       <r>    2.4561   -0.0000 </r>
       <r>    2.4695   -0.0000 </r>
       <r>    2.4934   -0.0000 </r>
       <r>    2.5077   -0.0000 </r>
       <r>    2.5216   -0.0000 </r>
       <r>    2.5351   -0.0000 </r>
       <r>    2.5484   -0.0000 </r>
       <r>    2.5636   -0.0000 </r>
       <r>    2.5771   -0.0000 </r>
       <r>    2.5910   -0.0000 </r>
       <r>    2.5988   -0.0000 </r>
       <r>    2.6099   -0.0000 </r>
       <r>    2.6278   -0.0000 </r>
       <r>    2.6490   -0.0000 </r>
       <r>    2.6592   -0.0000 </r>
       <r>    2.6730   -0.0000 </r>
       <r>    2.6897   -0.0000 </r>
       <r>    2.7015   -0.0000 </r>
       <r>    2.7174   -0.0000 </r>
       <r>    2.7290   -0.0000 </r>
       <r>    2.7475   -0.0000 </r>
       <r>    2.7527   -0.0000 </r>
      </set>
      <set comment="kpoint 8">
       <r>  -43.5307    1.0000 </r>
       <r>  -43.5273    1.0000 </r>
       <r>  -43.5105    1.0000 </r>
       <r>  -43.5022    1.0000 </r>
       <r>  -43.4995    1.0000 </r>
       <r>  -43.4825    1.0000 </r>
       <r>  -43.4770    1.0000 </r>
       <r>  -43.4701    1.0000 </r>
       <r>  -43.4566    1.0000 </r>
       <r>  -43.4505    1.0000 </r>
       <r>  -43.4416    1.0000 </r>
       <r>  -43.4338    1.0000 </r>
       <r>  -43.4211    1.0000 </r>
       <r>  -43.4191    1.0000 </r>
       <r>  -43.4096    1.0000 </r>
       <r>  -43.3458    1.0000 </r>
       <r>  -43.3167    1.0000 </r>
       <r>  -43.2993    1.0000 </r>
       <r>  -43.2538    1.0000 </r>
       <r>  -43.1923    1.0000 </r>
       <r>  -43.1763    1.0000 </r>
       <r>  -43.1717    1.0000 </r>
       <r>  -43.1173    1.0000 </r>
       <r>  -42.9702    1.0000 </r>
       <r>  -42.9663    1.0000 </r>
       <r>  -42.9523    1.0000 </r>
       <r>  -42.8238    1.0000 </r>
       <r>  -42.7841    1.0000 </r>
       <r>  -42.7721    1.0000 </r>
       <r>  -42.6753    1.0000 </r>
       <r>  -42.6120    1.0000 </r>
       <r>  -42.4694    1.0000 </r>
       <r>  -42.3736    1.0000 </r>
       <r>  -42.3099    1.0000 </r>
       <r>  -42.1829    1.0000 </r>
       <r>  -42.0078    1.0000 </r>
       <r>  -39.8884    1.0000 </r>
       <r>  -39.8061    1.0000 </r>
       <r>  -39.7988    1.0000 </r>
       <r>  -39.7278    1.0000 </r>
       <r>  -39.6746    1.0000 </r>
       <r>  -39.6158    1.0000 </r>
       <r>   -6.7083    1.0000 </r>
       <r>   -6.7049    1.0000 </r>
       <r>   -5.8038    1.0000 </r>
       <r>   -5.7031    1.0000 </r>
       <r>   -4.7732    1.0000 </r>
       <r>   -4.7569    1.0000 </r>
       <r>   -4.7334    1.0000 </r>
       <r>   -4.7109    1.0000 </r>
       <r>   -4.4879    1.0000 </r>
       <r>   -4.3755    1.0000 </r>
       <r>   -4.0416    1.0000 </r>
       <r>   -3.9956    1.0000 </r>
       <r>   -3.9401    1.0000 </r>
       <r>   -3.8737    1.0000 </r>
       <r>   -3.4084    1.0000 </r>
       <r>   -3.3506    1.0000 </r>
       <r>   -3.3046    1.0000 </r>
       <r>   -3.2691    1.0000 </r>
       <r>   -3.2317    1.0000 </r>
       <r>   -3.1974    1.0000 </r>
       <r>   -3.1728    1.0000 </r>
       <r>   -3.1311    1.0000 </r>
       <r>   -3.0921    1.0000 </r>
       <r>   -3.0424    1.0000 </r>
       <r>   -3.0104    1.0000 </r>
       <r>   -2.9917    1.0000 </r>
       <r>   -2.9524    1.0000 </r>
       <r>   -2.9402    1.0000 </r>
       <r>   -2.8890    1.0000 </r>
       <r>   -2.6160    1.0000 </r>
       <r>   -2.5781    1.0000 </r>
       <r>   -2.5598    1.0000 </r>
       <r>   -2.5291    1.0000 </r>
       <r>   -2.5149    1.0000 </r>
       <r>   -2.4943    1.0000 </r>
       <r>   -2.4645    1.0000 </r>
       <r>   -2.4476    1.0000 </r>
       <r>   -2.3873    1.0000 </r>
       <r>   -2.3710    1.0000 </r>
       <r>   -2.3462    1.0000 </r>
       <r>   -2.3247    1.0000 </r>
       <r>   -2.3137    1.0000 </r>
       <r>   -2.2724    1.0000 </r>
       <r>   -2.2490    1.0000 </r>
       <r>   -2.2009    1.0000 </r>
       <r>   -2.1543    1.0000 </r>
       <r>   -2.1304    1.0000 </r>
       <r>   -2.0908    1.0000 </r>
       <r>   -2.0796    1.0000 </r>
       <r>   -2.0603    1.0000 </r>
       <r>   -2.0314    1.0000 </r>
       <r>   -2.0217    1.0000 </r>
       <r>   -1.9892    1.0000 </r>
       <r>   -1.9806    1.0000 </r>
       <r>   -1.9722    1.0000 </r>
       <r>   -1.9351    1.0000 </r>
       <r>   -1.8992    1.0000 </r>
       <r>   -1.8634    1.0000 </r>
       <r>   -1.8599    1.0000 </r>
       <r>   -1.8188    1.0000 </r>
       <r>   -1.8048    1.0000 </r>
       <r>   -1.7670    1.0000 </r>
       <r>   -1.7195    1.0000 </r>
       <r>   -1.7091    1.0000 </r>
       <r>   -1.6753    1.0000 </r>
       <r>   -1.6681    1.0000 </r>
       <r>   -1.6393    1.0000 </r>
       <r>   -1.6196    1.0000 </r>
       <r>   -1.6057    1.0000 </r>
       <r>   -1.5882    1.0000 </r>
       <r>   -1.5645    1.0000 </r>
       <r>   -1.5482    1.0000 </r>
       <r>   -1.4929    1.0000 </r>
       <r>   -1.4782    1.0000 </r>
       <r>   -1.4334    1.0000 </r>
       <r>   -1.4163    1.0000 </r>
       <r>   -1.3898    1.0000 </r>
       <r>   -1.3745    1.0000 </r>
       <r>   -1.3598    1.0000 </r>
       <r>   -1.3371    1.0000 </r>
       <r>   -1.3134    1.0000 </r>
       <r>   -1.3006    1.0000 </r>
       <r>   -1.2868    1.0000 </r>
       <r>   -1.2770    1.0000 </r>
       <r>   -1.2597    1.0000 </r>
       <r>   -1.2503    1.0000 </r>
       <r>   -1.2267    1.0000 </r>
       <r>   -1.1983    1.0000 </r>
       <r>   -1.1880    1.0000 </r>
       <r>   -1.1697    1.0000 </r>
       <r>   -1.1553    1.0000 </r>
       <r>   -1.1272    1.0000 </r>
       <r>   -1.1141    1.0000 </r>
       <r>   -1.1058    1.0000 </r>
       <r>   -1.0806    1.0000 </r>
       <r>   -1.0577    1.0000 </r>
       <r>   -1.0267    1.0000 </r>
       <r>   -1.0150    1.0000 </r>
       <r>   -0.9836    1.0000 </r>
       <r>   -0.9789    1.0000 </r>
       <r>   -0.9454    1.0000 </r>
       <r>   -0.9321    1.0000 </r>
       <r>   -0.9257    1.0000 </r>
       <r>   -0.9071    1.0000 </r>
       <r>   -0.8947    1.0000 </r>
       <r>   -0.8576    1.0000 </r>
       <r>   -0.8455    1.0000 </r>
       <r>   -0.8296    1.0000 </r>
       <r>   -0.8243    1.0000 </r>
       <r>   -0.7916    1.0000 </r>
       <r>   -0.7802    1.0000 </r>
       <r>   -0.7384    1.0000 </r>
       <r>   -0.7329    1.0000 </r>
       <r>   -0.7118    1.0000 </r>
       <r>   -0.6972    1.0000 </r>
       <r>   -0.6703    1.0000 </r>
       <r>   -0.6627    1.0000 </r>
       <r>   -0.6577    1.0000 </r>
       <r>   -0.6404    1.0000 </r>
       <r>   -0.6307    1.0000 </r>
       <r>   -0.6216    1.0000 </r>
       <r>   -0.6140    1.0000 </r>
       <r>   -0.6044    1.0000 </r>
       <r>   -0.5620    1.0000 </r>
       <r>   -0.5528    1.0000 </r>
       <r>   -0.5307    1.0000 </r>
       <r>   -0.5270    1.0000 </r>
       <r>   -0.5141    1.0000 </r>
       <r>   -0.5086    1.0000 </r>
       <r>   -0.4818    1.0000 </r>
       <r>   -0.4688    1.0000 </r>
       <r>   -0.4450    1.0000 </r>
       <r>   -0.4368    1.0000 </r>
       <r>   -0.4241    1.0000 </r>
       <r>   -0.4081    1.0000 </r>
       <r>   -0.3964    1.0000 </r>
       <r>   -0.3688    1.0000 </r>
       <r>   -0.3621    1.0000 </r>
       <r>   -0.3479    1.0000 </r>
       <r>   -0.3385    1.0000 </r>
       <r>   -0.3300    1.0000 </r>
       <r>   -0.2984    1.0000 </r>
       <r>   -0.2860    1.0000 </r>
       <r>   -0.2531    1.0000 </r>
       <r>   -0.2439    1.0000 </r>
       <r>   -0.2185    1.0000 </r>
       <r>   -0.1913    1.0000 </r>
       <r>   -0.1783    1.0000 </r>
       <r>   -0.1627    1.0000 </r>
       <r>   -0.1344    1.0000 </r>
       <r>   -0.1299    1.0000 </r>
       <r>   -0.1065    1.0000 </r>
       <r>   -0.0843    1.0000 </r>
       <r>   -0.0630    1.0000 </r>
       <r>   -0.0456    1.0000 </r>
       <r>   -0.0286    1.0000 </r>
       <r>   -0.0050    1.0000 </r>
       <r>    0.0252    1.0000 </r>
       <r>    0.0525    1.0000 </r>
       <r>    0.0590    1.0000 </r>
       <r>    0.0865    1.0000 </r>
       <r>    0.0985    1.0000 </r>
       <r>    0.1203    1.0000 </r>
       <r>    0.1308    1.0000 </r>
       <r>    0.1520    1.0000 </r>
       <r>    0.1809    1.0000 </r>
       <r>    0.2124    1.0000 </r>
       <r>    0.2304    1.0000 </r>
       <r>    0.2944    1.0000 </r>
       <r>    0.3309    1.0000 </r>
       <r>    0.3402    1.0001 </r>
       <r>    0.3756    1.0002 </r>
       <r>    0.3849    1.0003 </r>
       <r>    0.4325    1.0015 </r>
       <r>    0.4470    1.0022 </r>
       <r>    0.4710    1.0041 </r>
       <r>    0.5099    1.0099 </r>
       <r>    0.5388    1.0169 </r>
       <r>    0.5822    1.0298 </r>
       <r>    0.6095    1.0352 </r>
       <r>    0.6310    1.0337 </r>
       <r>    0.6533    1.0224 </r>
       <r>    0.6847    0.9809 </r>
       <r>    0.6988    0.9498 </r>
       <r>    0.7351    0.8295 </r>
       <r>    0.7760    0.6314 </r>
       <r>    0.7862    0.5754 </r>
       <r>    0.8489    0.2382 </r>
       <r>    0.8931    0.0698 </r>
       <r>    0.9420   -0.0190 </r>
       <r>    0.9536   -0.0276 </r>
       <r>    0.9769   -0.0352 </r>
       <r>    0.9988   -0.0341 </r>
       <r>    1.0152   -0.0303 </r>
       <r>    1.0351   -0.0245 </r>
       <r>    1.0511   -0.0196 </r>
       <r>    1.0851   -0.0108 </r>
       <r>    1.1198   -0.0051 </r>
       <r>    1.1330   -0.0037 </r>
       <r>    1.1589   -0.0018 </r>
       <r>    1.1756   -0.0011 </r>
       <r>    1.1993   -0.0005 </r>
       <r>    1.2262   -0.0002 </r>
       <r>    1.2375   -0.0001 </r>
       <r>    1.2436   -0.0001 </r>
       <r>    1.2637   -0.0001 </r>
       <r>    1.3031   -0.0000 </r>
       <r>    1.3067   -0.0000 </r>
       <r>    1.3436   -0.0000 </r>
       <r>    1.3575   -0.0000 </r>
       <r>    1.3695   -0.0000 </r>
       <r>    1.4181   -0.0000 </r>
       <r>    1.4248   -0.0000 </r>
       <r>    1.4351   -0.0000 </r>
       <r>    1.4525   -0.0000 </r>
       <r>    1.4819   -0.0000 </r>
       <r>    1.4921   -0.0000 </r>
       <r>    1.5005   -0.0000 </r>
       <r>    1.5278   -0.0000 </r>
       <r>    1.5370   -0.0000 </r>
       <r>    1.5658   -0.0000 </r>
       <r>    1.5742   -0.0000 </r>
       <r>    1.5834   -0.0000 </r>
       <r>    1.6004   -0.0000 </r>
       <r>    1.6217   -0.0000 </r>
       <r>    1.6304   -0.0000 </r>
       <r>    1.6463   -0.0000 </r>
       <r>    1.6616   -0.0000 </r>
       <r>    1.6754   -0.0000 </r>
       <r>    1.6959   -0.0000 </r>
       <r>    1.7044   -0.0000 </r>
       <r>    1.7083   -0.0000 </r>
       <r>    1.7214   -0.0000 </r>
       <r>    1.7323   -0.0000 </r>
       <r>    1.7508   -0.0000 </r>
       <r>    1.7623   -0.0000 </r>
       <r>    1.7720   -0.0000 </r>
       <r>    1.7802   -0.0000 </r>
       <r>    1.7935   -0.0000 </r>
       <r>    1.8008   -0.0000 </r>
       <r>    1.8133   -0.0000 </r>
       <r>    1.8199   -0.0000 </r>
       <r>    1.8353   -0.0000 </r>
       <r>    1.8455   -0.0000 </r>
       <r>    1.8510   -0.0000 </r>
       <r>    1.8573   -0.0000 </r>
       <r>    1.8708   -0.0000 </r>
       <r>    1.8794   -0.0000 </r>
       <r>    1.8851   -0.0000 </r>
       <r>    1.9106   -0.0000 </r>
       <r>    1.9187   -0.0000 </r>
       <r>    1.9213   -0.0000 </r>
       <r>    1.9331   -0.0000 </r>
       <r>    1.9430   -0.0000 </r>
       <r>    1.9596   -0.0000 </r>
       <r>    1.9648   -0.0000 </r>
       <r>    1.9848   -0.0000 </r>
       <r>    1.9923   -0.0000 </r>
       <r>    2.0055   -0.0000 </r>
       <r>    2.0074   -0.0000 </r>
       <r>    2.0147   -0.0000 </r>
       <r>    2.0176   -0.0000 </r>
       <r>    2.0384   -0.0000 </r>
       <r>    2.0584   -0.0000 </r>
       <r>    2.0687   -0.0000 </r>
       <r>    2.0854   -0.0000 </r>
       <r>    2.0909   -0.0000 </r>
       <r>    2.1086   -0.0000 </r>
       <r>    2.1188   -0.0000 </r>
       <r>    2.1306   -0.0000 </r>
       <r>    2.1390   -0.0000 </r>
       <r>    2.1540   -0.0000 </r>
       <r>    2.1751   -0.0000 </r>
       <r>    2.1872   -0.0000 </r>
       <r>    2.2004   -0.0000 </r>
       <r>    2.2127   -0.0000 </r>
       <r>    2.2318   -0.0000 </r>
       <r>    2.2515   -0.0000 </r>
       <r>    2.2687   -0.0000 </r>
       <r>    2.2715   -0.0000 </r>
       <r>    2.2857   -0.0000 </r>
       <r>    2.2875   -0.0000 </r>
       <r>    2.2991   -0.0000 </r>
       <r>    2.3020   -0.0000 </r>
       <r>    2.3205   -0.0000 </r>
       <r>    2.3348   -0.0000 </r>
       <r>    2.3430   -0.0000 </r>
       <r>    2.3640   -0.0000 </r>
       <r>    2.3708   -0.0000 </r>
       <r>    2.3747   -0.0000 </r>
       <r>    2.3815   -0.0000 </r>
       <r>    2.4026   -0.0000 </r>
       <r>    2.4091   -0.0000 </r>
       <r>    2.4148   -0.0000 </r>
       <r>    2.4264   -0.0000 </r>
       <r>    2.4309   -0.0000 </r>
       <r>    2.4330   -0.0000 </r>
       <r>    2.4482   -0.0000 </r>
       <r>    2.4567   -0.0000 </r>
       <r>    2.4648   -0.0000 </r>
       <r>    2.4721   -0.0000 </r>
       <r>    2.4887   -0.0000 </r>
       <r>    2.5018   -0.0000 </r>
       <r>    2.5098   -0.0000 </r>
       <r>    2.5211   -0.0000 </r>
       <r>    2.5278   -0.0000 </r>
       <r>    2.5315   -0.0000 </r>
       <r>    2.5554   -0.0000 </r>
       <r>    2.5587   -0.0000 </r>
       <r>    2.5789   -0.0000 </r>
       <r>    2.5918   -0.0000 </r>
       <r>    2.6095   -0.0000 </r>
       <r>    2.6554   -0.0000 </r>
       <r>    2.6751   -0.0000 </r>
       <r>    2.6950   -0.0000 </r>
       <r>    2.7365   -0.0000 </r>
       <r>    2.7555   -0.0000 </r>
       <r>    2.7664   -0.0000 </r>
       <r>    2.8113   -0.0000 </r>
       <r>    2.8223   -0.0000 </r>
       <r>    2.8414   -0.0000 </r>
      </set>
      <set comment="kpoint 9">
       <r>  -43.5307    1.0000 </r>
       <r>  -43.5273    1.0000 </r>
       <r>  -43.5105    1.0000 </r>
       <r>  -43.5022    1.0000 </r>
       <r>  -43.4996    1.0000 </r>
       <r>  -43.4825    1.0000 </r>
       <r>  -43.4770    1.0000 </r>
       <r>  -43.4701    1.0000 </r>
       <r>  -43.4566    1.0000 </r>
       <r>  -43.4505    1.0000 </r>
       <r>  -43.4415    1.0000 </r>
       <r>  -43.4338    1.0000 </r>
       <r>  -43.4211    1.0000 </r>
       <r>  -43.4191    1.0000 </r>
       <r>  -43.4096    1.0000 </r>
       <r>  -43.3458    1.0000 </r>
       <r>  -43.3167    1.0000 </r>
       <r>  -43.2993    1.0000 </r>
       <r>  -43.2537    1.0000 </r>
       <r>  -43.1923    1.0000 </r>
       <r>  -43.1763    1.0000 </r>
       <r>  -43.1717    1.0000 </r>
       <r>  -43.1173    1.0000 </r>
       <r>  -42.9702    1.0000 </r>
       <r>  -42.9663    1.0000 </r>
       <r>  -42.9523    1.0000 </r>
       <r>  -42.8238    1.0000 </r>
       <r>  -42.7841    1.0000 </r>
       <r>  -42.7721    1.0000 </r>
       <r>  -42.6752    1.0000 </r>
       <r>  -42.6120    1.0000 </r>
       <r>  -42.4694    1.0000 </r>
       <r>  -42.3736    1.0000 </r>
       <r>  -42.3099    1.0000 </r>
       <r>  -42.1829    1.0000 </r>
       <r>  -42.0078    1.0000 </r>
       <r>  -39.8884    1.0000 </r>
       <r>  -39.8061    1.0000 </r>
       <r>  -39.7987    1.0000 </r>
       <r>  -39.7278    1.0000 </r>
       <r>  -39.6746    1.0000 </r>
       <r>  -39.6159    1.0000 </r>
       <r>   -6.5720    1.0000 </r>
       <r>   -6.5682    1.0000 </r>
       <r>   -5.6804    1.0000 </r>
       <r>   -5.6043    1.0000 </r>
       <r>   -5.5326    1.0000 </r>
       <r>   -5.5030    1.0000 </r>
       <r>   -4.7166    1.0000 </r>
       <r>   -4.6217    1.0000 </r>
       <r>   -4.3670    1.0000 </r>
       <r>   -4.2290    1.0000 </r>
       <r>   -3.8874    1.0000 </r>
       <r>   -3.8838    1.0000 </r>
       <r>   -3.5773    1.0000 </r>
       <r>   -3.4710    1.0000 </r>
       <r>   -3.3856    1.0000 </r>
       <r>   -3.3193    1.0000 </r>
       <r>   -3.2959    1.0000 </r>
       <r>   -3.2401    1.0000 </r>
       <r>   -3.1988    1.0000 </r>
       <r>   -3.1698    1.0000 </r>
       <r>   -3.1501    1.0000 </r>
       <r>   -3.0503    1.0000 </r>
       <r>   -3.0393    1.0000 </r>
       <r>   -3.0216    1.0000 </r>
       <r>   -2.9859    1.0000 </r>
       <r>   -2.9673    1.0000 </r>
       <r>   -2.9330    1.0000 </r>
       <r>   -2.8569    1.0000 </r>
       <r>   -2.8142    1.0000 </r>
       <r>   -2.6343    1.0000 </r>
       <r>   -2.6061    1.0000 </r>
       <r>   -2.5939    1.0000 </r>
       <r>   -2.5658    1.0000 </r>
       <r>   -2.5443    1.0000 </r>
       <r>   -2.5260    1.0000 </r>
       <r>   -2.5051    1.0000 </r>
       <r>   -2.4911    1.0000 </r>
       <r>   -2.4726    1.0000 </r>
       <r>   -2.4276    1.0000 </r>
       <r>   -2.4011    1.0000 </r>
       <r>   -2.3778    1.0000 </r>
       <r>   -2.3516    1.0000 </r>
       <r>   -2.3143    1.0000 </r>
       <r>   -2.2745    1.0000 </r>
       <r>   -2.2690    1.0000 </r>
       <r>   -2.2362    1.0000 </r>
       <r>   -2.2108    1.0000 </r>
       <r>   -2.1981    1.0000 </r>
       <r>   -2.1352    1.0000 </r>
       <r>   -2.1165    1.0000 </r>
       <r>   -2.0542    1.0000 </r>
       <r>   -2.0430    1.0000 </r>
       <r>   -2.0202    1.0000 </r>
       <r>   -1.9871    1.0000 </r>
       <r>   -1.9342    1.0000 </r>
       <r>   -1.9243    1.0000 </r>
       <r>   -1.9084    1.0000 </r>
       <r>   -1.8958    1.0000 </r>
       <r>   -1.8448    1.0000 </r>
       <r>   -1.8330    1.0000 </r>
       <r>   -1.8116    1.0000 </r>
       <r>   -1.7939    1.0000 </r>
       <r>   -1.7682    1.0000 </r>
       <r>   -1.7463    1.0000 </r>
       <r>   -1.7158    1.0000 </r>
       <r>   -1.6796    1.0000 </r>
       <r>   -1.6507    1.0000 </r>
       <r>   -1.6146    1.0000 </r>
       <r>   -1.5895    1.0000 </r>
       <r>   -1.5727    1.0000 </r>
       <r>   -1.5378    1.0000 </r>
       <r>   -1.5099    1.0000 </r>
       <r>   -1.4915    1.0000 </r>
       <r>   -1.4852    1.0000 </r>
       <r>   -1.4563    1.0000 </r>
       <r>   -1.4456    1.0000 </r>
       <r>   -1.4343    1.0000 </r>
       <r>   -1.4108    1.0000 </r>
       <r>   -1.3976    1.0000 </r>
       <r>   -1.3671    1.0000 </r>
       <r>   -1.3603    1.0000 </r>
       <r>   -1.3395    1.0000 </r>
       <r>   -1.3266    1.0000 </r>
       <r>   -1.3109    1.0000 </r>
       <r>   -1.2866    1.0000 </r>
       <r>   -1.2692    1.0000 </r>
       <r>   -1.2371    1.0000 </r>
       <r>   -1.2259    1.0000 </r>
       <r>   -1.2026    1.0000 </r>
       <r>   -1.1924    1.0000 </r>
       <r>   -1.1775    1.0000 </r>
       <r>   -1.1476    1.0000 </r>
       <r>   -1.1384    1.0000 </r>
       <r>   -1.1089    1.0000 </r>
       <r>   -1.0974    1.0000 </r>
       <r>   -1.0812    1.0000 </r>
       <r>   -1.0558    1.0000 </r>
       <r>   -1.0288    1.0000 </r>
       <r>   -0.9867    1.0000 </r>
       <r>   -0.9672    1.0000 </r>
       <r>   -0.9574    1.0000 </r>
       <r>   -0.9408    1.0000 </r>
       <r>   -0.9172    1.0000 </r>
       <r>   -0.8904    1.0000 </r>
       <r>   -0.8707    1.0000 </r>
       <r>   -0.8551    1.0000 </r>
       <r>   -0.8445    1.0000 </r>
       <r>   -0.8247    1.0000 </r>
       <r>   -0.8155    1.0000 </r>
       <r>   -0.7776    1.0000 </r>
       <r>   -0.7722    1.0000 </r>
       <r>   -0.7502    1.0000 </r>
       <r>   -0.7273    1.0000 </r>
       <r>   -0.7100    1.0000 </r>
       <r>   -0.6893    1.0000 </r>
       <r>   -0.6802    1.0000 </r>
       <r>   -0.6564    1.0000 </r>
       <r>   -0.6424    1.0000 </r>
       <r>   -0.6259    1.0000 </r>
       <r>   -0.6056    1.0000 </r>
       <r>   -0.5948    1.0000 </r>
       <r>   -0.5875    1.0000 </r>
       <r>   -0.5615    1.0000 </r>
       <r>   -0.5458    1.0000 </r>
       <r>   -0.5296    1.0000 </r>
       <r>   -0.5131    1.0000 </r>
       <r>   -0.5021    1.0000 </r>
       <r>   -0.4930    1.0000 </r>
       <r>   -0.4881    1.0000 </r>
       <r>   -0.4685    1.0000 </r>
       <r>   -0.4662    1.0000 </r>
       <r>   -0.4257    1.0000 </r>
       <r>   -0.4164    1.0000 </r>
       <r>   -0.4044    1.0000 </r>
       <r>   -0.3951    1.0000 </r>
       <r>   -0.3863    1.0000 </r>
       <r>   -0.3759    1.0000 </r>
       <r>   -0.3648    1.0000 </r>
       <r>   -0.3371    1.0000 </r>
       <r>   -0.3147    1.0000 </r>
       <r>   -0.3087    1.0000 </r>
       <r>   -0.2917    1.0000 </r>
       <r>   -0.2806    1.0000 </r>
       <r>   -0.2556    1.0000 </r>
       <r>   -0.2408    1.0000 </r>
       <r>   -0.2260    1.0000 </r>
       <r>   -0.1999    1.0000 </r>
       <r>   -0.1806    1.0000 </r>
       <r>   -0.1630    1.0000 </r>
       <r>   -0.1484    1.0000 </r>
       <r>   -0.1171    1.0000 </r>
       <r>   -0.0979    1.0000 </r>
       <r>   -0.0564    1.0000 </r>
       <r>   -0.0288    1.0000 </r>
       <r>   -0.0255    1.0000 </r>
       <r>    0.0055    1.0000 </r>
       <r>    0.0235    1.0000 </r>
       <r>    0.0422    1.0000 </r>
       <r>    0.0691    1.0000 </r>
       <r>    0.0791    1.0000 </r>
       <r>    0.1028    1.0000 </r>
       <r>    0.1289    1.0000 </r>
       <r>    0.1696    1.0000 </r>
       <r>    0.1792    1.0000 </r>
       <r>    0.1938    1.0000 </r>
       <r>    0.2344    1.0000 </r>
       <r>    0.2766    1.0000 </r>
       <r>    0.2819    1.0000 </r>
       <r>    0.3197    1.0000 </r>
       <r>    0.3388    1.0001 </r>
       <r>    0.3677    1.0002 </r>
       <r>    0.3786    1.0003 </r>
       <r>    0.4023    1.0006 </r>
       <r>    0.4252    1.0012 </r>
       <r>    0.4521    1.0025 </r>
       <r>    0.4701    1.0040 </r>
       <r>    0.5148    1.0109 </r>
       <r>    0.5382    1.0167 </r>
       <r>    0.5619    1.0237 </r>
       <r>    0.5863    1.0309 </r>
       <r>    0.6021    1.0343 </r>
       <r>    0.6382    1.0313 </r>
       <r>    0.6942    0.9608 </r>
       <r>    0.7247    0.8699 </r>
       <r>    0.7635    0.6974 </r>
       <r>    0.7872    0.5700 </r>
       <r>    0.8149    0.4146 </r>
       <r>    0.8544    0.2126 </r>
       <r>    0.8818    0.1049 </r>
       <r>    0.9123    0.0235 </r>
       <r>    0.9374   -0.0145 </r>
       <r>    0.9536   -0.0276 </r>
       <r>    0.9913   -0.0351 </r>
       <r>    1.0230   -0.0281 </r>
       <r>    1.0354   -0.0244 </r>
       <r>    1.0472   -0.0207 </r>
       <r>    1.0818   -0.0115 </r>
       <r>    1.0982   -0.0082 </r>
       <r>    1.1147   -0.0057 </r>
       <r>    1.1558   -0.0020 </r>
       <r>    1.1767   -0.0011 </r>
       <r>    1.2167   -0.0003 </r>
       <r>    1.2350   -0.0002 </r>
       <r>    1.2584   -0.0001 </r>
       <r>    1.2836   -0.0000 </r>
       <r>    1.2930   -0.0000 </r>
       <r>    1.3029   -0.0000 </r>
       <r>    1.3098   -0.0000 </r>
       <r>    1.3452   -0.0000 </r>
       <r>    1.3692   -0.0000 </r>
       <r>    1.3852   -0.0000 </r>
       <r>    1.4017   -0.0000 </r>
       <r>    1.4183   -0.0000 </r>
       <r>    1.4335   -0.0000 </r>
       <r>    1.4487   -0.0000 </r>
       <r>    1.4731   -0.0000 </r>
       <r>    1.4959   -0.0000 </r>
       <r>    1.5222   -0.0000 </r>
       <r>    1.5367   -0.0000 </r>
       <r>    1.5650   -0.0000 </r>
       <r>    1.5766   -0.0000 </r>
       <r>    1.5822   -0.0000 </r>
       <r>    1.5945   -0.0000 </r>
       <r>    1.6137   -0.0000 </r>
       <r>    1.6195   -0.0000 </r>
       <r>    1.6324   -0.0000 </r>
       <r>    1.6459   -0.0000 </r>
       <r>    1.6606   -0.0000 </r>
       <r>    1.6822   -0.0000 </r>
       <r>    1.6859   -0.0000 </r>
       <r>    1.7048   -0.0000 </r>
       <r>    1.7200   -0.0000 </r>
       <r>    1.7278   -0.0000 </r>
       <r>    1.7407   -0.0000 </r>
       <r>    1.7540   -0.0000 </r>
       <r>    1.7601   -0.0000 </r>
       <r>    1.7709   -0.0000 </r>
       <r>    1.7842   -0.0000 </r>
       <r>    1.7924   -0.0000 </r>
       <r>    1.8003   -0.0000 </r>
       <r>    1.8079   -0.0000 </r>
       <r>    1.8211   -0.0000 </r>
       <r>    1.8351   -0.0000 </r>
       <r>    1.8488   -0.0000 </r>
       <r>    1.8637   -0.0000 </r>
       <r>    1.8709   -0.0000 </r>
       <r>    1.8919   -0.0000 </r>
       <r>    1.8998   -0.0000 </r>
       <r>    1.9057   -0.0000 </r>
       <r>    1.9202   -0.0000 </r>
       <r>    1.9429   -0.0000 </r>
       <r>    1.9471   -0.0000 </r>
       <r>    1.9609   -0.0000 </r>
       <r>    1.9686   -0.0000 </r>
       <r>    1.9814   -0.0000 </r>
       <r>    1.9902   -0.0000 </r>
       <r>    1.9972   -0.0000 </r>
       <r>    2.0142   -0.0000 </r>
       <r>    2.0278   -0.0000 </r>
       <r>    2.0346   -0.0000 </r>
       <r>    2.0454   -0.0000 </r>
       <r>    2.0598   -0.0000 </r>
       <r>    2.0667   -0.0000 </r>
       <r>    2.0825   -0.0000 </r>
       <r>    2.0917   -0.0000 </r>
       <r>    2.1052   -0.0000 </r>
       <r>    2.1108   -0.0000 </r>
       <r>    2.1262   -0.0000 </r>
       <r>    2.1293   -0.0000 </r>
       <r>    2.1364   -0.0000 </r>
       <r>    2.1523   -0.0000 </r>
       <r>    2.1643   -0.0000 </r>
       <r>    2.1702   -0.0000 </r>
       <r>    2.1845   -0.0000 </r>
       <r>    2.2065   -0.0000 </r>
       <r>    2.2130   -0.0000 </r>
       <r>    2.2186   -0.0000 </r>
       <r>    2.2313   -0.0000 </r>
       <r>    2.2518   -0.0000 </r>
       <r>    2.2616   -0.0000 </r>
       <r>    2.2692   -0.0000 </r>
       <r>    2.2822   -0.0000 </r>
       <r>    2.2945   -0.0000 </r>
       <r>    2.3066   -0.0000 </r>
       <r>    2.3179   -0.0000 </r>
       <r>    2.3225   -0.0000 </r>
       <r>    2.3310   -0.0000 </r>
       <r>    2.3430   -0.0000 </r>
       <r>    2.3500   -0.0000 </r>
       <r>    2.3647   -0.0000 </r>
       <r>    2.3709   -0.0000 </r>
       <r>    2.3741   -0.0000 </r>
       <r>    2.3824   -0.0000 </r>
       <r>    2.3913   -0.0000 </r>
       <r>    2.4075   -0.0000 </r>
       <r>    2.4112   -0.0000 </r>
       <r>    2.4220   -0.0000 </r>
       <r>    2.4299   -0.0000 </r>
       <r>    2.4358   -0.0000 </r>
       <r>    2.4480   -0.0000 </r>
       <r>    2.4586   -0.0000 </r>
       <r>    2.4690   -0.0000 </r>
       <r>    2.4753   -0.0000 </r>
       <r>    2.4860   -0.0000 </r>
       <r>    2.4934   -0.0000 </r>
       <r>    2.5029   -0.0000 </r>
       <r>    2.5109   -0.0000 </r>
       <r>    2.5277   -0.0000 </r>
       <r>    2.5673   -0.0000 </r>
       <r>    2.5853   -0.0000 </r>
       <r>    2.6069   -0.0000 </r>
       <r>    2.6326   -0.0000 </r>
       <r>    2.6397   -0.0000 </r>
       <r>    2.6492   -0.0000 </r>
       <r>    2.6752   -0.0000 </r>
       <r>    2.6925   -0.0000 </r>
       <r>    2.7241   -0.0000 </r>
       <r>    2.7360   -0.0000 </r>
       <r>    2.7534   -0.0000 </r>
       <r>    2.8257   -0.0000 </r>
       <r>    2.8386   -0.0000 </r>
      </set>
      <set comment="kpoint 10">
       <r>  -43.5307    1.0000 </r>
       <r>  -43.5273    1.0000 </r>
       <r>  -43.5105    1.0000 </r>
       <r>  -43.5022    1.0000 </r>
       <r>  -43.4996    1.0000 </r>
       <r>  -43.4825    1.0000 </r>
       <r>  -43.4770    1.0000 </r>
       <r>  -43.4701    1.0000 </r>
       <r>  -43.4566    1.0000 </r>
       <r>  -43.4505    1.0000 </r>
       <r>  -43.4415    1.0000 </r>
       <r>  -43.4338    1.0000 </r>
       <r>  -43.4211    1.0000 </r>
       <r>  -43.4191    1.0000 </r>
       <r>  -43.4096    1.0000 </r>
       <r>  -43.3459    1.0000 </r>
       <r>  -43.3166    1.0000 </r>
       <r>  -43.2993    1.0000 </r>
       <r>  -43.2538    1.0000 </r>
       <r>  -43.1923    1.0000 </r>
       <r>  -43.1763    1.0000 </r>
       <r>  -43.1717    1.0000 </r>
       <r>  -43.1173    1.0000 </r>
       <r>  -42.9702    1.0000 </r>
       <r>  -42.9663    1.0000 </r>
       <r>  -42.9523    1.0000 </r>
       <r>  -42.8238    1.0000 </r>
       <r>  -42.7841    1.0000 </r>
       <r>  -42.7721    1.0000 </r>
       <r>  -42.6753    1.0000 </r>
       <r>  -42.6120    1.0000 </r>
       <r>  -42.4694    1.0000 </r>
       <r>  -42.3736    1.0000 </r>
       <r>  -42.3099    1.0000 </r>
       <r>  -42.1829    1.0000 </r>
       <r>  -42.0078    1.0000 </r>
       <r>  -39.8884    1.0000 </r>
       <r>  -39.8061    1.0000 </r>
       <r>  -39.7988    1.0000 </r>
       <r>  -39.7278    1.0000 </r>
       <r>  -39.6746    1.0000 </r>
       <r>  -39.6158    1.0000 </r>
       <r>   -6.2054    1.0000 </r>
       <r>   -6.1992    1.0000 </r>
       <r>   -6.1421    1.0000 </r>
       <r>   -6.1316    1.0000 </r>
       <r>   -5.3379    1.0000 </r>
       <r>   -5.2689    1.0000 </r>
       <r>   -5.2465    1.0000 </r>
       <r>   -5.1097    1.0000 </r>
       <r>   -4.0907    1.0000 </r>
       <r>   -4.0178    1.0000 </r>
       <r>   -3.9806    1.0000 </r>
       <r>   -3.7947    1.0000 </r>
       <r>   -3.2266    1.0000 </r>
       <r>   -3.1934    1.0000 </r>
       <r>   -3.1659    1.0000 </r>
       <r>   -3.1558    1.0000 </r>
       <r>   -3.1224    1.0000 </r>
       <r>   -3.0980    1.0000 </r>
       <r>   -3.0914    1.0000 </r>
       <r>   -3.0797    1.0000 </r>
       <r>   -3.0743    1.0000 </r>
       <r>   -3.0221    1.0000 </r>
       <r>   -2.9941    1.0000 </r>
       <r>   -2.9491    1.0000 </r>
       <r>   -2.9338    1.0000 </r>
       <r>   -2.8837    1.0000 </r>
       <r>   -2.8629    1.0000 </r>
       <r>   -2.8376    1.0000 </r>
       <r>   -2.8242    1.0000 </r>
       <r>   -2.8098    1.0000 </r>
       <r>   -2.7846    1.0000 </r>
       <r>   -2.7650    1.0000 </r>
       <r>   -2.7324    1.0000 </r>
       <r>   -2.7150    1.0000 </r>
       <r>   -2.7105    1.0000 </r>
       <r>   -2.6684    1.0000 </r>
       <r>   -2.6424    1.0000 </r>
       <r>   -2.5265    1.0000 </r>
       <r>   -2.4529    1.0000 </r>
       <r>   -2.4391    1.0000 </r>
       <r>   -2.4211    1.0000 </r>
       <r>   -2.3562    1.0000 </r>
       <r>   -2.3260    1.0000 </r>
       <r>   -2.3163    1.0000 </r>
       <r>   -2.2699    1.0000 </r>
       <r>   -2.2613    1.0000 </r>
       <r>   -2.2152    1.0000 </r>
       <r>   -2.1699    1.0000 </r>
       <r>   -2.1340    1.0000 </r>
       <r>   -2.1021    1.0000 </r>
       <r>   -2.0949    1.0000 </r>
       <r>   -2.0518    1.0000 </r>
       <r>   -2.0010    1.0000 </r>
       <r>   -1.9767    1.0000 </r>
       <r>   -1.9532    1.0000 </r>
       <r>   -1.9454    1.0000 </r>
       <r>   -1.9388    1.0000 </r>
       <r>   -1.8860    1.0000 </r>
       <r>   -1.8750    1.0000 </r>
       <r>   -1.8432    1.0000 </r>
       <r>   -1.8331    1.0000 </r>
       <r>   -1.8165    1.0000 </r>
       <r>   -1.7745    1.0000 </r>
       <r>   -1.7483    1.0000 </r>
       <r>   -1.7322    1.0000 </r>
       <r>   -1.7055    1.0000 </r>
       <r>   -1.6701    1.0000 </r>
       <r>   -1.6551    1.0000 </r>
       <r>   -1.6114    1.0000 </r>
       <r>   -1.5870    1.0000 </r>
       <r>   -1.5581    1.0000 </r>
       <r>   -1.5461    1.0000 </r>
       <r>   -1.5276    1.0000 </r>
       <r>   -1.5091    1.0000 </r>
       <r>   -1.4862    1.0000 </r>
       <r>   -1.4606    1.0000 </r>
       <r>   -1.4443    1.0000 </r>
       <r>   -1.4348    1.0000 </r>
       <r>   -1.4307    1.0000 </r>
       <r>   -1.4125    1.0000 </r>
       <r>   -1.4075    1.0000 </r>
       <r>   -1.3595    1.0000 </r>
       <r>   -1.3417    1.0000 </r>
       <r>   -1.3212    1.0000 </r>
       <r>   -1.3114    1.0000 </r>
       <r>   -1.2897    1.0000 </r>
       <r>   -1.2538    1.0000 </r>
       <r>   -1.2462    1.0000 </r>
       <r>   -1.2411    1.0000 </r>
       <r>   -1.2278    1.0000 </r>
       <r>   -1.1970    1.0000 </r>
       <r>   -1.1713    1.0000 </r>
       <r>   -1.1485    1.0000 </r>
       <r>   -1.1368    1.0000 </r>
       <r>   -1.1226    1.0000 </r>
       <r>   -1.0967    1.0000 </r>
       <r>   -1.0826    1.0000 </r>
       <r>   -1.0231    1.0000 </r>
       <r>   -1.0007    1.0000 </r>
       <r>   -0.9667    1.0000 </r>
       <r>   -0.9396    1.0000 </r>
       <r>   -0.9256    1.0000 </r>
       <r>   -0.9136    1.0000 </r>
       <r>   -0.8715    1.0000 </r>
       <r>   -0.8610    1.0000 </r>
       <r>   -0.8492    1.0000 </r>
       <r>   -0.8335    1.0000 </r>
       <r>   -0.8107    1.0000 </r>
       <r>   -0.7960    1.0000 </r>
       <r>   -0.7689    1.0000 </r>
       <r>   -0.7566    1.0000 </r>
       <r>   -0.7494    1.0000 </r>
       <r>   -0.7284    1.0000 </r>
       <r>   -0.7197    1.0000 </r>
       <r>   -0.6768    1.0000 </r>
       <r>   -0.6716    1.0000 </r>
       <r>   -0.6468    1.0000 </r>
       <r>   -0.6289    1.0000 </r>
       <r>   -0.5979    1.0000 </r>
       <r>   -0.5892    1.0000 </r>
       <r>   -0.5534    1.0000 </r>
       <r>   -0.5521    1.0000 </r>
       <r>   -0.5440    1.0000 </r>
       <r>   -0.5285    1.0000 </r>
       <r>   -0.5102    1.0000 </r>
       <r>   -0.4851    1.0000 </r>
       <r>   -0.4697    1.0000 </r>
       <r>   -0.4583    1.0000 </r>
       <r>   -0.4423    1.0000 </r>
       <r>   -0.4370    1.0000 </r>
       <r>   -0.4212    1.0000 </r>
       <r>   -0.4143    1.0000 </r>
       <r>   -0.3998    1.0000 </r>
       <r>   -0.3788    1.0000 </r>
       <r>   -0.3586    1.0000 </r>
       <r>   -0.3510    1.0000 </r>
       <r>   -0.3361    1.0000 </r>
       <r>   -0.3345    1.0000 </r>
       <r>   -0.3236    1.0000 </r>
       <r>   -0.2996    1.0000 </r>
       <r>   -0.2795    1.0000 </r>
       <r>   -0.2606    1.0000 </r>
       <r>   -0.2586    1.0000 </r>
       <r>   -0.2442    1.0000 </r>
       <r>   -0.2388    1.0000 </r>
       <r>   -0.2239    1.0000 </r>
       <r>   -0.2076    1.0000 </r>
       <r>   -0.1936    1.0000 </r>
       <r>   -0.1855    1.0000 </r>
       <r>   -0.1673    1.0000 </r>
       <r>   -0.1566    1.0000 </r>
       <r>   -0.1245    1.0000 </r>
       <r>   -0.0840    1.0000 </r>
       <r>   -0.0457    1.0000 </r>
       <r>   -0.0430    1.0000 </r>
       <r>   -0.0092    1.0000 </r>
       <r>    0.0152    1.0000 </r>
       <r>    0.0546    1.0000 </r>
       <r>    0.0695    1.0000 </r>
       <r>    0.1256    1.0000 </r>
       <r>    0.1520    1.0000 </r>
       <r>    0.1764    1.0000 </r>
       <r>    0.1966    1.0000 </r>
       <r>    0.2047    1.0000 </r>
       <r>    0.2321    1.0000 </r>
       <r>    0.2369    1.0000 </r>
       <r>    0.2835    1.0000 </r>
       <r>    0.2909    1.0000 </r>
       <r>    0.3288    1.0000 </r>
       <r>    0.3313    1.0000 </r>
       <r>    0.3533    1.0001 </r>
       <r>    0.3757    1.0002 </r>
       <r>    0.3904    1.0004 </r>
       <r>    0.4396    1.0018 </r>
       <r>    0.4897    1.0064 </r>
       <r>    0.5034    1.0087 </r>
       <r>    0.5148    1.0109 </r>
       <r>    0.5397    1.0171 </r>
       <r>    0.5806    1.0294 </r>
       <r>    0.6354    1.0324 </r>
       <r>    0.6389    1.0310 </r>
       <r>    0.6525    1.0230 </r>
       <r>    0.6689    1.0062 </r>
       <r>    0.7049    0.9338 </r>
       <r>    0.7278    0.8585 </r>
       <r>    0.7605    0.7129 </r>
       <r>    0.8485    0.2402 </r>
       <r>    0.8619    0.1799 </r>
       <r>    0.8926    0.0713 </r>
       <r>    0.9327   -0.0090 </r>
       <r>    0.9641   -0.0325 </r>
       <r>    0.9816   -0.0354 </r>
       <r>    1.0008   -0.0337 </r>
       <r>    1.0271   -0.0269 </r>
       <r>    1.0528   -0.0191 </r>
       <r>    1.0619   -0.0165 </r>
       <r>    1.0724   -0.0137 </r>
       <r>    1.0864   -0.0105 </r>
       <r>    1.1368   -0.0033 </r>
       <r>    1.1378   -0.0032 </r>
       <r>    1.1763   -0.0011 </r>
       <r>    1.2091   -0.0004 </r>
       <r>    1.2304   -0.0002 </r>
       <r>    1.2592   -0.0001 </r>
       <r>    1.2730   -0.0000 </r>
       <r>    1.3051   -0.0000 </r>
       <r>    1.3117   -0.0000 </r>
       <r>    1.3197   -0.0000 </r>
       <r>    1.3400   -0.0000 </r>
       <r>    1.3563   -0.0000 </r>
       <r>    1.3847   -0.0000 </r>
       <r>    1.4142   -0.0000 </r>
       <r>    1.4202   -0.0000 </r>
       <r>    1.4352   -0.0000 </r>
       <r>    1.4594   -0.0000 </r>
       <r>    1.4761   -0.0000 </r>
       <r>    1.5037   -0.0000 </r>
       <r>    1.5076   -0.0000 </r>
       <r>    1.5108   -0.0000 </r>
       <r>    1.5321   -0.0000 </r>
       <r>    1.5453   -0.0000 </r>
       <r>    1.5588   -0.0000 </r>
       <r>    1.5612   -0.0000 </r>
       <r>    1.5819   -0.0000 </r>
       <r>    1.6174   -0.0000 </r>
       <r>    1.6219   -0.0000 </r>
       <r>    1.6391   -0.0000 </r>
       <r>    1.6593   -0.0000 </r>
       <r>    1.6742   -0.0000 </r>
       <r>    1.6926   -0.0000 </r>
       <r>    1.7021   -0.0000 </r>
       <r>    1.7098   -0.0000 </r>
       <r>    1.7531   -0.0000 </r>
       <r>    1.7654   -0.0000 </r>
       <r>    1.7914   -0.0000 </r>
       <r>    1.8009   -0.0000 </r>
       <r>    1.8108   -0.0000 </r>
       <r>    1.8123   -0.0000 </r>
       <r>    1.8253   -0.0000 </r>
       <r>    1.8433   -0.0000 </r>
       <r>    1.8558   -0.0000 </r>
       <r>    1.8658   -0.0000 </r>
       <r>    1.8722   -0.0000 </r>
       <r>    1.8754   -0.0000 </r>
       <r>    1.8901   -0.0000 </r>
       <r>    1.9094   -0.0000 </r>
       <r>    1.9165   -0.0000 </r>
       <r>    1.9272   -0.0000 </r>
       <r>    1.9304   -0.0000 </r>
       <r>    1.9438   -0.0000 </r>
       <r>    1.9574   -0.0000 </r>
       <r>    1.9815   -0.0000 </r>
       <r>    1.9867   -0.0000 </r>
       <r>    1.9950   -0.0000 </r>
       <r>    1.9996   -0.0000 </r>
       <r>    2.0157   -0.0000 </r>
       <r>    2.0322   -0.0000 </r>
       <r>    2.0424   -0.0000 </r>
       <r>    2.0446   -0.0000 </r>
       <r>    2.0478   -0.0000 </r>
       <r>    2.0604   -0.0000 </r>
       <r>    2.0721   -0.0000 </r>
       <r>    2.0850   -0.0000 </r>
       <r>    2.0947   -0.0000 </r>
       <r>    2.0993   -0.0000 </r>
       <r>    2.1100   -0.0000 </r>
       <r>    2.1143   -0.0000 </r>
       <r>    2.1363   -0.0000 </r>
       <r>    2.1427   -0.0000 </r>
       <r>    2.1580   -0.0000 </r>
       <r>    2.1649   -0.0000 </r>
       <r>    2.1842   -0.0000 </r>
       <r>    2.1987   -0.0000 </r>
       <r>    2.2175   -0.0000 </r>
       <r>    2.2249   -0.0000 </r>
       <r>    2.2332   -0.0000 </r>
       <r>    2.2422   -0.0000 </r>
       <r>    2.2480   -0.0000 </r>
       <r>    2.2633   -0.0000 </r>
       <r>    2.2712   -0.0000 </r>
       <r>    2.2778   -0.0000 </r>
       <r>    2.2909   -0.0000 </r>
       <r>    2.3115   -0.0000 </r>
       <r>    2.3176   -0.0000 </r>
       <r>    2.3204   -0.0000 </r>
       <r>    2.3236   -0.0000 </r>
       <r>    2.3281   -0.0000 </r>
       <r>    2.3381   -0.0000 </r>
       <r>    2.3507   -0.0000 </r>
       <r>    2.3529   -0.0000 </r>
       <r>    2.3603   -0.0000 </r>
       <r>    2.3686   -0.0000 </r>
       <r>    2.3745   -0.0000 </r>
       <r>    2.3839   -0.0000 </r>
       <r>    2.3893   -0.0000 </r>
       <r>    2.3972   -0.0000 </r>
       <r>    2.4018   -0.0000 </r>
       <r>    2.4091   -0.0000 </r>
       <r>    2.4201   -0.0000 </r>
       <r>    2.4343   -0.0000 </r>
       <r>    2.4393   -0.0000 </r>
       <r>    2.4452   -0.0000 </r>
       <r>    2.4557   -0.0000 </r>
       <r>    2.4621   -0.0000 </r>
       <r>    2.4667   -0.0000 </r>
       <r>    2.4767   -0.0000 </r>
       <r>    2.4841   -0.0000 </r>
       <r>    2.4959   -0.0000 </r>
       <r>    2.5007   -0.0000 </r>
       <r>    2.5087   -0.0000 </r>
       <r>    2.5343   -0.0000 </r>
       <r>    2.5396   -0.0000 </r>
       <r>    2.5804   -0.0000 </r>
       <r>    2.5930   -0.0000 </r>
       <r>    2.6307   -0.0000 </r>
       <r>    2.6439   -0.0000 </r>
       <r>    2.6611   -0.0000 </r>
       <r>    2.6996   -0.0000 </r>
       <r>    2.7670   -0.0000 </r>
       <r>    2.7869   -0.0000 </r>
       <r>    2.8675   -0.0000 </r>
      </set>
     </set>
    </set>
   </array>
  </eigenvalues>
  <separator name="orbital magnetization" >
   <v name="MAGDIPOLOUT">      0.00000000      0.00000000      0.00000000</v>
  </separator>
  <dos>
   <i name="efermi">      0.79965131 </i>
   <total>
    <array>
     <dimension dim="1">gridpoints</dimension>
     <dimension dim="2">spin</dimension>
     <field>energy</field>
     <field>total</field>
     <field>integrated</field>
     <set>
      <set comment="spin 1">
       <r>   -45.8516     0.0000     0.0000 </r>
       <r>   -45.6814     0.0000     0.0000 </r>
       <r>   -45.5112     0.0000     0.0000 </r>
       <r>   -45.3410     0.0000     0.0000 </r>
       <r>   -45.1708     0.0000     0.0000 </r>
       <r>   -45.0006     0.0000     0.0000 </r>
       <r>   -44.8304     0.0000     0.0000 </r>
       <r>   -44.6602     0.0000     0.0000 </r>
       <r>   -44.4900     0.0000     0.0000 </r>
       <r>   -44.3198    -0.0000    -0.0000 </r>
       <r>   -44.1496    -0.0000    -0.0000 </r>
       <r>   -43.9794    -0.0000    -0.0000 </r>
       <r>   -43.8092    -0.0000    -0.0000 </r>
       <r>   -43.6390    -0.0000    -0.0000 </r>
       <r>   -43.4688    -0.0002    -0.0000 </r>
       <r>   -43.2986    -0.0584    -0.0100 </r>
       <r>   -43.1284    -0.9235    -0.1671 </r>
       <r>   -42.9582    12.0383     1.8818 </r>
       <r>   -42.7880    23.9119     5.9517 </r>
       <r>   -42.6178     0.3554     6.0122 </r>
       <r>   -42.4476     0.3641     6.0742 </r>
       <r>   -42.2774    14.7935     8.5921 </r>
       <r>   -42.1071    27.2828    13.2358 </r>
       <r>   -41.9369    37.7008    19.6526 </r>
       <r>   -41.7667    25.7995    24.0438 </r>
       <r>   -41.5965    -0.1121    24.0247 </r>
       <r>   -41.4263     8.1264    25.4079 </r>
       <r>   -41.2561     9.2867    26.9885 </r>
       <r>   -41.0859     9.1554    28.5468 </r>
       <r>   -40.9157     8.6449    30.0182 </r>
       <r>   -40.7455    -0.0241    30.0141 </r>
       <r>   -40.5753    -0.7648    29.8839 </r>
       <r>   -40.4051     3.1732    30.4240 </r>
       <r>   -40.2349    41.0849    37.4168 </r>
       <r>   -40.0647    27.9576    42.1753 </r>
       <r>   -39.8945    -0.7803    42.0425 </r>
       <r>   -39.7243    -0.2484    42.0003 </r>
       <r>   -39.5541    -0.0016    42.0000 </r>
       <r>   -39.3839    -0.0000    42.0000 </r>
       <r>   -39.2137    -0.0000    42.0000 </r>
       <r>   -39.0435     0.0000    42.0000 </r>
       <r>   -38.8733     0.0000    42.0000 </r>
       <r>   -38.7031     0.0000    42.0000 </r>
       <r>   -38.5329     0.0000    42.0000 </r>
       <r>   -38.3627     0.0000    42.0000 </r>
       <r>   -38.1924     0.0000    42.0000 </r>
       <r>   -38.0222     0.0000    42.0000 </r>
       <r>   -37.8520     0.0000    42.0000 </r>
       <r>   -37.6818     0.0000    42.0000 </r>
       <r>   -37.5116     0.0000    42.0000 </r>
       <r>   -37.3414     0.0000    42.0000 </r>
       <r>   -37.1712     0.0000    42.0000 </r>
       <r>   -37.0010     0.0000    42.0000 </r>
       <r>   -36.8308     0.0000    42.0000 </r>
       <r>   -36.6606     0.0000    42.0000 </r>
       <r>   -36.4904     0.0000    42.0000 </r>
       <r>   -36.3202     0.0000    42.0000 </r>
       <r>   -36.1500     0.0000    42.0000 </r>
       <r>   -35.9798     0.0000    42.0000 </r>
       <r>   -35.8096     0.0000    42.0000 </r>
       <r>   -35.6394     0.0000    42.0000 </r>
       <r>   -35.4692     0.0000    42.0000 </r>
       <r>   -35.2990     0.0000    42.0000 </r>
       <r>   -35.1288     0.0000    42.0000 </r>
       <r>   -34.9586     0.0000    42.0000 </r>
       <r>   -34.7884     0.0000    42.0000 </r>
       <r>   -34.6182     0.0000    42.0000 </r>
       <r>   -34.4480     0.0000    42.0000 </r>
       <r>   -34.2777     0.0000    42.0000 </r>
       <r>   -34.1075     0.0000    42.0000 </r>
       <r>   -33.9373     0.0000    42.0000 </r>
       <r>   -33.7671     0.0000    42.0000 </r>
       <r>   -33.5969     0.0000    42.0000 </r>
       <r>   -33.4267     0.0000    42.0000 </r>
       <r>   -33.2565     0.0000    42.0000 </r>
       <r>   -33.0863     0.0000    42.0000 </r>
       <r>   -32.9161     0.0000    42.0000 </r>
       <r>   -32.7459     0.0000    42.0000 </r>
       <r>   -32.5757     0.0000    42.0000 </r>
       <r>   -32.4055     0.0000    42.0000 </r>
       <r>   -32.2353     0.0000    42.0000 </r>
       <r>   -32.0651     0.0000    42.0000 </r>
       <r>   -31.8949     0.0000    42.0000 </r>
       <r>   -31.7247     0.0000    42.0000 </r>
       <r>   -31.5545     0.0000    42.0000 </r>
       <r>   -31.3843     0.0000    42.0000 </r>
       <r>   -31.2141     0.0000    42.0000 </r>
       <r>   -31.0439     0.0000    42.0000 </r>
       <r>   -30.8737     0.0000    42.0000 </r>
       <r>   -30.7035     0.0000    42.0000 </r>
       <r>   -30.5333     0.0000    42.0000 </r>
       <r>   -30.3630     0.0000    42.0000 </r>
       <r>   -30.1928     0.0000    42.0000 </r>
       <r>   -30.0226     0.0000    42.0000 </r>
       <r>   -29.8524     0.0000    42.0000 </r>
       <r>   -29.6822     0.0000    42.0000 </r>
       <r>   -29.5120     0.0000    42.0000 </r>
       <r>   -29.3418     0.0000    42.0000 </r>
       <r>   -29.1716     0.0000    42.0000 </r>
       <r>   -29.0014     0.0000    42.0000 </r>
       <r>   -28.8312     0.0000    42.0000 </r>
       <r>   -28.6610     0.0000    42.0000 </r>
       <r>   -28.4908     0.0000    42.0000 </r>
       <r>   -28.3206     0.0000    42.0000 </r>
       <r>   -28.1504     0.0000    42.0000 </r>
       <r>   -27.9802     0.0000    42.0000 </r>
       <r>   -27.8100     0.0000    42.0000 </r>
       <r>   -27.6398     0.0000    42.0000 </r>
       <r>   -27.4696     0.0000    42.0000 </r>
       <r>   -27.2994     0.0000    42.0000 </r>
       <r>   -27.1292     0.0000    42.0000 </r>
       <r>   -26.9590     0.0000    42.0000 </r>
       <r>   -26.7888     0.0000    42.0000 </r>
       <r>   -26.6185     0.0000    42.0000 </r>
       <r>   -26.4483     0.0000    42.0000 </r>
       <r>   -26.2781     0.0000    42.0000 </r>
       <r>   -26.1079     0.0000    42.0000 </r>
       <r>   -25.9377     0.0000    42.0000 </r>
       <r>   -25.7675     0.0000    42.0000 </r>
       <r>   -25.5973     0.0000    42.0000 </r>
       <r>   -25.4271     0.0000    42.0000 </r>
       <r>   -25.2569     0.0000    42.0000 </r>
       <r>   -25.0867     0.0000    42.0000 </r>
       <r>   -24.9165     0.0000    42.0000 </r>
       <r>   -24.7463     0.0000    42.0000 </r>
       <r>   -24.5761     0.0000    42.0000 </r>
       <r>   -24.4059     0.0000    42.0000 </r>
       <r>   -24.2357     0.0000    42.0000 </r>
       <r>   -24.0655     0.0000    42.0000 </r>
       <r>   -23.8953     0.0000    42.0000 </r>
       <r>   -23.7251     0.0000    42.0000 </r>
       <r>   -23.5549     0.0000    42.0000 </r>
       <r>   -23.3847     0.0000    42.0000 </r>
       <r>   -23.2145     0.0000    42.0000 </r>
       <r>   -23.0443     0.0000    42.0000 </r>
       <r>   -22.8741     0.0000    42.0000 </r>
       <r>   -22.7038     0.0000    42.0000 </r>
       <r>   -22.5336     0.0000    42.0000 </r>
       <r>   -22.3634     0.0000    42.0000 </r>
       <r>   -22.1932     0.0000    42.0000 </r>
       <r>   -22.0230     0.0000    42.0000 </r>
       <r>   -21.8528     0.0000    42.0000 </r>
       <r>   -21.6826     0.0000    42.0000 </r>
       <r>   -21.5124     0.0000    42.0000 </r>
       <r>   -21.3422     0.0000    42.0000 </r>
       <r>   -21.1720     0.0000    42.0000 </r>
       <r>   -21.0018     0.0000    42.0000 </r>
       <r>   -20.8316     0.0000    42.0000 </r>
       <r>   -20.6614     0.0000    42.0000 </r>
       <r>   -20.4912     0.0000    42.0000 </r>
       <r>   -20.3210     0.0000    42.0000 </r>
       <r>   -20.1508     0.0000    42.0000 </r>
       <r>   -19.9806     0.0000    42.0000 </r>
       <r>   -19.8104     0.0000    42.0000 </r>
       <r>   -19.6402     0.0000    42.0000 </r>
       <r>   -19.4700     0.0000    42.0000 </r>
       <r>   -19.2998     0.0000    42.0000 </r>
       <r>   -19.1296     0.0000    42.0000 </r>
       <r>   -18.9594     0.0000    42.0000 </r>
       <r>   -18.7891     0.0000    42.0000 </r>
       <r>   -18.6189     0.0000    42.0000 </r>
       <r>   -18.4487     0.0000    42.0000 </r>
       <r>   -18.2785     0.0000    42.0000 </r>
       <r>   -18.1083     0.0000    42.0000 </r>
       <r>   -17.9381     0.0000    42.0000 </r>
       <r>   -17.7679     0.0000    42.0000 </r>
       <r>   -17.5977     0.0000    42.0000 </r>
       <r>   -17.4275     0.0000    42.0000 </r>
       <r>   -17.2573     0.0000    42.0000 </r>
       <r>   -17.0871     0.0000    42.0000 </r>
       <r>   -16.9169     0.0000    42.0000 </r>
       <r>   -16.7467     0.0000    42.0000 </r>
       <r>   -16.5765     0.0000    42.0000 </r>
       <r>   -16.4063     0.0000    42.0000 </r>
       <r>   -16.2361     0.0000    42.0000 </r>
       <r>   -16.0659     0.0000    42.0000 </r>
       <r>   -15.8957     0.0000    42.0000 </r>
       <r>   -15.7255     0.0000    42.0000 </r>
       <r>   -15.5553     0.0000    42.0000 </r>
       <r>   -15.3851     0.0000    42.0000 </r>
       <r>   -15.2149     0.0000    42.0000 </r>
       <r>   -15.0447     0.0000    42.0000 </r>
       <r>   -14.8744     0.0000    42.0000 </r>
       <r>   -14.7042     0.0000    42.0000 </r>
       <r>   -14.5340     0.0000    42.0000 </r>
       <r>   -14.3638     0.0000    42.0000 </r>
       <r>   -14.1936     0.0000    42.0000 </r>
       <r>   -14.0234     0.0000    42.0000 </r>
       <r>   -13.8532     0.0000    42.0000 </r>
       <r>   -13.6830     0.0000    42.0000 </r>
       <r>   -13.5128     0.0000    42.0000 </r>
       <r>   -13.3426     0.0000    42.0000 </r>
       <r>   -13.1724     0.0000    42.0000 </r>
       <r>   -13.0022     0.0000    42.0000 </r>
       <r>   -12.8320     0.0000    42.0000 </r>
       <r>   -12.6618     0.0000    42.0000 </r>
       <r>   -12.4916     0.0000    42.0000 </r>
       <r>   -12.3214     0.0000    42.0000 </r>
       <r>   -12.1512     0.0000    42.0000 </r>
       <r>   -11.9810     0.0000    42.0000 </r>
       <r>   -11.8108     0.0000    42.0000 </r>
       <r>   -11.6406     0.0000    42.0000 </r>
       <r>   -11.4704     0.0000    42.0000 </r>
       <r>   -11.3002     0.0000    42.0000 </r>
       <r>   -11.1300     0.0000    42.0000 </r>
       <r>   -10.9597     0.0000    42.0000 </r>
       <r>   -10.7895     0.0000    42.0000 </r>
       <r>   -10.6193     0.0000    42.0000 </r>
       <r>   -10.4491     0.0000    42.0000 </r>
       <r>   -10.2789     0.0000    42.0000 </r>
       <r>   -10.1087     0.0000    42.0000 </r>
       <r>    -9.9385     0.0000    42.0000 </r>
       <r>    -9.7683     0.0000    42.0000 </r>
       <r>    -9.5981     0.0000    42.0000 </r>
       <r>    -9.4279     0.0000    42.0000 </r>
       <r>    -9.2577     0.0000    42.0000 </r>
       <r>    -9.0875     0.0000    42.0000 </r>
       <r>    -8.9173     0.0000    42.0000 </r>
       <r>    -8.7471     0.0000    42.0000 </r>
       <r>    -8.5769    -0.0000    42.0000 </r>
       <r>    -8.4067    -0.0000    42.0000 </r>
       <r>    -8.2365    -0.0000    42.0000 </r>
       <r>    -8.0663    -0.0000    42.0000 </r>
       <r>    -7.8961    -0.0000    42.0000 </r>
       <r>    -7.7259    -0.0007    41.9999 </r>
       <r>    -7.5557    -0.0184    41.9968 </r>
       <r>    -7.3855     0.1107    42.0156 </r>
       <r>    -7.2153     1.1112    42.2047 </r>
       <r>    -7.0450     1.7133    42.4963 </r>
       <r>    -6.8748     0.6366    42.6047 </r>
       <r>    -6.7046     2.2199    42.9825 </r>
       <r>    -6.5344     1.9261    43.3103 </r>
       <r>    -6.3642     0.4082    43.3798 </r>
       <r>    -6.1940     2.9881    43.8884 </r>
       <r>    -6.0238     4.3802    44.6339 </r>
       <r>    -5.8536     2.5629    45.0702 </r>
       <r>    -5.6834     3.7104    45.7017 </r>
       <r>    -5.5132     2.5952    46.1434 </r>
       <r>    -5.3430     2.3787    46.5483 </r>
       <r>    -5.1728     6.5003    47.6547 </r>
       <r>    -5.0026     3.9625    48.3291 </r>
       <r>    -4.8324     5.2375    49.2206 </r>
       <r>    -4.6622     5.3045    50.1234 </r>
       <r>    -4.4920     8.4156    51.5558 </r>
       <r>    -4.3218     8.4354    52.9915 </r>
       <r>    -4.1516    13.6640    55.3172 </r>
       <r>    -3.9814    20.0753    58.7341 </r>
       <r>    -3.8112    30.1137    63.8596 </r>
       <r>    -3.6410    37.4800    70.2389 </r>
       <r>    -3.4708    37.0067    76.5376 </r>
       <r>    -3.3006    49.2577    84.9214 </r>
       <r>    -3.1303    47.7308    93.0454 </r>
       <r>    -2.9601    42.9767   100.3602 </r>
       <r>    -2.7899    47.7617   108.4895 </r>
       <r>    -2.6197    70.7848   120.5374 </r>
       <r>    -2.4495    76.0269   133.4775 </r>
       <r>    -2.2793    67.5287   144.9712 </r>
       <r>    -2.1091    71.6560   157.1673 </r>
       <r>    -1.9389    69.6098   169.0152 </r>
       <r>    -1.7687    65.5951   180.1798 </r>
       <r>    -1.5985    62.4811   190.8144 </r>
       <r>    -1.4283    54.5061   200.0915 </r>
       <r>    -1.2581    48.3511   208.3211 </r>
       <r>    -1.0879    47.0945   216.3368 </r>
       <r>    -0.9177    53.4354   225.4317 </r>
       <r>    -0.7475    66.2693   236.7111 </r>
       <r>    -0.5773    86.5523   251.4426 </r>
       <r>    -0.4071    96.3671   267.8447 </r>
       <r>    -0.2369    82.3551   281.8619 </r>
       <r>    -0.0667    58.3638   291.7957 </r>
       <r>     0.1035    46.4334   299.6989 </r>
       <r>     0.2737    41.4754   306.7582 </r>
       <r>     0.4439    38.4617   313.3045 </r>
       <r>     0.6142    33.0986   318.9381 </r>
       <r>     0.7844    25.9066   323.3475 </r>
       <r>     0.9546    26.5449   327.8655 </r>
       <r>     1.1248    28.0629   332.6420 </r>
       <r>     1.2950    27.1547   337.2638 </r>
       <r>     1.4652    26.9250   341.8466 </r>
       <r>     1.6354    26.1335   346.2946 </r>
       <r>     1.8056    28.6736   351.1750 </r>
       <r>     1.9758    32.7673   356.7521 </r>
       <r>     2.1460    29.0046   361.6888 </r>
       <r>     2.3162     8.4361   363.1247 </r>
       <r>     2.4864    -0.6778   363.0093 </r>
       <r>     2.6566    -0.0546   363.0000 </r>
       <r>     2.8268    -0.0002   363.0000 </r>
       <r>     2.9970    -0.0000   363.0000 </r>
       <r>     3.1672    -0.0000   363.0000 </r>
       <r>     3.3374     0.0000   363.0000 </r>
       <r>     3.5076     0.0000   363.0000 </r>
       <r>     3.6778     0.0000   363.0000 </r>
       <r>     3.8480     0.0000   363.0000 </r>
       <r>     4.0182     0.0000   363.0000 </r>
       <r>     4.1884     0.0000   363.0000 </r>
       <r>     4.3586     0.0000   363.0000 </r>
       <r>     4.5289     0.0000   363.0000 </r>
       <r>     4.6991     0.0000   363.0000 </r>
       <r>     4.8693     0.0000   363.0000 </r>
       <r>     5.0395     0.0000   363.0000 </r>
       <r>     5.2097     0.0000   363.0000 </r>
      </set>
      <set comment="spin 2">
       <r>   -45.8516     0.0000     0.0000 </r>
       <r>   -45.6814     0.0000     0.0000 </r>
       <r>   -45.5112     0.0000     0.0000 </r>
       <r>   -45.3410     0.0000     0.0000 </r>
       <r>   -45.1708     0.0000     0.0000 </r>
       <r>   -45.0006     0.0000     0.0000 </r>
       <r>   -44.8304    -0.0000    -0.0000 </r>
       <r>   -44.6602    -0.0000    -0.0000 </r>
       <r>   -44.4900    -0.0000    -0.0000 </r>
       <r>   -44.3198    -0.0000    -0.0000 </r>
       <r>   -44.1496    -0.0000    -0.0000 </r>
       <r>   -43.9794    -0.0020    -0.0003 </r>
       <r>   -43.8092    -0.3826    -0.0655 </r>
       <r>   -43.6390    -1.4379    -0.3102 </r>
       <r>   -43.4688    45.1515     7.3748 </r>
       <r>   -43.2986    58.9878    17.4148 </r>
       <r>   -43.1284    25.8137    21.8084 </r>
       <r>   -42.9582    16.4972    24.6163 </r>
       <r>   -42.7880    17.9827    27.6770 </r>
       <r>   -42.6178    15.5060    30.3162 </r>
       <r>   -42.4476     8.6812    31.7938 </r>
       <r>   -42.2774    11.2504    33.7086 </r>
       <r>   -42.1071     7.4536    34.9773 </r>
       <r>   -41.9369     5.2883    35.8774 </r>
       <r>   -41.7667     0.8559    36.0230 </r>
       <r>   -41.5965    -0.1332    36.0004 </r>
       <r>   -41.4263    -0.0022    36.0000 </r>
       <r>   -41.2561    -0.0000    36.0000 </r>
       <r>   -41.0859    -0.0000    36.0000 </r>
       <r>   -40.9157    -0.0000    36.0000 </r>
       <r>   -40.7455    -0.0000    36.0000 </r>
       <r>   -40.5753    -0.0000    36.0000 </r>
       <r>   -40.4051    -0.0000    36.0000 </r>
       <r>   -40.2349    -0.0174    35.9970 </r>
       <r>   -40.0647    -0.4069    35.9278 </r>
       <r>   -39.8945     3.5932    36.5394 </r>
       <r>   -39.7243    17.8815    39.5829 </r>
       <r>   -39.5541    13.5446    41.8882 </r>
       <r>   -39.3839     0.8836    42.0386 </r>
       <r>   -39.2137    -0.2235    42.0006 </r>
       <r>   -39.0435    -0.0033    42.0000 </r>
       <r>   -38.8733    -0.0000    42.0000 </r>
       <r>   -38.7031    -0.0000    42.0000 </r>
       <r>   -38.5329    -0.0000    42.0000 </r>
       <r>   -38.3627     0.0000    42.0000 </r>
       <r>   -38.1924     0.0000    42.0000 </r>
       <r>   -38.0222     0.0000    42.0000 </r>
       <r>   -37.8520     0.0000    42.0000 </r>
       <r>   -37.6818     0.0000    42.0000 </r>
       <r>   -37.5116     0.0000    42.0000 </r>
       <r>   -37.3414     0.0000    42.0000 </r>
       <r>   -37.1712     0.0000    42.0000 </r>
       <r>   -37.0010     0.0000    42.0000 </r>
       <r>   -36.8308     0.0000    42.0000 </r>
       <r>   -36.6606     0.0000    42.0000 </r>
       <r>   -36.4904     0.0000    42.0000 </r>
       <r>   -36.3202     0.0000    42.0000 </r>
       <r>   -36.1500     0.0000    42.0000 </r>
       <r>   -35.9798     0.0000    42.0000 </r>
       <r>   -35.8096     0.0000    42.0000 </r>
       <r>   -35.6394     0.0000    42.0000 </r>
       <r>   -35.4692     0.0000    42.0000 </r>
       <r>   -35.2990     0.0000    42.0000 </r>
       <r>   -35.1288     0.0000    42.0000 </r>
       <r>   -34.9586     0.0000    42.0000 </r>
       <r>   -34.7884     0.0000    42.0000 </r>
       <r>   -34.6182     0.0000    42.0000 </r>
       <r>   -34.4480     0.0000    42.0000 </r>
       <r>   -34.2777     0.0000    42.0000 </r>
       <r>   -34.1075     0.0000    42.0000 </r>
       <r>   -33.9373     0.0000    42.0000 </r>
       <r>   -33.7671     0.0000    42.0000 </r>
       <r>   -33.5969     0.0000    42.0000 </r>
       <r>   -33.4267     0.0000    42.0000 </r>
       <r>   -33.2565     0.0000    42.0000 </r>
       <r>   -33.0863     0.0000    42.0000 </r>
       <r>   -32.9161     0.0000    42.0000 </r>
       <r>   -32.7459     0.0000    42.0000 </r>
       <r>   -32.5757     0.0000    42.0000 </r>
       <r>   -32.4055     0.0000    42.0000 </r>
       <r>   -32.2353     0.0000    42.0000 </r>
       <r>   -32.0651     0.0000    42.0000 </r>
       <r>   -31.8949     0.0000    42.0000 </r>
       <r>   -31.7247     0.0000    42.0000 </r>
       <r>   -31.5545     0.0000    42.0000 </r>
       <r>   -31.3843     0.0000    42.0000 </r>
       <r>   -31.2141     0.0000    42.0000 </r>
       <r>   -31.0439     0.0000    42.0000 </r>
       <r>   -30.8737     0.0000    42.0000 </r>
       <r>   -30.7035     0.0000    42.0000 </r>
       <r>   -30.5333     0.0000    42.0000 </r>
       <r>   -30.3630     0.0000    42.0000 </r>
       <r>   -30.1928     0.0000    42.0000 </r>
       <r>   -30.0226     0.0000    42.0000 </r>
       <r>   -29.8524     0.0000    42.0000 </r>
       <r>   -29.6822     0.0000    42.0000 </r>
       <r>   -29.5120     0.0000    42.0000 </r>
       <r>   -29.3418     0.0000    42.0000 </r>
       <r>   -29.1716     0.0000    42.0000 </r>
       <r>   -29.0014     0.0000    42.0000 </r>
       <r>   -28.8312     0.0000    42.0000 </r>
       <r>   -28.6610     0.0000    42.0000 </r>
       <r>   -28.4908     0.0000    42.0000 </r>
       <r>   -28.3206     0.0000    42.0000 </r>
       <r>   -28.1504     0.0000    42.0000 </r>
       <r>   -27.9802     0.0000    42.0000 </r>
       <r>   -27.8100     0.0000    42.0000 </r>
       <r>   -27.6398     0.0000    42.0000 </r>
       <r>   -27.4696     0.0000    42.0000 </r>
       <r>   -27.2994     0.0000    42.0000 </r>
       <r>   -27.1292     0.0000    42.0000 </r>
       <r>   -26.9590     0.0000    42.0000 </r>
       <r>   -26.7888     0.0000    42.0000 </r>
       <r>   -26.6185     0.0000    42.0000 </r>
       <r>   -26.4483     0.0000    42.0000 </r>
       <r>   -26.2781     0.0000    42.0000 </r>
       <r>   -26.1079     0.0000    42.0000 </r>
       <r>   -25.9377     0.0000    42.0000 </r>
       <r>   -25.7675     0.0000    42.0000 </r>
       <r>   -25.5973     0.0000    42.0000 </r>
       <r>   -25.4271     0.0000    42.0000 </r>
       <r>   -25.2569     0.0000    42.0000 </r>
       <r>   -25.0867     0.0000    42.0000 </r>
       <r>   -24.9165     0.0000    42.0000 </r>
       <r>   -24.7463     0.0000    42.0000 </r>
       <r>   -24.5761     0.0000    42.0000 </r>
       <r>   -24.4059     0.0000    42.0000 </r>
       <r>   -24.2357     0.0000    42.0000 </r>
       <r>   -24.0655     0.0000    42.0000 </r>
       <r>   -23.8953     0.0000    42.0000 </r>
       <r>   -23.7251     0.0000    42.0000 </r>
       <r>   -23.5549     0.0000    42.0000 </r>
       <r>   -23.3847     0.0000    42.0000 </r>
       <r>   -23.2145     0.0000    42.0000 </r>
       <r>   -23.0443     0.0000    42.0000 </r>
       <r>   -22.8741     0.0000    42.0000 </r>
       <r>   -22.7038     0.0000    42.0000 </r>
       <r>   -22.5336     0.0000    42.0000 </r>
       <r>   -22.3634     0.0000    42.0000 </r>
       <r>   -22.1932     0.0000    42.0000 </r>
       <r>   -22.0230     0.0000    42.0000 </r>
       <r>   -21.8528     0.0000    42.0000 </r>
       <r>   -21.6826     0.0000    42.0000 </r>
       <r>   -21.5124     0.0000    42.0000 </r>
       <r>   -21.3422     0.0000    42.0000 </r>
       <r>   -21.1720     0.0000    42.0000 </r>
       <r>   -21.0018     0.0000    42.0000 </r>
       <r>   -20.8316     0.0000    42.0000 </r>
       <r>   -20.6614     0.0000    42.0000 </r>
       <r>   -20.4912     0.0000    42.0000 </r>
       <r>   -20.3210     0.0000    42.0000 </r>
       <r>   -20.1508     0.0000    42.0000 </r>
       <r>   -19.9806     0.0000    42.0000 </r>
       <r>   -19.8104     0.0000    42.0000 </r>
       <r>   -19.6402     0.0000    42.0000 </r>
       <r>   -19.4700     0.0000    42.0000 </r>
       <r>   -19.2998     0.0000    42.0000 </r>
       <r>   -19.1296     0.0000    42.0000 </r>
       <r>   -18.9594     0.0000    42.0000 </r>
       <r>   -18.7891     0.0000    42.0000 </r>
       <r>   -18.6189     0.0000    42.0000 </r>
       <r>   -18.4487     0.0000    42.0000 </r>
       <r>   -18.2785     0.0000    42.0000 </r>
       <r>   -18.1083     0.0000    42.0000 </r>
       <r>   -17.9381     0.0000    42.0000 </r>
       <r>   -17.7679     0.0000    42.0000 </r>
       <r>   -17.5977     0.0000    42.0000 </r>
       <r>   -17.4275     0.0000    42.0000 </r>
       <r>   -17.2573     0.0000    42.0000 </r>
       <r>   -17.0871     0.0000    42.0000 </r>
       <r>   -16.9169     0.0000    42.0000 </r>
       <r>   -16.7467     0.0000    42.0000 </r>
       <r>   -16.5765     0.0000    42.0000 </r>
       <r>   -16.4063     0.0000    42.0000 </r>
       <r>   -16.2361     0.0000    42.0000 </r>
       <r>   -16.0659     0.0000    42.0000 </r>
       <r>   -15.8957     0.0000    42.0000 </r>
       <r>   -15.7255     0.0000    42.0000 </r>
       <r>   -15.5553     0.0000    42.0000 </r>
       <r>   -15.3851     0.0000    42.0000 </r>
       <r>   -15.2149     0.0000    42.0000 </r>
       <r>   -15.0447     0.0000    42.0000 </r>
       <r>   -14.8744     0.0000    42.0000 </r>
       <r>   -14.7042     0.0000    42.0000 </r>
       <r>   -14.5340     0.0000    42.0000 </r>
       <r>   -14.3638     0.0000    42.0000 </r>
       <r>   -14.1936     0.0000    42.0000 </r>
       <r>   -14.0234     0.0000    42.0000 </r>
       <r>   -13.8532     0.0000    42.0000 </r>
       <r>   -13.6830     0.0000    42.0000 </r>
       <r>   -13.5128     0.0000    42.0000 </r>
       <r>   -13.3426     0.0000    42.0000 </r>
       <r>   -13.1724     0.0000    42.0000 </r>
       <r>   -13.0022     0.0000    42.0000 </r>
       <r>   -12.8320     0.0000    42.0000 </r>
       <r>   -12.6618     0.0000    42.0000 </r>
       <r>   -12.4916     0.0000    42.0000 </r>
       <r>   -12.3214     0.0000    42.0000 </r>
       <r>   -12.1512     0.0000    42.0000 </r>
       <r>   -11.9810     0.0000    42.0000 </r>
       <r>   -11.8108     0.0000    42.0000 </r>
       <r>   -11.6406     0.0000    42.0000 </r>
       <r>   -11.4704     0.0000    42.0000 </r>
       <r>   -11.3002     0.0000    42.0000 </r>
       <r>   -11.1300     0.0000    42.0000 </r>
       <r>   -10.9597     0.0000    42.0000 </r>
       <r>   -10.7895     0.0000    42.0000 </r>
       <r>   -10.6193     0.0000    42.0000 </r>
       <r>   -10.4491     0.0000    42.0000 </r>
       <r>   -10.2789     0.0000    42.0000 </r>
       <r>   -10.1087     0.0000    42.0000 </r>
       <r>    -9.9385     0.0000    42.0000 </r>
       <r>    -9.7683     0.0000    42.0000 </r>
       <r>    -9.5981     0.0000    42.0000 </r>
       <r>    -9.4279     0.0000    42.0000 </r>
       <r>    -9.2577     0.0000    42.0000 </r>
       <r>    -9.0875     0.0000    42.0000 </r>
       <r>    -8.9173     0.0000    42.0000 </r>
       <r>    -8.7471     0.0000    42.0000 </r>
       <r>    -8.5769    -0.0000    42.0000 </r>
       <r>    -8.4067    -0.0000    42.0000 </r>
       <r>    -8.2365    -0.0000    42.0000 </r>
       <r>    -8.0663    -0.0000    42.0000 </r>
       <r>    -7.8961    -0.0000    42.0000 </r>
       <r>    -7.7259    -0.0000    42.0000 </r>
       <r>    -7.5557    -0.0040    41.9993 </r>
       <r>    -7.3855    -0.0167    41.9965 </r>
       <r>    -7.2153     0.3835    42.0617 </r>
       <r>    -7.0450     1.5829    42.3312 </r>
       <r>    -6.8748     1.2763    42.5484 </r>
       <r>    -6.7046     0.8332    42.6902 </r>
       <r>    -6.5344     2.7705    43.1618 </r>
       <r>    -6.3642     0.9132    43.3172 </r>
       <r>    -6.1940     1.1177    43.5074 </r>
       <r>    -6.0238     3.7460    44.1450 </r>
       <r>    -5.8536     3.7423    44.7820 </r>
       <r>    -5.6834     2.6051    45.2254 </r>
       <r>    -5.5132     3.8191    45.8754 </r>
       <r>    -5.3430     1.6795    46.1612 </r>
       <r>    -5.1728     2.5267    46.5913 </r>
       <r>    -5.0026     6.4967    47.6971 </r>
       <r>    -4.8324     3.2501    48.2503 </r>
       <r>    -4.6622     5.4562    49.1789 </r>
       <r>    -4.4920     3.5957    49.7909 </r>
       <r>    -4.3218     5.3168    50.6959 </r>
       <r>    -4.1516     8.6453    52.1673 </r>
       <r>    -3.9814     6.2347    53.2285 </r>
       <r>    -3.8112     7.3816    54.4849 </r>
       <r>    -3.6410     6.2803    55.5538 </r>
       <r>    -3.4708     9.9424    57.2460 </r>
       <r>    -3.3006    13.3808    59.5235 </r>
       <r>    -3.1303    18.2289    62.6262 </r>
       <r>    -2.9601    20.5400    66.1221 </r>
       <r>    -2.7899    22.0335    69.8723 </r>
       <r>    -2.6197    20.8600    73.4228 </r>
       <r>    -2.4495    30.0964    78.5453 </r>
       <r>    -2.2793    33.8794    84.3118 </r>
       <r>    -2.1091    36.7347    90.5642 </r>
       <r>    -1.9389    36.6206    96.7972 </r>
       <r>    -1.7687    34.7800   102.7169 </r>
       <r>    -1.5985    41.1071   109.7135 </r>
       <r>    -1.4283    47.5751   117.8110 </r>
       <r>    -1.2581    54.5110   127.0890 </r>
       <r>    -1.0879    55.6487   136.5606 </r>
       <r>    -0.9177    52.2783   145.4586 </r>
       <r>    -0.7475    57.3120   155.2134 </r>
       <r>    -0.5773    59.0168   165.2583 </r>
       <r>    -0.4071    60.9455   175.6315 </r>
       <r>    -0.2369    58.5113   185.5904 </r>
       <r>    -0.0667    51.0139   194.2732 </r>
       <r>     0.1035    46.8348   202.2446 </r>
       <r>     0.2737    41.1372   209.2464 </r>
       <r>     0.4439    41.0775   216.2379 </r>
       <r>     0.6142    35.6311   222.3025 </r>
       <r>     0.7844    32.2182   227.7862 </r>
       <r>     0.9546    33.2656   233.4481 </r>
       <r>     1.1248    44.0706   240.9491 </r>
       <r>     1.2950    48.3641   249.1809 </r>
       <r>     1.4652    54.1305   258.3941 </r>
       <r>     1.6354    64.2286   269.3261 </r>
       <r>     1.8056    73.8948   281.9034 </r>
       <r>     1.9758    85.0855   296.3853 </r>
       <r>     2.1460    89.4181   311.6047 </r>
       <r>     2.3162    94.6705   327.7180 </r>
       <r>     2.4864    96.9140   344.2132 </r>
       <r>     2.6566    67.2262   355.6554 </r>
       <r>     2.8268    38.5579   362.2181 </r>
       <r>     2.9970     5.3338   363.1259 </r>
       <r>     3.1672    -0.7051   363.0059 </r>
       <r>     3.3374    -0.0346   363.0000 </r>
       <r>     3.5076    -0.0001   363.0000 </r>
       <r>     3.6778    -0.0000   363.0000 </r>
       <r>     3.8480    -0.0000   363.0000 </r>
       <r>     4.0182     0.0000   363.0000 </r>
       <r>     4.1884     0.0000   363.0000 </r>
       <r>     4.3586     0.0000   363.0000 </r>
       <r>     4.5289     0.0000   363.0000 </r>
       <r>     4.6991     0.0000   363.0000 </r>
       <r>     4.8693     0.0000   363.0000 </r>
       <r>     5.0395     0.0000   363.0000 </r>
       <r>     5.2097     0.0000   363.0000 </r>
      </set>
     </set>
    </array>
   </total>
  </dos>
 </calculation>
 <structure name="finalpos" >
  <crystal>
   <varray name="basis" >
    <v>       8.50460000       0.00000000       0.00000000 </v>
    <v>      -0.00109914       8.50909993       0.00000000 </v>
    <v>       0.00000000       0.00000000      23.55660100 </v>
   </varray>
   <i name="volume">   1704.70856049 </i>
   <varray name="rec_basis" >
    <v>       0.11758343       0.00001519       0.00000000 </v>
    <v>       0.00000000       0.11752124       0.00000000 </v>
    <v>       0.00000000       0.00000000       0.04245095 </v>
   </varray>
  </crystal>
  <varray name="positions" >
   <v>       0.99760000       0.00330000       0.24221000 </v>
   <v>       0.66561000       0.99834000       0.00060000 </v>
   <v>       0.65172056       0.98477179       0.36817530 </v>
   <v>       0.83467000       0.16589000       0.18209000 </v>
   <v>       0.99866000       0.33404000       0.12198000 </v>
   <v>       0.33421000       0.33147000       0.00101000 </v>
   <v>       0.33354708       0.33595542       0.36402216 </v>
   <v>       0.83220000       0.50025000       0.06275000 </v>
   <v>       0.83258721       0.49875635       0.30386543 </v>
   <v>       0.33512000       0.67037000       0.00000000 </v>
   <v>       0.35042746       0.67723393       0.36894557 </v>
   <v>       0.33145000       0.66488000       0.12292000 </v>
   <v>       0.49920433       0.83380838       0.30439325 </v>
   <v>       0.67111000       0.66550000       0.12148000 </v>
   <v>       0.99950000       0.00032000       0.00103000 </v>
   <v>       0.99731843       0.00050224       0.36100216 </v>
   <v>       0.16670000       0.16592000       0.06160000 </v>
   <v>       0.99930000       0.00013000       0.12183000 </v>
   <v>       0.16670000       0.16692000       0.18170000 </v>
   <v>       0.16253788       0.16575998       0.30300948 </v>
   <v>       0.33368000       0.99986000       0.00108000 </v>
   <v>       0.32426266       0.01350120       0.36255880 </v>
   <v>       0.50008000       0.16606000       0.06164000 </v>
   <v>       0.33365000       0.99945000       0.12194000 </v>
   <v>       0.50013000       0.16657000       0.18176000 </v>
   <v>       0.33374000       0.99994000       0.24252000 </v>
   <v>       0.49993568       0.16800207       0.30353631 </v>
   <v>       0.83412000       0.16807000       0.06130000 </v>
   <v>       0.66767000       0.99972000       0.12168000 </v>
   <v>       0.66792000       0.00032000       0.24233000 </v>
   <v>       0.83119887       0.16606359       0.30415088 </v>
   <v>       0.00033000       0.33346000       0.00076000 </v>
   <v>       0.00939958       0.32888042       0.36363266 </v>
   <v>       0.16704000       0.50116000       0.06077000 </v>
   <v>       0.16627000       0.49940000       0.18238000 </v>
   <v>       0.00000000       0.33319000       0.24260000 </v>
   <v>       0.16775480       0.50136622       0.30366503 </v>
   <v>       0.49811000       0.50186000       0.06112000 </v>
   <v>       0.33328000       0.33434000       0.12148000 </v>
   <v>       0.50051000       0.50053000       0.18145000 </v>
   <v>       0.33392000       0.33269000       0.24229000 </v>
   <v>       0.50697749       0.49926113       0.30096280 </v>
   <v>       0.66687000       0.33418000       0.00129000 </v>
   <v>       0.66416628       0.32966363       0.36103785 </v>
   <v>       0.66670000       0.33332000       0.12177000 </v>
   <v>       0.83466000       0.49916000       0.18181000 </v>
   <v>       0.66748000       0.33291000       0.24234000 </v>
   <v>       0.99949000       0.66581000       0.00112000 </v>
   <v>       0.00376483       0.66376044       0.35989566 </v>
   <v>       0.16773000       0.83295000       0.06141000 </v>
   <v>       0.00149000       0.66672000       0.12196000 </v>
   <v>       0.16592000       0.83389000       0.18235000 </v>
   <v>       0.99950000       0.66635000       0.24245000 </v>
   <v>       0.16453747       0.83468898       0.30318208 </v>
   <v>       0.49825000       0.83185000       0.06189000 </v>
   <v>       0.50064000       0.83335000       0.18189000 </v>
   <v>       0.33424000       0.66627000       0.24239000 </v>
   <v>       0.66521000       0.66629000       0.00100000 </v>
   <v>       0.83382000       0.83268000       0.06128000 </v>
   <v>       0.83390000       0.83311000       0.18191000 </v>
   <v>       0.66721000       0.66675000       0.24221000 </v>
   <v>       0.83370695       0.82928436       0.30275917 </v>
  </varray>
  <varray name="selective"  type="logical" >
   <v type="logical" >  F  F  F </v>
   <v type="logical" >  F  F  F </v>
   <v type="logical" >  T  T  T </v>
   <v type="logical" >  F  F  F </v>
   <v type="logical" >  F  F  F </v>
   <v type="logical" >  F  F  F </v>
   <v type="logical" >  T  T  T </v>
   <v type="logical" >  F  F  F </v>
   <v type="logical" >  T  T  T </v>
   <v type="logical" >  F  F  F </v>
   <v type="logical" >  T  T  T </v>
   <v type="logical" >  F  F  F </v>
   <v type="logical" >  T  T  T </v>
   <v type="logical" >  F  F  F </v>
   <v type="logical" >  F  F  F </v>
   <v type="logical" >  T  T  T </v>
   <v type="logical" >  F  F  F </v>
   <v type="logical" >  F  F  F </v>
   <v type="logical" >  F  F  F </v>
   <v type="logical" >  T  T  T </v>
   <v type="logical" >  F  F  F </v>
   <v type="logical" >  T  T  T </v>
   <v type="logical" >  F  F  F </v>
   <v type="logical" >  F  F  F </v>
   <v type="logical" >  F  F  F </v>
   <v type="logical" >  F  F  F </v>
   <v type="logical" >  T  T  T </v>
   <v type="logical" >  F  F  F </v>
   <v type="logical" >  F  F  F </v>
   <v type="logical" >  F  F  F </v>
   <v type="logical" >  T  T  T </v>
   <v type="logical" >  F  F  F </v>
   <v type="logical" >  T  T  T </v>
   <v type="logical" >  F  F  F </v>
   <v type="logical" >  F  F  F </v>
   <v type="logical" >  F  F  F </v>
   <v type="logical" >  T  T  T </v>
   <v type="logical" >  F  F  F </v>
   <v type="logical" >  F  F  F </v>
   <v type="logical" >  F  F  F </v>
   <v type="logical" >  F  F  F </v>
   <v type="logical" >  T  T  T </v>
   <v type="logical" >  F  F  F </v>
   <v type="logical" >  T  T  T </v>
   <v type="logical" >  F  F  F </v>
   <v type="logical" >  F  F  F </v>
   <v type="logical" >  F  F  F </v>
   <v type="logical" >  F  F  F </v>
   <v type="logical" >  T  T  T </v>
   <v type="logical" >  F  F  F </v>
   <v type="logical" >  F  F  F </v>
   <v type="logical" >  F  F  F </v>
   <v type="logical" >  F  F  F </v>
   <v type="logical" >  T  T  T </v>
   <v type="logical" >  F  F  F </v>
   <v type="logical" >  F  F  F </v>
   <v type="logical" >  F  F  F </v>
   <v type="logical" >  F  F  F </v>
   <v type="logical" >  F  F  F </v>
   <v type="logical" >  F  F  F </v>
   <v type="logical" >  F  F  F </v>
   <v type="logical" >  T  T  T </v>
  </varray>
  <nose>
   <v>      -3.00000000       0.00000000       0.00010000       0.00010000 </v>
  </nose>
 </structure>
</modeling>
