INCAR-For-OPT                           
           1
     8.504600    0.000000    0.000000
    -0.001099    8.509100    0.000000
     0.000000    0.000000   23.556601
   Cr   Fe
    14    48
Direct configuration=     1
   0.99760000  0.00330000  0.24221000
   0.66561000  0.99834000  0.00060000
   0.67354400  0.00891500  0.36928400
   0.83467000  0.16589000  0.18209000
   0.99866000  0.33404000  0.12198000
   0.33421000  0.33147000  0.00101000
   0.33492000  0.32166100  0.36416600
   0.83220000  0.50025000  0.06275000
   0.83124000  0.50129100  0.30439700
   0.33512000  0.67037000  0.00000000
   0.32602400  0.66962400  0.36812800
   0.33145000  0.66488000  0.12292000
   0.50213000  0.83338100  0.29913600
   0.67111000  0.66550000  0.12148000
   0.99950000  0.00032000  0.00103000
   0.99726800  0.99707400  0.36118600
   0.16670000  0.16592000  0.06160000
   0.99930000  0.00013000  0.12183000
   0.16670000  0.16692000  0.18170000
   0.16532700  0.16232300  0.30409900
   0.33368000  0.99986000  0.00108000
   0.34278800  0.99186200  0.35939600
   0.50008000  0.16606000  0.06164000
   0.33365000  0.99945000  0.12194000
   0.50013000  0.16657000  0.18176000
   0.33374000  0.99994000  0.24252000
   0.50427000  0.16481800  0.30293500
   0.83412000  0.16807000  0.06130000
   0.66767000  0.99972000  0.12168000
   0.66792000  0.00032000  0.24233000
   0.83459500  0.16873300  0.30380900
   0.00033000  0.33346000  0.00076000
   0.00196900  0.33211200  0.36111800
   0.16704000  0.50116000  0.06077000
   0.16627000  0.49940000  0.18238000
   0.00000000  0.33319000  0.24260000
   0.16689500  0.49939100  0.30484700
   0.49811000  0.50186000  0.06112000
   0.33328000  0.33434000  0.12148000
   0.50051000  0.50053000  0.18145000
   0.33392000  0.33269000  0.24229000
   0.49886100  0.50205200  0.30516800
   0.66687000  0.33418000  0.00129000
   0.66605200  0.33549800  0.36105200
   0.66670000  0.33332000  0.12177000
   0.83466000  0.49916000  0.18181000
   0.66748000  0.33291000  0.24234000
   0.99949000  0.66581000  0.00112000
   0.00140400  0.66980100  0.36155500
   0.16773000  0.83295000  0.06141000
   0.00149000  0.66672000  0.12196000
   0.16592000  0.83389000  0.18235000
   0.99950000  0.66635000  0.24245000
   0.16581300  0.83274300  0.30350500
   0.49825000  0.83185000  0.06189000
   0.50064000  0.83335000  0.18189000
   0.33424000  0.66627000  0.24239000
   0.66521000  0.66629000  0.00100000
   0.83382000  0.83268000  0.06128000
   0.83390000  0.83311000  0.18191000
   0.66721000  0.66675000  0.24221000
   0.83053200  0.83175400  0.30432900
Direct configuration=     2
   0.99760000  0.00330000  0.24221000
   0.66561000  0.99834000  0.00060000
   0.67030101  0.00618749  0.36964643
   0.83467000  0.16589000  0.18209000
   0.99866000  0.33404000  0.12198000
   0.33421000  0.33147000  0.00101000
   0.33484523  0.32297936  0.36440234
   0.83220000  0.50025000  0.06275000
   0.83123053  0.50144556  0.30419706
   0.33512000  0.67037000  0.00000000
   0.32975761  0.67010525  0.36886144
   0.33145000  0.66488000  0.12292000
   0.50193537  0.83279438  0.30117281
   0.67111000  0.66550000  0.12148000
   0.99950000  0.00032000  0.00103000
   0.99829697  0.99763792  0.36105730
   0.16670000  0.16592000  0.06160000
   0.99930000  0.00013000  0.12183000
   0.16670000  0.16692000  0.18170000
   0.16516260  0.16239996  0.30399361
   0.33368000  0.99986000  0.00108000
   0.34165838  0.99398221  0.35955077
   0.50008000  0.16606000  0.06164000
   0.33365000  0.99945000  0.12194000
   0.50013000  0.16657000  0.18176000
   0.33374000  0.99994000  0.24252000
   0.50388104  0.16682923  0.30286385
   0.83412000  0.16807000  0.06130000
   0.66767000  0.99972000  0.12168000
   0.66792000  0.00032000  0.24233000
   0.83465590  0.16898314  0.30328609
   0.00033000  0.33346000  0.00076000
   0.00288018  0.33191861  0.36176624
   0.16704000  0.50116000  0.06077000
   0.16627000  0.49940000  0.18238000
   0.00000000  0.33319000  0.24260000
   0.16517585  0.49900252  0.30410507
   0.49811000  0.50186000  0.06112000
   0.33328000  0.33434000  0.12148000
   0.50051000  0.50053000  0.18145000
   0.33392000  0.33269000  0.24229000
   0.50139666  0.50153426  0.30376800
   0.66687000  0.33418000  0.00129000
   0.66537062  0.33509114  0.36096593
   0.66670000  0.33332000  0.12177000
   0.83466000  0.49916000  0.18181000
   0.66748000  0.33291000  0.24234000
   0.99949000  0.66581000  0.00112000
   0.00103559  0.66869853  0.36116806
   0.16773000  0.83295000  0.06141000
   0.00149000  0.66672000  0.12196000
   0.16592000  0.83389000  0.18235000
   0.99950000  0.66635000  0.24245000
   0.16407152  0.83367350  0.30292142
   0.49825000  0.83185000  0.06189000
   0.50064000  0.83335000  0.18189000
   0.33424000  0.66627000  0.24239000
   0.66521000  0.66629000  0.00100000
   0.83382000  0.83268000  0.06128000
   0.83390000  0.83311000  0.18191000
   0.66721000  0.66675000  0.24221000
   0.83163945  0.83051626  0.30364618
Direct configuration=     3
   0.99760000  0.00330000  0.24221000
   0.66561000  0.99834000  0.00060000
   0.66539740  0.00206332  0.37019445
   0.83467000  0.16589000  0.18209000
   0.99866000  0.33404000  0.12198000
   0.33421000  0.33147000  0.00101000
   0.33473219  0.32497280  0.36475970
   0.83220000  0.50025000  0.06275000
   0.83121621  0.50167927  0.30389473
   0.33512000  0.67037000  0.00000000
   0.33540304  0.67083294  0.36997045
   0.33145000  0.66488000  0.12292000
   0.50164109  0.83190739  0.30425260
   0.67111000  0.66550000  0.12148000
   0.99950000  0.00032000  0.00103000
   0.99985282  0.99849059  0.36086269
   0.16670000  0.16592000  0.06160000
   0.99930000  0.00013000  0.12183000
   0.16670000  0.16692000  0.18170000
   0.16491401  0.16251634  0.30383426
   0.33368000  0.99986000  0.00108000
   0.33995033  0.99718810  0.35978478
   0.50008000  0.16606000  0.06164000
   0.33365000  0.99945000  0.12194000
   0.50013000  0.16657000  0.18176000
   0.33374000  0.99994000  0.24252000
   0.50329290  0.16987034  0.30275627
   0.83412000  0.16807000  0.06130000
   0.66767000  0.99972000  0.12168000
   0.66792000  0.00032000  0.24233000
   0.83474798  0.16936136  0.30249542
   0.00033000  0.33346000  0.00076000
   0.00425794  0.33162618  0.36274641
   0.16704000  0.50116000  0.06077000
   0.16627000  0.49940000  0.18238000
   0.00000000  0.33319000  0.24260000
   0.16257638  0.49841511  0.30298323
   0.49811000  0.50186000  0.06112000
   0.33328000  0.33434000  0.12148000
   0.50051000  0.50053000  0.18145000
   0.33392000  0.33269000  0.24229000
   0.50523073  0.50075141  0.30165111
   0.66687000  0.33418000  0.00129000
   0.66434033  0.33447594  0.36083579
   0.66670000  0.33332000  0.12177000
   0.83466000  0.49916000  0.18181000
   0.66748000  0.33291000  0.24234000
   0.99949000  0.66581000  0.00112000
   0.00047853  0.66703154  0.36058299
   0.16773000  0.83295000  0.06141000
   0.00149000  0.66672000  0.12196000
   0.16592000  0.83389000  0.18235000
   0.99950000  0.66635000  0.24245000
   0.16143829  0.83508046  0.30203902
   0.49825000  0.83185000  0.06189000
   0.50064000  0.83335000  0.18189000
   0.33424000  0.66627000  0.24239000
   0.66521000  0.66629000  0.00100000
   0.83382000  0.83268000  0.06128000
   0.83390000  0.83311000  0.18191000
   0.66721000  0.66675000  0.24221000
   0.83331398  0.82864473  0.30261371
Direct configuration=     4
   0.99760000  0.00330000  0.24221000
   0.66561000  0.99834000  0.00060000
   0.66465571  0.00143952  0.37027734
   0.83467000  0.16589000  0.18209000
   0.99866000  0.33404000  0.12198000
   0.33421000  0.33147000  0.00101000
   0.33471509  0.32527432  0.36481375
   0.83220000  0.50025000  0.06275000
   0.83121405  0.50171462  0.30384901
   0.33512000  0.67037000  0.00000000
   0.33625694  0.67094300  0.37013819
   0.33145000  0.66488000  0.12292000
   0.50159657  0.83177322  0.30471843
   0.67111000  0.66550000  0.12148000
   0.99950000  0.00032000  0.00103000
   0.00008816  0.99861956  0.36083326
   0.16670000  0.16592000  0.06160000
   0.99930000  0.00013000  0.12183000
   0.16670000  0.16692000  0.18170000
   0.16487641  0.16253394  0.30381016
   0.33368000  0.99986000  0.00108000
   0.33969198  0.99767301  0.35982018
   0.50008000  0.16606000  0.06164000
   0.33365000  0.99945000  0.12194000
   0.50013000  0.16657000  0.18176000
   0.33374000  0.99994000  0.24252000
   0.50320395  0.17033032  0.30274000
   0.83412000  0.16807000  0.06130000
   0.66767000  0.99972000  0.12168000
   0.66792000  0.00032000  0.24233000
   0.83476190  0.16941857  0.30237583
   0.00033000  0.33346000  0.00076000
   0.00446634  0.33158195  0.36289467
   0.16704000  0.50116000  0.06077000
   0.16627000  0.49940000  0.18238000
   0.00000000  0.33319000  0.24260000
   0.16218320  0.49832626  0.30281355
   0.49811000  0.50186000  0.06112000
   0.33328000  0.33434000  0.12148000
   0.50051000  0.50053000  0.18145000
   0.33392000  0.33269000  0.24229000
   0.50581065  0.50063300  0.30133092
   0.66687000  0.33418000  0.00129000
   0.66418449  0.33438288  0.36081611
   0.66670000  0.33332000  0.12177000
   0.83466000  0.49916000  0.18181000
   0.66748000  0.33291000  0.24234000
   0.99949000  0.66581000  0.00112000
   0.00039427  0.66677939  0.36049450
   0.16773000  0.83295000  0.06141000
   0.00149000  0.66672000  0.12196000
   0.16592000  0.83389000  0.18235000
   0.99950000  0.66635000  0.24245000
   0.16104000  0.83529327  0.30190555
   0.49825000  0.83185000  0.06189000
   0.50064000  0.83335000  0.18189000
   0.33424000  0.66627000  0.24239000
   0.66521000  0.66629000  0.00100000
   0.83382000  0.83268000  0.06128000
   0.83390000  0.83311000  0.18191000
   0.66721000  0.66675000  0.24221000
   0.83356726  0.82836165  0.30245755
Direct configuration=     5
   0.99760000  0.00330000  0.24221000
   0.66561000  0.99834000  0.00060000
   0.66287501  0.99860936  0.37004874
   0.83467000  0.16589000  0.18209000
   0.99866000  0.33404000  0.12198000
   0.33421000  0.33147000  0.00101000
   0.33438206  0.32790406  0.36477487
   0.83220000  0.50025000  0.06275000
   0.83114689  0.50112365  0.30373163
   0.33512000  0.67037000  0.00000000
   0.33883577  0.67041604  0.37010046
   0.33145000  0.66488000  0.12292000
   0.50163868  0.83183151  0.30552896
   0.67111000  0.66550000  0.12148000
   0.99950000  0.00032000  0.00103000
   0.00018350  0.99945512  0.36063605
   0.16670000  0.16592000  0.06160000
   0.99930000  0.00013000  0.12183000
   0.16670000  0.16692000  0.18170000
   0.16481505  0.16385702  0.30379506
   0.33368000  0.99986000  0.00108000
   0.33682700  0.00072531  0.35999960
   0.50008000  0.16606000  0.06164000
   0.33365000  0.99945000  0.12194000
   0.50013000  0.16657000  0.18176000
   0.33374000  0.99994000  0.24252000
   0.50287698  0.16982251  0.30280111
   0.83412000  0.16807000  0.06130000
   0.66767000  0.99972000  0.12168000
   0.66792000  0.00032000  0.24233000
   0.83382926  0.16840814  0.30307294
   0.00033000  0.33346000  0.00076000
   0.00554727  0.33080160  0.36318047
   0.16704000  0.50116000  0.06077000
   0.16627000  0.49940000  0.18238000
   0.00000000  0.33319000  0.24260000
   0.16362216  0.49895522  0.30316696
   0.49811000  0.50186000  0.06112000
   0.33328000  0.33434000  0.12148000
   0.50051000  0.50053000  0.18145000
   0.33392000  0.33269000  0.24229000
   0.50591734  0.50032110  0.30095715
   0.66687000  0.33418000  0.00129000
   0.66419227  0.33415035  0.36064611
   0.66670000  0.33332000  0.12177000
   0.83466000  0.49916000  0.18181000
   0.66748000  0.33291000  0.24234000
   0.99949000  0.66581000  0.00112000
   0.00021939  0.66564201  0.36004650
   0.16773000  0.83295000  0.06141000
   0.00149000  0.66672000  0.12196000
   0.16592000  0.83389000  0.18235000
   0.99950000  0.66635000  0.24245000
   0.16236275  0.83444717  0.30231871
   0.49825000  0.83185000  0.06189000
   0.50064000  0.83335000  0.18189000
   0.33424000  0.66627000  0.24239000
   0.66521000  0.66629000  0.00100000
   0.83382000  0.83268000  0.06128000
   0.83390000  0.83311000  0.18191000
   0.66721000  0.66675000  0.24221000
   0.83321688  0.82917037  0.30252053
Direct configuration=     6
   0.99760000  0.00330000  0.24221000
   0.66561000  0.99834000  0.00060000
   0.65912061  0.99264226  0.36956675
   0.83467000  0.16589000  0.18209000
   0.99866000  0.33404000  0.12198000
   0.33421000  0.33147000  0.00101000
   0.33367992  0.33344861  0.36469289
   0.83220000  0.50025000  0.06275000
   0.83100530  0.49987766  0.30348416
   0.33512000  0.67037000  0.00000000
   0.34427295  0.66930499  0.37002090
   0.33145000  0.66488000  0.12292000
   0.50172746  0.83195440  0.30723787
   0.67111000  0.66550000  0.12148000
   0.99950000  0.00032000  0.00103000
   0.00038453  0.00121682  0.36022026
   0.16670000  0.16592000  0.06160000
   0.99930000  0.00013000  0.12183000
   0.16670000  0.16692000  0.18170000
   0.16468570  0.16664657  0.30376323
   0.33368000  0.99986000  0.00108000
   0.33078651  0.00716076  0.36037790
   0.50008000  0.16606000  0.06164000
   0.33365000  0.99945000  0.12194000
   0.50013000  0.16657000  0.18176000
   0.33374000  0.99994000  0.24252000
   0.50218761  0.16875184  0.30292994
   0.83412000  0.16807000  0.06130000
   0.66767000  0.99972000  0.12168000
   0.66792000  0.00032000  0.24233000
   0.83186288  0.16627776  0.30454272
   0.00033000  0.33346000  0.00076000
   0.00782629  0.32915630  0.36378306
   0.16704000  0.50116000  0.06077000
   0.16627000  0.49940000  0.18238000
   0.00000000  0.33319000  0.24260000
   0.16665606  0.50028133  0.30391208
   0.49811000  0.50186000  0.06112000
   0.33328000  0.33434000  0.12148000
   0.50051000  0.50053000  0.18145000
   0.33392000  0.33269000  0.24229000
   0.50614228  0.49966350  0.30016909
   0.66687000  0.33418000  0.00129000
   0.66420866  0.33366009  0.36028769
   0.66670000  0.33332000  0.12177000
   0.83466000  0.49916000  0.18181000
   0.66748000  0.33291000  0.24234000
   0.99949000  0.66581000  0.00112000
   0.99985067  0.66324395  0.35910194
   0.16773000  0.83295000  0.06141000
   0.00149000  0.66672000  0.12196000
   0.16592000  0.83389000  0.18235000
   0.99950000  0.66635000  0.24245000
   0.16515164  0.83266324  0.30318980
   0.49825000  0.83185000  0.06189000
   0.50064000  0.83335000  0.18189000
   0.33424000  0.66627000  0.24239000
   0.66521000  0.66629000  0.00100000
   0.83382000  0.83268000  0.06128000
   0.83390000  0.83311000  0.18191000
   0.66721000  0.66675000  0.24221000
   0.83247813  0.83087548  0.30265334
Direct configuration=     7
   0.99760000  0.00330000  0.24221000
   0.66561000  0.99834000  0.00060000
   0.65958212  0.99337576  0.36962600
   0.83467000  0.16589000  0.18209000
   0.99866000  0.33404000  0.12198000
   0.33421000  0.33147000  0.00101000
   0.33376623  0.33276704  0.36470297
   0.83220000  0.50025000  0.06275000
   0.83102271  0.50003082  0.30351458
   0.33512000  0.67037000  0.00000000
   0.34360458  0.66944157  0.37003068
   0.33145000  0.66488000  0.12292000
   0.50171655  0.83193929  0.30702780
   0.67111000  0.66550000  0.12148000
   0.99950000  0.00032000  0.00103000
   0.00035982  0.00100027  0.36027137
   0.16670000  0.16592000  0.06160000
   0.99930000  0.00013000  0.12183000
   0.16670000  0.16692000  0.18170000
   0.16470160  0.16630367  0.30376714
   0.33368000  0.99986000  0.00108000
   0.33152904  0.00636968  0.36033139
   0.50008000  0.16606000  0.06164000
   0.33365000  0.99945000  0.12194000
   0.50013000  0.16657000  0.18176000
   0.33374000  0.99994000  0.24252000
   0.50227235  0.16888345  0.30291410
   0.83412000  0.16807000  0.06130000
   0.66767000  0.99972000  0.12168000
   0.66792000  0.00032000  0.24233000
   0.83210460  0.16653964  0.30436205
   0.00033000  0.33346000  0.00076000
   0.00754614  0.32935855  0.36370899
   0.16704000  0.50116000  0.06077000
   0.16627000  0.49940000  0.18238000
   0.00000000  0.33319000  0.24260000
   0.16628312  0.50011832  0.30382049
   0.49811000  0.50186000  0.06112000
   0.33328000  0.33434000  0.12148000
   0.50051000  0.50053000  0.18145000
   0.33392000  0.33269000  0.24229000
   0.50611463  0.49974434  0.30026596
   0.66687000  0.33418000  0.00129000
   0.66420665  0.33372035  0.36033175
   0.66670000  0.33332000  0.12177000
   0.83466000  0.49916000  0.18181000
   0.66748000  0.33291000  0.24234000
   0.99949000  0.66581000  0.00112000
   0.99989600  0.66353873  0.35921805
   0.16773000  0.83295000  0.06141000
   0.00149000  0.66672000  0.12196000
   0.16592000  0.83389000  0.18235000
   0.99950000  0.66635000  0.24245000
   0.16480881  0.83288253  0.30308272
   0.49825000  0.83185000  0.06189000
   0.50064000  0.83335000  0.18189000
   0.33424000  0.66627000  0.24239000
   0.66521000  0.66629000  0.00100000
   0.83382000  0.83268000  0.06128000
   0.83390000  0.83311000  0.18191000
   0.66721000  0.66675000  0.24221000
   0.83256894  0.83066588  0.30263701
Direct configuration=     8
   0.99760000  0.00330000  0.24221000
   0.66561000  0.99834000  0.00060000
   0.65799241  0.99117130  0.36956386
   0.83467000  0.16589000  0.18209000
   0.99866000  0.33404000  0.12198000
   0.33421000  0.33147000  0.00101000
   0.33413657  0.33437115  0.36452764
   0.83220000  0.50025000  0.06275000
   0.83151317  0.49938389  0.30344655
   0.33512000  0.67037000  0.00000000
   0.34557983  0.66993524  0.37001091
   0.33145000  0.66488000  0.12292000
   0.50140528  0.83232433  0.30629319
   0.67111000  0.66550000  0.12148000
   0.99950000  0.00032000  0.00103000
   0.99996472  0.00114158  0.36043680
   0.16670000  0.16592000  0.06160000
   0.99930000  0.00013000  0.12183000
   0.16670000  0.16692000  0.18170000
   0.16397828  0.16668283  0.30326924
   0.33368000  0.99986000  0.00108000
   0.32953941  0.00797380  0.36101735
   0.50008000  0.16606000  0.06164000
   0.33365000  0.99945000  0.12194000
   0.50013000  0.16657000  0.18176000
   0.33374000  0.99994000  0.24252000
   0.50155784  0.16855096  0.30312131
   0.83412000  0.16807000  0.06130000
   0.66767000  0.99972000  0.12168000
   0.66792000  0.00032000  0.24233000
   0.83217286  0.16707410  0.30413742
   0.00033000  0.33346000  0.00076000
   0.00801302  0.32908323  0.36384349
   0.16704000  0.50116000  0.06077000
   0.16627000  0.49940000  0.18238000
   0.00000000  0.33319000  0.24260000
   0.16673888  0.50008717  0.30368492
   0.49811000  0.50186000  0.06112000
   0.33328000  0.33434000  0.12148000
   0.50051000  0.50053000  0.18145000
   0.33392000  0.33269000  0.24229000
   0.50561314  0.49964505  0.30064582
   0.66687000  0.33418000  0.00129000
   0.66407244  0.33338803  0.36052918
   0.66670000  0.33332000  0.12177000
   0.83466000  0.49916000  0.18181000
   0.66748000  0.33291000  0.24234000
   0.99949000  0.66581000  0.00112000
   0.00016934  0.66304691  0.35930512
   0.16773000  0.83295000  0.06141000
   0.00149000  0.66672000  0.12196000
   0.16592000  0.83389000  0.18235000
   0.99950000  0.66635000  0.24245000
   0.16517683  0.83312950  0.30317170
   0.49825000  0.83185000  0.06189000
   0.50064000  0.83335000  0.18189000
   0.33424000  0.66627000  0.24239000
   0.66521000  0.66629000  0.00100000
   0.83382000  0.83268000  0.06128000
   0.83390000  0.83311000  0.18191000
   0.66721000  0.66675000  0.24221000
   0.83319161  0.83049636  0.30269225
Direct configuration=     9
   0.99760000  0.00330000  0.24221000
   0.66561000  0.99834000  0.00060000
   0.65656395  0.98919044  0.36950802
   0.83467000  0.16589000  0.18209000
   0.99866000  0.33404000  0.12198000
   0.33421000  0.33147000  0.00101000
   0.33446935  0.33581254  0.36437009
   0.83220000  0.50025000  0.06275000
   0.83195387  0.49880257  0.30338543
   0.33512000  0.67037000  0.00000000
   0.34735473  0.67037883  0.36999315
   0.33145000  0.66488000  0.12292000
   0.50112558  0.83267031  0.30563309
   0.67111000  0.66550000  0.12148000
   0.99950000  0.00032000  0.00103000
   0.99960970  0.00126857  0.36058546
   0.16670000  0.16592000  0.06160000
   0.99930000  0.00013000  0.12183000
   0.16670000  0.16692000  0.18170000
   0.16332832  0.16702353  0.30282183
   0.33368000  0.99986000  0.00108000
   0.32775160  0.00941520  0.36163372
   0.50008000  0.16606000  0.06164000
   0.33365000  0.99945000  0.12194000
   0.50013000  0.16657000  0.18176000
   0.33374000  0.99994000  0.24252000
   0.50091580  0.16825219  0.30330750
   0.83412000  0.16807000  0.06130000
   0.66767000  0.99972000  0.12168000
   0.66792000  0.00032000  0.24233000
   0.83223420  0.16755435  0.30393557
   0.00033000  0.33346000  0.00076000
   0.00843255  0.32883584  0.36396434
   0.16704000  0.50116000  0.06077000
   0.16627000  0.49940000  0.18238000
   0.00000000  0.33319000  0.24260000
   0.16714841  0.50005918  0.30356309
   0.49811000  0.50186000  0.06112000
   0.33328000  0.33434000  0.12148000
   0.50051000  0.50053000  0.18145000
   0.33392000  0.33269000  0.24229000
   0.50516253  0.49955583  0.30098715
   0.66687000  0.33418000  0.00129000
   0.66395184  0.33308942  0.36070659
   0.66670000  0.33332000  0.12177000
   0.83466000  0.49916000  0.18181000
   0.66748000  0.33291000  0.24234000
   0.99949000  0.66581000  0.00112000
   0.00041496  0.66260499  0.35938336
   0.16773000  0.83295000  0.06141000
   0.00149000  0.66672000  0.12196000
   0.16592000  0.83389000  0.18235000
   0.99950000  0.66635000  0.24245000
   0.16550752  0.83335143  0.30325166
   0.49825000  0.83185000  0.06189000
   0.50064000  0.83335000  0.18189000
   0.33424000  0.66627000  0.24239000
   0.66521000  0.66629000  0.00100000
   0.83382000  0.83268000  0.06128000
   0.83390000  0.83311000  0.18191000
   0.66721000  0.66675000  0.24221000
   0.83375112  0.83034403  0.30274188
Direct configuration=    10
   0.99760000  0.00330000  0.24221000
   0.66561000  0.99834000  0.00060000
   0.65547276  0.98803942  0.36923179
   0.83467000  0.16589000  0.18209000
   0.99866000  0.33404000  0.12198000
   0.33421000  0.33147000  0.00101000
   0.33439460  0.33578658  0.36426456
   0.83220000  0.50025000  0.06275000
   0.83212801  0.49872618  0.30347181
   0.33512000  0.67037000  0.00000000
   0.34814909  0.67216806  0.36993262
   0.33145000  0.66488000  0.12292000
   0.50035434  0.83317577  0.30506670
   0.67111000  0.66550000  0.12148000
   0.99950000  0.00032000  0.00103000
   0.99924143  0.00137469  0.36062811
   0.16670000  0.16592000  0.06160000
   0.99930000  0.00013000  0.12183000
   0.16670000  0.16692000  0.18170000
   0.16336220  0.16620438  0.30304175
   0.33368000  0.99986000  0.00108000
   0.32638932  0.01055048  0.36192913
   0.50008000  0.16606000  0.06164000
   0.33365000  0.99945000  0.12194000
   0.50013000  0.16657000  0.18176000
   0.33374000  0.99994000  0.24252000
   0.50055880  0.16815221  0.30352277
   0.83412000  0.16807000  0.06130000
   0.66767000  0.99972000  0.12168000
   0.66792000  0.00032000  0.24233000
   0.83169657  0.16708074  0.30401694
   0.00033000  0.33346000  0.00076000
   0.00888392  0.32868936  0.36387287
   0.16704000  0.50116000  0.06077000
   0.16627000  0.49940000  0.18238000
   0.00000000  0.33319000  0.24260000
   0.16676231  0.50045413  0.30350476
   0.49811000  0.50186000  0.06112000
   0.33328000  0.33434000  0.12148000
   0.50051000  0.50053000  0.18145000
   0.33392000  0.33269000  0.24229000
   0.50630451  0.49946308  0.30078547
   0.66687000  0.33418000  0.00129000
   0.66402406  0.33236015  0.36083563
   0.66670000  0.33332000  0.12177000
   0.83466000  0.49916000  0.18181000
   0.66748000  0.33291000  0.24234000
   0.99949000  0.66581000  0.00112000
   0.00132456  0.66257507  0.35952494
   0.16773000  0.83295000  0.06141000
   0.00149000  0.66672000  0.12196000
   0.16592000  0.83389000  0.18235000
   0.99950000  0.66635000  0.24245000
   0.16510139  0.83376227  0.30331817
   0.49825000  0.83185000  0.06189000
   0.50064000  0.83335000  0.18189000
   0.33424000  0.66627000  0.24239000
   0.66521000  0.66629000  0.00100000
   0.83382000  0.83268000  0.06128000
   0.83390000  0.83311000  0.18191000
   0.66721000  0.66675000  0.24221000
   0.83416204  0.82998158  0.30272422
Direct configuration=    11
   0.99760000  0.00330000  0.24221000
   0.66561000  0.99834000  0.00060000
   0.65478165  0.98731042  0.36905684
   0.83467000  0.16589000  0.18209000
   0.99866000  0.33404000  0.12198000
   0.33421000  0.33147000  0.00101000
   0.33434726  0.33577015  0.36419771
   0.83220000  0.50025000  0.06275000
   0.83223830  0.49867780  0.30352652
   0.33512000  0.67037000  0.00000000
   0.34865219  0.67330127  0.36989429
   0.33145000  0.66488000  0.12292000
   0.49986588  0.83349591  0.30470798
   0.67111000  0.66550000  0.12148000
   0.99950000  0.00032000  0.00103000
   0.99900818  0.00144190  0.36065512
   0.16670000  0.16592000  0.06160000
   0.99930000  0.00013000  0.12183000
   0.16670000  0.16692000  0.18170000
   0.16338366  0.16568557  0.30318103
   0.33368000  0.99986000  0.00108000
   0.32552652  0.01126951  0.36211623
   0.50008000  0.16606000  0.06164000
   0.33365000  0.99945000  0.12194000
   0.50013000  0.16657000  0.18176000
   0.33374000  0.99994000  0.24252000
   0.50033270  0.16808888  0.30365911
   0.83412000  0.16807000  0.06130000
   0.66767000  0.99972000  0.12168000
   0.66792000  0.00032000  0.24233000
   0.83135607  0.16678078  0.30406848
   0.00033000  0.33346000  0.00076000
   0.00916979  0.32859659  0.36381493
   0.16704000  0.50116000  0.06077000
   0.16627000  0.49940000  0.18238000
   0.00000000  0.33319000  0.24260000
   0.16651776  0.50070427  0.30346781
   0.49811000  0.50186000  0.06112000
   0.33328000  0.33434000  0.12148000
   0.50051000  0.50053000  0.18145000
   0.33392000  0.33269000  0.24229000
   0.50702778  0.49940433  0.30065773
   0.66687000  0.33418000  0.00129000
   0.66406979  0.33189826  0.36091736
   0.66670000  0.33332000  0.12177000
   0.83466000  0.49916000  0.18181000
   0.66748000  0.33291000  0.24234000
   0.99949000  0.66581000  0.00112000
   0.00190065  0.66255612  0.35961461
   0.16773000  0.83295000  0.06141000
   0.00149000  0.66672000  0.12196000
   0.16592000  0.83389000  0.18235000
   0.99950000  0.66635000  0.24245000
   0.16484417  0.83402248  0.30336029
   0.49825000  0.83185000  0.06189000
   0.50064000  0.83335000  0.18189000
   0.33424000  0.66627000  0.24239000
   0.66521000  0.66629000  0.00100000
   0.83382000  0.83268000  0.06128000
   0.83390000  0.83311000  0.18191000
   0.66721000  0.66675000  0.24221000
   0.83442230  0.82975202  0.30271303
Direct configuration=    12
   0.99760000  0.00330000  0.24221000
   0.66561000  0.99834000  0.00060000
   0.65459591  0.98711450  0.36900982
   0.83467000  0.16589000  0.18209000
   0.99866000  0.33404000  0.12198000
   0.33421000  0.33147000  0.00101000
   0.33433454  0.33576573  0.36417975
   0.83220000  0.50025000  0.06275000
   0.83226794  0.49866480  0.30354122
   0.33512000  0.67037000  0.00000000
   0.34878740  0.67360582  0.36988399
   0.33145000  0.66488000  0.12292000
   0.49973460  0.83358194  0.30461157
   0.67111000  0.66550000  0.12148000
   0.99950000  0.00032000  0.00103000
   0.99894550  0.00145997  0.36066238
   0.16670000  0.16592000  0.06160000
   0.99930000  0.00013000  0.12183000
   0.16670000  0.16692000  0.18170000
   0.16338943  0.16554614  0.30321846
   0.33368000  0.99986000  0.00108000
   0.32529464  0.01146275  0.36216651
   0.50008000  0.16606000  0.06164000
   0.33365000  0.99945000  0.12194000
   0.50013000  0.16657000  0.18176000
   0.33374000  0.99994000  0.24252000
   0.50027193  0.16807187  0.30369575
   0.83412000  0.16807000  0.06130000
   0.66767000  0.99972000  0.12168000
   0.66792000  0.00032000  0.24233000
   0.83126456  0.16670016  0.30408233
   0.00033000  0.33346000  0.00076000
   0.00924662  0.32857165  0.36379936
   0.16704000  0.50116000  0.06077000
   0.16627000  0.49940000  0.18238000
   0.00000000  0.33319000  0.24260000
   0.16645204  0.50077149  0.30345788
   0.49811000  0.50186000  0.06112000
   0.33328000  0.33434000  0.12148000
   0.50051000  0.50053000  0.18145000
   0.33392000  0.33269000  0.24229000
   0.50722216  0.49938854  0.30062340
   0.66687000  0.33418000  0.00129000
   0.66408209  0.33177413  0.36093932
   0.66670000  0.33332000  0.12177000
   0.83466000  0.49916000  0.18181000
   0.66748000  0.33291000  0.24234000
   0.99949000  0.66581000  0.00112000
   0.00205548  0.66255103  0.35963871
   0.16773000  0.83295000  0.06141000
   0.00149000  0.66672000  0.12196000
   0.16592000  0.83389000  0.18235000
   0.99950000  0.66635000  0.24245000
   0.16477504  0.83409241  0.30337161
   0.49825000  0.83185000  0.06189000
   0.50064000  0.83335000  0.18189000
   0.33424000  0.66627000  0.24239000
   0.66521000  0.66629000  0.00100000
   0.83382000  0.83268000  0.06128000
   0.83390000  0.83311000  0.18191000
   0.66721000  0.66675000  0.24221000
   0.83449224  0.82969032  0.30271002
Direct configuration=    13
   0.99760000  0.00330000  0.24221000
   0.66561000  0.99834000  0.00060000
   0.65321218  0.98583861  0.36858177
   0.83467000  0.16589000  0.18209000
   0.99866000  0.33404000  0.12198000
   0.33421000  0.33147000  0.00101000
   0.33396040  0.33595655  0.36403562
   0.83220000  0.50025000  0.06275000
   0.83241080  0.49871960  0.30370349
   0.33512000  0.67037000  0.00000000
   0.34959539  0.67551066  0.36949095
   0.33145000  0.66488000  0.12292000
   0.49918287  0.83394549  0.30437473
   0.67111000  0.66550000  0.12148000
   0.99950000  0.00032000  0.00103000
   0.99810348  0.00114680  0.36091524
   0.16670000  0.16592000  0.06160000
   0.99930000  0.00013000  0.12183000
   0.16670000  0.16692000  0.18170000
   0.16306943  0.16571641  0.30312824
   0.33368000  0.99986000  0.00108000
   0.32477481  0.01219561  0.36258300
   0.50008000  0.16606000  0.06164000
   0.33365000  0.99945000  0.12194000
   0.50013000  0.16657000  0.18176000
   0.33374000  0.99994000  0.24252000
   0.50009227  0.16810943  0.30363168
   0.83412000  0.16807000  0.06130000
   0.66767000  0.99972000  0.12168000
   0.66792000  0.00032000  0.24233000
   0.83108000  0.16628090  0.30416412
   0.00033000  0.33346000  0.00076000
   0.00951564  0.32851873  0.36367514
   0.16704000  0.50116000  0.06077000
   0.16627000  0.49940000  0.18238000
   0.00000000  0.33319000  0.24260000
   0.16726727  0.50091717  0.30356173
   0.49811000  0.50186000  0.06112000
   0.33328000  0.33434000  0.12148000
   0.50051000  0.50053000  0.18145000
   0.33392000  0.33269000  0.24229000
   0.50732950  0.49942761  0.30071902
   0.66687000  0.33418000  0.00129000
   0.66426564  0.33080639  0.36104258
   0.66670000  0.33332000  0.12177000
   0.83466000  0.49916000  0.18181000
   0.66748000  0.33291000  0.24234000
   0.99949000  0.66581000  0.00112000
   0.00290697  0.66298853  0.35987688
   0.16773000  0.83295000  0.06141000
   0.00149000  0.66672000  0.12196000
   0.16592000  0.83389000  0.18235000
   0.99950000  0.66635000  0.24245000
   0.16458525  0.83414856  0.30325675
   0.49825000  0.83185000  0.06189000
   0.50064000  0.83335000  0.18189000
   0.33424000  0.66627000  0.24239000
   0.66521000  0.66629000  0.00100000
   0.83382000  0.83268000  0.06128000
   0.83390000  0.83311000  0.18191000
   0.66721000  0.66675000  0.24221000
   0.83406090  0.82938791  0.30268360
Direct configuration=    14
   0.99760000  0.00330000  0.24221000
   0.66561000  0.99834000  0.00060000
   0.65238524  0.98507612  0.36832597
   0.83467000  0.16589000  0.18209000
   0.99866000  0.33404000  0.12198000
   0.33421000  0.33147000  0.00101000
   0.33373682  0.33607058  0.36394948
   0.83220000  0.50025000  0.06275000
   0.83249617  0.49875235  0.30380046
   0.33512000  0.67037000  0.00000000
   0.35007826  0.67664902  0.36925606
   0.33145000  0.66488000  0.12292000
   0.49885315  0.83416275  0.30423320
   0.67111000  0.66550000  0.12148000
   0.99950000  0.00032000  0.00103000
   0.99760028  0.00095965  0.36106636
   0.16670000  0.16592000  0.06160000
   0.99930000  0.00013000  0.12183000
   0.16670000  0.16692000  0.18170000
   0.16287820  0.16581816  0.30307433
   0.33368000  0.99986000  0.00108000
   0.32446415  0.01263358  0.36283191
   0.50008000  0.16606000  0.06164000
   0.33365000  0.99945000  0.12194000
   0.50013000  0.16657000  0.18176000
   0.33374000  0.99994000  0.24252000
   0.49998491  0.16813188  0.30359339
   0.83412000  0.16807000  0.06130000
   0.66767000  0.99972000  0.12168000
   0.66792000  0.00032000  0.24233000
   0.83096971  0.16603034  0.30421299
   0.00033000  0.33346000  0.00076000
   0.00967641  0.32848710  0.36360090
   0.16704000  0.50116000  0.06077000
   0.16627000  0.49940000  0.18238000
   0.00000000  0.33319000  0.24260000
   0.16775445  0.50100424  0.30362379
   0.49811000  0.50186000  0.06112000
   0.33328000  0.33434000  0.12148000
   0.50051000  0.50053000  0.18145000
   0.33392000  0.33269000  0.24229000
   0.50739365  0.49945095  0.30077616
   0.66687000  0.33418000  0.00129000
   0.66437534  0.33022805  0.36110429
   0.66670000  0.33332000  0.12177000
   0.83466000  0.49916000  0.18181000
   0.66748000  0.33291000  0.24234000
   0.99949000  0.66581000  0.00112000
   0.00341584  0.66324999  0.36001921
   0.16773000  0.83295000  0.06141000
   0.00149000  0.66672000  0.12196000
   0.16592000  0.83389000  0.18235000
   0.99950000  0.66635000  0.24245000
   0.16447183  0.83418211  0.30318811
   0.49825000  0.83185000  0.06189000
   0.50064000  0.83335000  0.18189000
   0.33424000  0.66627000  0.24239000
   0.66521000  0.66629000  0.00100000
   0.83382000  0.83268000  0.06128000
   0.83390000  0.83311000  0.18191000
   0.66721000  0.66675000  0.24221000
   0.83380312  0.82920719  0.30266781
Direct configuration=    15
   0.99760000  0.00330000  0.24221000
   0.66561000  0.99834000  0.00060000
   0.65170402  0.98459823  0.36813603
   0.83467000  0.16589000  0.18209000
   0.99866000  0.33404000  0.12198000
   0.33421000  0.33147000  0.00101000
   0.33362481  0.33613713  0.36396238
   0.83220000  0.50025000  0.06275000
   0.83269331  0.49881924  0.30389571
   0.33512000  0.67037000  0.00000000
   0.35049406  0.67719603  0.36894696
   0.33145000  0.66488000  0.12292000
   0.49903252  0.83399115  0.30436761
   0.67111000  0.66550000  0.12148000
   0.99950000  0.00032000  0.00103000
   0.99730130  0.00058040  0.36102722
   0.16670000  0.16592000  0.06160000
   0.99930000  0.00013000  0.12183000
   0.16670000  0.16692000  0.18170000
   0.16266076  0.16547880  0.30301855
   0.33368000  0.99986000  0.00108000
   0.32423013  0.01331783  0.36266547
   0.50008000  0.16606000  0.06164000
   0.33365000  0.99945000  0.12194000
   0.50013000  0.16657000  0.18176000
   0.33374000  0.99994000  0.24252000
   0.49982545  0.16800149  0.30356293
   0.83412000  0.16807000  0.06130000
   0.66767000  0.99972000  0.12168000
   0.66792000  0.00032000  0.24233000
   0.83130655  0.16600327  0.30417986
   0.00033000  0.33346000  0.00076000
   0.00949533  0.32870618  0.36363253
   0.16704000  0.50116000  0.06077000
   0.16627000  0.49940000  0.18238000
   0.00000000  0.33319000  0.24260000
   0.16797865  0.50141940  0.30371017
   0.49811000  0.50186000  0.06112000
   0.33328000  0.33434000  0.12148000
   0.50051000  0.50053000  0.18145000
   0.33392000  0.33269000  0.24229000
   0.50682420  0.49936531  0.30104852
   0.66687000  0.33418000  0.00129000
   0.66426589  0.32974521  0.36107492
   0.66670000  0.33332000  0.12177000
   0.83466000  0.49916000  0.18181000
   0.66748000  0.33291000  0.24234000
   0.99949000  0.66581000  0.00112000
   0.00376542  0.66365172  0.35993255
   0.16773000  0.83295000  0.06141000
   0.00149000  0.66672000  0.12196000
   0.16592000  0.83389000  0.18235000
   0.99950000  0.66635000  0.24245000
   0.16441192  0.83469805  0.30322913
   0.49825000  0.83185000  0.06189000
   0.50064000  0.83335000  0.18189000
   0.33424000  0.66627000  0.24239000
   0.66521000  0.66629000  0.00100000
   0.83382000  0.83268000  0.06128000
   0.83390000  0.83311000  0.18191000
   0.66721000  0.66675000  0.24221000
   0.83366003  0.82921529  0.30278705
Direct configuration=    16
   0.99760000  0.00330000  0.24221000
   0.66561000  0.99834000  0.00060000
   0.65177054  0.98464489  0.36815458
   0.83467000  0.16589000  0.18209000
   0.99866000  0.33404000  0.12198000
   0.33421000  0.33147000  0.00101000
   0.33363574  0.33613063  0.36396112
   0.83220000  0.50025000  0.06275000
   0.83267406  0.49881271  0.30388641
   0.33512000  0.67037000  0.00000000
   0.35045346  0.67714262  0.36897715
   0.33145000  0.66488000  0.12292000
   0.49901501  0.83400791  0.30435449
   0.67111000  0.66550000  0.12148000
   0.99950000  0.00032000  0.00103000
   0.99733050  0.00061743  0.36103104
   0.16670000  0.16592000  0.06160000
   0.99930000  0.00013000  0.12183000
   0.16670000  0.16692000  0.18170000
   0.16268199  0.16551194  0.30302400
   0.33368000  0.99986000  0.00108000
   0.32425298  0.01325102  0.36268172
   0.50008000  0.16606000  0.06164000
   0.33365000  0.99945000  0.12194000
   0.50013000  0.16657000  0.18176000
   0.33374000  0.99994000  0.24252000
   0.49984102  0.16801422  0.30356591
   0.83412000  0.16807000  0.06130000
   0.66767000  0.99972000  0.12168000
   0.66792000  0.00032000  0.24233000
   0.83127366  0.16600591  0.30418310
   0.00033000  0.33346000  0.00076000
   0.00951301  0.32868479  0.36362944
   0.16704000  0.50116000  0.06077000
   0.16627000  0.49940000  0.18238000
   0.00000000  0.33319000  0.24260000
   0.16795676  0.50137886  0.30370174
   0.49811000  0.50186000  0.06112000
   0.33328000  0.33434000  0.12148000
   0.50051000  0.50053000  0.18145000
   0.33392000  0.33269000  0.24229000
   0.50687980  0.49937367  0.30102192
   0.66687000  0.33418000  0.00129000
   0.66427658  0.32979235  0.36107779
   0.66670000  0.33332000  0.12177000
   0.83466000  0.49916000  0.18181000
   0.66748000  0.33291000  0.24234000
   0.99949000  0.66581000  0.00112000
   0.00373128  0.66361249  0.35994101
   0.16773000  0.83295000  0.06141000
   0.00149000  0.66672000  0.12196000
   0.16592000  0.83389000  0.18235000
   0.99950000  0.66635000  0.24245000
   0.16441777  0.83464767  0.30322512
   0.49825000  0.83185000  0.06189000
   0.50064000  0.83335000  0.18189000
   0.33424000  0.66627000  0.24239000
   0.66521000  0.66629000  0.00100000
   0.83382000  0.83268000  0.06128000
   0.83390000  0.83311000  0.18191000
   0.66721000  0.66675000  0.24221000
   0.83367400  0.82921450  0.30277541
Direct configuration=    17
   0.99760000  0.00330000  0.24221000
   0.66561000  0.99834000  0.00060000
   0.65179430  0.98466156  0.36816121
   0.83467000  0.16589000  0.18209000
   0.99866000  0.33404000  0.12198000
   0.33421000  0.33147000  0.00101000
   0.33363965  0.33612831  0.36396067
   0.83220000  0.50025000  0.06275000
   0.83266718  0.49881037  0.30388309
   0.33512000  0.67037000  0.00000000
   0.35043895  0.67712353  0.36898793
   0.33145000  0.66488000  0.12292000
   0.49900875  0.83401389  0.30434980
   0.67111000  0.66550000  0.12148000
   0.99950000  0.00032000  0.00103000
   0.99734093  0.00063066  0.36103241
   0.16670000  0.16592000  0.06160000
   0.99930000  0.00013000  0.12183000
   0.16670000  0.16692000  0.18170000
   0.16268958  0.16552378  0.30302594
   0.33368000  0.99986000  0.00108000
   0.32426115  0.01322715  0.36268753
   0.50008000  0.16606000  0.06164000
   0.33365000  0.99945000  0.12194000
   0.50013000  0.16657000  0.18176000
   0.33374000  0.99994000  0.24252000
   0.49984658  0.16801877  0.30356697
   0.83412000  0.16807000  0.06130000
   0.66767000  0.99972000  0.12168000
   0.66792000  0.00032000  0.24233000
   0.83126191  0.16600686  0.30418425
   0.00033000  0.33346000  0.00076000
   0.00951933  0.32867715  0.36362833
   0.16704000  0.50116000  0.06077000
   0.16627000  0.49940000  0.18238000
   0.00000000  0.33319000  0.24260000
   0.16794894  0.50136437  0.30369872
   0.49811000  0.50186000  0.06112000
   0.33328000  0.33434000  0.12148000
   0.50051000  0.50053000  0.18145000
   0.33392000  0.33269000  0.24229000
   0.50689967  0.49937666  0.30101242
   0.66687000  0.33418000  0.00129000
   0.66428040  0.32980920  0.36107881
   0.66670000  0.33332000  0.12177000
   0.83466000  0.49916000  0.18181000
   0.66748000  0.33291000  0.24234000
   0.99949000  0.66581000  0.00112000
   0.00371909  0.66359848  0.35994403
   0.16773000  0.83295000  0.06141000
   0.00149000  0.66672000  0.12196000
   0.16592000  0.83389000  0.18235000
   0.99950000  0.66635000  0.24245000
   0.16441986  0.83462967  0.30322369
   0.49825000  0.83185000  0.06189000
   0.50064000  0.83335000  0.18189000
   0.33424000  0.66627000  0.24239000
   0.66521000  0.66629000  0.00100000
   0.83382000  0.83268000  0.06128000
   0.83390000  0.83311000  0.18191000
   0.66721000  0.66675000  0.24221000
   0.83367900  0.82921422  0.30277125
Direct configuration=    18
   0.99760000  0.00330000  0.24221000
   0.66561000  0.99834000  0.00060000
   0.65178270  0.98465342  0.36815797
   0.83467000  0.16589000  0.18209000
   0.99866000  0.33404000  0.12198000
   0.33421000  0.33147000  0.00101000
   0.33363774  0.33612945  0.36396089
   0.83220000  0.50025000  0.06275000
   0.83267054  0.49881151  0.30388471
   0.33512000  0.67037000  0.00000000
   0.35044604  0.67713285  0.36898266
   0.33145000  0.66488000  0.12292000
   0.49901180  0.83401097  0.30435209
   0.67111000  0.66550000  0.12148000
   0.99950000  0.00032000  0.00103000
   0.99733583  0.00062420  0.36103174
   0.16670000  0.16592000  0.06160000
   0.99930000  0.00013000  0.12183000
   0.16670000  0.16692000  0.18170000
   0.16268587  0.16551799  0.30302499
   0.33368000  0.99986000  0.00108000
   0.32425716  0.01323881  0.36268469
   0.50008000  0.16606000  0.06164000
   0.33365000  0.99945000  0.12194000
   0.50013000  0.16657000  0.18176000
   0.33374000  0.99994000  0.24252000
   0.49984386  0.16801655  0.30356645
   0.83412000  0.16807000  0.06130000
   0.66767000  0.99972000  0.12168000
   0.66792000  0.00032000  0.24233000
   0.83126765  0.16600640  0.30418369
   0.00033000  0.33346000  0.00076000
   0.00951624  0.32868088  0.36362887
   0.16704000  0.50116000  0.06077000
   0.16627000  0.49940000  0.18238000
   0.00000000  0.33319000  0.24260000
   0.16795276  0.50137145  0.30370020
   0.49811000  0.50186000  0.06112000
   0.33328000  0.33434000  0.12148000
   0.50051000  0.50053000  0.18145000
   0.33392000  0.33269000  0.24229000
   0.50688997  0.49937520  0.30101706
   0.66687000  0.33418000  0.00129000
   0.66427853  0.32980097  0.36107831
   0.66670000  0.33332000  0.12177000
   0.83466000  0.49916000  0.18181000
   0.66748000  0.33291000  0.24234000
   0.99949000  0.66581000  0.00112000
   0.00372504  0.66360532  0.35994256
   0.16773000  0.83295000  0.06141000
   0.00149000  0.66672000  0.12196000
   0.16592000  0.83389000  0.18235000
   0.99950000  0.66635000  0.24245000
   0.16441884  0.83463846  0.30322439
   0.49825000  0.83185000  0.06189000
   0.50064000  0.83335000  0.18189000
   0.33424000  0.66627000  0.24239000
   0.66521000  0.66629000  0.00100000
   0.83382000  0.83268000  0.06128000
   0.83390000  0.83311000  0.18191000
   0.66721000  0.66675000  0.24221000
   0.83367656  0.82921436  0.30277328
Direct configuration=    19
   0.99760000  0.00330000  0.24221000
   0.66561000  0.99834000  0.00060000
   0.65179308  0.98466070  0.36816086
   0.83467000  0.16589000  0.18209000
   0.99866000  0.33404000  0.12198000
   0.33421000  0.33147000  0.00101000
   0.33363945  0.33612843  0.36396070
   0.83220000  0.50025000  0.06275000
   0.83266754  0.49881049  0.30388326
   0.33512000  0.67037000  0.00000000
   0.35043970  0.67712452  0.36898737
   0.33145000  0.66488000  0.12292000
   0.49900907  0.83401359  0.30435004
   0.67111000  0.66550000  0.12148000
   0.99950000  0.00032000  0.00103000
   0.99734039  0.00062998  0.36103234
   0.16670000  0.16592000  0.06160000
   0.99930000  0.00013000  0.12183000
   0.16670000  0.16692000  0.18170000
   0.16268918  0.16552317  0.30302584
   0.33368000  0.99986000  0.00108000
   0.32426072  0.01322838  0.36268723
   0.50008000  0.16606000  0.06164000
   0.33365000  0.99945000  0.12194000
   0.50013000  0.16657000  0.18176000
   0.33374000  0.99994000  0.24252000
   0.49984629  0.16801853  0.30356691
   0.83412000  0.16807000  0.06130000
   0.66767000  0.99972000  0.12168000
   0.66792000  0.00032000  0.24233000
   0.83126251  0.16600681  0.30418419
   0.00033000  0.33346000  0.00076000
   0.00951900  0.32867754  0.36362839
   0.16704000  0.50116000  0.06077000
   0.16627000  0.49940000  0.18238000
   0.00000000  0.33319000  0.24260000
   0.16794934  0.50136512  0.30369888
   0.49811000  0.50186000  0.06112000
   0.33328000  0.33434000  0.12148000
   0.50051000  0.50053000  0.18145000
   0.33392000  0.33269000  0.24229000
   0.50689864  0.49937650  0.30101291
   0.66687000  0.33418000  0.00129000
   0.66428020  0.32980833  0.36107876
   0.66670000  0.33332000  0.12177000
   0.83466000  0.49916000  0.18181000
   0.66748000  0.33291000  0.24234000
   0.99949000  0.66581000  0.00112000
   0.00371972  0.66359920  0.35994388
   0.16773000  0.83295000  0.06141000
   0.00149000  0.66672000  0.12196000
   0.16592000  0.83389000  0.18235000
   0.99950000  0.66635000  0.24245000
   0.16441975  0.83463060  0.30322377
   0.49825000  0.83185000  0.06189000
   0.50064000  0.83335000  0.18189000
   0.33424000  0.66627000  0.24239000
   0.66521000  0.66629000  0.00100000
   0.83382000  0.83268000  0.06128000
   0.83390000  0.83311000  0.18191000
   0.66721000  0.66675000  0.24221000
   0.83367874  0.82921423  0.30277147
Direct configuration=    20
   0.99760000  0.00330000  0.24221000
   0.66561000  0.99834000  0.00060000
   0.65172056  0.98477179  0.36817530
   0.83467000  0.16589000  0.18209000
   0.99866000  0.33404000  0.12198000
   0.33421000  0.33147000  0.00101000
   0.33354708  0.33595542  0.36402216
   0.83220000  0.50025000  0.06275000
   0.83258721  0.49875635  0.30386543
   0.33512000  0.67037000  0.00000000
   0.35042746  0.67723393  0.36894557
   0.33145000  0.66488000  0.12292000
   0.49920433  0.83380838  0.30439325
   0.67111000  0.66550000  0.12148000
   0.99950000  0.00032000  0.00103000
   0.99731843  0.00050224  0.36100216
   0.16670000  0.16592000  0.06160000
   0.99930000  0.00013000  0.12183000
   0.16670000  0.16692000  0.18170000
   0.16253788  0.16575998  0.30300948
   0.33368000  0.99986000  0.00108000
   0.32426266  0.01350120  0.36255880
   0.50008000  0.16606000  0.06164000
   0.33365000  0.99945000  0.12194000
   0.50013000  0.16657000  0.18176000
   0.33374000  0.99994000  0.24252000
   0.49993568  0.16800207  0.30353631
   0.83412000  0.16807000  0.06130000
   0.66767000  0.99972000  0.12168000
   0.66792000  0.00032000  0.24233000
   0.83119887  0.16606359  0.30415088
   0.00033000  0.33346000  0.00076000
   0.00939958  0.32888042  0.36363266
   0.16704000  0.50116000  0.06077000
   0.16627000  0.49940000  0.18238000
   0.00000000  0.33319000  0.24260000
   0.16775480  0.50136622  0.30366503
   0.49811000  0.50186000  0.06112000
   0.33328000  0.33434000  0.12148000
   0.50051000  0.50053000  0.18145000
   0.33392000  0.33269000  0.24229000
   0.50697749  0.49926113  0.30096280
   0.66687000  0.33418000  0.00129000
   0.66416628  0.32966363  0.36103785
   0.66670000  0.33332000  0.12177000
   0.83466000  0.49916000  0.18181000
   0.66748000  0.33291000  0.24234000
   0.99949000  0.66581000  0.00112000
   0.00376483  0.66376044  0.35989566
   0.16773000  0.83295000  0.06141000
   0.00149000  0.66672000  0.12196000
   0.16592000  0.83389000  0.18235000
   0.99950000  0.66635000  0.24245000
   0.16453747  0.83468898  0.30318208
   0.49825000  0.83185000  0.06189000
   0.50064000  0.83335000  0.18189000
   0.33424000  0.66627000  0.24239000
   0.66521000  0.66629000  0.00100000
   0.83382000  0.83268000  0.06128000
   0.83390000  0.83311000  0.18191000
   0.66721000  0.66675000  0.24221000
   0.83370695  0.82928436  0.30275917
