  64  64   0   0
  0.2670890E+02  0.8539300E-09  0.8505900E-09  0.2353390E-08  0.5000000E-15
  1.000000000000000E-004
  CAR 
 ni3al                                   
      5.37182158    -45.61740786  301      0.97225837      1.00000000
    -45.617  0.0000E+00  0.0000E+00  0.0000E+00  0.0000E+00
    -45.447  0.0000E+00  0.0000E+00  0.0000E+00  0.0000E+00
    -45.277  0.0000E+00  0.0000E+00  0.0000E+00  0.0000E+00
    -45.108  0.0000E+00  0.0000E+00  0.0000E+00  0.0000E+00
    -44.938  0.0000E+00  0.0000E+00  0.0000E+00  0.0000E+00
    -44.768  0.0000E+00  0.0000E+00  0.0000E+00  0.0000E+00
    -44.598  0.0000E+00 -0.2098E-33  0.0000E+00 -0.3566E-34
    -44.428  0.0000E+00 -0.1741E-25  0.0000E+00 -0.2959E-26
    -44.258 -0.3614E-37 -0.1099E-18 -0.6142E-38 -0.1868E-19
    -44.088 -0.8386E-29 -0.5101E-13 -0.1425E-29 -0.8670E-14
    -43.918 -0.1465E-21 -0.1838E-08 -0.2489E-22 -0.3124E-09
    -43.748 -0.1870E-15 -0.4973E-05 -0.3178E-16 -0.8455E-06
    -43.578 -0.1814E-10 -0.9396E-03 -0.3083E-11 -0.1605E-03
    -43.408 -0.1315E-06 -0.4128E-02 -0.2235E-07 -0.8622E-03
    -43.238 -0.7104E-04  0.1082E+00 -0.1210E-04  0.1753E-01
    -43.068 -0.2487E-02  0.2108E+00 -0.4348E-03  0.5336E-01
    -42.898  0.1755E-01  0.1381E+00  0.2548E-02  0.7683E-01
    -42.728  0.1223E+00  0.4442E-01  0.2333E-01  0.8437E-01
    -42.558  0.4330E-01  0.5128E-01  0.3069E-01  0.9309E-01
    -42.388 -0.4402E-02  0.4032E-01  0.2994E-01  0.9994E-01
    -42.218  0.1608E-01  0.1983E-01  0.3267E-01  0.1033E+00
    -42.048  0.3223E-01  0.2103E-01  0.3815E-01  0.1069E+00
    -41.878  0.6449E-01  0.1787E-01  0.4911E-01  0.1099E+00
    -41.708  0.1243E+00  0.7210E-03  0.7024E-01  0.1100E+00
    -41.538  0.1938E+00 -0.2688E-03  0.1032E+00  0.1100E+00
    -41.368  0.4438E-01 -0.2332E-05  0.1107E+00  0.1100E+00
    -41.198 -0.4025E-02 -0.1161E-08  0.1100E+00  0.1100E+00
    -41.028 -0.2814E-03 -0.6167E-12  0.1100E+00  0.1100E+00
    -40.858 -0.8748E-05 -0.9463E-08  0.1100E+00  0.1100E+00
    -40.688 -0.9884E-03 -0.1107E-04  0.1098E+00  0.1100E+00
    -40.518  0.8674E-03 -0.8115E-03  0.1100E+00  0.1099E+00
    -40.349  0.8172E-01  0.2440E-02  0.1239E+00  0.1103E+00
    -40.179  0.8674E-01  0.5374E-01  0.1386E+00  0.1194E+00
    -40.009  0.9903E-02  0.7560E-01  0.1403E+00  0.1323E+00
    -39.839 -0.1693E-02  0.4154E-01  0.1400E+00  0.1393E+00
    -39.669 -0.3701E-04  0.4910E-02  0.1400E+00  0.1402E+00
    -39.499 -0.4409E-07 -0.8829E-03  0.1400E+00  0.1400E+00
    -39.329 -0.3627E-11 -0.1673E-04  0.1400E+00  0.1400E+00
    -39.159 -0.2177E-16 -0.1762E-07  0.1400E+00  0.1400E+00
    -38.989  0.0000E+00 -0.1297E-11  0.1400E+00  0.1400E+00
    -38.819  0.0000E+00 -0.8709E-17  0.1400E+00  0.1400E+00
    -38.649  0.0000E+00  0.0000E+00  0.1400E+00  0.1400E+00
    -38.479  0.0000E+00  0.0000E+00  0.1400E+00  0.1400E+00
    -38.309  0.0000E+00  0.0000E+00  0.1400E+00  0.1400E+00
    -38.139  0.0000E+00  0.0000E+00  0.1400E+00  0.1400E+00
    -37.969  0.0000E+00  0.0000E+00  0.1400E+00  0.1400E+00
    -37.799  0.0000E+00  0.0000E+00  0.1400E+00  0.1400E+00
    -37.629  0.0000E+00  0.0000E+00  0.1400E+00  0.1400E+00
    -37.459  0.0000E+00  0.0000E+00  0.1400E+00  0.1400E+00
    -37.289  0.0000E+00  0.0000E+00  0.1400E+00  0.1400E+00
    -37.119  0.0000E+00  0.0000E+00  0.1400E+00  0.1400E+00
    -36.949  0.0000E+00  0.0000E+00  0.1400E+00  0.1400E+00
    -36.779  0.0000E+00  0.0000E+00  0.1400E+00  0.1400E+00
    -36.609  0.0000E+00  0.0000E+00  0.1400E+00  0.1400E+00
    -36.439  0.0000E+00  0.0000E+00  0.1400E+00  0.1400E+00
    -36.269  0.0000E+00  0.0000E+00  0.1400E+00  0.1400E+00
    -36.099  0.0000E+00  0.0000E+00  0.1400E+00  0.1400E+00
    -35.929  0.0000E+00  0.0000E+00  0.1400E+00  0.1400E+00
    -35.759  0.0000E+00  0.0000E+00  0.1400E+00  0.1400E+00
    -35.590  0.0000E+00  0.0000E+00  0.1400E+00  0.1400E+00
    -35.420  0.0000E+00  0.0000E+00  0.1400E+00  0.1400E+00
    -35.250  0.0000E+00  0.0000E+00  0.1400E+00  0.1400E+00
    -35.080  0.0000E+00  0.0000E+00  0.1400E+00  0.1400E+00
    -34.910  0.0000E+00  0.0000E+00  0.1400E+00  0.1400E+00
    -34.740  0.0000E+00  0.0000E+00  0.1400E+00  0.1400E+00
    -34.570  0.0000E+00  0.0000E+00  0.1400E+00  0.1400E+00
    -34.400  0.0000E+00  0.0000E+00  0.1400E+00  0.1400E+00
    -34.230  0.0000E+00  0.0000E+00  0.1400E+00  0.1400E+00
    -34.060  0.0000E+00  0.0000E+00  0.1400E+00  0.1400E+00
    -33.890  0.0000E+00  0.0000E+00  0.1400E+00  0.1400E+00
    -33.720  0.0000E+00  0.0000E+00  0.1400E+00  0.1400E+00
    -33.550  0.0000E+00  0.0000E+00  0.1400E+00  0.1400E+00
    -33.380  0.0000E+00  0.0000E+00  0.1400E+00  0.1400E+00
    -33.210  0.0000E+00  0.0000E+00  0.1400E+00  0.1400E+00
    -33.040  0.0000E+00  0.0000E+00  0.1400E+00  0.1400E+00
    -32.870  0.0000E+00  0.0000E+00  0.1400E+00  0.1400E+00
    -32.700  0.0000E+00  0.0000E+00  0.1400E+00  0.1400E+00
    -32.530  0.0000E+00  0.0000E+00  0.1400E+00  0.1400E+00
    -32.360  0.0000E+00  0.0000E+00  0.1400E+00  0.1400E+00
    -32.190  0.0000E+00  0.0000E+00  0.1400E+00  0.1400E+00
    -32.020  0.0000E+00  0.0000E+00  0.1400E+00  0.1400E+00
    -31.850  0.0000E+00  0.0000E+00  0.1400E+00  0.1400E+00
    -31.680  0.0000E+00  0.0000E+00  0.1400E+00  0.1400E+00
    -31.510  0.0000E+00  0.0000E+00  0.1400E+00  0.1400E+00
    -31.340  0.0000E+00  0.0000E+00  0.1400E+00  0.1400E+00
    -31.170  0.0000E+00  0.0000E+00  0.1400E+00  0.1400E+00
    -31.000  0.0000E+00  0.0000E+00  0.1400E+00  0.1400E+00
    -30.831  0.0000E+00  0.0000E+00  0.1400E+00  0.1400E+00
    -30.661  0.0000E+00  0.0000E+00  0.1400E+00  0.1400E+00
    -30.491  0.0000E+00  0.0000E+00  0.1400E+00  0.1400E+00
    -30.321  0.0000E+00  0.0000E+00  0.1400E+00  0.1400E+00
    -30.151  0.0000E+00  0.0000E+00  0.1400E+00  0.1400E+00
    -29.981  0.0000E+00  0.0000E+00  0.1400E+00  0.1400E+00
    -29.811  0.0000E+00  0.0000E+00  0.1400E+00  0.1400E+00
    -29.641  0.0000E+00  0.0000E+00  0.1400E+00  0.1400E+00
    -29.471  0.0000E+00  0.0000E+00  0.1400E+00  0.1400E+00
    -29.301  0.0000E+00  0.0000E+00  0.1400E+00  0.1400E+00
    -29.131  0.0000E+00  0.0000E+00  0.1400E+00  0.1400E+00
    -28.961  0.0000E+00  0.0000E+00  0.1400E+00  0.1400E+00
    -28.791  0.0000E+00  0.0000E+00  0.1400E+00  0.1400E+00
    -28.621  0.0000E+00  0.0000E+00  0.1400E+00  0.1400E+00
    -28.451  0.0000E+00  0.0000E+00  0.1400E+00  0.1400E+00
    -28.281  0.0000E+00  0.0000E+00  0.1400E+00  0.1400E+00
    -28.111  0.0000E+00  0.0000E+00  0.1400E+00  0.1400E+00
    -27.941  0.0000E+00  0.0000E+00  0.1400E+00  0.1400E+00
    -27.771  0.0000E+00  0.0000E+00  0.1400E+00  0.1400E+00
    -27.601  0.0000E+00  0.0000E+00  0.1400E+00  0.1400E+00
    -27.431  0.0000E+00  0.0000E+00  0.1400E+00  0.1400E+00
    -27.261  0.0000E+00  0.0000E+00  0.1400E+00  0.1400E+00
    -27.091  0.0000E+00  0.0000E+00  0.1400E+00  0.1400E+00
    -26.921  0.0000E+00  0.0000E+00  0.1400E+00  0.1400E+00
    -26.751  0.0000E+00  0.0000E+00  0.1400E+00  0.1400E+00
    -26.581  0.0000E+00  0.0000E+00  0.1400E+00  0.1400E+00
    -26.411  0.0000E+00  0.0000E+00  0.1400E+00  0.1400E+00
    -26.242  0.0000E+00  0.0000E+00  0.1400E+00  0.1400E+00
    -26.072  0.0000E+00  0.0000E+00  0.1400E+00  0.1400E+00
    -25.902  0.0000E+00  0.0000E+00  0.1400E+00  0.1400E+00
    -25.732  0.0000E+00  0.0000E+00  0.1400E+00  0.1400E+00
    -25.562  0.0000E+00  0.0000E+00  0.1400E+00  0.1400E+00
    -25.392  0.0000E+00  0.0000E+00  0.1400E+00  0.1400E+00
    -25.222  0.0000E+00  0.0000E+00  0.1400E+00  0.1400E+00
    -25.052  0.0000E+00  0.0000E+00  0.1400E+00  0.1400E+00
    -24.882  0.0000E+00  0.0000E+00  0.1400E+00  0.1400E+00
    -24.712  0.0000E+00  0.0000E+00  0.1400E+00  0.1400E+00
    -24.542  0.0000E+00  0.0000E+00  0.1400E+00  0.1400E+00
    -24.372  0.0000E+00  0.0000E+00  0.1400E+00  0.1400E+00
    -24.202  0.0000E+00  0.0000E+00  0.1400E+00  0.1400E+00
    -24.032  0.0000E+00  0.0000E+00  0.1400E+00  0.1400E+00
    -23.862  0.0000E+00  0.0000E+00  0.1400E+00  0.1400E+00
    -23.692  0.0000E+00  0.0000E+00  0.1400E+00  0.1400E+00
    -23.522  0.0000E+00  0.0000E+00  0.1400E+00  0.1400E+00
    -23.352  0.0000E+00  0.0000E+00  0.1400E+00  0.1400E+00
    -23.182  0.0000E+00  0.0000E+00  0.1400E+00  0.1400E+00
    -23.012  0.0000E+00  0.0000E+00  0.1400E+00  0.1400E+00
    -22.842  0.0000E+00  0.0000E+00  0.1400E+00  0.1400E+00
    -22.672  0.0000E+00  0.0000E+00  0.1400E+00  0.1400E+00
    -22.502  0.0000E+00  0.0000E+00  0.1400E+00  0.1400E+00
    -22.332  0.0000E+00  0.0000E+00  0.1400E+00  0.1400E+00
    -22.162  0.0000E+00  0.0000E+00  0.1400E+00  0.1400E+00
    -21.992  0.0000E+00  0.0000E+00  0.1400E+00  0.1400E+00
    -21.822  0.0000E+00  0.0000E+00  0.1400E+00  0.1400E+00
    -21.652  0.0000E+00  0.0000E+00  0.1400E+00  0.1400E+00
    -21.483  0.0000E+00  0.0000E+00  0.1400E+00  0.1400E+00
    -21.313  0.0000E+00  0.0000E+00  0.1400E+00  0.1400E+00
    -21.143  0.0000E+00  0.0000E+00  0.1400E+00  0.1400E+00
    -20.973  0.0000E+00  0.0000E+00  0.1400E+00  0.1400E+00
    -20.803  0.0000E+00  0.0000E+00  0.1400E+00  0.1400E+00
    -20.633  0.0000E+00  0.0000E+00  0.1400E+00  0.1400E+00
    -20.463  0.0000E+00  0.0000E+00  0.1400E+00  0.1400E+00
    -20.293  0.0000E+00  0.0000E+00  0.1400E+00  0.1400E+00
    -20.123  0.0000E+00  0.0000E+00  0.1400E+00  0.1400E+00
    -19.953  0.0000E+00  0.0000E+00  0.1400E+00  0.1400E+00
    -19.783  0.0000E+00  0.0000E+00  0.1400E+00  0.1400E+00
    -19.613  0.0000E+00  0.0000E+00  0.1400E+00  0.1400E+00
    -19.443  0.0000E+00  0.0000E+00  0.1400E+00  0.1400E+00
    -19.273  0.0000E+00  0.0000E+00  0.1400E+00  0.1400E+00
    -19.103  0.0000E+00  0.0000E+00  0.1400E+00  0.1400E+00
    -18.933  0.0000E+00  0.0000E+00  0.1400E+00  0.1400E+00
    -18.763  0.0000E+00  0.0000E+00  0.1400E+00  0.1400E+00
    -18.593  0.0000E+00  0.0000E+00  0.1400E+00  0.1400E+00
    -18.423  0.0000E+00  0.0000E+00  0.1400E+00  0.1400E+00
    -18.253  0.0000E+00  0.0000E+00  0.1400E+00  0.1400E+00
    -18.083  0.0000E+00  0.0000E+00  0.1400E+00  0.1400E+00
    -17.913  0.0000E+00  0.0000E+00  0.1400E+00  0.1400E+00
    -17.743  0.0000E+00  0.0000E+00  0.1400E+00  0.1400E+00
    -17.573  0.0000E+00  0.0000E+00  0.1400E+00  0.1400E+00
    -17.403  0.0000E+00  0.0000E+00  0.1400E+00  0.1400E+00
    -17.233  0.0000E+00  0.0000E+00  0.1400E+00  0.1400E+00
    -17.063  0.0000E+00  0.0000E+00  0.1400E+00  0.1400E+00
    -16.893  0.0000E+00  0.0000E+00  0.1400E+00  0.1400E+00
    -16.724 -0.5171E-36 -0.4357E-36  0.1400E+00  0.1400E+00
    -16.554 -0.9046E-28 -0.7906E-28  0.1400E+00  0.1400E+00
    -16.384 -0.1190E-20 -0.1074E-20  0.1400E+00  0.1400E+00
    -16.214 -0.1160E-14 -0.1076E-14  0.1400E+00  0.1400E+00
    -16.044 -0.8760E-10 -0.8318E-10  0.1400E+00  0.1400E+00
    -15.874 -0.4934E-06 -0.4748E-06  0.1400E+00  0.1400E+00
    -15.704 -0.1926E-03 -0.1860E-03  0.1400E+00  0.1400E+00
    -15.534 -0.2887E-02 -0.2810E-02  0.1395E+00  0.1395E+00
    -15.364  0.3953E-01  0.3809E-01  0.1462E+00  0.1460E+00
    -15.194  0.6283E-01  0.6353E-01  0.1569E+00  0.1568E+00
    -15.024 -0.5982E-03  0.1317E-03  0.1568E+00  0.1568E+00
    -14.854 -0.6223E-03 -0.6924E-03  0.1567E+00  0.1567E+00
    -14.684 -0.3560E-05 -0.4683E-05  0.1567E+00  0.1567E+00
    -14.514 -0.1334E-08 -0.2088E-08  0.1567E+00  0.1567E+00
    -14.344 -0.3681E-13 -0.6864E-13  0.1567E+00  0.1567E+00
    -14.174  0.0000E+00  0.0000E+00  0.1567E+00  0.1567E+00
    -14.004  0.0000E+00  0.0000E+00  0.1567E+00  0.1567E+00
    -13.834  0.0000E+00  0.0000E+00  0.1567E+00  0.1567E+00
    -13.664  0.0000E+00  0.0000E+00  0.1567E+00  0.1567E+00
    -13.494  0.0000E+00  0.0000E+00  0.1567E+00  0.1567E+00
    -13.324  0.0000E+00  0.0000E+00  0.1567E+00  0.1567E+00
    -13.154  0.0000E+00  0.0000E+00  0.1567E+00  0.1567E+00
    -12.984  0.0000E+00  0.0000E+00  0.1567E+00  0.1567E+00
    -12.814  0.0000E+00  0.0000E+00  0.1567E+00  0.1567E+00
    -12.644  0.0000E+00  0.0000E+00  0.1567E+00  0.1567E+00
    -12.474  0.0000E+00  0.0000E+00  0.1567E+00  0.1567E+00
    -12.304  0.0000E+00  0.0000E+00  0.1567E+00  0.1567E+00
    -12.134  0.0000E+00  0.0000E+00  0.1567E+00  0.1567E+00
    -11.965  0.0000E+00  0.0000E+00  0.1567E+00  0.1567E+00
    -11.795  0.0000E+00  0.0000E+00  0.1567E+00  0.1567E+00
    -11.625  0.0000E+00  0.0000E+00  0.1567E+00  0.1567E+00
    -11.455  0.0000E+00  0.0000E+00  0.1567E+00  0.1567E+00
    -11.285  0.0000E+00  0.0000E+00  0.1567E+00  0.1567E+00
    -11.115  0.0000E+00  0.0000E+00  0.1567E+00  0.1567E+00
    -10.945  0.0000E+00  0.0000E+00  0.1567E+00  0.1567E+00
    -10.775  0.0000E+00  0.0000E+00  0.1567E+00  0.1567E+00
    -10.605  0.0000E+00  0.0000E+00  0.1567E+00  0.1567E+00
    -10.435  0.0000E+00  0.0000E+00  0.1567E+00  0.1567E+00
    -10.265  0.0000E+00  0.0000E+00  0.1567E+00  0.1567E+00
    -10.095  0.0000E+00  0.0000E+00  0.1567E+00  0.1567E+00
     -9.925  0.0000E+00  0.0000E+00  0.1567E+00  0.1567E+00
     -9.755  0.0000E+00  0.0000E+00  0.1567E+00  0.1567E+00
     -9.585  0.0000E+00  0.0000E+00  0.1567E+00  0.1567E+00
     -9.415  0.0000E+00  0.0000E+00  0.1567E+00  0.1567E+00
     -9.245  0.0000E+00  0.0000E+00  0.1567E+00  0.1567E+00
     -9.075  0.0000E+00  0.0000E+00  0.1567E+00  0.1567E+00
     -8.905  0.0000E+00  0.0000E+00  0.1567E+00  0.1567E+00
     -8.735 -0.2332E-36 -0.2978E-34  0.1567E+00  0.1567E+00
     -8.565 -0.3672E-28 -0.2537E-26  0.1567E+00  0.1567E+00
     -8.395 -0.4326E-21 -0.1654E-19  0.1567E+00  0.1567E+00
     -8.225 -0.3759E-15 -0.7983E-14  0.1567E+00  0.1567E+00
     -8.055 -0.2535E-10 -0.2986E-09  0.1567E+00  0.1567E+00
     -7.885 -0.1284E-06 -0.8178E-06  0.1567E+00  0.1567E+00
     -7.715 -0.4556E-04 -0.1428E-03  0.1567E+00  0.1566E+00
     -7.545 -0.5833E-03 -0.1995E-04  0.1566E+00  0.1566E+00
     -7.375  0.8663E-02  0.1352E-01  0.1580E+00  0.1589E+00
     -7.206  0.1197E-01  0.6770E-02  0.1601E+00  0.1601E+00
     -7.036  0.2856E-02  0.2176E-03  0.1606E+00  0.1601E+00
     -6.866  0.5021E-02  0.3673E-02  0.1614E+00  0.1607E+00
     -6.696  0.6663E-02  0.6389E-02  0.1625E+00  0.1618E+00
     -6.526  0.3329E-02  0.4881E-02  0.1631E+00  0.1627E+00
     -6.356  0.3901E-02  0.3291E-02  0.1638E+00  0.1632E+00
     -6.186  0.8522E-02  0.5149E-02  0.1652E+00  0.1641E+00
     -6.016  0.1076E-01  0.8394E-02  0.1670E+00  0.1655E+00
     -5.846  0.1003E-01  0.1154E-01  0.1687E+00  0.1675E+00
     -5.676  0.5464E-02  0.8820E-02  0.1697E+00  0.1690E+00
     -5.506  0.1527E-01  0.5585E-02  0.1723E+00  0.1699E+00
     -5.336  0.1684E-01  0.1530E-01  0.1751E+00  0.1725E+00
     -5.166  0.9887E-02  0.1574E-01  0.1768E+00  0.1752E+00
     -4.996  0.6124E-02  0.1030E-01  0.1779E+00  0.1770E+00
     -4.826  0.1715E-01  0.3805E-02  0.1808E+00  0.1776E+00
     -4.656  0.2517E-01  0.1209E-01  0.1850E+00  0.1797E+00
     -4.486  0.2438E-01  0.2256E-01  0.1892E+00  0.1835E+00
     -4.316  0.1942E-01  0.2538E-01  0.1925E+00  0.1878E+00
     -4.146  0.3022E-01  0.1353E-01  0.1976E+00  0.1901E+00
     -3.976  0.4881E-01  0.1686E-01  0.2059E+00  0.1930E+00
     -3.806  0.7390E-01  0.2864E-01  0.2185E+00  0.1978E+00
     -3.636  0.1104E+00  0.1916E-01  0.2373E+00  0.2011E+00
     -3.466  0.1077E+00  0.2835E-01  0.2556E+00  0.2059E+00
     -3.296  0.1506E+00  0.3307E-01  0.2812E+00  0.2115E+00
     -3.126  0.1643E+00  0.4270E-01  0.3091E+00  0.2188E+00
     -2.956  0.1768E+00  0.5317E-01  0.3391E+00  0.2278E+00
     -2.786  0.1376E+00  0.7582E-01  0.3625E+00  0.2407E+00
     -2.616  0.1614E+00  0.7428E-01  0.3899E+00  0.2533E+00
     -2.447  0.2510E+00  0.8318E-01  0.4326E+00  0.2675E+00
     -2.277  0.2575E+00  0.9973E-01  0.4764E+00  0.2844E+00
     -2.107  0.2326E+00  0.1170E+00  0.5159E+00  0.3043E+00
     -1.937  0.2403E+00  0.1248E+00  0.5567E+00  0.3255E+00
     -1.767  0.2314E+00  0.1248E+00  0.5961E+00  0.3467E+00
     -1.597  0.2228E+00  0.1235E+00  0.6339E+00  0.3677E+00
     -1.427  0.2238E+00  0.1226E+00  0.6720E+00  0.3885E+00
     -1.257  0.2080E+00  0.1341E+00  0.7073E+00  0.4113E+00
     -1.087  0.1743E+00  0.1714E+00  0.7369E+00  0.4405E+00
     -0.917  0.1533E+00  0.1843E+00  0.7630E+00  0.4718E+00
     -0.747  0.1684E+00  0.1794E+00  0.7916E+00  0.5023E+00
     -0.577  0.2075E+00  0.2097E+00  0.8269E+00  0.5379E+00
     -0.407  0.2882E+00  0.2169E+00  0.8759E+00  0.5748E+00
     -0.237  0.3235E+00  0.2139E+00  0.9309E+00  0.6111E+00
     -0.067  0.2812E+00  0.2042E+00  0.9786E+00  0.6459E+00
      0.103  0.2111E+00  0.1850E+00  0.1015E+01  0.6773E+00
      0.273  0.1606E+00  0.1528E+00  0.1042E+01  0.7033E+00
      0.443  0.1483E+00  0.1279E+00  0.1067E+01  0.7250E+00
      0.613  0.1372E+00  0.9788E-01  0.1090E+01  0.7417E+00
      0.783  0.1198E+00  0.1107E+00  0.1111E+01  0.7605E+00
      0.953  0.1089E+00  0.1137E+00  0.1129E+01  0.7798E+00
      1.123  0.1101E+00  0.1249E+00  0.1148E+01  0.8010E+00
      1.293  0.1084E+00  0.1675E+00  0.1166E+01  0.8295E+00
      1.463  0.9693E-01  0.1752E+00  0.1183E+01  0.8593E+00
      1.633  0.9219E-01  0.1858E+00  0.1198E+01  0.8909E+00
      1.803  0.1063E+00  0.2238E+00  0.1217E+01  0.9289E+00
      1.973  0.1170E+00  0.2488E+00  0.1236E+01  0.9712E+00
      2.143  0.9045E-01  0.2778E+00  0.1252E+01  0.1018E+01
      2.312  0.1080E-01  0.2876E+00  0.1254E+01  0.1067E+01
      2.482 -0.1793E-02  0.3164E+00  0.1253E+01  0.1121E+01
      2.652 -0.4555E-04  0.3320E+00  0.1253E+01  0.1177E+01
      2.822 -0.7244E-07  0.2440E+00  0.1253E+01  0.1219E+01
      2.992 -0.8860E-11  0.1633E+00  0.1253E+01  0.1247E+01
      3.162 -0.8546E-16  0.4303E-01  0.1253E+01  0.1254E+01
      3.332  0.0000E+00 -0.3506E-02  0.1253E+01  0.1253E+01
      3.502  0.0000E+00 -0.3027E-03  0.1253E+01  0.1253E+01
      3.672  0.0000E+00 -0.1219E-05  0.1253E+01  0.1253E+01
      3.842  0.0000E+00 -0.3711E-09  0.1253E+01  0.1253E+01
      4.012  0.0000E+00 -0.8883E-14  0.1253E+01  0.1253E+01
      4.182  0.0000E+00  0.0000E+00  0.1253E+01  0.1253E+01
      4.352  0.0000E+00  0.0000E+00  0.1253E+01  0.1253E+01
      4.522  0.0000E+00  0.0000E+00  0.1253E+01  0.1253E+01
      4.692  0.0000E+00  0.0000E+00  0.1253E+01  0.1253E+01
      4.862  0.0000E+00  0.0000E+00  0.1253E+01  0.1253E+01
      5.032  0.0000E+00  0.0000E+00  0.1253E+01  0.1253E+01
      5.202  0.0000E+00  0.0000E+00  0.1253E+01  0.1253E+01
      5.372  0.0000E+00  0.0000E+00  0.1253E+01  0.1253E+01
