Generated by VASPKIT code
 1.000000
    8.5392999648999997    0.0000000000000000    0.0000000000000000
    0.0135247189000000    8.5058896306000005    0.0000000000000000
    0.0000000000000000    0.0000000000000000   23.5338993073000005
   Cr   Fe   Pb
    14    49     1
Selective Dynamics
Direct
    0.0021800000000000    0.9986699999999999    0.2416600000000000    F  F  F            Cr1
    0.0030200000000000    0.3336100000000000    0.0005700000000000    F  F  F            Cr2
    0.9904200000000000    0.3274900000000000    0.3690700000000000    T  T  T            Cr3
    0.1621700000000000    0.4943100000000000    0.0598100000000000    F  F  F            Cr4
    0.1649200000000000    0.8355399999999999    0.0602700000000000    F  F  F            Cr5
    0.5024000000000000    0.4971800000000000    0.3042700000000000    T  T  T            Cr6
    0.5044700000000000    0.4965400000000000    0.0603200000000000    F  F  F            Cr7
    0.5051400000000000    0.1623700000000000    0.1816700000000000    F  F  F            Cr8
    0.6613599999999999    0.0006500000000000    0.2402200000000000    F  F  F            Cr9
    0.6660300000000000    0.9979900000000000    0.0004700000000000    F  F  F           Cr10
    0.6665200000000000    0.0021100000000000    0.3642400000000000    T  T  T           Cr11
    0.6598900000000000    0.3395000000000000    0.0003100000000000    F  F  F           Cr12
    0.6559000000000000    0.3366000000000000    0.3661400000000000    T  T  T           Cr13
    0.6635200000000000    0.9993500000000000    0.1216200000000000    F  F  F           Cr14
    0.1652700000000000    0.1612900000000000    0.3025000000000000    T  T  T            Fe1
    0.9999700000000000    0.3320500000000000    0.2416600000000000    F  F  F            Fe2
    0.1664600000000000    0.4986100000000000    0.3036400000000000    T  T  T            Fe3
    0.0001300000000000    0.6649300000000000    0.2414300000000000    F  F  F            Fe4
    0.1679000000000000    0.8324500000000000    0.3034700000000000    T  T  T            Fe5
    0.9985400000000000    0.0004800000000000    0.0000000000000000    F  F  F            Fe6
    0.9912500000000000    0.9978800000000000    0.3606000000000000    T  T  T            Fe7
    0.1655000000000000    0.1650000000000000    0.0605000000000000    F  F  F            Fe8
    0.0010600000000000    0.6666200000000000    0.0005700000000000    F  F  F            Fe9
    0.9918900000000000    0.6654000000000000    0.3602700000000000    T  T  T           Fe10
    0.9993000000000000    0.9993600000000000    0.1207400000000000    F  F  F           Fe11
    0.1668500000000000    0.1653800000000000    0.1810500000000000    F  F  F           Fe12
    0.9993600000000000    0.3316100000000000    0.1208300000000000    F  F  F           Fe13
    0.1654400000000000    0.4981200000000000    0.1809300000000000    F  F  F           Fe14
    0.0004000000000000    0.6653600000000000    0.1205700000000000    F  F  F           Fe15
    0.1662700000000000    0.8320300000000000    0.1810300000000000    F  F  F           Fe16
    0.3336000000000000    0.9973100000000000    0.2411600000000000    F  F  F           Fe17
    0.4954800000000000    0.1628900000000000    0.3015100000000000    T  T  T           Fe18
    0.3325100000000000    0.3324400000000000    0.2411500000000000    F  F  F           Fe19
    0.3324300000000000    0.6641100000000000    0.2413500000000000    F  F  F           Fe20
    0.4996500000000000    0.8322800000000000    0.3034300000000000    T  T  T           Fe21
    0.3340600000000000    0.9985000000000001    0.0006200000000000    F  F  F           Fe22
    0.3436500000000000    0.0009800000000000    0.3625800000000000    T  T  T           Fe23
    0.5011200000000000    0.1646600000000000    0.0604900000000000    F  F  F           Fe24
    0.3330600000000000    0.3326000000000000    0.0006500000000000    F  F  F           Fe25
    0.3254000000000000    0.3226600000000000    0.3601600000000000    T  T  T           Fe26
    0.3327900000000000    0.6619100000000000    0.0010300000000000    F  F  F           Fe27
    0.3351800000000000    0.6693200000000000    0.3611800000000000    T  T  T           Fe28
    0.5000000000000000    0.8311600000000000    0.0606000000000000    F  F  F           Fe29
    0.3333600000000000    0.9985400000000000    0.1208900000000000    F  F  F           Fe30
    0.3325900000000000    0.3328200000000000    0.1201500000000000    F  F  F           Fe31
    0.4995800000000000    0.4977900000000000    0.1807600000000000    F  F  F           Fe32
    0.3319200000000000    0.6633000000000000    0.1202500000000000    F  F  F           Fe33
    0.4997200000000000    0.8301700000000000    0.1808100000000000    F  F  F           Fe34
    0.8313199999999999    0.1621900000000000    0.2997500000000000    T  T  T           Fe35
    0.6653200000000000    0.3323200000000000    0.2413700000000000    F  F  F           Fe36
    0.8316900000000000    0.5011400000000000    0.3013600000000000    T  T  T           Fe37
    0.6662300000000000    0.6653400000000000    0.2412400000000000    F  F  F           Fe38
    0.8326200000000000    0.8326100000000000    0.3014700000000000    T  T  T           Fe39
    0.8317800000000000    0.1660900000000000    0.0600600000000000    F  F  F           Fe40
    0.8342400000000000    0.4992400000000000    0.0602000000000000    F  F  F           Fe41
    0.6667500000000000    0.6669700000000000    0.0003400000000000    F  F  F           Fe42
    0.6725700000000000    0.6769200000000000    0.3623400000000000    T  T  T           Fe43
    0.8329100000000000    0.8338700000000000    0.0606700000000000    F  F  F           Fe44
    0.8346900000000000    0.1658900000000000    0.1816200000000000    F  F  F           Fe45
    0.6668100000000000    0.3315900000000000    0.1207200000000000    F  F  F           Fe46
    0.8327900000000000    0.4985100000000000    0.1813500000000000    F  F  F           Fe47
    0.6670900000000000    0.6650199999999999    0.1208100000000000    F  F  F           Fe48
    0.8333700000000001    0.8339600000000000    0.1814300000000000    F  F  F           Fe49
    0.8290300000000000    0.1629700000000000    0.4447600000000000    T  T  T            Pb1
