ni3al                                   
           1
     8.539300    0.000000    0.000000
     0.013525    8.505890    0.000000
     0.000000    0.000000   23.533899
   Cr   Fe   Pb
    14    49     1
Direct configuration=     1
   0.00218000  0.99867000  0.24166000
   0.00302000  0.33361000  0.00057000
   0.99042000  0.32749000  0.36907000
   0.16217000  0.49431000  0.05981000
   0.16492000  0.83554000  0.06027000
   0.50240000  0.49718000  0.30427000
   0.50447000  0.49654000  0.06032000
   0.50514000  0.16237000  0.18167000
   0.66136000  0.00065000  0.24022000
   0.66603000  0.99799000  0.00047000
   0.66652000  0.00211000  0.36424000
   0.65989000  0.33950000  0.00031000
   0.65590000  0.33660000  0.36614000
   0.66352000  0.99935000  0.12162000
   0.16527000  0.16129000  0.30250000
   0.99997000  0.33205000  0.24166000
   0.16646000  0.49861000  0.30364000
   0.00013000  0.66493000  0.24143000
   0.16790000  0.83245000  0.30347000
   0.99854000  0.00048000  0.00000000
   0.99125000  0.99788000  0.36060000
   0.16550000  0.16500000  0.06050000
   0.00106000  0.66662000  0.00057000
   0.99189000  0.66540000  0.36027000
   0.99930000  0.99936000  0.12074000
   0.16685000  0.16538000  0.18105000
   0.99936000  0.33161000  0.12083000
   0.16544000  0.49812000  0.18093000
   0.00040000  0.66536000  0.12057000
   0.16627000  0.83203000  0.18103000
   0.33360000  0.99731000  0.24116000
   0.49548000  0.16289000  0.30151000
   0.33251000  0.33244000  0.24115000
   0.33243000  0.66411000  0.24135000
   0.49965000  0.83228000  0.30343000
   0.33406000  0.99850000  0.00062000
   0.34365000  0.00098000  0.36258000
   0.50112000  0.16466000  0.06049000
   0.33306000  0.33260000  0.00065000
   0.32540000  0.32266000  0.36016000
   0.33279000  0.66191000  0.00103000
   0.33518000  0.66932000  0.36118000
   0.50000000  0.83116000  0.06060000
   0.33336000  0.99854000  0.12089000
   0.33259000  0.33282000  0.12015000
   0.49958000  0.49779000  0.18076000
   0.33192000  0.66330000  0.12025000
   0.49972000  0.83017000  0.18081000
   0.83132000  0.16219000  0.29975000
   0.66532000  0.33232000  0.24137000
   0.83169000  0.50114000  0.30136000
   0.66623000  0.66534000  0.24124000
   0.83262000  0.83261000  0.30147000
   0.83178000  0.16609000  0.06006000
   0.83424000  0.49924000  0.06020000
   0.66675000  0.66697000  0.00034000
   0.67257000  0.67692000  0.36234000
   0.83291000  0.83387000  0.06067000
   0.83469000  0.16589000  0.18162000
   0.66681000  0.33159000  0.12072000
   0.83279000  0.49851000  0.18135000
   0.66709000  0.66502000  0.12081000
   0.83337000  0.83396000  0.18143000
   0.82903000  0.16297000  0.44476000
Direct configuration=     2
   0.00218000  0.99867000  0.24166000
   0.00302000  0.33361000  0.00057000
   0.99609706  0.33140278  0.36686666
   0.16217000  0.49431000  0.05981000
   0.16492000  0.83554000  0.06027000
   0.50038520  0.49888027  0.30349004
   0.50447000  0.49654000  0.06032000
   0.50514000  0.16237000  0.18167000
   0.66136000  0.00065000  0.24022000
   0.66603000  0.99799000  0.00047000
   0.66431249 -0.00186687  0.36339448
   0.65989000  0.33950000  0.00031000
   0.65549213  0.33726985  0.36519702
   0.66352000  0.99935000  0.12162000
   0.16559398  0.16197887  0.30295914
   0.99997000  0.33205000  0.24166000
   0.16599063  0.49839631  0.30417595
   0.00013000  0.66493000  0.24143000
   0.16688789  0.83269655  0.30372313
   0.99854000  0.00048000  0.00000000
   0.99257243  0.99768500  0.36042741
   0.16550000  0.16500000  0.06050000
   0.00106000  0.66662000  0.00057000
   0.99221635  0.66456802  0.36022852
   0.99930000  0.99936000  0.12074000
   0.16685000  0.16538000  0.18105000
   0.99936000  0.33161000  0.12083000
   0.16544000  0.49812000  0.18093000
   0.00040000  0.66536000  0.12057000
   0.16627000  0.83203000  0.18103000
   0.33360000  0.99731000  0.24116000
   0.49667026  0.16426630  0.30250758
   0.33251000  0.33244000  0.24115000
   0.33243000  0.66411000  0.24135000
   0.49987123  0.83229485  0.30341483
   0.33406000  0.99850000  0.00062000
   0.34318372  0.00138662  0.36221517
   0.50112000  0.16466000  0.06049000
   0.33306000  0.33260000  0.00065000
   0.32630779  0.32343926  0.36021399
   0.33279000  0.66191000  0.00103000
   0.33516991  0.66822287  0.36083151
   0.50000000  0.83116000  0.06060000
   0.33336000  0.99854000  0.12089000
   0.33259000  0.33282000  0.12015000
   0.49958000  0.49779000  0.18076000
   0.33192000  0.66330000  0.12025000
   0.49972000  0.83017000  0.18081000
   0.83045617  0.16352734  0.30076634
   0.66532000  0.33232000  0.24137000
   0.83165780  0.49978594  0.30267578
   0.66623000  0.66534000  0.24124000
   0.83230172  0.83302092  0.30152661
   0.83178000  0.16609000  0.06006000
   0.83424000  0.49924000  0.06020000
   0.66675000  0.66697000  0.00034000
   0.67206721  0.67531560  0.36189598
   0.83291000  0.83387000  0.06067000
   0.83469000  0.16589000  0.18162000
   0.66681000  0.33159000  0.12072000
   0.83279000  0.49851000  0.18135000
   0.66709000  0.66502000  0.12081000
   0.83337000  0.83396000  0.18143000
   0.82808991  0.16169827  0.44646122
Direct configuration=     3
   0.00218000  0.99867000  0.24166000
   0.00302000  0.33361000  0.00057000
   0.00273174  0.33597558  0.36429166
   0.16217000  0.49431000  0.05981000
   0.16492000  0.83554000  0.06027000
   0.49803054  0.50086734  0.30257850
   0.50447000  0.49654000  0.06032000
   0.50514000  0.16237000  0.18167000
   0.66136000  0.00065000  0.24022000
   0.66603000  0.99799000  0.00047000
   0.66173261 -0.00651456  0.36240633
   0.65989000  0.33950000  0.00031000
   0.65501546  0.33805270  0.36409498
   0.66352000  0.99935000  0.12162000
   0.16597261  0.16278394  0.30349573
   0.99997000  0.33205000  0.24166000
   0.16544208  0.49814657  0.30480232
   0.00013000  0.66493000  0.24143000
   0.16570504  0.83298468  0.30401896
   0.99854000  0.00048000  0.00000000
   0.99411794  0.99745711  0.36022571
   0.16550000  0.16500000  0.06050000
   0.00106000  0.66662000  0.00057000
   0.99259775  0.66359569  0.36018003
   0.99930000  0.99936000  0.12074000
   0.16685000  0.16538000  0.18105000
   0.99936000  0.33161000  0.12083000
   0.16544000  0.49812000  0.18093000
   0.00040000  0.66536000  0.12057000
   0.16627000  0.83203000  0.18103000
   0.33360000  0.99731000  0.24116000
   0.49806129  0.16587476  0.30367344
   0.33251000  0.33244000  0.24115000
   0.33243000  0.66411000  0.24135000
   0.50012977  0.83231220  0.30339710
   0.33406000  0.99850000  0.00062000
   0.34263878  0.00186182  0.36178880
   0.50112000  0.16466000  0.06049000
   0.33306000  0.33260000  0.00065000
   0.32736870  0.32434997  0.36027708
   0.33279000  0.66191000  0.00103000
   0.33515812  0.66694067  0.36042424
   0.50000000  0.83116000  0.06060000
   0.33336000  0.99854000  0.12089000
   0.33259000  0.33282000  0.12015000
   0.49958000  0.49779000  0.18076000
   0.33192000  0.66330000  0.12025000
   0.49972000  0.83017000  0.18081000
   0.82944662  0.16509027  0.30195413
   0.66532000  0.33232000  0.24137000
   0.83162017  0.49820348  0.30421350
   0.66623000  0.66534000  0.24124000
   0.83192976  0.83350114  0.30159277
   0.83178000  0.16609000  0.06006000
   0.83424000  0.49924000  0.06020000
   0.66675000  0.66697000  0.00034000
   0.67147960  0.67344056  0.36137705
   0.83291000  0.83387000  0.06067000
   0.83469000  0.16589000  0.18162000
   0.66681000  0.33159000  0.12072000
   0.83279000  0.49851000  0.18135000
   0.66709000  0.66502000  0.12081000
   0.83337000  0.83396000  0.18143000
   0.82699123  0.16021201  0.44844941
Direct configuration=     4
   0.00218000  0.99867000  0.24166000
   0.00302000  0.33361000  0.00057000
   0.00395394  0.33601493  0.36392929
   0.16217000  0.49431000  0.05981000
   0.16492000  0.83554000  0.06027000
   0.49664649  0.50211647  0.30183644
   0.50447000  0.49654000  0.06032000
   0.50514000  0.16237000  0.18167000
   0.66136000  0.00065000  0.24022000
   0.66603000  0.99799000  0.00047000
   0.66140877 -0.00776678  0.36258618
   0.65989000  0.33950000  0.00031000
   0.65650286  0.33718422  0.36408648
   0.66352000  0.99935000  0.12162000
   0.16689782  0.16251615  0.30347429
   0.99997000  0.33205000  0.24166000
   0.16650909  0.49954466  0.30431430
   0.00013000  0.66493000  0.24143000
   0.16581630  0.83276057  0.30387779
   0.99854000  0.00048000  0.00000000
   0.99415221  0.99832666  0.36054077
   0.16550000  0.16500000  0.06050000
   0.00106000  0.66662000  0.00057000
   0.99279025  0.66336092  0.36044950
   0.99930000  0.99936000  0.12074000
   0.16685000  0.16538000  0.18105000
   0.99936000  0.33161000  0.12083000
   0.16544000  0.49812000  0.18093000
   0.00040000  0.66536000  0.12057000
   0.16627000  0.83203000  0.18103000
   0.33360000  0.99731000  0.24116000
   0.49834202  0.16675276  0.30375767
   0.33251000  0.33244000  0.24115000
   0.33243000  0.66411000  0.24135000
   0.49884232  0.83181109  0.30295642
   0.33406000  0.99850000  0.00062000
   0.34195041  0.00204786  0.36158000
   0.50112000  0.16466000  0.06049000
   0.33306000  0.33260000  0.00065000
   0.32853990  0.32554481  0.36054214
   0.33279000  0.66191000  0.00103000
   0.33497254  0.66615773  0.36024713
   0.50000000  0.83116000  0.06060000
   0.33336000  0.99854000  0.12089000
   0.33259000  0.33282000  0.12015000
   0.49958000  0.49779000  0.18076000
   0.33192000  0.66330000  0.12025000
   0.49972000  0.83017000  0.18081000
   0.82930453  0.16546595  0.30302040
   0.66532000  0.33232000  0.24137000
   0.83073958  0.49829291  0.30426267
   0.66623000  0.66534000  0.24124000
   0.83240602  0.83326931  0.30161645
   0.83178000  0.16609000  0.06006000
   0.83424000  0.49924000  0.06020000
   0.66675000  0.66697000  0.00034000
   0.67075335  0.67179452  0.36100482
   0.83291000  0.83387000  0.06067000
   0.83469000  0.16589000  0.18162000
   0.66681000  0.33159000  0.12072000
   0.83279000  0.49851000  0.18135000
   0.66709000  0.66502000  0.12081000
   0.83337000  0.83396000  0.18143000
   0.82722477  0.16031134  0.44793010
Direct configuration=     5
   0.00218000  0.99867000  0.24166000
   0.00302000  0.33361000  0.00057000
   0.00527040  0.33605731  0.36353899
   0.16217000  0.49431000  0.05981000
   0.16492000  0.83554000  0.06027000
   0.49515571  0.50346192  0.30103716
   0.50447000  0.49654000  0.06032000
   0.50514000  0.16237000  0.18167000
   0.66136000  0.00065000  0.24022000
   0.66603000  0.99799000  0.00047000
   0.66105995 -0.00911557  0.36277989
   0.65989000  0.33950000  0.00031000
   0.65810496  0.33624877  0.36407732
   0.66352000  0.99935000  0.12162000
   0.16789439  0.16222771  0.30345120
   0.99997000  0.33205000  0.24166000
   0.16765837  0.50105056  0.30378865
   0.00013000  0.66493000  0.24143000
   0.16593613  0.83251919  0.30372573
   0.99854000  0.00048000  0.00000000
   0.99418913  0.99926326  0.36088012
   0.16550000  0.16500000  0.06050000
   0.00106000  0.66662000  0.00057000
   0.99299759  0.66310804  0.36073975
   0.99930000  0.99936000  0.12074000
   0.16685000  0.16538000  0.18105000
   0.99936000  0.33161000  0.12083000
   0.16544000  0.49812000  0.18093000
   0.00040000  0.66536000  0.12057000
   0.16627000  0.83203000  0.18103000
   0.33360000  0.99731000  0.24116000
   0.49864439  0.16769847  0.30384839
   0.33251000  0.33244000  0.24115000
   0.33243000  0.66411000  0.24135000
   0.49745558  0.83127134  0.30248176
   0.33406000  0.99850000  0.00062000
   0.34120896  0.00224825  0.36135509
   0.50112000  0.16466000  0.06049000
   0.33306000  0.33260000  0.00065000
   0.32980142  0.32683180  0.36082763
   0.33279000  0.66191000  0.00103000
   0.33477264  0.66531441  0.36005637
   0.50000000  0.83116000  0.06060000
   0.33336000  0.99854000  0.12089000
   0.33259000  0.33282000  0.12015000
   0.49958000  0.49779000  0.18076000
   0.33192000  0.66330000  0.12025000
   0.49972000  0.83017000  0.18081000
   0.82915148  0.16587060  0.30416891
   0.66532000  0.33232000  0.24137000
   0.82979108  0.49838925  0.30431562
   0.66623000  0.66534000  0.24124000
   0.83291901  0.83301960  0.30164195
   0.83178000  0.16609000  0.06006000
   0.83424000  0.49924000  0.06020000
   0.66675000  0.66697000  0.00034000
   0.66997109  0.67002155  0.36060388
   0.83291000  0.83387000  0.06067000
   0.83469000  0.16589000  0.18162000
   0.66681000  0.33159000  0.12072000
   0.83279000  0.49851000  0.18135000
   0.66709000  0.66502000  0.12081000
   0.83337000  0.83396000  0.18143000
   0.82747631  0.16041832  0.44737075
Direct configuration=     6
   0.00218000  0.99867000  0.24166000
   0.00302000  0.33361000  0.00057000
   0.00591212  0.33607797  0.36334873
   0.16217000  0.49431000  0.05981000
   0.16492000  0.83554000  0.06027000
   0.49442902  0.50411777  0.30064754
   0.50447000  0.49654000  0.06032000
   0.50514000  0.16237000  0.18167000
   0.66136000  0.00065000  0.24022000
   0.66603000  0.99799000  0.00047000
   0.66088992 -0.00977304  0.36287431
   0.65989000  0.33950000  0.00031000
   0.65888592  0.33579278  0.36407286
   0.66352000  0.99935000  0.12162000
   0.16838017  0.16208710  0.30343994
   0.99997000  0.33205000  0.24166000
   0.16821860  0.50178462  0.30353242
   0.00013000  0.66493000  0.24143000
   0.16599455  0.83240152  0.30365161
   0.99854000  0.00048000  0.00000000
   0.99420712  0.99971981  0.36104553
   0.16550000  0.16500000  0.06050000
   0.00106000  0.66662000  0.00057000
   0.99309866  0.66298478  0.36088124
   0.99930000  0.99936000  0.12074000
   0.16685000  0.16538000  0.18105000
   0.99936000  0.33161000  0.12083000
   0.16544000  0.49812000  0.18093000
   0.00040000  0.66536000  0.12057000
   0.16627000  0.83203000  0.18103000
   0.33360000  0.99731000  0.24116000
   0.49879179  0.16815946  0.30389261
   0.33251000  0.33244000  0.24115000
   0.33243000  0.66411000  0.24135000
   0.49677961  0.83100823  0.30225038
   0.33406000  0.99850000  0.00062000
   0.34084753  0.00234593  0.36124546
   0.50112000  0.16466000  0.06049000
   0.33306000  0.33260000  0.00065000
   0.33041636  0.32745915  0.36096680
   0.33279000  0.66191000  0.00103000
   0.33467520  0.66490333  0.35996338
   0.50000000  0.83116000  0.06060000
   0.33336000  0.99854000  0.12089000
   0.33259000  0.33282000  0.12015000
   0.49958000  0.49779000  0.18076000
   0.33192000  0.66330000  0.12025000
   0.49972000  0.83017000  0.18081000
   0.82907687  0.16606785  0.30472875
   0.66532000  0.33232000  0.24137000
   0.82932872  0.49843621  0.30434143
   0.66623000  0.66534000  0.24124000
   0.83316908  0.83289788  0.30165438
   0.83178000  0.16609000  0.06006000
   0.83424000  0.49924000  0.06020000
   0.66675000  0.66697000  0.00034000
   0.66958977  0.66915730  0.36040844
   0.83291000  0.83387000  0.06067000
   0.83469000  0.16589000  0.18162000
   0.66681000  0.33159000  0.12072000
   0.83279000  0.49851000  0.18135000
   0.66709000  0.66502000  0.12081000
   0.83337000  0.83396000  0.18143000
   0.82759893  0.16047048  0.44709809
Direct configuration=     7
   0.00218000  0.99867000  0.24166000
   0.00302000  0.33361000  0.00057000
   0.00712530  0.33632828  0.36323636
   0.16217000  0.49431000  0.05981000
   0.16492000  0.83554000  0.06027000
   0.49412598  0.50408569  0.30008649
   0.50447000  0.49654000  0.06032000
   0.50514000  0.16237000  0.18167000
   0.66136000  0.00065000  0.24022000
   0.66603000  0.99799000  0.00047000
   0.65996892 -0.01127986  0.36301997
   0.65989000  0.33950000  0.00031000
   0.66023879  0.33524938  0.36455230
   0.66352000  0.99935000  0.12162000
   0.16896432  0.16276169  0.30350403
   0.99997000  0.33205000  0.24166000
   0.16716767  0.50121647  0.30339526
   0.00013000  0.66493000  0.24143000
   0.16551168  0.83277933  0.30380467
   0.99854000  0.00048000  0.00000000
   0.99521964  0.99943500  0.36105904
   0.16550000  0.16500000  0.06050000
   0.00106000  0.66662000  0.00057000
   0.99333941  0.66276422  0.36082081
   0.99930000  0.99936000  0.12074000
   0.16685000  0.16538000  0.18105000
   0.99936000  0.33161000  0.12083000
   0.16544000  0.49812000  0.18093000
   0.00040000  0.66536000  0.12057000
   0.16627000  0.83203000  0.18103000
   0.33360000  0.99731000  0.24116000
   0.49859240  0.16821235  0.30378887
   0.33251000  0.33244000  0.24115000
   0.33243000  0.66411000  0.24135000
   0.49688430  0.83194660  0.30221623
   0.33406000  0.99850000  0.00062000
   0.34032115  0.00232455  0.36096595
   0.50112000  0.16466000  0.06049000
   0.33306000  0.33260000  0.00065000
   0.33138126  0.32884059  0.36084201
   0.33279000  0.66191000  0.00103000
   0.33407780  0.66497641  0.36016221
   0.50000000  0.83116000  0.06060000
   0.33336000  0.99854000  0.12089000
   0.33259000  0.33282000  0.12015000
   0.49958000  0.49779000  0.18076000
   0.33192000  0.66330000  0.12025000
   0.49972000  0.83017000  0.18081000
   0.82950629  0.16552581  0.30517363
   0.66532000  0.33232000  0.24137000
   0.82969776  0.49873613  0.30391013
   0.66623000  0.66534000  0.24124000
   0.83333594  0.83268131  0.30200459
   0.83178000  0.16609000  0.06006000
   0.83424000  0.49924000  0.06020000
   0.66675000  0.66697000  0.00034000
   0.66839247  0.66803218  0.35999902
   0.83291000  0.83387000  0.06067000
   0.83469000  0.16589000  0.18162000
   0.66681000  0.33159000  0.12072000
   0.83279000  0.49851000  0.18135000
   0.66709000  0.66502000  0.12081000
   0.83337000  0.83396000  0.18143000
   0.82853187  0.16104864  0.44630451
Direct configuration=     8
   0.00218000  0.99867000  0.24166000
   0.00302000  0.33361000  0.00057000
   0.00803556  0.33651609  0.36315205
   0.16217000  0.49431000  0.05981000
   0.16492000  0.83554000  0.06027000
   0.49389861  0.50406161  0.29966553
   0.50447000  0.49654000  0.06032000
   0.50514000  0.16237000  0.18167000
   0.66136000  0.00065000  0.24022000
   0.66603000  0.99799000  0.00047000
   0.65927790 -0.01241044  0.36312926
   0.65989000  0.33950000  0.00031000
   0.66125386  0.33484167  0.36491203
   0.66352000  0.99935000  0.12162000
   0.16940261  0.16326783  0.30355212
   0.99997000  0.33205000  0.24166000
   0.16637915  0.50079019  0.30329235
   0.00013000  0.66493000  0.24143000
   0.16514938  0.83306280  0.30391951
   0.99854000  0.00048000  0.00000000
   0.99597933  0.99922130  0.36106917
   0.16550000  0.16500000  0.06050000
   0.00106000  0.66662000  0.00057000
   0.99352005  0.66259874  0.36077547
   0.99930000  0.99936000  0.12074000
   0.16685000  0.16538000  0.18105000
   0.99936000  0.33161000  0.12083000
   0.16544000  0.49812000  0.18093000
   0.00040000  0.66536000  0.12057000
   0.16627000  0.83203000  0.18103000
   0.33360000  0.99731000  0.24116000
   0.49844280  0.16825204  0.30371104
   0.33251000  0.33244000  0.24115000
   0.33243000  0.66411000  0.24135000
   0.49696285  0.83265065  0.30219062
   0.33406000  0.99850000  0.00062000
   0.33992621  0.00230851  0.36075624
   0.50112000  0.16466000  0.06049000
   0.33306000  0.33260000  0.00065000
   0.33210524  0.32987710  0.36074838
   0.33279000  0.66191000  0.00103000
   0.33362957  0.66503124  0.36031140
   0.50000000  0.83116000  0.06060000
   0.33336000  0.99854000  0.12089000
   0.33259000  0.33282000  0.12015000
   0.49958000  0.49779000  0.18076000
   0.33192000  0.66330000  0.12025000
   0.49972000  0.83017000  0.18081000
   0.82982847  0.16511911  0.30550743
   0.66532000  0.33232000  0.24137000
   0.82997464  0.49896116  0.30358653
   0.66623000  0.66534000  0.24124000
   0.83346114  0.83251881  0.30226736
   0.83178000  0.16609000  0.06006000
   0.83424000  0.49924000  0.06020000
   0.66675000  0.66697000  0.00034000
   0.66749413  0.66718800  0.35969183
   0.83291000  0.83387000  0.06067000
   0.83469000  0.16589000  0.18162000
   0.66681000  0.33159000  0.12072000
   0.83279000  0.49851000  0.18135000
   0.66709000  0.66502000  0.12081000
   0.83337000  0.83396000  0.18143000
   0.82923186  0.16148244  0.44570908
Direct configuration=     9
   0.00218000  0.99867000  0.24166000
   0.00302000  0.33361000  0.00057000
   0.00823322  0.33655687  0.36313374
   0.16217000  0.49431000  0.05981000
   0.16492000  0.83554000  0.06027000
   0.49384924  0.50405639  0.29957412
   0.50447000  0.49654000  0.06032000
   0.50514000  0.16237000  0.18167000
   0.66136000  0.00065000  0.24022000
   0.66603000  0.99799000  0.00047000
   0.65912784 -0.01265594  0.36315299
   0.65989000  0.33950000  0.00031000
   0.66147428  0.33475314  0.36499015
   0.66352000  0.99935000  0.12162000
   0.16949778  0.16337774  0.30356256
   0.99997000  0.33205000  0.24166000
   0.16620792  0.50069763  0.30327000
   0.00013000  0.66493000  0.24143000
   0.16507071  0.83312435  0.30394445
   0.99854000  0.00048000  0.00000000
   0.99614429  0.99917490  0.36107137
   0.16550000  0.16500000  0.06050000
   0.00106000  0.66662000  0.00057000
   0.99355927  0.66256281  0.36076562
   0.99930000  0.99936000  0.12074000
   0.16685000  0.16538000  0.18105000
   0.99936000  0.33161000  0.12083000
   0.16544000  0.49812000  0.18093000
   0.00040000  0.66536000  0.12057000
   0.16627000  0.83203000  0.18103000
   0.33360000  0.99731000  0.24116000
   0.49841032  0.16826066  0.30369414
   0.33251000  0.33244000  0.24115000
   0.33243000  0.66411000  0.24135000
   0.49697991  0.83280353  0.30218505
   0.33406000  0.99850000  0.00062000
   0.33984045  0.00230502  0.36071070
   0.50112000  0.16466000  0.06049000
   0.33306000  0.33260000  0.00065000
   0.33226244  0.33010217  0.36072805
   0.33279000  0.66191000  0.00103000
   0.33353224  0.66504315  0.36034380
   0.50000000  0.83116000  0.06060000
   0.33336000  0.99854000  0.12089000
   0.33259000  0.33282000  0.12015000
   0.49958000  0.49779000  0.18076000
   0.33192000  0.66330000  0.12025000
   0.49972000  0.83017000  0.18081000
   0.82989844  0.16503080  0.30557992
   0.66532000  0.33232000  0.24137000
   0.83003477  0.49901002  0.30351626
   0.66623000  0.66534000  0.24124000
   0.83348832  0.83248352  0.30232442
   0.83178000  0.16609000  0.06006000
   0.83424000  0.49924000  0.06020000
   0.66675000  0.66697000  0.00034000
   0.66729906  0.66700469  0.35962513
   0.83291000  0.83387000  0.06067000
   0.83469000  0.16589000  0.18162000
   0.66681000  0.33159000  0.12072000
   0.83279000  0.49851000  0.18135000
   0.66709000  0.66502000  0.12081000
   0.83337000  0.83396000  0.18143000
   0.82938386  0.16157664  0.44557979
Direct configuration=    10
   0.00218000  0.99867000  0.24166000
   0.00302000  0.33361000  0.00057000
   0.00864890  0.33685146  0.36319218
   0.16217000  0.49431000  0.05981000
   0.16492000  0.83554000  0.06027000
   0.49414134  0.50352098  0.29963171
   0.50447000  0.49654000  0.06032000
   0.50514000  0.16237000  0.18167000
   0.66136000  0.00065000  0.24022000
   0.66603000  0.99799000  0.00047000
   0.65869983 -0.01298967  0.36336841
   0.65989000  0.33950000  0.00031000
   0.66134687  0.33559606  0.36509298
   0.66352000  0.99935000  0.12162000
   0.16946916  0.16386510  0.30355537
   0.99997000  0.33205000  0.24166000
   0.16636341  0.50094067  0.30330307
   0.00013000  0.66493000  0.24143000
   0.16549004  0.83267670  0.30389963
   0.99854000  0.00048000  0.00000000
   0.99753988  0.99839499  0.36106109
   0.16550000  0.16500000  0.06050000
   0.00106000  0.66662000  0.00057000
   0.99356453  0.66230527  0.36064589
   0.99930000  0.99936000  0.12074000
   0.16685000  0.16538000  0.18105000
   0.99936000  0.33161000  0.12083000
   0.16544000  0.49812000  0.18093000
   0.00040000  0.66536000  0.12057000
   0.16627000  0.83203000  0.18103000
   0.33360000  0.99731000  0.24116000
   0.49890879  0.16830924  0.30366719
   0.33251000  0.33244000  0.24115000
   0.33243000  0.66411000  0.24135000
   0.49669546  0.83228310  0.30218936
   0.33406000  0.99850000  0.00062000
   0.33936090  0.00238148  0.36068845
   0.50112000  0.16466000  0.06049000
   0.33306000  0.33260000  0.00065000
   0.33318362  0.33124589  0.36046167
   0.33279000  0.66191000  0.00103000
   0.33266070  0.66567392  0.36029617
   0.50000000  0.83116000  0.06060000
   0.33336000  0.99854000  0.12089000
   0.33259000  0.33282000  0.12015000
   0.49958000  0.49779000  0.18076000
   0.33192000  0.66330000  0.12025000
   0.49972000  0.83017000  0.18081000
   0.83011108  0.16431949  0.30541947
   0.66532000  0.33232000  0.24137000
   0.83035854  0.49850459  0.30333813
   0.66623000  0.66534000  0.24124000
   0.83328731  0.83229869  0.30250299
   0.83178000  0.16609000  0.06006000
   0.83424000  0.49924000  0.06020000
   0.66675000  0.66697000  0.00034000
   0.66623938  0.66605237  0.35937916
   0.83291000  0.83387000  0.06067000
   0.83469000  0.16589000  0.18162000
   0.66681000  0.33159000  0.12072000
   0.83279000  0.49851000  0.18135000
   0.66709000  0.66502000  0.12081000
   0.83337000  0.83396000  0.18143000
   0.83106137  0.16162403  0.44522923
Direct configuration=    11
   0.00218000  0.99867000  0.24166000
   0.00302000  0.33361000  0.00057000
   0.00922360  0.33725875  0.36327297
   0.16217000  0.49431000  0.05981000
   0.16492000  0.83554000  0.06027000
   0.49454519  0.50278075  0.29971133
   0.50447000  0.49654000  0.06032000
   0.50514000  0.16237000  0.18167000
   0.66136000  0.00065000  0.24022000
   0.66603000  0.99799000  0.00047000
   0.65810807 -0.01345108  0.36366624
   0.65989000  0.33950000  0.00031000
   0.66117072  0.33676143  0.36523514
   0.66352000  0.99935000  0.12162000
   0.16942958  0.16453891  0.30354542
   0.99997000  0.33205000  0.24166000
   0.16657837  0.50127669  0.30334879
   0.00013000  0.66493000  0.24143000
   0.16606980  0.83205779  0.30383766
   0.99854000  0.00048000  0.00000000
   0.99946935  0.99731673  0.36104687
   0.16550000  0.16500000  0.06050000
   0.00106000  0.66662000  0.00057000
   0.99357179  0.66194920  0.36048035
   0.99930000  0.99936000  0.12074000
   0.16685000  0.16538000  0.18105000
   0.99936000  0.33161000  0.12083000
   0.16544000  0.49812000  0.18093000
   0.00040000  0.66536000  0.12057000
   0.16627000  0.83203000  0.18103000
   0.33360000  0.99731000  0.24116000
   0.49959796  0.16837640  0.30362993
   0.33251000  0.33244000  0.24115000
   0.33243000  0.66411000  0.24135000
   0.49630221  0.83156358  0.30219531
   0.33406000  0.99850000  0.00062000
   0.33869789  0.00248718  0.36065767
   0.50112000  0.16466000  0.06049000
   0.33306000  0.33260000  0.00065000
   0.33445719  0.33282714  0.36009337
   0.33279000  0.66191000  0.00103000
   0.33145575  0.66654600  0.36023033
   0.50000000  0.83116000  0.06060000
   0.33336000  0.99854000  0.12089000
   0.33259000  0.33282000  0.12015000
   0.49958000  0.49779000  0.18076000
   0.33192000  0.66330000  0.12025000
   0.49972000  0.83017000  0.18081000
   0.83040507  0.16333606  0.30519766
   0.66532000  0.33232000  0.24137000
   0.83080618  0.49780581  0.30309185
   0.66623000  0.66534000  0.24124000
   0.83300939  0.83204314  0.30274988
   0.83178000  0.16609000  0.06006000
   0.83424000  0.49924000  0.06020000
   0.66675000  0.66697000  0.00034000
   0.66477430  0.66473574  0.35903909
   0.83291000  0.83387000  0.06067000
   0.83469000  0.16589000  0.18162000
   0.66681000  0.33159000  0.12072000
   0.83279000  0.49851000  0.18135000
   0.66709000  0.66502000  0.12081000
   0.83337000  0.83396000  0.18143000
   0.83338063  0.16168956  0.44474457
Direct configuration=    12
   0.00218000  0.99867000  0.24166000
   0.00302000  0.33361000  0.00057000
   0.00921154  0.33751255  0.36318054
   0.16217000  0.49431000  0.05981000
   0.16492000  0.83554000  0.06027000
   0.49444819  0.50292237  0.29977005
   0.50447000  0.49654000  0.06032000
   0.50514000  0.16237000  0.18167000
   0.66136000  0.00065000  0.24022000
   0.66603000  0.99799000  0.00047000
   0.65806264 -0.01289863  0.36388407
   0.65989000  0.33950000  0.00031000
   0.66133547  0.33718915  0.36523812
   0.66352000  0.99935000  0.12162000
   0.16980279  0.16414258  0.30355121
   0.99997000  0.33205000  0.24166000
   0.16702147  0.50151131  0.30305195
   0.00013000  0.66493000  0.24143000
   0.16587180  0.83242925  0.30339818
   0.99854000  0.00048000  0.00000000
   0.00040147  0.99678625  0.36088480
   0.16550000  0.16500000  0.06050000
   0.00106000  0.66662000  0.00057000
   0.99327541  0.66170832  0.36047217
   0.99930000  0.99936000  0.12074000
   0.16685000  0.16538000  0.18105000
   0.99936000  0.33161000  0.12083000
   0.16544000  0.49812000  0.18093000
   0.00040000  0.66536000  0.12057000
   0.16627000  0.83203000  0.18103000
   0.33360000  0.99731000  0.24116000
   0.49965433  0.16767362  0.30378795
   0.33251000  0.33244000  0.24115000
   0.33243000  0.66411000  0.24135000
   0.49613811  0.83165713  0.30213496
   0.33406000  0.99850000  0.00062000
   0.33850422  0.00275201  0.36056339
   0.50112000  0.16466000  0.06049000
   0.33306000  0.33260000  0.00065000
   0.33580374  0.33341034  0.35998725
   0.33279000  0.66191000  0.00103000
   0.33092437  0.66717546  0.36048020
   0.50000000  0.83116000  0.06060000
   0.33336000  0.99854000  0.12089000
   0.33259000  0.33282000  0.12015000
   0.49958000  0.49779000  0.18076000
   0.33192000  0.66330000  0.12025000
   0.49972000  0.83017000  0.18081000
   0.83062539  0.16295911  0.30516492
   0.66532000  0.33232000  0.24137000
   0.83074086  0.49748046  0.30328658
   0.66623000  0.66534000  0.24124000
   0.83292491  0.83171774  0.30271078
   0.83178000  0.16609000  0.06006000
   0.83424000  0.49924000  0.06020000
   0.66675000  0.66697000  0.00034000
   0.66437428  0.66325980  0.35897433
   0.83291000  0.83387000  0.06067000
   0.83469000  0.16589000  0.18162000
   0.66681000  0.33159000  0.12072000
   0.83279000  0.49851000  0.18135000
   0.66709000  0.66502000  0.12081000
   0.83337000  0.83396000  0.18143000
   0.83538648  0.16130686  0.44454512
Direct configuration=    13
   0.00218000  0.99867000  0.24166000
   0.00302000  0.33361000  0.00057000
   0.00920527  0.33764454  0.36313247
   0.16217000  0.49431000  0.05981000
   0.16492000  0.83554000  0.06027000
   0.49439774  0.50299602  0.29980059
   0.50447000  0.49654000  0.06032000
   0.50514000  0.16237000  0.18167000
   0.66136000  0.00065000  0.24022000
   0.66603000  0.99799000  0.00047000
   0.65803902 -0.01261132  0.36399736
   0.65989000  0.33950000  0.00031000
   0.66142115  0.33741159  0.36523966
   0.66352000  0.99935000  0.12162000
   0.16999688  0.16393648  0.30355422
   0.99997000  0.33205000  0.24166000
   0.16725190  0.50163332  0.30289758
   0.00013000  0.66493000  0.24143000
   0.16576882  0.83262243  0.30316963
   0.99854000  0.00048000  0.00000000
   0.00088621  0.99651038  0.36080052
   0.16550000  0.16500000  0.06050000
   0.00106000  0.66662000  0.00057000
   0.99312128  0.66158306  0.36046791
   0.99930000  0.99936000  0.12074000
   0.16685000  0.16538000  0.18105000
   0.99936000  0.33161000  0.12083000
   0.16544000  0.49812000  0.18093000
   0.00040000  0.66536000  0.12057000
   0.16627000  0.83203000  0.18103000
   0.33360000  0.99731000  0.24116000
   0.49968365  0.16730813  0.30387013
   0.33251000  0.33244000  0.24115000
   0.33243000  0.66411000  0.24135000
   0.49605278  0.83170578  0.30210358
   0.33406000  0.99850000  0.00062000
   0.33840351  0.00288973  0.36051435
   0.50112000  0.16466000  0.06049000
   0.33306000  0.33260000  0.00065000
   0.33650401  0.33371364  0.35993205
   0.33279000  0.66191000  0.00103000
   0.33064803  0.66750280  0.36061014
   0.50000000  0.83116000  0.06060000
   0.33336000  0.99854000  0.12089000
   0.33259000  0.33282000  0.12015000
   0.49958000  0.49779000  0.18076000
   0.33192000  0.66330000  0.12025000
   0.49972000  0.83017000  0.18081000
   0.83073997  0.16276309  0.30514790
   0.66532000  0.33232000  0.24137000
   0.83070689  0.49731126  0.30338784
   0.66623000  0.66534000  0.24124000
   0.83288097  0.83154852  0.30269045
   0.83178000  0.16609000  0.06006000
   0.83424000  0.49924000  0.06020000
   0.66675000  0.66697000  0.00034000
   0.66416625  0.66249225  0.35894065
   0.83291000  0.83387000  0.06067000
   0.83469000  0.16589000  0.18162000
   0.66681000  0.33159000  0.12072000
   0.83279000  0.49851000  0.18135000
   0.66709000  0.66502000  0.12081000
   0.83337000  0.83396000  0.18143000
   0.83642962  0.16110785  0.44444139
Direct configuration=    14
   0.00218000  0.99867000  0.24166000
   0.00302000  0.33361000  0.00057000
   0.00920877  0.33757093  0.36315928
   0.16217000  0.49431000  0.05981000
   0.16492000  0.83554000  0.06027000
   0.49442587  0.50295495  0.29978356
   0.50447000  0.49654000  0.06032000
   0.50514000  0.16237000  0.18167000
   0.66136000  0.00065000  0.24022000
   0.66603000  0.99799000  0.00047000
   0.65805219 -0.01277155  0.36393418
   0.65989000  0.33950000  0.00031000
   0.66137337  0.33728754  0.36523880
   0.66352000  0.99935000  0.12162000
   0.16988864  0.16405142  0.30355254
   0.99997000  0.33205000  0.24166000
   0.16712339  0.50156528  0.30298367
   0.00013000  0.66493000  0.24143000
   0.16582625  0.83251470  0.30329709
   0.99854000  0.00048000  0.00000000
   0.00061588  0.99666423  0.36084752
   0.16550000  0.16500000  0.06050000
   0.00106000  0.66662000  0.00057000
   0.99320723  0.66165292  0.36047029
   0.99930000  0.99936000  0.12074000
   0.16685000  0.16538000  0.18105000
   0.99936000  0.33161000  0.12083000
   0.16544000  0.49812000  0.18093000
   0.00040000  0.66536000  0.12057000
   0.16627000  0.83203000  0.18103000
   0.33360000  0.99731000  0.24116000
   0.49966730  0.16751195  0.30382430
   0.33251000  0.33244000  0.24115000
   0.33243000  0.66411000  0.24135000
   0.49610037  0.83167865  0.30212108
   0.33406000  0.99850000  0.00062000
   0.33845967  0.00281292  0.36054170
   0.50112000  0.16466000  0.06049000
   0.33306000  0.33260000  0.00065000
   0.33611348  0.33354450  0.35996283
   0.33279000  0.66191000  0.00103000
   0.33080214  0.66732025  0.36053768
   0.50000000  0.83116000  0.06060000
   0.33336000  0.99854000  0.12089000
   0.33259000  0.33282000  0.12015000
   0.49958000  0.49779000  0.18076000
   0.33192000  0.66330000  0.12025000
   0.49972000  0.83017000  0.18081000
   0.83067607  0.16287241  0.30515739
   0.66532000  0.33232000  0.24137000
   0.83072583  0.49740562  0.30333137
   0.66623000  0.66534000  0.24124000
   0.83290547  0.83164289  0.30270179
   0.83178000  0.16609000  0.06006000
   0.83424000  0.49924000  0.06020000
   0.66675000  0.66697000  0.00034000
   0.66428226  0.66292030  0.35895943
   0.83291000  0.83387000  0.06067000
   0.83469000  0.16589000  0.18162000
   0.66681000  0.33159000  0.12072000
   0.83279000  0.49851000  0.18135000
   0.66709000  0.66502000  0.12081000
   0.83337000  0.83396000  0.18143000
   0.83584788  0.16121883  0.44449923
Direct configuration=    15
   0.00218000  0.99867000  0.24166000
   0.00302000  0.33361000  0.00057000
   0.00920974  0.33755048  0.36316673
   0.16217000  0.49431000  0.05981000
   0.16492000  0.83554000  0.06027000
   0.49443369  0.50294353  0.29977883
   0.50447000  0.49654000  0.06032000
   0.50514000  0.16237000  0.18167000
   0.66136000  0.00065000  0.24022000
   0.66603000  0.99799000  0.00047000
   0.65805585 -0.01281607  0.36391663
   0.65989000  0.33950000  0.00031000
   0.66136009  0.33725307  0.36523856
   0.66352000  0.99935000  0.12162000
   0.16985856  0.16408336  0.30355207
   0.99997000  0.33205000  0.24166000
   0.16708768  0.50154637  0.30300759
   0.00013000  0.66493000  0.24143000
   0.16584221  0.83248476  0.30333250
   0.99854000  0.00048000  0.00000000
   0.00054076  0.99670698  0.36086058
   0.16550000  0.16500000  0.06050000
   0.00106000  0.66662000  0.00057000
   0.99323112  0.66167233  0.36047095
   0.99930000  0.99936000  0.12074000
   0.16685000  0.16538000  0.18105000
   0.99936000  0.33161000  0.12083000
   0.16544000  0.49812000  0.18093000
   0.00040000  0.66536000  0.12057000
   0.16627000  0.83203000  0.18103000
   0.33360000  0.99731000  0.24116000
   0.49966276  0.16756859  0.30381157
   0.33251000  0.33244000  0.24115000
   0.33243000  0.66411000  0.24135000
   0.49611359  0.83167111  0.30212594
   0.33406000  0.99850000  0.00062000
   0.33847528  0.00279158  0.36054930
   0.50112000  0.16466000  0.06049000
   0.33306000  0.33260000  0.00065000
   0.33600496  0.33349750  0.35997139
   0.33279000  0.66191000  0.00103000
   0.33084496  0.66726952  0.36051754
   0.50000000  0.83116000  0.06060000
   0.33336000  0.99854000  0.12089000
   0.33259000  0.33282000  0.12015000
   0.49958000  0.49779000  0.18076000
   0.33192000  0.66330000  0.12025000
   0.49972000  0.83017000  0.18081000
   0.83065831  0.16290279  0.30516003
   0.66532000  0.33232000  0.24137000
   0.83073110  0.49743184  0.30331568
   0.66623000  0.66534000  0.24124000
   0.83291228  0.83166912  0.30270494
   0.83178000  0.16609000  0.06006000
   0.83424000  0.49924000  0.06020000
   0.66675000  0.66697000  0.00034000
   0.66431450  0.66303925  0.35896465
   0.83291000  0.83387000  0.06067000
   0.83469000  0.16589000  0.18162000
   0.66681000  0.33159000  0.12072000
   0.83279000  0.49851000  0.18135000
   0.66709000  0.66502000  0.12081000
   0.83337000  0.83396000  0.18143000
   0.83568623  0.16124968  0.44451531
Direct configuration=    16
   0.00218000  0.99867000  0.24166000
   0.00302000  0.33361000  0.00057000
   0.00951459  0.33765657  0.36289941
   0.16217000  0.49431000  0.05981000
   0.16492000  0.83554000  0.06027000
   0.49422789  0.50330369  0.29974722
   0.50447000  0.49654000  0.06032000
   0.50514000  0.16237000  0.18167000
   0.66136000  0.00065000  0.24022000
   0.66603000  0.99799000  0.00047000
   0.65839022 -0.01255864  0.36392923
   0.65989000  0.33950000  0.00031000
   0.66180097  0.33669871  0.36527866
   0.66352000  0.99935000  0.12162000
   0.17006775  0.16425881  0.30356155
   0.99997000  0.33205000  0.24166000
   0.16701421  0.50144739  0.30303843
   0.00013000  0.66493000  0.24143000
   0.16570027  0.83241157  0.30327277
   0.99854000  0.00048000  0.00000000
   0.00043543  0.99662218  0.36072417
   0.16550000  0.16500000  0.06050000
   0.00106000  0.66662000  0.00057000
   0.99326899  0.66179238  0.36044351
   0.99930000  0.99936000  0.12074000
   0.16685000  0.16538000  0.18105000
   0.99936000  0.33161000  0.12083000
   0.16544000  0.49812000  0.18093000
   0.00040000  0.66536000  0.12057000
   0.16627000  0.83203000  0.18103000
   0.33360000  0.99731000  0.24116000
   0.49970136  0.16761747  0.30380117
   0.33251000  0.33244000  0.24115000
   0.33243000  0.66411000  0.24135000
   0.49641378  0.83183879  0.30224508
   0.33406000  0.99850000  0.00062000
   0.33835965  0.00250731  0.36058460
   0.50112000  0.16466000  0.06049000
   0.33306000  0.33260000  0.00065000
   0.33656616  0.33338145  0.36000731
   0.33279000  0.66191000  0.00103000
   0.33055334  0.66783828  0.36057017
   0.50000000  0.83116000  0.06060000
   0.33336000  0.99854000  0.12089000
   0.33259000  0.33282000  0.12015000
   0.49958000  0.49779000  0.18076000
   0.33192000  0.66330000  0.12025000
   0.49972000  0.83017000  0.18081000
   0.83070380  0.16310265  0.30525922
   0.66532000  0.33232000  0.24137000
   0.83062818  0.49755089  0.30334532
   0.66623000  0.66534000  0.24124000
   0.83265185  0.83155371  0.30268456
   0.83178000  0.16609000  0.06006000
   0.83424000  0.49924000  0.06020000
   0.66675000  0.66697000  0.00034000
   0.66446859  0.66257748  0.35907394
   0.83291000  0.83387000  0.06067000
   0.83469000  0.16589000  0.18162000
   0.66681000  0.33159000  0.12072000
   0.83279000  0.49851000  0.18135000
   0.66709000  0.66502000  0.12081000
   0.83337000  0.83396000  0.18143000
   0.83665446  0.16088174  0.44453976
Direct configuration=    17
   0.00218000  0.99867000  0.24166000
   0.00302000  0.33361000  0.00057000
   0.01005221  0.33784366  0.36242798
   0.16217000  0.49431000  0.05981000
   0.16492000  0.83554000  0.06027000
   0.49386494  0.50393883  0.29969148
   0.50447000  0.49654000  0.06032000
   0.50514000  0.16237000  0.18167000
   0.66136000  0.00065000  0.24022000
   0.66603000  0.99799000  0.00047000
   0.65897988 -0.01210465  0.36395145
   0.65989000  0.33950000  0.00031000
   0.66257846  0.33572108  0.36534937
   0.66352000  0.99935000  0.12162000
   0.17043666  0.16456823  0.30357826
   0.99997000  0.33205000  0.24166000
   0.16688465  0.50127284  0.30309281
   0.00013000  0.66493000  0.24143000
   0.16544997  0.83228250  0.30316743
   0.99854000  0.00048000  0.00000000
   0.00024969  0.99647264  0.36048359
   0.16550000  0.16500000  0.06050000
   0.00106000  0.66662000  0.00057000
   0.99333579  0.66200410  0.36039512
   0.99930000  0.99936000  0.12074000
   0.16685000  0.16538000  0.18105000
   0.99936000  0.33161000  0.12083000
   0.16544000  0.49812000  0.18093000
   0.00040000  0.66536000  0.12057000
   0.16627000  0.83203000  0.18103000
   0.33360000  0.99731000  0.24116000
   0.49976944  0.16770365  0.30378285
   0.33251000  0.33244000  0.24115000
   0.33243000  0.66411000  0.24135000
   0.49694317  0.83213449  0.30245519
   0.33406000  0.99850000  0.00062000
   0.33815574  0.00200600  0.36064686
   0.50112000  0.16466000  0.06049000
   0.33306000  0.33260000  0.00065000
   0.33755585  0.33317679  0.36007067
   0.33279000  0.66191000  0.00103000
   0.33003904  0.66884130  0.36066299
   0.50000000  0.83116000  0.06060000
   0.33336000  0.99854000  0.12089000
   0.33259000  0.33282000  0.12015000
   0.49958000  0.49779000  0.18076000
   0.33192000  0.66330000  0.12025000
   0.49972000  0.83017000  0.18081000
   0.83078401  0.16345512  0.30543415
   0.66532000  0.33232000  0.24137000
   0.83044669  0.49776084  0.30339759
   0.66623000  0.66534000  0.24124000
   0.83219258  0.83135018  0.30264862
   0.83178000  0.16609000  0.06006000
   0.83424000  0.49924000  0.06020000
   0.66675000  0.66697000  0.00034000
   0.66474034  0.66176315  0.35926666
   0.83291000  0.83387000  0.06067000
   0.83469000  0.16589000  0.18162000
   0.66681000  0.33159000  0.12072000
   0.83279000  0.49851000  0.18135000
   0.66709000  0.66502000  0.12081000
   0.83337000  0.83396000  0.18143000
   0.83836196  0.16023289  0.44458287
Direct configuration=    18
   0.00218000  0.99867000  0.24166000
   0.00302000  0.33361000  0.00057000
   0.00986613  0.33777891  0.36259115
   0.16217000  0.49431000  0.05981000
   0.16492000  0.83554000  0.06027000
   0.49399056  0.50371900  0.29971078
   0.50447000  0.49654000  0.06032000
   0.50514000  0.16237000  0.18167000
   0.66136000  0.00065000  0.24022000
   0.66603000  0.99799000  0.00047000
   0.65877579 -0.01226178  0.36394376
   0.65989000  0.33950000  0.00031000
   0.66230936  0.33605945  0.36532490
   0.66352000  0.99935000  0.12162000
   0.17030897  0.16446114  0.30357248
   0.99997000  0.33205000  0.24166000
   0.16692950  0.50133325  0.30307399
   0.00013000  0.66493000  0.24143000
   0.16553660  0.83232718  0.30320389
   0.99854000  0.00048000  0.00000000
   0.00031398  0.99652440  0.36056686
   0.16550000  0.16500000  0.06050000
   0.00106000  0.66662000  0.00057000
   0.99331267  0.66193082  0.36041186
   0.99930000  0.99936000  0.12074000
   0.16685000  0.16538000  0.18105000
   0.99936000  0.33161000  0.12083000
   0.16544000  0.49812000  0.18093000
   0.00040000  0.66536000  0.12057000
   0.16627000  0.83203000  0.18103000
   0.33360000  0.99731000  0.24116000
   0.49974587  0.16767382  0.30378919
   0.33251000  0.33244000  0.24115000
   0.33243000  0.66411000  0.24135000
   0.49675994  0.83203214  0.30238247
   0.33406000  0.99850000  0.00062000
   0.33822632  0.00217951  0.36062531
   0.50112000  0.16466000  0.06049000
   0.33306000  0.33260000  0.00065000
   0.33721330  0.33324763  0.36004874
   0.33279000  0.66191000  0.00103000
   0.33021704  0.66849414  0.36063087
   0.50000000  0.83116000  0.06060000
   0.33336000  0.99854000  0.12089000
   0.33259000  0.33282000  0.12015000
   0.49958000  0.49779000  0.18076000
   0.33192000  0.66330000  0.12025000
   0.49972000  0.83017000  0.18081000
   0.83075625  0.16333313  0.30537361
   0.66532000  0.33232000  0.24137000
   0.83050950  0.49768818  0.30337950
   0.66623000  0.66534000  0.24124000
   0.83235154  0.83142063  0.30266106
   0.83178000  0.16609000  0.06006000
   0.83424000  0.49924000  0.06020000
   0.66675000  0.66697000  0.00034000
   0.66464628  0.66204500  0.35919996
   0.83291000  0.83387000  0.06067000
   0.83469000  0.16589000  0.18162000
   0.66681000  0.33159000  0.12072000
   0.83279000  0.49851000  0.18135000
   0.66709000  0.66502000  0.12081000
   0.83337000  0.83396000  0.18143000
   0.83777097  0.16045747  0.44456794
Direct configuration=    19
   0.00218000  0.99867000  0.24166000
   0.00302000  0.33361000  0.00057000
   0.00972664  0.33773036  0.36271347
   0.16217000  0.49431000  0.05981000
   0.16492000  0.83554000  0.06027000
   0.49408474  0.50355420  0.29972524
   0.50447000  0.49654000  0.06032000
   0.50514000  0.16237000  0.18167000
   0.66136000  0.00065000  0.24022000
   0.66603000  0.99799000  0.00047000
   0.65862279 -0.01237958  0.36393799
   0.65989000  0.33950000  0.00031000
   0.66210762  0.33631312  0.36530655
   0.66352000  0.99935000  0.12162000
   0.17021325  0.16438085  0.30356814
   0.99997000  0.33205000  0.24166000
   0.16696311  0.50137854  0.30305988
   0.00013000  0.66493000  0.24143000
   0.16560155  0.83236067  0.30323122
   0.99854000  0.00048000  0.00000000
   0.00036217  0.99656320  0.36062928
   0.16550000  0.16500000  0.06050000
   0.00106000  0.66662000  0.00057000
   0.99329534  0.66187589  0.36042442
   0.99930000  0.99936000  0.12074000
   0.16685000  0.16538000  0.18105000
   0.99936000  0.33161000  0.12083000
   0.16544000  0.49812000  0.18093000
   0.00040000  0.66536000  0.12057000
   0.16627000  0.83203000  0.18103000
   0.33360000  0.99731000  0.24116000
   0.49972821  0.16765146  0.30379395
   0.33251000  0.33244000  0.24115000
   0.33243000  0.66411000  0.24135000
   0.49662258  0.83195542  0.30232795
   0.33406000  0.99850000  0.00062000
   0.33827923  0.00230958  0.36060916
   0.50112000  0.16466000  0.06049000
   0.33306000  0.33260000  0.00065000
   0.33695651  0.33330073  0.36003230
   0.33279000  0.66191000  0.00103000
   0.33035049  0.66823388  0.36060678
   0.50000000  0.83116000  0.06060000
   0.33336000  0.99854000  0.12089000
   0.33259000  0.33282000  0.12015000
   0.49958000  0.49779000  0.18076000
   0.33192000  0.66330000  0.12025000
   0.49972000  0.83017000  0.18081000
   0.83073544  0.16324167  0.30532822
   0.66532000  0.33232000  0.24137000
   0.83055660  0.49763370  0.30336594
   0.66623000  0.66534000  0.24124000
   0.83247071  0.83147344  0.30267039
   0.83178000  0.16609000  0.06006000
   0.83424000  0.49924000  0.06020000
   0.66675000  0.66697000  0.00034000
   0.66457577  0.66225630  0.35914995
   0.83291000  0.83387000  0.06067000
   0.83469000  0.16589000  0.18162000
   0.66681000  0.33159000  0.12072000
   0.83279000  0.49851000  0.18135000
   0.66709000  0.66502000  0.12081000
   0.83337000  0.83396000  0.18143000
   0.83732792  0.16062582  0.44455676
Direct configuration=    20
   0.00218000  0.99867000  0.24166000
   0.00302000  0.33361000  0.00057000
   0.00966606  0.33753465  0.36266925
   0.16217000  0.49431000  0.05981000
   0.16492000  0.83554000  0.06027000
   0.49418831  0.50350592  0.29982982
   0.50447000  0.49654000  0.06032000
   0.50514000  0.16237000  0.18167000
   0.66136000  0.00065000  0.24022000
   0.66603000  0.99799000  0.00047000
   0.65891610 -0.01241068  0.36390468
   0.65989000  0.33950000  0.00031000
   0.66241607  0.33599839  0.36540263
   0.66352000  0.99935000  0.12162000
   0.17039115  0.16423587  0.30357075
   0.99997000  0.33205000  0.24166000
   0.16739098  0.50166392  0.30310982
   0.00013000  0.66493000  0.24143000
   0.16582987  0.83230227  0.30326899
   0.99854000  0.00048000  0.00000000
   0.00023095  0.99661674  0.36056692
   0.16550000  0.16500000  0.06050000
   0.00106000  0.66662000  0.00057000
   0.99337808  0.66207664  0.36043500
   0.99930000  0.99936000  0.12074000
   0.16685000  0.16538000  0.18105000
   0.99936000  0.33161000  0.12083000
   0.16544000  0.49812000  0.18093000
   0.00040000  0.66536000  0.12057000
   0.16627000  0.83203000  0.18103000
   0.33360000  0.99731000  0.24116000
   0.49971944  0.16767880  0.30379505
   0.33251000  0.33244000  0.24115000
   0.33243000  0.66411000  0.24135000
   0.49652885  0.83183618  0.30236533
   0.33406000  0.99850000  0.00062000
   0.33828615  0.00208673  0.36063052
   0.50112000  0.16466000  0.06049000
   0.33306000  0.33260000  0.00065000
   0.33714852  0.33324182  0.36003127
   0.33279000  0.66191000  0.00103000
   0.33003548  0.66872064  0.36055520
   0.50000000  0.83116000  0.06060000
   0.33336000  0.99854000  0.12089000
   0.33259000  0.33282000  0.12015000
   0.49958000  0.49779000  0.18076000
   0.33192000  0.66330000  0.12025000
   0.49972000  0.83017000  0.18081000
   0.83072299  0.16333659  0.30528001
   0.66532000  0.33232000  0.24137000
   0.83046098  0.49766784  0.30326428
   0.66623000  0.66534000  0.24124000
   0.83242009  0.83150619  0.30268708
   0.83178000  0.16609000  0.06006000
   0.83424000  0.49924000  0.06020000
   0.66675000  0.66697000  0.00034000
   0.66463191  0.66226472  0.35926270
   0.83291000  0.83387000  0.06067000
   0.83469000  0.16589000  0.18162000
   0.66681000  0.33159000  0.12072000
   0.83279000  0.49851000  0.18135000
   0.66709000  0.66502000  0.12081000
   0.83337000  0.83396000  0.18143000
   0.83830080  0.16040610  0.44460565
Direct configuration=    21
   0.00218000  0.99867000  0.24166000
   0.00302000  0.33361000  0.00057000
   0.00963769  0.33744300  0.36264855
   0.16217000  0.49431000  0.05981000
   0.16492000  0.83554000  0.06027000
   0.49423681  0.50348331  0.29987879
   0.50447000  0.49654000  0.06032000
   0.50514000  0.16237000  0.18167000
   0.66136000  0.00065000  0.24022000
   0.66603000  0.99799000  0.00047000
   0.65905345 -0.01242524  0.36388908
   0.65989000  0.33950000  0.00031000
   0.66256051  0.33585100  0.36544762
   0.66352000  0.99935000  0.12162000
   0.17047445  0.16416797  0.30357197
   0.99997000  0.33205000  0.24166000
   0.16759134  0.50179755  0.30313321
   0.00013000  0.66493000  0.24143000
   0.16593679  0.83227493  0.30328668
   0.99854000  0.00048000  0.00000000
   0.00016951  0.99664181  0.36053771
   0.16550000  0.16500000  0.06050000
   0.00106000  0.66662000  0.00057000
   0.99341683  0.66217065  0.36043996
   0.99930000  0.99936000  0.12074000
   0.16685000  0.16538000  0.18105000
   0.99936000  0.33161000  0.12083000
   0.16544000  0.49812000  0.18093000
   0.00040000  0.66536000  0.12057000
   0.16627000  0.83203000  0.18103000
   0.33360000  0.99731000  0.24116000
   0.49971533  0.16769160  0.30379556
   0.33251000  0.33244000  0.24115000
   0.33243000  0.66411000  0.24135000
   0.49648495  0.83178035  0.30238283
   0.33406000  0.99850000  0.00062000
   0.33828939  0.00198237  0.36064052
   0.50112000  0.16466000  0.06049000
   0.33306000  0.33260000  0.00065000
   0.33723843  0.33321423  0.36003079
   0.33279000  0.66191000  0.00103000
   0.32988798  0.66894858  0.36053105
   0.50000000  0.83116000  0.06060000
   0.33336000  0.99854000  0.12089000
   0.33259000  0.33282000  0.12015000
   0.49958000  0.49779000  0.18076000
   0.33192000  0.66330000  0.12025000
   0.49972000  0.83017000  0.18081000
   0.83071716  0.16338103  0.30525744
   0.66532000  0.33232000  0.24137000
   0.83041620  0.49768383  0.30321668
   0.66623000  0.66534000  0.24124000
   0.83239639  0.83152153  0.30269489
   0.83178000  0.16609000  0.06006000
   0.83424000  0.49924000  0.06020000
   0.66675000  0.66697000  0.00034000
   0.66465820  0.66226866  0.35931550
   0.83291000  0.83387000  0.06067000
   0.83469000  0.16589000  0.18162000
   0.66681000  0.33159000  0.12072000
   0.83279000  0.49851000  0.18135000
   0.66709000  0.66502000  0.12081000
   0.83337000  0.83396000  0.18143000
   0.83875638  0.16030320  0.44462854
Direct configuration=    22
   0.00218000  0.99867000  0.24166000
   0.00302000  0.33361000  0.00057000
   0.00968955  0.33740187  0.36258083
   0.16217000  0.49431000  0.05981000
   0.16492000  0.83554000  0.06027000
   0.49439790  0.50343315  0.29996649
   0.50447000  0.49654000  0.06032000
   0.50514000  0.16237000  0.18167000
   0.66136000  0.00065000  0.24022000
   0.66603000  0.99799000  0.00047000
   0.65927514 -0.01244131  0.36387706
   0.65989000  0.33950000  0.00031000
   0.66280808  0.33562838  0.36554165
   0.66352000  0.99935000  0.12162000
   0.17056053  0.16410614  0.30356953
   0.99997000  0.33205000  0.24166000
   0.16764506  0.50179881  0.30316563
   0.00013000  0.66493000  0.24143000
   0.16587868  0.83238861  0.30326287
   0.99854000  0.00048000  0.00000000
   0.00015048  0.99663775  0.36048385
   0.16550000  0.16500000  0.06050000
   0.00106000  0.66662000  0.00057000
   0.99345321  0.66227065  0.36043329
   0.99930000  0.99936000  0.12074000
   0.16685000  0.16538000  0.18105000
   0.99936000  0.33161000  0.12083000
   0.16544000  0.49812000  0.18093000
   0.00040000  0.66536000  0.12057000
   0.16627000  0.83203000  0.18103000
   0.33360000  0.99731000  0.24116000
   0.49975498  0.16763044  0.30381683
   0.33251000  0.33244000  0.24115000
   0.33243000  0.66411000  0.24135000
   0.49655483  0.83175029  0.30239053
   0.33406000  0.99850000  0.00062000
   0.33837911  0.00183755  0.36067617
   0.50112000  0.16466000  0.06049000
   0.33306000  0.33260000  0.00065000
   0.33737545  0.33319103  0.36003851
   0.33279000  0.66191000  0.00103000
   0.32972890  0.66930289  0.36058069
   0.50000000  0.83116000  0.06060000
   0.33336000  0.99854000  0.12089000
   0.33259000  0.33282000  0.12015000
   0.49958000  0.49779000  0.18076000
   0.33192000  0.66330000  0.12025000
   0.49972000  0.83017000  0.18081000
   0.83068701  0.16345711  0.30518585
   0.66532000  0.33232000  0.24137000
   0.83042752  0.49773728  0.30320805
   0.66623000  0.66534000  0.24124000
   0.83240878  0.83149024  0.30268679
   0.83178000  0.16609000  0.06006000
   0.83424000  0.49924000  0.06020000
   0.66675000  0.66697000  0.00034000
   0.66472131  0.66227364  0.35937218
   0.83291000  0.83387000  0.06067000
   0.83469000  0.16589000  0.18162000
   0.66681000  0.33159000  0.12072000
   0.83279000  0.49851000  0.18135000
   0.66709000  0.66502000  0.12081000
   0.83337000  0.83396000  0.18143000
   0.83950415  0.16007085  0.44468876
Direct configuration=    23
   0.00218000  0.99867000  0.24166000
   0.00302000  0.33361000  0.00057000
   0.00977592  0.33733337  0.36246802
   0.16217000  0.49431000  0.05981000
   0.16492000  0.83554000  0.06027000
   0.49466622  0.50334961  0.30011257
   0.50447000  0.49654000  0.06032000
   0.50514000  0.16237000  0.18167000
   0.66136000  0.00065000  0.24022000
   0.66603000  0.99799000  0.00047000
   0.65964441 -0.01246808  0.36385704
   0.65989000  0.33950000  0.00031000
   0.66322044  0.33525757  0.36569827
   0.66352000  0.99935000  0.12162000
   0.17070391  0.16400315  0.30356545
   0.99997000  0.33205000  0.24166000
   0.16773453  0.50180090  0.30321963
   0.00013000  0.66493000  0.24143000
   0.16578190  0.83257795  0.30322323
   0.99854000  0.00048000  0.00000000
   0.00011878  0.99663097  0.36039414
   0.16550000  0.16500000  0.06050000
   0.00106000  0.66662000  0.00057000
   0.99351382  0.66243723  0.36042219
   0.99930000  0.99936000  0.12074000
   0.16685000  0.16538000  0.18105000
   0.99936000  0.33161000  0.12083000
   0.16544000  0.49812000  0.18093000
   0.00040000  0.66536000  0.12057000
   0.16627000  0.83203000  0.18103000
   0.33360000  0.99731000  0.24116000
   0.49982102  0.16752857  0.30385225
   0.33251000  0.33244000  0.24115000
   0.33243000  0.66411000  0.24135000
   0.49667121  0.83170023  0.30240336
   0.33406000  0.99850000  0.00062000
   0.33852855  0.00159632  0.36073554
   0.50112000  0.16466000  0.06049000
   0.33306000  0.33260000  0.00065000
   0.33760367  0.33315238  0.36005138
   0.33279000  0.66191000  0.00103000
   0.32946393  0.66989305  0.36066338
   0.50000000  0.83116000  0.06060000
   0.33336000  0.99854000  0.12089000
   0.33259000  0.33282000  0.12015000
   0.49958000  0.49779000  0.18076000
   0.33192000  0.66330000  0.12025000
   0.49972000  0.83017000  0.18081000
   0.83063679  0.16358383  0.30506661
   0.66532000  0.33232000  0.24137000
   0.83044636  0.49782631  0.30319367
   0.66623000  0.66534000  0.24124000
   0.83242943  0.83143812  0.30267328
   0.83178000  0.16609000  0.06006000
   0.83424000  0.49924000  0.06020000
   0.66675000  0.66697000  0.00034000
   0.66482644  0.66228192  0.35946658
   0.83291000  0.83387000  0.06067000
   0.83469000  0.16589000  0.18162000
   0.66681000  0.33159000  0.12072000
   0.83279000  0.49851000  0.18135000
   0.66709000  0.66502000  0.12081000
   0.83337000  0.83396000  0.18143000
   0.84074968  0.15968382  0.44478906
Direct configuration=    24
   0.00218000  0.99867000  0.24166000
   0.00302000  0.33361000  0.00057000
   0.00991453  0.33743352  0.36241035
   0.16217000  0.49431000  0.05981000
   0.16492000  0.83554000  0.06027000
   0.49464863  0.50341340  0.30010786
   0.50447000  0.49654000  0.06032000
   0.50514000  0.16237000  0.18167000
   0.66136000  0.00065000  0.24022000
   0.66603000  0.99799000  0.00047000
   0.65975400 -0.01241084  0.36391171
   0.65989000  0.33950000  0.00031000
   0.66335149  0.33519896  0.36576584
   0.66352000  0.99935000  0.12162000
   0.17070430  0.16413353  0.30357119
   0.99997000  0.33205000  0.24166000
   0.16752970  0.50165203  0.30319549
   0.00013000  0.66493000  0.24143000
   0.16561428  0.83260640  0.30314036
   0.99854000  0.00048000  0.00000000
   0.00023925  0.99660429  0.36038125
   0.16550000  0.16500000  0.06050000
   0.00106000  0.66662000  0.00057000
   0.99350545  0.66235117  0.36041649
   0.99930000  0.99936000  0.12074000
   0.16685000  0.16538000  0.18105000
   0.99936000  0.33161000  0.12083000
   0.16544000  0.49812000  0.18093000
   0.00040000  0.66536000  0.12057000
   0.16627000  0.83203000  0.18103000
   0.33360000  0.99731000  0.24116000
   0.49991285  0.16744066  0.30389633
   0.33251000  0.33244000  0.24115000
   0.33243000  0.66411000  0.24135000
   0.49681363  0.83177265  0.30239770
   0.33406000  0.99850000  0.00062000
   0.33868877  0.00160552  0.36075577
   0.50112000  0.16466000  0.06049000
   0.33306000  0.33260000  0.00065000
   0.33764544  0.33318504  0.36005435
   0.33279000  0.66191000  0.00103000
   0.32948716  0.66995098  0.36074176
   0.50000000  0.83116000  0.06060000
   0.33336000  0.99854000  0.12089000
   0.33259000  0.33282000  0.12015000
   0.49958000  0.49779000  0.18076000
   0.33192000  0.66330000  0.12025000
   0.49972000  0.83017000  0.18081000
   0.83062956  0.16358842  0.30502967
   0.66532000  0.33232000  0.24137000
   0.83051678  0.49782004  0.30333150
   0.66623000  0.66534000  0.24124000
   0.83245511  0.83136183  0.30262072
   0.83178000  0.16609000  0.06006000
   0.83424000  0.49924000  0.06020000
   0.66675000  0.66697000  0.00034000
   0.66486639  0.66223195  0.35941166
   0.83291000  0.83387000  0.06067000
   0.83469000  0.16589000  0.18162000
   0.66681000  0.33159000  0.12072000
   0.83279000  0.49851000  0.18135000
   0.66709000  0.66502000  0.12081000
   0.83337000  0.83396000  0.18143000
   0.84087431  0.15953972  0.44480399
