  63  63   0   0
  0.2711232E+02  0.8526200E-09  0.8504600E-09  0.2355580E-08  0.5000000E-15
  1.000000000000000E-004
  CAR 
 ni3al                                   
      5.56014671    -45.52196248  301      0.96568523      1.00000000
    -45.522  0.0000E+00  0.0000E+00  0.0000E+00  0.0000E+00
    -45.352  0.0000E+00  0.0000E+00  0.0000E+00  0.0000E+00
    -45.181  0.0000E+00  0.0000E+00  0.0000E+00  0.0000E+00
    -45.011  0.0000E+00  0.0000E+00  0.0000E+00  0.0000E+00
    -44.841  0.0000E+00  0.0000E+00  0.0000E+00  0.0000E+00
    -44.671  0.0000E+00  0.0000E+00  0.0000E+00  0.0000E+00
    -44.500  0.0000E+00 -0.1759E-33  0.0000E+00 -0.2995E-34
    -44.330  0.0000E+00 -0.1578E-25  0.0000E+00 -0.2686E-26
    -44.160 -0.2456E-32 -0.1065E-18 -0.4181E-33 -0.1813E-19
    -43.989 -0.1518E-24 -0.5196E-13 -0.2585E-25 -0.8848E-14
    -43.819 -0.7015E-18 -0.1910E-08 -0.1194E-18 -0.3253E-09
    -43.649 -0.2324E-12 -0.4987E-05 -0.3957E-13 -0.8495E-06
    -43.479 -0.5800E-08 -0.8146E-03 -0.9876E-09 -0.1395E-03
    -43.308 -0.1045E-04 -0.5270E-03 -0.1780E-05 -0.2293E-03
    -43.138 -0.1258E-02  0.7659E-01 -0.2160E-03  0.1281E-01
    -42.968 -0.6431E-03  0.8592E-01 -0.3255E-03  0.2744E-01
    -42.798  0.1174E+00  0.6050E-01  0.1967E-01  0.3774E-01
    -42.627  0.1571E+00  0.1320E+00  0.4643E-01  0.6021E-01
    -42.457  0.2351E-01  0.6116E-01  0.5043E-01  0.7062E-01
    -42.287 -0.3925E-02  0.2802E-01  0.4976E-01  0.7540E-01
    -42.116  0.5082E-01  0.4437E-01  0.5841E-01  0.8295E-01
    -41.946  0.1077E+00  0.2283E-01  0.7675E-01  0.8684E-01
    -41.776  0.1233E+00  0.1381E-01  0.9775E-01  0.8919E-01
    -41.606  0.1385E+00  0.5348E-02  0.1213E+00  0.9010E-01
    -41.435  0.5318E-01 -0.5754E-03  0.1304E+00  0.9000E-01
    -41.265 -0.1769E-02 -0.1594E-04  0.1301E+00  0.9000E-01
    -41.095 -0.5118E-03 -0.1975E-07  0.1300E+00  0.9000E-01
    -40.925 -0.4061E-05 -0.2198E-11  0.1300E+00  0.9000E-01
    -40.754 -0.9706E-06 -0.1174E-07  0.1300E+00  0.9000E-01
    -40.584 -0.2371E-03 -0.1600E-04  0.1300E+00  0.9000E-01
    -40.414 -0.1128E-02 -0.1254E-02  0.1298E+00  0.8978E-01
    -40.243  0.3088E-01  0.5401E-02  0.1350E+00  0.9070E-01
    -40.073  0.3033E-01  0.7054E-01  0.1402E+00  0.1027E+00
    -39.903 -0.8678E-03  0.8317E-01  0.1400E+00  0.1169E+00
    -39.733 -0.2543E-03  0.9606E-01  0.1400E+00  0.1332E+00
    -39.562 -0.1373E-05  0.3730E-01  0.1400E+00  0.1396E+00
    -39.392 -0.4897E-09  0.3190E-02  0.1400E+00  0.1401E+00
    -39.222 -0.1242E-13 -0.7362E-03  0.1400E+00  0.1400E+00
    -39.052  0.0000E+00 -0.1069E-04  0.1400E+00  0.1400E+00
    -38.881  0.0000E+00 -0.8744E-08  0.1400E+00  0.1400E+00
    -38.711  0.0000E+00 -0.4975E-12  0.1400E+00  0.1400E+00
    -38.541  0.0000E+00  0.0000E+00  0.1400E+00  0.1400E+00
    -38.370  0.0000E+00  0.0000E+00  0.1400E+00  0.1400E+00
    -38.200  0.0000E+00  0.0000E+00  0.1400E+00  0.1400E+00
    -38.030  0.0000E+00  0.0000E+00  0.1400E+00  0.1400E+00
    -37.860  0.0000E+00  0.0000E+00  0.1400E+00  0.1400E+00
    -37.689  0.0000E+00  0.0000E+00  0.1400E+00  0.1400E+00
    -37.519  0.0000E+00  0.0000E+00  0.1400E+00  0.1400E+00
    -37.349  0.0000E+00  0.0000E+00  0.1400E+00  0.1400E+00
    -37.179  0.0000E+00  0.0000E+00  0.1400E+00  0.1400E+00
    -37.008  0.0000E+00  0.0000E+00  0.1400E+00  0.1400E+00
    -36.838  0.0000E+00  0.0000E+00  0.1400E+00  0.1400E+00
    -36.668  0.0000E+00  0.0000E+00  0.1400E+00  0.1400E+00
    -36.497  0.0000E+00  0.0000E+00  0.1400E+00  0.1400E+00
    -36.327  0.0000E+00  0.0000E+00  0.1400E+00  0.1400E+00
    -36.157  0.0000E+00  0.0000E+00  0.1400E+00  0.1400E+00
    -35.987  0.0000E+00  0.0000E+00  0.1400E+00  0.1400E+00
    -35.816  0.0000E+00  0.0000E+00  0.1400E+00  0.1400E+00
    -35.646  0.0000E+00  0.0000E+00  0.1400E+00  0.1400E+00
    -35.476  0.0000E+00  0.0000E+00  0.1400E+00  0.1400E+00
    -35.306  0.0000E+00  0.0000E+00  0.1400E+00  0.1400E+00
    -35.135  0.0000E+00  0.0000E+00  0.1400E+00  0.1400E+00
    -34.965  0.0000E+00  0.0000E+00  0.1400E+00  0.1400E+00
    -34.795  0.0000E+00  0.0000E+00  0.1400E+00  0.1400E+00
    -34.624  0.0000E+00  0.0000E+00  0.1400E+00  0.1400E+00
    -34.454  0.0000E+00  0.0000E+00  0.1400E+00  0.1400E+00
    -34.284  0.0000E+00  0.0000E+00  0.1400E+00  0.1400E+00
    -34.114  0.0000E+00  0.0000E+00  0.1400E+00  0.1400E+00
    -33.943  0.0000E+00  0.0000E+00  0.1400E+00  0.1400E+00
    -33.773  0.0000E+00  0.0000E+00  0.1400E+00  0.1400E+00
    -33.603  0.0000E+00  0.0000E+00  0.1400E+00  0.1400E+00
    -33.433  0.0000E+00  0.0000E+00  0.1400E+00  0.1400E+00
    -33.262  0.0000E+00  0.0000E+00  0.1400E+00  0.1400E+00
    -33.092  0.0000E+00  0.0000E+00  0.1400E+00  0.1400E+00
    -32.922  0.0000E+00  0.0000E+00  0.1400E+00  0.1400E+00
    -32.751  0.0000E+00  0.0000E+00  0.1400E+00  0.1400E+00
    -32.581  0.0000E+00  0.0000E+00  0.1400E+00  0.1400E+00
    -32.411  0.0000E+00  0.0000E+00  0.1400E+00  0.1400E+00
    -32.241  0.0000E+00  0.0000E+00  0.1400E+00  0.1400E+00
    -32.070  0.0000E+00  0.0000E+00  0.1400E+00  0.1400E+00
    -31.900  0.0000E+00  0.0000E+00  0.1400E+00  0.1400E+00
    -31.730  0.0000E+00  0.0000E+00  0.1400E+00  0.1400E+00
    -31.560  0.0000E+00  0.0000E+00  0.1400E+00  0.1400E+00
    -31.389  0.0000E+00  0.0000E+00  0.1400E+00  0.1400E+00
    -31.219  0.0000E+00  0.0000E+00  0.1400E+00  0.1400E+00
    -31.049  0.0000E+00  0.0000E+00  0.1400E+00  0.1400E+00
    -30.878  0.0000E+00  0.0000E+00  0.1400E+00  0.1400E+00
    -30.708  0.0000E+00  0.0000E+00  0.1400E+00  0.1400E+00
    -30.538  0.0000E+00  0.0000E+00  0.1400E+00  0.1400E+00
    -30.368  0.0000E+00  0.0000E+00  0.1400E+00  0.1400E+00
    -30.197  0.0000E+00  0.0000E+00  0.1400E+00  0.1400E+00
    -30.027  0.0000E+00  0.0000E+00  0.1400E+00  0.1400E+00
    -29.857  0.0000E+00  0.0000E+00  0.1400E+00  0.1400E+00
    -29.687  0.0000E+00  0.0000E+00  0.1400E+00  0.1400E+00
    -29.516  0.0000E+00  0.0000E+00  0.1400E+00  0.1400E+00
    -29.346  0.0000E+00  0.0000E+00  0.1400E+00  0.1400E+00
    -29.176  0.0000E+00  0.0000E+00  0.1400E+00  0.1400E+00
    -29.005  0.0000E+00  0.0000E+00  0.1400E+00  0.1400E+00
    -28.835  0.0000E+00  0.0000E+00  0.1400E+00  0.1400E+00
    -28.665  0.0000E+00  0.0000E+00  0.1400E+00  0.1400E+00
    -28.495  0.0000E+00  0.0000E+00  0.1400E+00  0.1400E+00
    -28.324  0.0000E+00  0.0000E+00  0.1400E+00  0.1400E+00
    -28.154  0.0000E+00  0.0000E+00  0.1400E+00  0.1400E+00
    -27.984  0.0000E+00  0.0000E+00  0.1400E+00  0.1400E+00
    -27.813  0.0000E+00  0.0000E+00  0.1400E+00  0.1400E+00
    -27.643  0.0000E+00  0.0000E+00  0.1400E+00  0.1400E+00
    -27.473  0.0000E+00  0.0000E+00  0.1400E+00  0.1400E+00
    -27.303  0.0000E+00  0.0000E+00  0.1400E+00  0.1400E+00
    -27.132  0.0000E+00  0.0000E+00  0.1400E+00  0.1400E+00
    -26.962  0.0000E+00  0.0000E+00  0.1400E+00  0.1400E+00
    -26.792  0.0000E+00  0.0000E+00  0.1400E+00  0.1400E+00
    -26.622  0.0000E+00  0.0000E+00  0.1400E+00  0.1400E+00
    -26.451  0.0000E+00  0.0000E+00  0.1400E+00  0.1400E+00
    -26.281  0.0000E+00  0.0000E+00  0.1400E+00  0.1400E+00
    -26.111  0.0000E+00  0.0000E+00  0.1400E+00  0.1400E+00
    -25.940  0.0000E+00  0.0000E+00  0.1400E+00  0.1400E+00
    -25.770  0.0000E+00  0.0000E+00  0.1400E+00  0.1400E+00
    -25.600  0.0000E+00  0.0000E+00  0.1400E+00  0.1400E+00
    -25.430  0.0000E+00  0.0000E+00  0.1400E+00  0.1400E+00
    -25.259  0.0000E+00  0.0000E+00  0.1400E+00  0.1400E+00
    -25.089  0.0000E+00  0.0000E+00  0.1400E+00  0.1400E+00
    -24.919  0.0000E+00  0.0000E+00  0.1400E+00  0.1400E+00
    -24.749  0.0000E+00  0.0000E+00  0.1400E+00  0.1400E+00
    -24.578  0.0000E+00  0.0000E+00  0.1400E+00  0.1400E+00
    -24.408  0.0000E+00  0.0000E+00  0.1400E+00  0.1400E+00
    -24.238  0.0000E+00  0.0000E+00  0.1400E+00  0.1400E+00
    -24.067  0.0000E+00  0.0000E+00  0.1400E+00  0.1400E+00
    -23.897  0.0000E+00  0.0000E+00  0.1400E+00  0.1400E+00
    -23.727  0.0000E+00  0.0000E+00  0.1400E+00  0.1400E+00
    -23.557  0.0000E+00  0.0000E+00  0.1400E+00  0.1400E+00
    -23.386  0.0000E+00  0.0000E+00  0.1400E+00  0.1400E+00
    -23.216  0.0000E+00  0.0000E+00  0.1400E+00  0.1400E+00
    -23.046  0.0000E+00  0.0000E+00  0.1400E+00  0.1400E+00
    -22.876  0.0000E+00  0.0000E+00  0.1400E+00  0.1400E+00
    -22.705  0.0000E+00  0.0000E+00  0.1400E+00  0.1400E+00
    -22.535  0.0000E+00  0.0000E+00  0.1400E+00  0.1400E+00
    -22.365  0.0000E+00  0.0000E+00  0.1400E+00  0.1400E+00
    -22.194  0.0000E+00  0.0000E+00  0.1400E+00  0.1400E+00
    -22.024  0.0000E+00  0.0000E+00  0.1400E+00  0.1400E+00
    -21.854  0.0000E+00  0.0000E+00  0.1400E+00  0.1400E+00
    -21.684  0.0000E+00  0.0000E+00  0.1400E+00  0.1400E+00
    -21.513  0.0000E+00  0.0000E+00  0.1400E+00  0.1400E+00
    -21.343  0.0000E+00  0.0000E+00  0.1400E+00  0.1400E+00
    -21.173  0.0000E+00  0.0000E+00  0.1400E+00  0.1400E+00
    -21.003  0.0000E+00  0.0000E+00  0.1400E+00  0.1400E+00
    -20.832  0.0000E+00  0.0000E+00  0.1400E+00  0.1400E+00
    -20.662  0.0000E+00  0.0000E+00  0.1400E+00  0.1400E+00
    -20.492  0.0000E+00  0.0000E+00  0.1400E+00  0.1400E+00
    -20.321  0.0000E+00  0.0000E+00  0.1400E+00  0.1400E+00
    -20.151  0.0000E+00  0.0000E+00  0.1400E+00  0.1400E+00
    -19.981  0.0000E+00  0.0000E+00  0.1400E+00  0.1400E+00
    -19.811  0.0000E+00  0.0000E+00  0.1400E+00  0.1400E+00
    -19.640  0.0000E+00  0.0000E+00  0.1400E+00  0.1400E+00
    -19.470  0.0000E+00  0.0000E+00  0.1400E+00  0.1400E+00
    -19.300  0.0000E+00  0.0000E+00  0.1400E+00  0.1400E+00
    -19.130  0.0000E+00  0.0000E+00  0.1400E+00  0.1400E+00
    -18.959  0.0000E+00  0.0000E+00  0.1400E+00  0.1400E+00
    -18.789  0.0000E+00  0.0000E+00  0.1400E+00  0.1400E+00
    -18.619  0.0000E+00  0.0000E+00  0.1400E+00  0.1400E+00
    -18.448  0.0000E+00  0.0000E+00  0.1400E+00  0.1400E+00
    -18.278  0.0000E+00  0.0000E+00  0.1400E+00  0.1400E+00
    -18.108  0.0000E+00  0.0000E+00  0.1400E+00  0.1400E+00
    -17.938  0.0000E+00  0.0000E+00  0.1400E+00  0.1400E+00
    -17.767  0.0000E+00  0.0000E+00  0.1400E+00  0.1400E+00
    -17.597  0.0000E+00  0.0000E+00  0.1400E+00  0.1400E+00
    -17.427  0.0000E+00  0.0000E+00  0.1400E+00  0.1400E+00
    -17.257  0.0000E+00  0.0000E+00  0.1400E+00  0.1400E+00
    -17.086  0.0000E+00  0.0000E+00  0.1400E+00  0.1400E+00
    -16.916  0.0000E+00  0.0000E+00  0.1400E+00  0.1400E+00
    -16.746 -0.8361E-30 -0.3103E-29  0.1400E+00  0.1400E+00
    -16.575 -0.2383E-22 -0.7695E-22  0.1400E+00  0.1400E+00
    -16.405 -0.5009E-16 -0.1376E-15  0.1400E+00  0.1400E+00
    -16.235 -0.7871E-11 -0.1846E-10  0.1400E+00  0.1400E+00
    -16.065 -0.9026E-07 -0.1760E-06  0.1400E+00  0.1400E+00
    -15.894 -0.7004E-04 -0.1107E-03  0.1400E+00  0.1400E+00
    -15.724 -0.2583E-02 -0.2953E-02  0.1395E+00  0.1395E+00
    -15.554  0.2397E-01  0.3185E-01  0.1436E+00  0.1449E+00
    -15.384  0.7355E-01  0.6912E-01  0.1562E+00  0.1567E+00
    -15.213  0.4146E-02  0.7726E-03  0.1569E+00  0.1568E+00
    -15.043 -0.1126E-02 -0.7977E-03  0.1567E+00  0.1567E+00
    -14.873 -0.1109E-04 -0.5344E-05  0.1567E+00  0.1567E+00
    -14.702 -0.7044E-08 -0.2346E-08  0.1567E+00  0.1567E+00
    -14.532 -0.3346E-12 -0.7707E-13  0.1567E+00  0.1567E+00
    -14.362  0.0000E+00  0.0000E+00  0.1567E+00  0.1567E+00
    -14.192  0.0000E+00  0.0000E+00  0.1567E+00  0.1567E+00
    -14.021  0.0000E+00  0.0000E+00  0.1567E+00  0.1567E+00
    -13.851  0.0000E+00  0.0000E+00  0.1567E+00  0.1567E+00
    -13.681  0.0000E+00  0.0000E+00  0.1567E+00  0.1567E+00
    -13.511  0.0000E+00  0.0000E+00  0.1567E+00  0.1567E+00
    -13.340  0.0000E+00  0.0000E+00  0.1567E+00  0.1567E+00
    -13.170  0.0000E+00  0.0000E+00  0.1567E+00  0.1567E+00
    -13.000  0.0000E+00  0.0000E+00  0.1567E+00  0.1567E+00
    -12.829  0.0000E+00  0.0000E+00  0.1567E+00  0.1567E+00
    -12.659  0.0000E+00  0.0000E+00  0.1567E+00  0.1567E+00
    -12.489  0.0000E+00  0.0000E+00  0.1567E+00  0.1567E+00
    -12.319  0.0000E+00  0.0000E+00  0.1567E+00  0.1567E+00
    -12.148  0.0000E+00  0.0000E+00  0.1567E+00  0.1567E+00
    -11.978  0.0000E+00  0.0000E+00  0.1567E+00  0.1567E+00
    -11.808  0.0000E+00  0.0000E+00  0.1567E+00  0.1567E+00
    -11.637  0.0000E+00  0.0000E+00  0.1567E+00  0.1567E+00
    -11.467  0.0000E+00  0.0000E+00  0.1567E+00  0.1567E+00
    -11.297  0.0000E+00  0.0000E+00  0.1567E+00  0.1567E+00
    -11.127  0.0000E+00  0.0000E+00  0.1567E+00  0.1567E+00
    -10.956  0.0000E+00  0.0000E+00  0.1567E+00  0.1567E+00
    -10.786  0.0000E+00  0.0000E+00  0.1567E+00  0.1567E+00
    -10.616  0.0000E+00  0.0000E+00  0.1567E+00  0.1567E+00
    -10.446  0.0000E+00  0.0000E+00  0.1567E+00  0.1567E+00
    -10.275  0.0000E+00  0.0000E+00  0.1567E+00  0.1567E+00
    -10.105  0.0000E+00  0.0000E+00  0.1567E+00  0.1567E+00
     -9.935  0.0000E+00  0.0000E+00  0.1567E+00  0.1567E+00
     -9.764  0.0000E+00  0.0000E+00  0.1567E+00  0.1567E+00
     -9.594  0.0000E+00  0.0000E+00  0.1567E+00  0.1567E+00
     -9.424  0.0000E+00  0.0000E+00  0.1567E+00  0.1567E+00
     -9.254  0.0000E+00  0.0000E+00  0.1567E+00  0.1567E+00
     -9.083 -0.5365E-31 -0.7647E-31  0.1567E+00  0.1567E+00
     -8.913 -0.1659E-23 -0.2329E-23  0.1567E+00  0.1567E+00
     -8.743 -0.3870E-17 -0.5377E-17  0.1567E+00  0.1567E+00
     -8.573 -0.6541E-12 -0.9015E-12  0.1567E+00  0.1567E+00
     -8.402 -0.8487E-08 -0.1152E-07  0.1567E+00  0.1567E+00
     -8.232 -0.7901E-05 -0.1030E-04  0.1567E+00  0.1567E+00
     -8.062 -0.4072E-03 -0.4720E-03  0.1566E+00  0.1566E+00
     -7.891  0.3095E-02  0.3963E-02  0.1571E+00  0.1573E+00
     -7.721  0.1533E-01  0.1523E-01  0.1597E+00  0.1599E+00
     -7.551  0.1895E-02  0.1120E-02  0.1601E+00  0.1600E+00
     -7.381 -0.3300E-03 -0.2574E-03  0.1600E+00  0.1600E+00
     -7.210 -0.1696E-03 -0.3877E-04  0.1600E+00  0.1600E+00
     -7.040  0.2049E-02 -0.1545E-04  0.1603E+00  0.1600E+00
     -6.870  0.3956E-02  0.3198E-02  0.1610E+00  0.1605E+00
     -6.700  0.7644E-02  0.4392E-02  0.1623E+00  0.1613E+00
     -6.529  0.3627E-02  0.7077E-02  0.1629E+00  0.1625E+00
     -6.359  0.3431E-02  0.3312E-02  0.1635E+00  0.1631E+00
     -6.189  0.7487E-02  0.3643E-02  0.1648E+00  0.1637E+00
     -6.018  0.8439E-02  0.7282E-02  0.1662E+00  0.1649E+00
     -5.848  0.1025E-01  0.8836E-02  0.1680E+00  0.1664E+00
     -5.678  0.8119E-02  0.8572E-02  0.1693E+00  0.1679E+00
     -5.508  0.1283E-01  0.7806E-02  0.1715E+00  0.1692E+00
     -5.337  0.1561E-01  0.1327E-01  0.1742E+00  0.1715E+00
     -5.167  0.1262E-01  0.1337E-01  0.1763E+00  0.1737E+00
     -4.997  0.6788E-02  0.1352E-01  0.1775E+00  0.1760E+00
     -4.827  0.1539E-01  0.6063E-02  0.1801E+00  0.1771E+00
     -4.656  0.2071E-01  0.9662E-02  0.1836E+00  0.1787E+00
     -4.486  0.2759E-01  0.1597E-01  0.1883E+00  0.1814E+00
     -4.316  0.1872E-01  0.2256E-01  0.1915E+00  0.1853E+00
     -4.145  0.2855E-01  0.2320E-01  0.1964E+00  0.1892E+00
     -3.975  0.4274E-01  0.1124E-01  0.2037E+00  0.1911E+00
     -3.805  0.6948E-01  0.2341E-01  0.2155E+00  0.1951E+00
     -3.635  0.1073E+00  0.2286E-01  0.2338E+00  0.1990E+00
     -3.464  0.1088E+00  0.3091E-01  0.2523E+00  0.2043E+00
     -3.294  0.1469E+00  0.2617E-01  0.2773E+00  0.2087E+00
     -3.124  0.1622E+00  0.4262E-01  0.3049E+00  0.2160E+00
     -2.954  0.1822E+00  0.5109E-01  0.3359E+00  0.2247E+00
     -2.783  0.1293E+00  0.6398E-01  0.3580E+00  0.2356E+00
     -2.613  0.1500E+00  0.7377E-01  0.3835E+00  0.2482E+00
     -2.443  0.2386E+00  0.6939E-01  0.4241E+00  0.2600E+00
     -2.272  0.2571E+00  0.8269E-01  0.4679E+00  0.2741E+00
     -2.102  0.2290E+00  0.9551E-01  0.5069E+00  0.2903E+00
     -1.932  0.2448E+00  0.1132E+00  0.5486E+00  0.3096E+00
     -1.762  0.2394E+00  0.1178E+00  0.5893E+00  0.3297E+00
     -1.591  0.2220E+00  0.1134E+00  0.6271E+00  0.3490E+00
     -1.421  0.2192E+00  0.1169E+00  0.6645E+00  0.3689E+00
     -1.251  0.1918E+00  0.1245E+00  0.6971E+00  0.3901E+00
     -1.081  0.1647E+00  0.1586E+00  0.7252E+00  0.4171E+00
     -0.910  0.1606E+00  0.1877E+00  0.7525E+00  0.4490E+00
     -0.740  0.1744E+00  0.1890E+00  0.7822E+00  0.4812E+00
     -0.570  0.1983E+00  0.1937E+00  0.8160E+00  0.5142E+00
     -0.399  0.2589E+00  0.2093E+00  0.8601E+00  0.5498E+00
     -0.229  0.3160E+00  0.2122E+00  0.9139E+00  0.5860E+00
     -0.059  0.2844E+00  0.2138E+00  0.9623E+00  0.6224E+00
      0.111  0.2178E+00  0.1870E+00  0.9994E+00  0.6542E+00
      0.282  0.1783E+00  0.1463E+00  0.1030E+01  0.6791E+00
      0.452  0.1668E+00  0.1107E+00  0.1058E+01  0.6980E+00
      0.622  0.1629E+00  0.1020E+00  0.1086E+01  0.7154E+00
      0.792  0.1604E+00  0.1029E+00  0.1113E+01  0.7329E+00
      0.963  0.1358E+00  0.9879E-01  0.1136E+01  0.7497E+00
      1.133  0.1183E+00  0.1173E+00  0.1156E+01  0.7697E+00
      1.303  0.1085E+00  0.1538E+00  0.1175E+01  0.7959E+00
      1.474  0.9551E-01  0.1653E+00  0.1191E+01  0.8240E+00
      1.644  0.9160E-01  0.1861E+00  0.1207E+01  0.8557E+00
      1.814  0.1067E+00  0.2166E+00  0.1225E+01  0.8926E+00
      1.984  0.6841E-01  0.2408E+00  0.1237E+01  0.9336E+00
      2.155  0.1302E-02  0.2793E+00  0.1237E+01  0.9811E+00
      2.325 -0.9026E-03  0.2853E+00  0.1237E+01  0.1030E+01
      2.495 -0.9070E-05  0.2940E+00  0.1237E+01  0.1080E+01
      2.665 -0.6047E-08  0.3244E+00  0.1237E+01  0.1135E+01
      2.836 -0.3007E-12  0.2432E+00  0.1237E+01  0.1176E+01
      3.006 -0.5434E-18  0.1654E+00  0.1237E+01  0.1205E+01
      3.176  0.0000E+00  0.1416E+00  0.1237E+01  0.1229E+01
      3.347  0.0000E+00  0.5007E-01  0.1237E+01  0.1237E+01
      3.517  0.0000E+00 -0.2796E-02  0.1237E+01  0.1237E+01
      3.687  0.0000E+00 -0.4046E-03  0.1237E+01  0.1237E+01
      3.857  0.0000E+00 -0.1917E-05  0.1237E+01  0.1237E+01
      4.028  0.0000E+00 -0.6279E-09  0.1237E+01  0.1237E+01
      4.198  0.0000E+00 -0.1525E-13  0.1237E+01  0.1237E+01
      4.368  0.0000E+00  0.0000E+00  0.1237E+01  0.1237E+01
      4.539  0.0000E+00  0.0000E+00  0.1237E+01  0.1237E+01
      4.709  0.0000E+00  0.0000E+00  0.1237E+01  0.1237E+01
      4.879  0.0000E+00  0.0000E+00  0.1237E+01  0.1237E+01
      5.049  0.0000E+00  0.0000E+00  0.1237E+01  0.1237E+01
      5.220  0.0000E+00  0.0000E+00  0.1237E+01  0.1237E+01
      5.390  0.0000E+00  0.0000E+00  0.1237E+01  0.1237E+01
      5.560  0.0000E+00  0.0000E+00  0.1237E+01  0.1237E+01
