srun: ROUTE: split_hostlist: hl=e01r2n03 tree_width 0
 running on    4 total cores
 distrk:  each k-point on    1 cores,    4 groups
 distr:  one band on    1 cores,    1 groups
 HIP runtime initialized ...    4 DCUs will be used
 Created    4 streams on each DCU
 vasp.6.3.2 27Jun22 (build Mar 15 2023 15:45:48) complex                        
  
 POSCAR found type information on POSCAR PbCrFe
 POSCAR found :  3 types and      63 ions
 Reading from existing POTCAR
 -----------------------------------------------------------------------------
|                                                                             |
|           W    W    AA    RRRRR   N    N  II  N    N   GGGG   !!!           |
|           W    W   A  A   R    R  NN   N  II  NN   N  G    G  !!!           |
|           W    W  A    A  R    R  N N  N  II  N N  N  G       !!!           |
|           W WW W  AAAAAA  RRRRR   N  N N  II  N  N N  G  GGG   !            |
|           WW  WW  A    A  R   R   N   NN  II  N   NN  G    G                |
|           W    W  A    A  R    R  N    N  II  N    N   GGGG   !!!           |
|                                                                             |
|     You use a magnetic or noncollinear calculation, but did not specify     |
|     the initial magnetic moment with the MAGMOM tag. Note that a            |
|     default of 1 will be used for all atoms. This ferromagnetic setup       |
|     may break the symmetry of the crystal, in particular it may rule        |
|     out finding an antiferromagnetic solution. Thence, we recommend         |
|     setting the initial magnetic moment manually or verifying carefully     |
|     that this magnetic setup is desired.                                    |
|                                                                             |
 -----------------------------------------------------------------------------

 scaLAPACK will be used selectively (only on CPU)
 Reading from existing POTCAR
 LDA part: xc-table for Pade appr. of Perdew
 POSCAR found type information on POSCAR PbCrFe
 POSCAR found :  3 types and      63 ions
 Optimize memory usage for KPAR
 POSCAR, INCAR and KPOINTS ok, starting setup
 FFT: planning ... GRIDC
 FFT: planning ... GRID_SOFT
 FFT: planning ... GRID
 WAVECAR not read
 WARNING: chargedensity file is incomplete
 WARNING: random wavefunctions but no delay for mixing, default for NELMDL
 entering main loop
       N       E                     dE             d eps       ncg     rms          rms(c)
DAV:   1     0.561080195142E+04    0.56108E+04   -0.24149E+05 12624   0.144E+03
DAV:   2    -0.607195843181E+02   -0.56715E+04   -0.54735E+04 11872   0.424E+02
DAV:   3    -0.520378670986E+03   -0.45966E+03   -0.40866E+03 12187   0.164E+02
DAV:   4    -0.579507112015E+03   -0.59128E+02   -0.55450E+02 20896   0.451E+01
DAV:   5    -0.582731578930E+03   -0.32245E+01   -0.30573E+01 19360   0.106E+01    0.926E+01
DAV:   6    -0.684819565299E+03   -0.10209E+03   -0.27613E+02 21440   0.768E+01    0.147E+02
DAV:   7    -0.658385068783E+03    0.26434E+02   -0.30159E+02 21992   0.106E+02    0.141E+02
DAV:   8    -0.554543671293E+03    0.10384E+03   -0.15050E+02 21656   0.748E+01    0.909E+01
DAV:   9    -0.528917306653E+03    0.25626E+02   -0.63970E+01 20216   0.382E+01    0.692E+01
DAV:  10    -0.509976122124E+03    0.18941E+02   -0.55623E+01 19400   0.303E+01    0.550E+01
DAV:  11    -0.495717807249E+03    0.14258E+02   -0.66147E+01 16864   0.309E+01    0.461E+01
DAV:  12    -0.491588413550E+03    0.41294E+01   -0.25998E+01 16968   0.196E+01    0.348E+01
DAV:  13    -0.491791203659E+03   -0.20279E+00   -0.45032E+00 17000   0.872E+00    0.334E+01
DAV:  14    -0.491739027850E+03    0.52176E-01   -0.70017E-01 15544   0.272E+00    0.338E+01
DAV:  15    -0.494136463610E+03   -0.23974E+01   -0.14505E+00 21568   0.458E+00    0.377E+01
DAV:  16    -0.493943798203E+03    0.19267E+00   -0.30606E+00 20808   0.651E+00    0.327E+01
DAV:  17    -0.496457753767E+03   -0.25140E+01   -0.47806E+00 19656   0.842E+00    0.295E+01
DAV:  18    -0.498609274378E+03   -0.21515E+01   -0.26971E+00 19520   0.574E+00    0.294E+01
DAV:  19    -0.499931371515E+03   -0.13221E+01   -0.11915E+00 19616   0.364E+00    0.294E+01
DAV:  20    -0.500132473505E+03   -0.20110E+00   -0.36815E-01 18712   0.236E+00    0.279E+01
DAV:  21    -0.500295918721E+03   -0.16345E+00   -0.56065E-01 20632   0.323E+00    0.244E+01
DAV:  22    -0.500802426578E+03   -0.50651E+00   -0.13381E+00 20368   0.514E+00    0.192E+01
DAV:  23    -0.500990344671E+03   -0.18792E+00   -0.92800E-01 20160   0.399E+00    0.154E+01
DAV:  24    -0.501143278198E+03   -0.15293E+00   -0.37823E-01 20016   0.259E+00    0.149E+01
DAV:  25    -0.501265150993E+03   -0.12187E+00   -0.41482E-01 20752   0.244E+00    0.131E+01
DAV:  26    -0.501547764169E+03   -0.28261E+00   -0.62039E-01 20088   0.252E+00    0.118E+01
DAV:  27    -0.501796643734E+03   -0.24888E+00   -0.35826E-01 20288   0.172E+00    0.113E+01
DAV:  28    -0.501907203164E+03   -0.11056E+00   -0.14522E-01 20072   0.136E+00    0.105E+01
DAV:  29    -0.502272220108E+03   -0.36502E+00   -0.68603E-01 21056   0.228E+00    0.107E+01
DAV:  30    -0.502434868594E+03   -0.16265E+00   -0.25419E-01 19624   0.126E+00    0.973E+00
DAV:  31    -0.502805198525E+03   -0.37033E+00   -0.58069E-01 20784   0.188E+00    0.960E+00
DAV:  32    -0.502856978702E+03   -0.51780E-01   -0.27762E-01 19200   0.216E+00    0.773E+00
DAV:  33    -0.502989200524E+03   -0.13222E+00   -0.49930E-01 20856   0.207E+00    0.593E+00
DAV:  34    -0.502983069151E+03    0.61314E-02   -0.47695E-01 20032   0.188E+00    0.445E+00
DAV:  35    -0.502980492231E+03    0.25769E-02   -0.14031E-01 19568   0.144E+00    0.387E+00
DAV:  36    -0.502971787635E+03    0.87046E-02   -0.12509E-01 20376   0.105E+00    0.381E+00
DAV:  37    -0.503000242709E+03   -0.28455E-01   -0.80654E-02 19816   0.857E-01    0.328E+00
DAV:  38    -0.502972703082E+03    0.27540E-01   -0.23766E-01 19552   0.113E+00    0.264E+00
DAV:  39    -0.502980346371E+03   -0.76433E-02   -0.27581E-02 16648   0.653E-01    0.214E+00
DAV:  40    -0.502986538388E+03   -0.61920E-02   -0.23803E-02 20456   0.413E-01    0.179E+00
DAV:  41    -0.502989637063E+03   -0.30987E-02   -0.12579E-02 19208   0.420E-01    0.159E+00
DAV:  42    -0.502989771504E+03   -0.13444E-03   -0.96432E-03 19480   0.368E-01    0.110E+00
DAV:  43    -0.502988586226E+03    0.11853E-02   -0.91296E-03 19672   0.289E-01    0.687E-01
DAV:  44    -0.502988730368E+03   -0.14414E-03   -0.31280E-03 17176   0.203E-01    0.562E-01
DAV:  45    -0.502989121655E+03   -0.39129E-03   -0.10169E-03 19400   0.843E-02    0.497E-01
DAV:  46    -0.502989736602E+03   -0.61495E-03   -0.34832E-03 20224   0.171E-01    0.334E-01
DAV:  47    -0.502989881295E+03   -0.14469E-03   -0.13791E-03 19216   0.128E-01    0.227E-01
DAV:  48    -0.502989981562E+03   -0.10027E-03   -0.70547E-04 20016   0.796E-02    0.185E-01
DAV:  49    -0.502990037882E+03   -0.56321E-04   -0.26073E-04 19064   0.545E-02    0.169E-01
DAV:  50    -0.502990086501E+03   -0.48618E-04   -0.24473E-04 19480   0.487E-02    0.123E-01
DAV:  51    -0.502990089224E+03   -0.27227E-05   -0.97535E-05 16616   0.368E-02
   1 F= -.50299009E+03 E0= -.50299942E+03  d E =-.502990E+03  mag=   114.0341
 curvature:   0.00 expect dE= 0.000E+00 dE for cont linesearch  0.000E+00
 trial: gam= 0.00000 g(F)=  0.128E+01 g(S)=  0.000E+00 ort = 0.000E+00 (trialstep = 0.100E+01)
 search vector abs. value=  0.128E+01
 bond charge predicted
       N       E                     dE             d eps       ncg     rms          rms(c)
DAV:   1    -0.502455304669E+03    0.53478E+00   -0.40644E+02 12000   0.254E+01    0.943E+00
DAV:   2    -0.504891825607E+03   -0.24365E+01   -0.13066E+01 21024   0.133E+01    0.175E+01
DAV:   3    -0.505824002428E+03   -0.93218E+00   -0.93495E+00 21208   0.202E+01    0.220E+01
DAV:   4    -0.503262281481E+03    0.25617E+01   -0.46938E+00 21848   0.111E+01    0.485E+00
DAV:   5    -0.503310297133E+03   -0.48016E-01   -0.34310E-01 15696   0.203E+00    0.360E+00
DAV:   6    -0.503375338911E+03   -0.65042E-01   -0.94961E-02 19616   0.102E+00    0.286E+00
DAV:   7    -0.503451469525E+03   -0.76131E-01   -0.76212E-02 21160   0.125E+00    0.294E+00
DAV:   8    -0.503445657053E+03    0.58125E-02   -0.46331E-02 19896   0.119E+00    0.228E+00
DAV:   9    -0.503427248309E+03    0.18409E-01   -0.34832E-02 20296   0.959E-01    0.128E+00
DAV:  10    -0.503424694457E+03    0.25539E-02   -0.11466E-02 20000   0.395E-01    0.108E+00
DAV:  11    -0.503424486754E+03    0.20770E-03   -0.76328E-03 19864   0.354E-01    0.113E+00
DAV:  12    -0.503419521588E+03    0.49652E-02   -0.84248E-03 18432   0.352E-01    0.719E-01
DAV:  13    -0.503417509080E+03    0.20125E-02   -0.37179E-03 20528   0.297E-01    0.416E-01
DAV:  14    -0.503417507349E+03    0.17316E-05   -0.15018E-03 19368   0.127E-01    0.318E-01
DAV:  15    -0.503417825998E+03   -0.31865E-03   -0.87121E-04 19272   0.129E-01    0.302E-01
DAV:  16    -0.503417771438E+03    0.54560E-04   -0.53106E-04 16144   0.109E-01    0.215E-01
DAV:  17    -0.503417690339E+03    0.81099E-04   -0.24838E-04 18480   0.707E-02    0.149E-01
DAV:  18    -0.503417759991E+03   -0.69652E-04   -0.31049E-04 19240   0.664E-02    0.140E-01
DAV:  19    -0.503417729406E+03    0.30586E-04   -0.17371E-04 15520   0.517E-02    0.952E-02
DAV:  20    -0.503417701034E+03    0.28371E-04   -0.50530E-05  9208   0.336E-02    0.686E-02
DAV:  21    -0.503417706974E+03   -0.59396E-05   -0.40150E-05 10528   0.175E-02
   2 F= -.50341771E+03 E0= -.50342646E+03  d E =-.427618E+00  mag=   114.1691
 trial-energy change:   -0.427618  1 .order   -0.556817   -1.284058    0.170424
 step:   0.7964(harm=  0.8828)  dis= 0.11292  next Energy=  -503.436145 (dE=-0.446E+00)
 bond charge predicted
       N       E                     dE             d eps       ncg     rms          rms(c)
DAV:   1    -0.503379396100E+03    0.38305E-01   -0.14032E+01 11896   0.437E+00    0.126E+00
DAV:   2    -0.503430458930E+03   -0.51063E-01   -0.43984E-01 17488   0.129E+00    0.143E+00
DAV:   3    -0.503447028831E+03   -0.16570E-01   -0.11815E-01 18256   0.173E+00    0.204E+00
DAV:   4    -0.503428861737E+03    0.18167E-01   -0.61778E-02 20200   0.121E+00    0.842E-01
DAV:   5    -0.503432223903E+03   -0.33622E-02   -0.60998E-03 20320   0.395E-01    0.654E-01
DAV:   6    -0.503434435291E+03   -0.22114E-02   -0.54508E-03 19504   0.387E-01    0.482E-01
DAV:   7    -0.503434759081E+03   -0.32379E-03   -0.14535E-03 18208   0.160E-01    0.406E-01
DAV:   8    -0.503434119318E+03    0.63976E-03   -0.86331E-04 18392   0.159E-01    0.239E-01
DAV:   9    -0.503434031174E+03    0.88144E-04   -0.67599E-04 20288   0.106E-01    0.223E-01
DAV:  10    -0.503434011689E+03    0.19485E-04   -0.47291E-04 18240   0.690E-02    0.252E-01
DAV:  11    -0.503433869466E+03    0.14222E-03   -0.17769E-04 17704   0.521E-02    0.195E-01
DAV:  12    -0.503433681904E+03    0.18756E-03   -0.37869E-04 17664   0.985E-02    0.611E-02
DAV:  13    -0.503433706110E+03   -0.24206E-04   -0.11802E-04 17368   0.345E-02    0.605E-02
DAV:  14    -0.503433709144E+03   -0.30337E-05   -0.15161E-05  7632   0.192E-02
   3 F= -.50343371E+03 E0= -.50344253E+03  d E =-.443620E+00  mag=   114.1992
 curvature:  -0.20 expect dE=-0.741E-02 dE for cont linesearch -0.458E-04
 ZBRENT: interpolating
 opt :   0.8150  next Energy=  -503.433868 (dE=-0.444E+00)
 bond charge predicted
       N       E                     dE             d eps       ncg     rms          rms(c)
DAV:   1    -0.503433532681E+03    0.17343E-03   -0.11713E-01 11978   0.395E-01    0.123E-01
DAV:   2    -0.503433884811E+03   -0.35213E-03   -0.27524E-03 18528   0.143E-01    0.158E-01
DAV:   3    -0.503434042580E+03   -0.15777E-03   -0.14637E-03 18680   0.189E-01    0.216E-01
DAV:   4    -0.503433810549E+03    0.23203E-03   -0.63560E-04 12416   0.123E-01    0.789E-02
DAV:   5    -0.503433857311E+03   -0.46762E-04   -0.52579E-05 12888   0.335E-02    0.673E-02
DAV:   6    -0.503433870215E+03   -0.12904E-04   -0.44712E-05 11224   0.396E-02    0.389E-02
DAV:   7    -0.503433876936E+03   -0.67207E-05   -0.20922E-05  6920   0.210E-02
   4 F= -.50343388E+03 E0= -.50344265E+03  d E =-.443788E+00  mag=   114.1983
 curvature:  -0.70 expect dE=-0.269E-01 dE for cont linesearch -0.780E-07
 trial: gam= 0.02975 g(F)=  0.386E-01 g(S)=  0.000E+00 ort = 0.379E-03 (trialstep = 0.963E+00)
 search vector abs. value=  0.397E-01
 bond charge predicted
       N       E                     dE             d eps       ncg     rms          rms(c)
DAV:   1    -0.503381100735E+03    0.52769E-01   -0.87745E+00 12033   0.692E+00    0.154E+00
DAV:   2    -0.503463051709E+03   -0.81951E-01   -0.67065E-01 14138   0.233E+00    0.193E+00
DAV:   3    -0.503495965444E+03   -0.32914E-01   -0.25788E-01 18592   0.264E+00    0.296E+00
DAV:   4    -0.503453458797E+03    0.42507E-01   -0.10925E-01 20216   0.158E+00    0.878E-01
DAV:   5    -0.503458022823E+03   -0.45640E-02   -0.66190E-03 18192   0.380E-01    0.723E-01
DAV:   6    -0.503462050462E+03   -0.40276E-02   -0.62942E-03 19344   0.428E-01    0.638E-01
DAV:   7    -0.503462510060E+03   -0.45960E-03   -0.25429E-03 20040   0.253E-01    0.438E-01
DAV:   8    -0.503461842812E+03    0.66725E-03   -0.15387E-03 19832   0.192E-01    0.237E-01
DAV:   9    -0.503461780813E+03    0.61998E-04   -0.33939E-04 18480   0.631E-02    0.213E-01
DAV:  10    -0.503461597239E+03    0.18357E-03   -0.50616E-04 19080   0.976E-02    0.156E-01
DAV:  11    -0.503461503348E+03    0.93891E-04   -0.37010E-04 19208   0.636E-02    0.109E-01
DAV:  12    -0.503461497400E+03    0.59473E-05   -0.64476E-05 13968   0.298E-02
   5 F= -.50346150E+03 E0= -.50347003E+03  d E =-.276205E-01  mag=   114.2074
 trial-energy change:   -0.027620  1 .order   -0.027992   -0.037161   -0.018824
 step:   2.3759(harm=  1.9515)  dis= 0.05292  next Energy=  -503.474131 (dE=-0.403E-01)
 bond charge predicted
       N       E                     dE             d eps       ncg     rms          rms(c)
DAV:   1    -0.503290786337E+03    0.17072E+00   -0.18886E+01 12014   0.101E+01    0.229E+00
DAV:   2    -0.503461746251E+03   -0.17096E+00   -0.14747E+00 13432   0.336E+00    0.250E+00
DAV:   3    -0.503576120416E+03   -0.11437E+00   -0.56685E-01 19200   0.388E+00    0.496E+00
DAV:   4    -0.503450536053E+03    0.12558E+00   -0.32079E-01 20672   0.265E+00    0.130E+00
DAV:   5    -0.503460694376E+03   -0.10158E-01   -0.14874E-02 18392   0.548E-01    0.106E+00
DAV:   6    -0.503469436132E+03   -0.87418E-02   -0.13211E-02 19384   0.616E-01    0.952E-01
DAV:   7    -0.503470737899E+03   -0.13018E-02   -0.57902E-03 20232   0.389E-01    0.662E-01
DAV:   8    -0.503469395798E+03    0.13421E-02   -0.36386E-03 19824   0.297E-01    0.359E-01
DAV:   9    -0.503469297684E+03    0.98114E-04   -0.72403E-04 18576   0.931E-02    0.325E-01
DAV:  10    -0.503468895760E+03    0.40192E-03   -0.70071E-04 18768   0.113E-01    0.240E-01
DAV:  11    -0.503468680581E+03    0.21518E-03   -0.89907E-04 19264   0.102E-01    0.167E-01
DAV:  12    -0.503468688162E+03   -0.75815E-05   -0.16298E-04 16064   0.441E-02    0.148E-01
DAV:  13    -0.503468670841E+03    0.17322E-04   -0.10831E-04 14520   0.477E-02    0.846E-02
DAV:  14    -0.503468730989E+03   -0.60148E-04   -0.18590E-04 15432   0.511E-02    0.947E-02
DAV:  15    -0.503468731558E+03   -0.56926E-06   -0.53575E-05 12752   0.247E-02
   6 F= -.50346873E+03 E0= -.50347709E+03  d E =-.348546E-01  mag=   114.2010
 curvature:  -0.82 expect dE=-0.147E-01 dE for cont linesearch -0.163E-02
 ZBRENT: interpolating
 opt :   1.9337  next Energy=  -503.470700 (dE=-0.368E-01)
 bond charge predicted
       N       E                     dE             d eps       ncg     rms          rms(c)
DAV:   1    -0.503454309310E+03    0.14422E-01   -0.18524E+00 12044   0.316E+00    0.678E-01
DAV:   2    -0.503471203464E+03   -0.16894E-01   -0.13612E-01 14204   0.102E+00    0.916E-01
DAV:   3    -0.503475340009E+03   -0.41365E-02   -0.48529E-02 17960   0.114E+00    0.118E+00
DAV:   4    -0.503469015510E+03    0.63245E-02   -0.16608E-02 19664   0.631E-01    0.400E-01
DAV:   5    -0.503469962885E+03   -0.94737E-03   -0.13495E-03 18592   0.169E-01    0.333E-01
DAV:   6    -0.503470762261E+03   -0.79938E-03   -0.13539E-03 19544   0.203E-01    0.293E-01
DAV:   7    -0.503470831770E+03   -0.69509E-04   -0.52921E-04 19616   0.110E-01    0.192E-01
DAV:   8    -0.503470680345E+03    0.15143E-03   -0.35088E-04 17192   0.907E-02    0.104E-01
DAV:   9    -0.503470656797E+03    0.23548E-04   -0.97474E-05 14904   0.310E-02    0.866E-02
DAV:  10    -0.503470610035E+03    0.46762E-04   -0.12248E-04 17952   0.383E-02    0.594E-02
DAV:  11    -0.503470597333E+03    0.12702E-04   -0.46143E-05 11824   0.266E-02    0.408E-02
DAV:  12    -0.503470598358E+03   -0.10255E-05   -0.14472E-05  7336   0.116E-02
   7 F= -.50347060E+03 E0= -.50347898E+03  d E =-.367214E-01  mag=   114.2078
 curvature:  -0.99 expect dE=-0.105E-01 dE for cont linesearch -0.402E-05
 trial: gam= 0.31259 g(F)=  0.106E-01 g(S)=  0.000E+00 ort =-0.402E-03 (trialstep = 0.116E+01)
 search vector abs. value=  0.143E-01
 bond charge predicted
       N       E                     dE             d eps       ncg     rms          rms(c)
DAV:   1    -0.503425412632E+03    0.45185E-01   -0.60490E+00 14319   0.537E+00    0.973E-01
DAV:   2    -0.503476737486E+03   -0.51325E-01   -0.49920E-01 12696   0.134E+00    0.616E-01
DAV:   3    -0.503486724998E+03   -0.99875E-02   -0.31306E-02 22360   0.758E-01    0.125E+00
DAV:   4    -0.503479256741E+03    0.74683E-02   -0.25156E-02 21656   0.742E-01    0.523E-01
DAV:   5    -0.503481227411E+03   -0.19707E-02   -0.24022E-03 18816   0.225E-01    0.321E-01
DAV:   6    -0.503481773217E+03   -0.54581E-03   -0.11301E-03 19024   0.168E-01    0.195E-01
DAV:   7    -0.503481722771E+03    0.50446E-04   -0.48584E-04 18616   0.125E-01    0.141E-01
DAV:   8    -0.503481683075E+03    0.39697E-04   -0.11472E-04 15800   0.579E-02    0.113E-01
DAV:   9    -0.503481670019E+03    0.13056E-04   -0.56378E-05 11992   0.271E-02    0.976E-02
DAV:  10    -0.503481643055E+03    0.26964E-04   -0.18317E-04 18688   0.439E-02    0.565E-02
DAV:  11    -0.503481650940E+03   -0.78848E-05   -0.68016E-05  9840   0.295E-02
   8 F= -.50348165E+03 E0= -.50349004E+03  d E =-.110526E-01  mag=   114.1861
 ZBRENT: can't locate minimum, use default step
 trial-energy change:   -0.011053  1 .order   -0.011115   -0.012174   -0.010055
 step:   4.6286(harm=  6.6471)  dis= 0.03984  next Energy=  -503.505565 (dE=-0.350E-01)
 bond charge predicted
       N       E                     dE             d eps       ncg     rms          rms(c)
DAV:   1    -0.502972800337E+03    0.50884E+00   -0.55155E+01 14346   0.163E+01    0.303E+00
DAV:   2    -0.503461263732E+03   -0.48846E+00   -0.47009E+00 12704   0.408E+00    0.218E+00
DAV:   3    -0.503770187341E+03   -0.30892E+00   -0.90125E-01 22328   0.459E+00    0.734E+00
DAV:   4    -0.503473278917E+03    0.29691E+00   -0.73978E-01 22488   0.391E+00    0.153E+00
DAV:   5    -0.503490991121E+03   -0.17712E-01   -0.25811E-02 18776   0.661E-01    0.118E+00
DAV:   6    -0.503502469318E+03   -0.11478E-01   -0.13568E-02 19896   0.614E-01    0.102E+00
DAV:   7    -0.503502663840E+03   -0.19452E-03   -0.10209E-02 20048   0.566E-01    0.635E-01
DAV:   8    -0.503501509928E+03    0.11539E-02   -0.33839E-03 19736   0.297E-01    0.375E-01
DAV:   9    -0.503501374697E+03    0.13523E-03   -0.90335E-04 19064   0.106E-01    0.332E-01
DAV:  10    -0.503501211383E+03    0.16331E-03   -0.69724E-04 18144   0.852E-02    0.258E-01
DAV:  11    -0.503501086178E+03    0.12520E-03   -0.12447E-03 19584   0.137E-01    0.182E-01
DAV:  12    -0.503501155173E+03   -0.68994E-04   -0.28740E-04 17880   0.528E-02    0.177E-01
DAV:  13    -0.503501219288E+03   -0.64115E-04   -0.11630E-04 16992   0.400E-02    0.156E-01
DAV:  14    -0.503501229337E+03   -0.10049E-04   -0.26001E-04 17520   0.809E-02    0.815E-02
DAV:  15    -0.503501293292E+03   -0.63955E-04   -0.10723E-04 15664   0.408E-02    0.103E-01
DAV:  16    -0.503501278303E+03    0.14990E-04   -0.44653E-05  9928   0.340E-02    0.661E-02
DAV:  17    -0.503501271260E+03    0.70422E-05   -0.23987E-05  8232   0.187E-02
   9 F= -.50350127E+03 E0= -.50350971E+03  d E =-.306729E-01  mag=   114.1141
 curvature:  -3.90 expect dE=-0.395E-01 dE for cont linesearch -0.176E-02
 ZBRENT: extrapolating
 opt :   6.0586  next Energy=  -503.503084 (dE=-0.325E-01)
 bond charge predicted
       N       E                     dE             d eps       ncg     rms          rms(c)
DAV:   1    -0.503415633012E+03    0.85645E-01   -0.92425E+00 14381   0.664E+00    0.122E+00
DAV:   2    -0.503495698949E+03   -0.80066E-01   -0.77780E-01 12696   0.165E+00    0.785E-01
DAV:   3    -0.503525148476E+03   -0.29450E-01   -0.85963E-02 22336   0.135E+00    0.219E+00
DAV:   4    -0.503498911471E+03    0.26237E-01   -0.70072E-02 22312   0.123E+00    0.622E-01
DAV:   5    -0.503502499152E+03   -0.35877E-02   -0.40806E-03 18800   0.277E-01    0.407E-01
DAV:   6    -0.503503431569E+03   -0.93242E-03   -0.16651E-03 18936   0.203E-01    0.260E-01
DAV:   7    -0.503503345178E+03    0.86392E-04   -0.86884E-04 19200   0.167E-01    0.172E-01
DAV:   8    -0.503503301466E+03    0.43712E-04   -0.20727E-04 19200   0.738E-02    0.142E-01
DAV:   9    -0.503503300569E+03    0.89638E-06   -0.81007E-05 14256   0.301E-02
  10 F= -.50350330E+03 E0= -.50351174E+03  d E =-.327022E-01  mag=   114.0883
 curvature:  -4.03 expect dE=-0.590E-01 dE for cont linesearch -0.198E-03
 trial: gam= 1.29958 g(F)=  0.146E-01 g(S)=  0.000E+00 ort = 0.837E-03 (trialstep = 0.745E+00)
 search vector abs. value=  0.409E-01
 bond charge predicted
       N       E                     dE             d eps       ncg     rms          rms(c)
DAV:   1    -0.503472302718E+03    0.30999E-01   -0.73276E+00 13492   0.386E+00    0.748E-01
DAV:   2    -0.503510917452E+03   -0.38615E-01   -0.37919E-01 12672   0.105E+00    0.517E-01
DAV:   3    -0.503519036729E+03   -0.81193E-02   -0.25486E-02 21864   0.728E-01    0.111E+00
DAV:   4    -0.503513030214E+03    0.60065E-02   -0.27206E-02 21832   0.783E-01    0.548E-01
DAV:   5    -0.503513312161E+03   -0.28195E-03   -0.26078E-03 20656   0.249E-01    0.380E-01
DAV:   6    -0.503513964404E+03   -0.65224E-03   -0.18273E-03 19880   0.225E-01    0.228E-01
DAV:   7    -0.503514028265E+03   -0.63861E-04   -0.55061E-04 17744   0.950E-02    0.166E-01
DAV:   8    -0.503513967277E+03    0.60988E-04   -0.21763E-04 16048   0.737E-02    0.117E-01
DAV:   9    -0.503514006982E+03   -0.39706E-04   -0.13483E-04 17624   0.337E-02    0.128E-01
DAV:  10    -0.503514075306E+03   -0.68323E-04   -0.12174E-04 16984   0.345E-02    0.143E-01
DAV:  11    -0.503514047806E+03    0.27499E-04   -0.89914E-05 14920   0.411E-02    0.960E-02
DAV:  12    -0.503514021867E+03    0.25939E-04   -0.87018E-05  8312   0.499E-02    0.447E-02
DAV:  13    -0.503514044402E+03   -0.22535E-04   -0.88792E-05 15744   0.211E-02    0.515E-02
DAV:  14    -0.503514048284E+03   -0.38817E-05   -0.13999E-05  7224   0.167E-02
  11 F= -.50351405E+03 E0= -.50352249E+03  d E =-.107477E-01  mag=   114.0511
 ZBRENT: can't locate minimum, use default step
 trial-energy change:   -0.010748  1 .order   -0.010875   -0.011731   -0.010019
 step:   2.9819(harm=  5.1087)  dis= 0.02818  next Energy=  -503.543496 (dE=-0.402E-01)
 bond charge predicted
       N       E                     dE             d eps       ncg     rms          rms(c)
DAV:   1    -0.503138512983E+03    0.37553E+00   -0.68531E+01 13449   0.119E+01    0.223E+00
DAV:   2    -0.503501230261E+03   -0.36272E+00   -0.35126E+00 12576   0.312E+00    0.179E+00
DAV:   3    -0.503666519245E+03   -0.16529E+00   -0.62126E-01 20480   0.354E+00    0.499E+00
DAV:   4    -0.503524617193E+03    0.14190E+00   -0.39645E-01 22096   0.306E+00    0.137E+00
DAV:   5    -0.503531402199E+03   -0.67850E-02   -0.24639E-02 20848   0.698E-01    0.107E+00
DAV:   6    -0.503537230565E+03   -0.58284E-02   -0.13368E-02 19456   0.632E-01    0.823E-01
DAV:   7    -0.503537826713E+03   -0.59615E-03   -0.68099E-03 18032   0.376E-01    0.374E-01
DAV:   8    -0.503537676441E+03    0.15027E-03   -0.18400E-03 20304   0.175E-01    0.306E-01
DAV:   9    -0.503537634591E+03    0.41850E-04   -0.72563E-04 16104   0.106E-01    0.270E-01
DAV:  10    -0.503537802375E+03   -0.16778E-03   -0.65964E-04 21216   0.101E-01    0.304E-01
DAV:  11    -0.503537592906E+03    0.20947E-03   -0.83740E-04 18952   0.105E-01    0.188E-01
DAV:  12    -0.503537563262E+03    0.29644E-04   -0.27000E-04 18936   0.583E-02    0.125E-01
DAV:  13    -0.503537592334E+03   -0.29072E-04   -0.15241E-04 16296   0.500E-02    0.963E-02
DAV:  14    -0.503537649377E+03   -0.57043E-04   -0.13493E-04 17984   0.415E-02    0.993E-02
DAV:  15    -0.503537649395E+03   -0.18626E-07   -0.48108E-05 12528   0.338E-02
  12 F= -.50353765E+03 E0= -.50354618E+03  d E =-.343488E-01  mag=   113.9499
 curvature:  -5.07 expect dE=-0.616E-01 dE for cont linesearch -0.695E-02
 ZBRENT: increasing intervall
 opt :   7.4547  next Energy=  -503.544563 (dE=-0.413E-01)
 bond charge predicted
       N       E                     dE             d eps       ncg     rms          rms(c)
DAV:   1    -0.502414841036E+03    0.11228E+01   -0.32084E+02 13663   0.259E+01    0.452E+00
DAV:   2    -0.503426713087E+03   -0.10119E+01   -0.97588E+00 12568   0.599E+00    0.303E+00
DAV:   3    -0.503799523363E+03   -0.37281E+00   -0.11028E+00 22008   0.484E+00    0.753E+00
DAV:   4    -0.503498569738E+03    0.30095E+00   -0.93043E-01 22192   0.483E+00    0.278E+00
DAV:   5    -0.503523728811E+03   -0.25159E-01   -0.99602E-02 20520   0.147E+00    0.210E+00
DAV:   6    -0.503536987847E+03   -0.13259E-01   -0.41702E-02 19360   0.118E+00    0.126E+00
DAV:   7    -0.503542953486E+03   -0.59656E-02   -0.21035E-02 18376   0.631E-01    0.658E-01
DAV:   8    -0.503542948790E+03    0.46963E-05   -0.36755E-03 16776   0.214E-01    0.570E-01
DAV:   9    -0.503543150239E+03   -0.20145E-03   -0.19394E-03 21264   0.160E-01    0.599E-01
DAV:  10    -0.503543114573E+03    0.35666E-04   -0.25481E-03 18896   0.158E-01    0.562E-01
DAV:  11    -0.503542492863E+03    0.62171E-03   -0.18319E-03 19312   0.167E-01    0.398E-01
DAV:  12    -0.503542147444E+03    0.34542E-03   -0.11992E-03 20168   0.134E-01    0.242E-01
DAV:  13    -0.503542304519E+03   -0.15708E-03   -0.82774E-04 20288   0.116E-01    0.208E-01
DAV:  14    -0.503542534764E+03   -0.23025E-03   -0.44703E-04 18224   0.681E-02    0.208E-01
DAV:  15    -0.503542464451E+03    0.70314E-04   -0.19150E-04 15568   0.728E-02    0.129E-01
DAV:  16    -0.503542455351E+03    0.90995E-05   -0.14696E-04 10352   0.578E-02    0.885E-02
DAV:  17    -0.503542489365E+03   -0.34014E-04   -0.16921E-04 17752   0.287E-02    0.797E-02
DAV:  18    -0.503542488672E+03    0.69341E-06   -0.25371E-05  8784   0.238E-02
  13 F= -.50354249E+03 E0= -.50355123E+03  d E =-.391881E-01  mag=   113.7232
 curvature:  -5.04 expect dE=-0.234E+00 dE for cont linesearch -0.508E-02
 ZBRENT: bracketing found
 ZBRENT: interpolating
 opt :   5.3900  next Energy=  -503.549120 (dE=-0.458E-01)
 bond charge predicted
       N       E                     dE             d eps       ncg     rms          rms(c)
DAV:   1    -0.503201732264E+03    0.34076E+00   -0.57950E+01 13428   0.109E+01    0.208E+00
DAV:   2    -0.503526804277E+03   -0.32507E+00   -0.30860E+00 13244   0.317E+00    0.215E+00
DAV:   3    -0.503634303558E+03   -0.10750E+00   -0.56652E-01 20016   0.347E+00    0.433E+00
DAV:   4    -0.503535770074E+03    0.98533E-01   -0.30377E-01 20224   0.257E+00    0.126E+00
DAV:   5    -0.503541202986E+03   -0.54329E-02   -0.16102E-02 19952   0.580E-01    0.101E+00
DAV:   6    -0.503546965931E+03   -0.57629E-02   -0.12645E-02 19760   0.562E-01    0.706E-01
DAV:   7    -0.503548892314E+03   -0.19264E-02   -0.43438E-03 18568   0.262E-01    0.509E-01
DAV:   8    -0.503548029164E+03    0.86315E-03   -0.30081E-03 18816   0.276E-01    0.267E-01
DAV:   9    -0.503548139022E+03   -0.10986E-03   -0.75727E-04 18312   0.790E-02    0.287E-01
DAV:  10    -0.503548103187E+03    0.35834E-04   -0.40407E-04 18224   0.636E-02    0.266E-01
DAV:  11    -0.503547974911E+03    0.12828E-03   -0.73627E-04 18912   0.804E-02    0.199E-01
DAV:  12    -0.503547856784E+03    0.11813E-03   -0.27112E-04 18776   0.731E-02    0.117E-01
DAV:  13    -0.503547874294E+03   -0.17510E-04   -0.13080E-04 17848   0.395E-02    0.738E-02
DAV:  14    -0.503547920229E+03   -0.45935E-04   -0.67875E-05 12704   0.338E-02    0.723E-02
DAV:  15    -0.503547930227E+03   -0.99975E-05   -0.55112E-05 12720   0.241E-02
  14 F= -.50354793E+03 E0= -.50355654E+03  d E =-.446297E-01  mag=   113.8387
 curvature:  -6.58 expect dE=-0.159E+00 dE for cont linesearch -0.116E-03
 trial: gam= 1.44245 g(F)=  0.242E-01 g(S)=  0.000E+00 ort = 0.851E-03 (trialstep = 0.613E+00)
 search vector abs. value=  0.112E+00
 bond charge predicted
       N       E                     dE             d eps       ncg     rms          rms(c)
DAV:   1    -0.503503138332E+03    0.44782E-01   -0.13743E+01 13128   0.368E+00    0.784E-01
DAV:   2    -0.503558855237E+03   -0.55717E-01   -0.54665E-01 12840   0.101E+00    0.547E-01
DAV:   3    -0.503565901370E+03   -0.70461E-02   -0.22710E-02 22288   0.627E-01    0.101E+00
DAV:   4    -0.503561671920E+03    0.42295E-02   -0.22448E-02 21504   0.702E-01    0.552E-01
DAV:   5    -0.503562530386E+03   -0.85847E-03   -0.35913E-03 20472   0.289E-01    0.378E-01
DAV:   6    -0.503563001511E+03   -0.47113E-03   -0.16216E-03 19816   0.213E-01    0.189E-01
DAV:   7    -0.503563010927E+03   -0.94167E-05   -0.61764E-04 18488   0.125E-01    0.122E-01
DAV:   8    -0.503563013765E+03   -0.28377E-05   -0.13506E-04 15600   0.443E-02    0.115E-01
DAV:   9    -0.503563031853E+03   -0.18088E-04   -0.99792E-05 16128   0.302E-02    0.123E-01
DAV:  10    -0.503562986031E+03    0.45822E-04   -0.19535E-04 18592   0.499E-02    0.723E-02
DAV:  11    -0.503562978598E+03    0.74335E-05   -0.53698E-05 11800   0.273E-02
  15 F= -.50356298E+03 E0= -.50357159E+03  d E =-.150484E-01  mag=   113.8053
 ZBRENT: can't locate minimum, use default step
 trial-energy change:   -0.015048  1 .order   -0.015130   -0.015571   -0.014690
 step:   2.4524(harm= 10.8429)  dis= 0.01939  next Energy=  -503.685614 (dE=-0.138E+00)
 bond charge predicted
       N       E                     dE             d eps       ncg     rms          rms(c)
DAV:   1    -0.503318057310E+03    0.24493E+00   -0.13899E+02 13233   0.121E+01    0.218E+00
DAV:   2    -0.503565645388E+03   -0.24759E+00   -0.23404E+00 12760   0.280E+00    0.178E+00
DAV:   3    -0.503696610313E+03   -0.13096E+00   -0.42880E-01 21952   0.300E+00    0.457E+00
DAV:   4    -0.503585049318E+03    0.11156E+00   -0.33489E-01 22200   0.276E+00    0.143E+00
DAV:   5    -0.503597390114E+03   -0.12341E-01   -0.28079E-02 19800   0.752E-01    0.109E+00
DAV:   6    -0.503601764329E+03   -0.43742E-02   -0.12929E-02 19648   0.620E-01    0.682E-01
DAV:   7    -0.503601490170E+03    0.27416E-03   -0.65918E-03 18912   0.428E-01    0.380E-01
DAV:   8    -0.503601563117E+03   -0.72947E-04   -0.14652E-03 18384   0.145E-01    0.358E-01
DAV:   9    -0.503601761398E+03   -0.19828E-03   -0.88577E-04 18768   0.875E-02    0.372E-01
DAV:  10    -0.503601385355E+03    0.37604E-03   -0.19420E-03 18800   0.169E-01    0.197E-01
DAV:  11    -0.503601379587E+03    0.57688E-05   -0.58248E-04 18880   0.700E-02    0.147E-01
DAV:  12    -0.503601422491E+03   -0.42904E-04   -0.14819E-04 12664   0.539E-02    0.142E-01
DAV:  13    -0.503601482238E+03   -0.59747E-04   -0.19322E-04 17768   0.510E-02    0.955E-02
DAV:  14    -0.503601502635E+03   -0.20397E-04   -0.68964E-05 13360   0.364E-02    0.652E-02
DAV:  15    -0.503601508993E+03   -0.63583E-05   -0.21446E-05  8032   0.181E-02
  16 F= -.50360151E+03 E0= -.50361016E+03  d E =-.535788E-01  mag=   113.6917
 curvature:  -7.81 expect dE=-0.180E+00 dE for cont linesearch -0.216E-01
 ZBRENT: increasing intervall
 opt :   6.1311  next Energy=  -503.642882 (dE=-0.950E-01)
 bond charge predicted
       N       E                     dE             d eps       ncg     rms          rms(c)
DAV:   1    -0.501861010919E+03    0.17405E+01   -0.75074E+02 13217   0.302E+01    0.443E+00
DAV:   2    -0.503461442960E+03   -0.16004E+01   -0.15520E+01 12648   0.603E+00    0.322E+00
DAV:   3    -0.503677344127E+03   -0.21590E+00   -0.88394E-01 22472   0.321E+00    0.501E+00
DAV:   4    -0.503610305796E+03    0.67038E-01   -0.62945E-01 21496   0.384E+00    0.353E+00
DAV:   5    -0.503624392326E+03   -0.14087E-01   -0.17360E-01 21056   0.198E+00    0.209E+00
DAV:   6    -0.503635803384E+03   -0.11411E-01   -0.47233E-02 19800   0.116E+00    0.107E+00
DAV:   7    -0.503638054293E+03   -0.22509E-02   -0.21819E-02 19096   0.758E-01    0.806E-01
DAV:   8    -0.503637518246E+03    0.53605E-03   -0.49988E-03 16400   0.324E-01    0.683E-01
DAV:   9    -0.503637155322E+03    0.36292E-03   -0.20926E-03 18368   0.126E-01    0.592E-01
DAV:  10    -0.503636296474E+03    0.85885E-03   -0.57356E-03 20432   0.310E-01    0.386E-01
DAV:  11    -0.503636266024E+03    0.30450E-04   -0.27722E-03 17688   0.151E-01    0.313E-01
DAV:  12    -0.503636331128E+03   -0.65104E-04   -0.77068E-04 18208   0.847E-02    0.250E-01
DAV:  13    -0.503636438853E+03   -0.10773E-03   -0.43823E-04 20232   0.758E-02    0.167E-01
DAV:  14    -0.503636710230E+03   -0.27138E-03   -0.41095E-04 18992   0.793E-02    0.185E-01
DAV:  15    -0.503636640494E+03    0.69735E-04   -0.24059E-04 16768   0.735E-02    0.112E-01
DAV:  16    -0.503636618421E+03    0.22073E-04   -0.13354E-04 11520   0.514E-02    0.837E-02
DAV:  17    -0.503636662496E+03   -0.44075E-04   -0.20034E-04 18448   0.398E-02    0.111E-01
DAV:  18    -0.503636647532E+03    0.14964E-04   -0.49845E-05 12312   0.324E-02    0.793E-02
DAV:  19    -0.503636627391E+03    0.20141E-04   -0.27114E-05  6976   0.255E-02    0.368E-02
DAV:  20    -0.503636630044E+03   -0.26536E-05   -0.35981E-05 10448   0.182E-02
  17 F= -.50363663E+03 E0= -.50364559E+03  d E =-.886998E-01  mag=   113.3996
 curvature: -14.93 expect dE=-0.758E+00 dE for cont linesearch -0.252E-05
 trial: gam= 1.51019 g(F)=  0.508E-01 g(S)=  0.000E+00 ort = 0.137E-03 (trialstep = 0.627E+00)
 search vector abs. value=  0.306E+00
 bond charge predicted
       N       E                     dE             d eps       ncg     rms          rms(c)
DAV:   1    -0.503452227822E+03    0.18440E+00   -0.40168E+01 13568   0.791E+00    0.154E+00
DAV:   2    -0.503654501223E+03   -0.20227E+00   -0.19519E+00 12992   0.225E+00    0.140E+00
DAV:   3    -0.503729709738E+03   -0.75209E-01   -0.31564E-01 20456   0.262E+00    0.361E+00
DAV:   4    -0.503657722827E+03    0.71987E-01   -0.18073E-01 20680   0.195E+00    0.832E-01
DAV:   5    -0.503662515594E+03   -0.47928E-02   -0.76975E-03 19808   0.353E-01    0.685E-01
DAV:   6    -0.503666287391E+03   -0.37718E-02   -0.58316E-03 19472   0.418E-01    0.602E-01
DAV:   7    -0.503667005021E+03   -0.71763E-03   -0.27430E-03 19632   0.251E-01    0.424E-01
DAV:   8    -0.503666384846E+03    0.62018E-03   -0.15804E-03 19072   0.196E-01    0.211E-01
DAV:   9    -0.503666373526E+03    0.11319E-04   -0.35928E-04 17920   0.596E-02    0.183E-01
DAV:  10    -0.503666356727E+03    0.16799E-04   -0.23470E-04 18264   0.520E-02    0.143E-01
DAV:  11    -0.503666331672E+03    0.25055E-04   -0.43300E-04 18720   0.667E-02    0.910E-02
DAV:  12    -0.503666335714E+03   -0.40420E-05   -0.10446E-04 13992   0.416E-02    0.755E-02
DAV:  13    -0.503666352068E+03   -0.16354E-04   -0.21183E-05  8424   0.182E-02    0.583E-02
DAV:  14    -0.503666378600E+03   -0.26531E-04   -0.31315E-05  9824   0.174E-02    0.375E-02
DAV:  15    -0.503666389116E+03   -0.10516E-04   -0.14709E-05  7200   0.178E-02    0.334E-02
DAV:  16    -0.503666393420E+03   -0.43043E-05   -0.11544E-05  6864   0.111E-02
  18 F= -.50366639E+03 E0= -.50367558E+03  d E =-.297634E-01  mag=   113.4102
 ZBRENT: can't locate minimum, use default step
 trial-energy change:   -0.029763  1 .order   -0.029665   -0.031975   -0.027355
 step:   2.5072(harm=  4.3380)  dis= 0.05138  next Energy=  -503.721927 (dE=-0.853E-01)
 bond charge predicted
       N       E                     dE             d eps       ncg     rms          rms(c)
DAV:   1    -0.502367806189E+03    0.12986E+01   -0.46967E+02 13569   0.279E+01    0.470E+00
DAV:   2    -0.503674089564E+03   -0.13063E+01   -0.12110E+01 13666   0.705E+00    0.484E+00
DAV:   3    -0.504228977071E+03   -0.55489E+00   -0.23675E+00 20792   0.795E+00    0.106E+01
DAV:   4    -0.503653525431E+03    0.57545E+00   -0.13953E+00 21352   0.549E+00    0.261E+00
DAV:   5    -0.503686264585E+03   -0.32739E-01   -0.66583E-02 19184   0.103E+00    0.211E+00
DAV:   6    -0.503719276251E+03   -0.33012E-01   -0.46468E-02 19440   0.112E+00    0.183E+00
DAV:   7    -0.503736456137E+03   -0.17180E-01   -0.31533E-02 21072   0.868E-01    0.160E+00
DAV:   8    -0.503730166270E+03    0.62899E-02   -0.15183E-02 19120   0.606E-01    0.908E-01
DAV:   9    -0.503727602214E+03    0.25641E-02   -0.58237E-03 20608   0.328E-01    0.567E-01
DAV:  10    -0.503727275878E+03    0.32634E-03   -0.24308E-03 16568   0.147E-01    0.462E-01
DAV:  11    -0.503727028174E+03    0.24770E-03   -0.31412E-03 20616   0.206E-01    0.363E-01
DAV:  12    -0.503726783614E+03    0.24456E-03   -0.20372E-03 18640   0.175E-01    0.236E-01
DAV:  13    -0.503726884069E+03   -0.10045E-03   -0.38184E-04 15896   0.688E-02    0.196E-01
DAV:  14    -0.503727029965E+03   -0.14590E-03   -0.23899E-04 19448   0.560E-02    0.129E-01
DAV:  15    -0.503727142523E+03   -0.11256E-03   -0.15091E-04 18064   0.475E-02    0.103E-01
DAV:  16    -0.503727157258E+03   -0.14736E-04   -0.33060E-05 10664   0.280E-02    0.877E-02
DAV:  17    -0.503727159587E+03   -0.23286E-05   -0.74397E-05 12480   0.364E-02
  19 F= -.50372716E+03 E0= -.50373705E+03  d E =-.905295E-01  mag=   113.3945
 curvature:  -9.85 expect dE=-0.284E+00 dE for cont linesearch -0.134E-01
 ZBRENT: increasing intervall
 opt :   6.2680  next Energy=  -503.716796 (dE=-0.802E-01)
 bond charge predicted
       N       E                     dE             d eps       ncg     rms          rms(c)
DAV:   1    -0.473380329780E+03    0.30347E+02   -0.27931E+03 13029   0.656E+01    0.138E+01
DAV:   2    -0.502105789908E+03   -0.28725E+02   -0.28006E+02 15208   0.194E+01    0.148E+01
DAV:   3    -0.509457107376E+03   -0.73513E+01   -0.31944E+01 21720   0.264E+01    0.328E+01
DAV:   4    -0.503439541781E+03    0.60176E+01   -0.93202E+00 22264   0.174E+01    0.643E+00
DAV:   5    -0.503540150420E+03   -0.10061E+00   -0.61461E-01 17928   0.279E+00    0.458E+00
DAV:   6    -0.503624935398E+03   -0.84785E-01   -0.17235E-01 18181   0.174E+00    0.394E+00
DAV:   7    -0.503790258160E+03   -0.16532E+00   -0.17870E-01 21816   0.193E+00    0.473E+00
DAV:   8    -0.503778716551E+03    0.11542E-01   -0.10683E-01 20184   0.166E+00    0.347E+00
DAV:   9    -0.503734146792E+03    0.44570E-01   -0.10097E-01 20032   0.159E+00    0.143E+00
DAV:  10    -0.503732816796E+03    0.13300E-02   -0.23607E-02 18944   0.497E-01    0.115E+00
DAV:  11    -0.503732010069E+03    0.80673E-03   -0.47662E-03 15904   0.257E-01    0.103E+00
DAV:  12    -0.503729772801E+03    0.22373E-02   -0.60560E-03 19000   0.295E-01    0.764E-01
DAV:  13    -0.503728634192E+03    0.11386E-02   -0.73704E-03 18584   0.263E-01    0.561E-01
DAV:  14    -0.503728660359E+03   -0.26167E-04   -0.36912E-03 18920   0.199E-01    0.428E-01
DAV:  15    -0.503729046243E+03   -0.38588E-03   -0.11224E-03 19032   0.131E-01    0.321E-01
DAV:  16    -0.503729382558E+03   -0.33631E-03   -0.52347E-04 18824   0.920E-02    0.227E-01
DAV:  17    -0.503729559212E+03   -0.17665E-03   -0.29181E-04 18640   0.722E-02    0.177E-01
DAV:  18    -0.503729584182E+03   -0.24970E-04   -0.10906E-04 17192   0.430E-02    0.150E-01
DAV:  19    -0.503729597939E+03   -0.13757E-04   -0.27804E-04 19216   0.560E-02    0.912E-02
DAV:  20    -0.503729607122E+03   -0.91835E-05   -0.10186E-04 16088   0.350E-02    0.766E-02
DAV:  21    -0.503729619712E+03   -0.12589E-04   -0.19385E-05  8896   0.207E-02    0.647E-02
DAV:  22    -0.503729639787E+03   -0.20076E-04   -0.49285E-05 13088   0.205E-02    0.373E-02
DAV:  23    -0.503729644789E+03   -0.50018E-05   -0.16481E-05  7432   0.126E-02
  20 F= -.50372964E+03 E0= -.50374155E+03  d E =-.930147E-01  mag=   113.1892
 curvature:   7.59 expect dE= 0.771E+00 dE for cont linesearch  0.861E-02
 ZBRENT: bracketing found
 ZBRENT: interpolating
 opt :   4.4746  next Energy=  -503.746355 (dE=-0.110E+00)
 bond charge predicted
       N       E                     dE             d eps       ncg     rms          rms(c)
DAV:   1    -0.502539182452E+03    0.11905E+01   -0.41785E+02 13582   0.262E+01    0.442E+00
DAV:   2    -0.503617931463E+03   -0.10787E+01   -0.10463E+01 12376   0.592E+00    0.293E+00
DAV:   3    -0.503691774659E+03   -0.73843E-01   -0.43905E-01 20856   0.154E+00    0.238E+00
DAV:   4    -0.503903925470E+03   -0.21215E+00   -0.52896E-01 22208   0.337E+00    0.599E+00
DAV:   5    -0.503721972535E+03    0.18195E+00   -0.51133E-01 22376   0.334E+00    0.178E+00
DAV:   6    -0.503747864266E+03   -0.25892E-01   -0.47135E-02 20928   0.979E-01    0.113E+00
DAV:   7    -0.503748378068E+03   -0.51380E-03   -0.14840E-02 19320   0.589E-01    0.745E-01
DAV:   8    -0.503748152556E+03    0.22551E-03   -0.45852E-03 18992   0.359E-01    0.697E-01
DAV:   9    -0.503747576505E+03    0.57605E-03   -0.12642E-03 18328   0.172E-01    0.581E-01
DAV:  10    -0.503747101473E+03    0.47503E-03   -0.53200E-03 21488   0.334E-01    0.471E-01
DAV:  11    -0.503747450243E+03   -0.34877E-03   -0.35004E-03 18664   0.185E-01    0.506E-01
DAV:  12    -0.503747391981E+03    0.58262E-04   -0.79282E-04 18248   0.106E-01    0.461E-01
DAV:  13    -0.503746637065E+03    0.75492E-03   -0.17785E-03 20664   0.199E-01    0.174E-01
DAV:  14    -0.503746803573E+03   -0.16651E-03   -0.75115E-04 19864   0.107E-01    0.189E-01
DAV:  15    -0.503746872296E+03   -0.68723E-04   -0.18293E-04 14104   0.459E-02    0.180E-01
DAV:  16    -0.503746803301E+03    0.68996E-04   -0.26961E-04 18728   0.768E-02    0.793E-02
DAV:  17    -0.503746826485E+03   -0.23185E-04   -0.70929E-05 13536   0.280E-02    0.634E-02
DAV:  18    -0.503746843888E+03   -0.17402E-04   -0.26347E-05  9240   0.206E-02    0.579E-02
DAV:  19    -0.503746847931E+03   -0.40435E-05   -0.20203E-05  7832   0.194E-02
  21 F= -.50374685E+03 E0= -.50375771E+03  d E =-.110218E+00  mag=   113.3206
 curvature: -14.73 expect dE=-0.748E+00 dE for cont linesearch -0.166E-05
 trial: gam= 0.86452 g(F)=  0.508E-01 g(S)=  0.000E+00 ort =-0.186E-03 (trialstep = 0.140E+01)
 search vector abs. value=  0.279E+00
 bond charge predicted
       N       E                     dE             d eps       ncg     rms          rms(c)
DAV:   1    -0.503148201325E+03    0.59864E+00   -0.20644E+02 13778   0.192E+01    0.329E+00
DAV:   2    -0.503773400151E+03   -0.62520E+00   -0.58561E+00 12680   0.475E+00    0.317E+00
DAV:   3    -0.504062538031E+03   -0.28914E+00   -0.11982E+00 20560   0.539E+00    0.733E+00
DAV:   4    -0.503780500164E+03    0.28204E+00   -0.84859E-01 21256   0.418E+00    0.192E+00
DAV:   5    -0.503795071286E+03   -0.14571E-01   -0.37945E-02 19584   0.865E-01    0.148E+00
DAV:   6    -0.503808670584E+03   -0.13599E-01   -0.26378E-02 19976   0.851E-01    0.123E+00
DAV:   7    -0.503813358049E+03   -0.46875E-02   -0.12424E-02 19320   0.512E-01    0.940E-01
DAV:   8    -0.503810688430E+03    0.26696E-02   -0.78544E-03 18976   0.432E-01    0.457E-01
DAV:   9    -0.503810559884E+03    0.12855E-03   -0.19666E-03 19344   0.155E-01    0.430E-01
DAV:  10    -0.503810637087E+03   -0.77203E-04   -0.11328E-03 19920   0.123E-01    0.452E-01
DAV:  11    -0.503810100976E+03    0.53611E-03   -0.24336E-03 18848   0.176E-01    0.308E-01
DAV:  12    -0.503809999874E+03    0.10110E-03   -0.81553E-04 18992   0.915E-02    0.219E-01
DAV:  13    -0.503809982192E+03    0.17682E-04   -0.23411E-04 19080   0.633E-02    0.152E-01
DAV:  14    -0.503810085304E+03   -0.10311E-03   -0.30322E-04 19096   0.608E-02    0.108E-01
DAV:  15    -0.503810150932E+03   -0.65628E-04   -0.11912E-04 15520   0.387E-02    0.104E-01
DAV:  16    -0.503810140594E+03    0.10338E-04   -0.29784E-05 10072   0.267E-02    0.832E-02
DAV:  17    -0.503810129877E+03    0.10717E-04   -0.93400E-05 10296   0.429E-02    0.554E-02
DAV:  18    -0.503810147830E+03   -0.17953E-04   -0.92831E-05 15576   0.199E-02    0.598E-02
DAV:  19    -0.503810137333E+03    0.10497E-04   -0.19539E-05  7728   0.248E-02    0.352E-02
DAV:  20    -0.503810137219E+03    0.11409E-06   -0.14235E-05  7976   0.127E-02
  22 F= -.50381014E+03 E0= -.50382152E+03  d E =-.632893E-01  mag=   113.5331
 ZBRENT: can't locate minimum, use default step
 trial-energy change:   -0.063289  1 .order   -0.063547   -0.070661   -0.056432
 step:   5.5855(harm=  6.9344)  dis= 0.08894  next Energy=  -503.922300 (dE=-0.175E+00)
 bond charge predicted
       N       E                     dE             d eps       ncg     rms          rms(c)
DAV:   1    -0.468956098665E+03    0.34854E+02   -0.31166E+03 13340   0.699E+01    0.146E+01
DAV:   2    -0.502309185734E+03   -0.33353E+02   -0.32366E+02 15088   0.209E+01    0.170E+01
DAV:   3    -0.509087098083E+03   -0.67779E+01   -0.34560E+01 21640   0.270E+01    0.314E+01
DAV:   4    -0.503674133902E+03    0.54130E+01   -0.95099E+00 22312   0.177E+01    0.709E+00
DAV:   5    -0.503748625196E+03   -0.74491E-01   -0.68431E-01 16592   0.304E+00    0.503E+00
DAV:   6    -0.503804492069E+03   -0.55867E-01   -0.17726E-01 19074   0.172E+00    0.385E+00
DAV:   7    -0.503958112584E+03   -0.15362E+00   -0.16928E-01 21616   0.160E+00    0.401E+00
DAV:   8    -0.503943529778E+03    0.14583E-01   -0.15248E-01 19608   0.205E+00    0.242E+00
DAV:   9    -0.503928120252E+03    0.15410E-01   -0.66658E-02 20120   0.130E+00    0.150E+00
DAV:  10    -0.503928046738E+03    0.73514E-04   -0.20133E-02 19128   0.538E-01    0.144E+00
DAV:  11    -0.503926779394E+03    0.12673E-02   -0.49984E-03 17264   0.288E-01    0.130E+00
DAV:  12    -0.503921288973E+03    0.54904E-02   -0.93240E-03 20592   0.409E-01    0.876E-01
DAV:  13    -0.503919519285E+03    0.17697E-02   -0.12131E-02 18800   0.349E-01    0.595E-01
DAV:  14    -0.503919712370E+03   -0.19309E-03   -0.45933E-03 19480   0.234E-01    0.471E-01
DAV:  15    -0.503920118220E+03   -0.40585E-03   -0.16963E-03 19160   0.166E-01    0.342E-01
DAV:  16    -0.503920563443E+03   -0.44522E-03   -0.95979E-04 19336   0.122E-01    0.259E-01
DAV:  17    -0.503920748917E+03   -0.18547E-03   -0.46051E-04 18376   0.822E-02    0.210E-01
DAV:  18    -0.503920737457E+03    0.11460E-04   -0.14551E-04 17352   0.550E-02    0.174E-01
DAV:  19    -0.503920741929E+03   -0.44724E-05   -0.49604E-04 19016   0.674E-02    0.992E-02
DAV:  20    -0.503920781751E+03   -0.39822E-04   -0.14591E-04 17080   0.457E-02    0.895E-02
DAV:  21    -0.503920784648E+03   -0.28970E-05   -0.31356E-05  9744   0.303E-02
  23 F= -.50392078E+03 E0= -.50393293E+03  d E =-.173937E+00  mag=   113.9191
 curvature: -18.00 expect dE=-0.205E+01 dE for cont linesearch -0.694E-02
 trial: gam= 2.09517 g(F)=  0.114E+00 g(S)=  0.000E+00 ort = 0.104E-01 (trialstep = 0.451E+00)
 search vector abs. value=  0.138E+01
 bond charge predicted
       N       E                     dE             d eps       ncg     rms          rms(c)
DAV:   1    -0.503756061654E+03    0.16472E+00   -0.10178E+02 13192   0.106E+01    0.190E+00
DAV:   2    -0.503966321159E+03   -0.21026E+00   -0.19256E+00 13706   0.274E+00    0.203E+00
DAV:   3    -0.504027708953E+03   -0.61388E-01   -0.34131E-01 20536   0.282E+00    0.348E+00
DAV:   4    -0.503971653832E+03    0.56055E-01   -0.21294E-01 20840   0.213E+00    0.127E+00
DAV:   5    -0.503979145339E+03   -0.74915E-02   -0.17927E-02 20176   0.664E-01    0.944E-01
DAV:   6    -0.503984253377E+03   -0.51080E-02   -0.12228E-02 20160   0.587E-01    0.699E-01
DAV:   7    -0.503983400522E+03    0.85285E-03   -0.54320E-03 18904   0.377E-01    0.337E-01
DAV:   8    -0.503983310798E+03    0.89724E-04   -0.12350E-03 19128   0.129E-01    0.271E-01
DAV:   9    -0.503983379462E+03   -0.68664E-04   -0.40367E-04 16624   0.655E-02    0.277E-01
DAV:  10    -0.503983480989E+03   -0.10153E-03   -0.98669E-04 19216   0.953E-02    0.256E-01
DAV:  11    -0.503983383666E+03    0.97322E-04   -0.63841E-04 19168   0.928E-02    0.176E-01
DAV:  12    -0.503983343175E+03    0.40491E-04   -0.15215E-04 17904   0.450E-02    0.120E-01
DAV:  13    -0.503983360186E+03   -0.17011E-04   -0.13996E-04 11560   0.591E-02    0.858E-02
DAV:  14    -0.503983419113E+03   -0.58927E-04   -0.21789E-04 17984   0.343E-02    0.988E-02
DAV:  15    -0.503983413320E+03    0.57933E-05   -0.20220E-05  8584   0.208E-02
  24 F= -.50398341E+03 E0= -.50399540E+03  d E =-.626287E-01  mag=   114.0471
 ZBRENT: can't locate minimum, use default step
 trial-energy change:   -0.062629  1 .order   -0.062079   -0.061178   -0.062980
 step:   1.8043(harm=  1.8043)  dis= 0.04483  next Energy=  -504.153307 (dE=-0.233E+00)
 bond charge predicted
       N       E                     dE             d eps       ncg     rms          rms(c)
DAV:   1    -0.495315721873E+03    0.86677E+01   -0.15337E+03 12981   0.451E+01    0.688E+00
DAV:   2    -0.503710533216E+03   -0.83948E+01   -0.82059E+01 15016   0.107E+01    0.712E+00
DAV:   3    -0.505229444876E+03   -0.15189E+01   -0.80033E+00 21656   0.121E+01    0.153E+01
DAV:   4    -0.504052870563E+03    0.11766E+01   -0.30218E+00 22296   0.838E+00    0.385E+00
DAV:   5    -0.504100045944E+03   -0.47175E-01   -0.12342E-01 18744   0.151E+00    0.301E+00
DAV:   6    -0.504148872429E+03   -0.48826E-01   -0.79040E-02 19896   0.144E+00    0.218E+00
DAV:   7    -0.504179708796E+03   -0.30836E-01   -0.57147E-02 21008   0.115E+00    0.183E+00
DAV:   8    -0.504176628494E+03    0.30803E-02   -0.27209E-02 18992   0.799E-01    0.999E-01
DAV:   9    -0.504174625536E+03    0.20030E-02   -0.11142E-02 20432   0.489E-01    0.786E-01
DAV:  10    -0.504174936678E+03   -0.31114E-03   -0.43708E-03 18112   0.214E-01    0.780E-01
DAV:  11    -0.504174382748E+03    0.55393E-03   -0.31397E-03 18952   0.207E-01    0.636E-01
DAV:  12    -0.504173492907E+03    0.88984E-03   -0.43975E-03 18856   0.219E-01    0.397E-01
DAV:  13    -0.504173378498E+03    0.11441E-03   -0.15109E-03 19920   0.141E-01    0.283E-01
DAV:  14    -0.504173598461E+03   -0.21996E-03   -0.68293E-04 19928   0.100E-01    0.228E-01
DAV:  15    -0.504173809180E+03   -0.21072E-03   -0.52879E-04 17240   0.737E-02    0.192E-01
DAV:  16    -0.504173840391E+03   -0.31212E-04   -0.77806E-05 14680   0.375E-02    0.176E-01
DAV:  17    -0.504173787700E+03    0.52691E-04   -0.11863E-04 14656   0.522E-02    0.107E-01
DAV:  18    -0.504173815966E+03   -0.28266E-04   -0.33380E-04 20184   0.633E-02    0.805E-02
DAV:  19    -0.504173815166E+03    0.79969E-06   -0.70983E-05 14352   0.332E-02
  25 F= -.50417382E+03 E0= -.50418504E+03  d E =-.253031E+00  mag=   114.3167
 curvature: -13.98 expect dE=-0.206E+01 dE for cont linesearch -0.181E+00
 ZBRENT: increasing intervall
 opt :   4.5106  next Energy=  -504.519728 (dE=-0.599E+00)
 bond charge predicted
       N       E                     dE             d eps       ncg     rms          rms(c)
DAV:   1    -0.436149964888E+03    0.68024E+02   -0.34823E+03 12423   0.756E+01    0.194E+01
DAV:   2    -0.500959570916E+03   -0.64810E+02   -0.63105E+02 12768   0.285E+01    0.216E+01
DAV:   3    -0.515037944080E+03   -0.14078E+02   -0.60052E+01 18344   0.384E+01    0.437E+01
DAV:   4    -0.503738407575E+03    0.11300E+02   -0.14797E+01 20584   0.249E+01    0.929E+00
DAV:   5    -0.503957353153E+03   -0.21895E+00   -0.18439E+00 16280   0.437E+00    0.665E+00
DAV:   6    -0.504083952830E+03   -0.12660E+00   -0.33677E-01 21312   0.256E+00    0.530E+00
DAV:   7    -0.504276948159E+03   -0.19300E+00   -0.26962E-01 20456   0.243E+00    0.500E+00
DAV:   8    -0.504359985643E+03   -0.83037E-01   -0.18511E-01 20096   0.221E+00    0.392E+00
DAV:   9    -0.504323410261E+03    0.36575E-01   -0.20550E-01 19168   0.249E+00    0.187E+00
DAV:  10    -0.504327273985E+03   -0.38637E-02   -0.39871E-02 18952   0.714E-01    0.189E+00
DAV:  11    -0.504326661099E+03    0.61289E-03   -0.74525E-03 15408   0.319E-01    0.177E+00
DAV:  12    -0.504315964469E+03    0.10697E-01   -0.19330E-02 20968   0.643E-01    0.109E+00
DAV:  13    -0.504312418014E+03    0.35465E-02   -0.16803E-02 18920   0.433E-01    0.811E-01
DAV:  14    -0.504311667611E+03    0.75040E-03   -0.58984E-03 19120   0.275E-01    0.693E-01
DAV:  15    -0.504311891739E+03   -0.22413E-03   -0.23047E-03 19280   0.197E-01    0.554E-01
DAV:  16    -0.504312139958E+03   -0.24822E-03   -0.31047E-03 19520   0.263E-01    0.329E-01
DAV:  17    -0.504312638085E+03   -0.49813E-03   -0.12338E-03 18896   0.121E-01    0.325E-01
DAV:  18    -0.504312733301E+03   -0.95216E-04   -0.31083E-04 15840   0.741E-02    0.287E-01
DAV:  19    -0.504312622009E+03    0.11129E-03   -0.80259E-04 20696   0.130E-01    0.155E-01
DAV:  20    -0.504312664728E+03   -0.42719E-04   -0.38532E-04 19136   0.740E-02    0.157E-01
DAV:  21    -0.504312690586E+03   -0.25859E-04   -0.94130E-05 15072   0.397E-02    0.133E-01
DAV:  22    -0.504312702105E+03   -0.11518E-04   -0.11123E-04 15712   0.462E-02    0.680E-02
DAV:  23    -0.504312715454E+03   -0.13349E-04   -0.54529E-05 10984   0.314E-02    0.481E-02
DAV:  24    -0.504312728567E+03   -0.13114E-04   -0.44741E-05 11280   0.155E-02    0.476E-02
DAV:  25    -0.504312730442E+03   -0.18748E-05   -0.92681E-06  6832   0.130E-02
  26 F= -.50431273E+03 E0= -.50432199E+03  d E =-.391946E+00  mag=   114.5220
 curvature: -26.76 expect dE=-0.677E+01 dE for cont linesearch -0.243E+00
 ZBRENT: bracketing found
 ZBRENT: interpolating
 opt :   3.2764  next Energy=  -504.381914 (dE=-0.461E+00)
 bond charge predicted
       N       E                     dE             d eps       ncg     rms          rms(c)
DAV:   1    -0.500357576483E+03    0.39552E+01   -0.12041E+03 13662   0.408E+01    0.576E+00
DAV:   2    -0.504110545354E+03   -0.37530E+01   -0.36229E+01 14458   0.896E+00    0.555E+00
DAV:   3    -0.505066104443E+03   -0.95556E+00   -0.40808E+00 21816   0.974E+00    0.130E+01
DAV:   4    -0.504222572917E+03    0.84353E+00   -0.19535E+00 22384   0.671E+00    0.326E+00
DAV:   5    -0.504269288315E+03   -0.46715E-01   -0.90518E-02 18696   0.135E+00    0.258E+00
DAV:   6    -0.504327265008E+03   -0.57977E-01   -0.71989E-02 19717   0.136E+00    0.226E+00
DAV:   7    -0.504343297248E+03   -0.16032E-01   -0.37957E-02 20192   0.967E-01    0.177E+00
DAV:   8    -0.504334586081E+03    0.87112E-02   -0.21775E-02 18992   0.739E-01    0.914E-01
DAV:   9    -0.504332638722E+03    0.19474E-02   -0.76158E-03 20744   0.376E-01    0.686E-01
DAV:  10    -0.504331868027E+03    0.77069E-03   -0.33521E-03 15312   0.200E-01    0.560E-01
DAV:  11    -0.504330734772E+03    0.11333E-02   -0.43923E-03 18712   0.201E-01    0.362E-01
DAV:  12    -0.504330615970E+03    0.11880E-03   -0.23038E-03 18160   0.139E-01    0.275E-01
DAV:  13    -0.504330717996E+03   -0.10203E-03   -0.45686E-04 15976   0.830E-02    0.227E-01
DAV:  14    -0.504330899457E+03   -0.18146E-03   -0.30745E-04 18952   0.681E-02    0.158E-01
DAV:  15    -0.504331009431E+03   -0.10997E-03   -0.20099E-04 17728   0.508E-02    0.117E-01
DAV:  16    -0.504331010638E+03   -0.12077E-05   -0.77161E-05 14144   0.429E-02
  27 F= -.50433101E+03 E0= -.50434104E+03  d E =-.410226E+00  mag=   114.4989
 curvature:  -7.62 expect dE=-0.146E+01 dE for cont linesearch -0.225E-01
 ZBRENT: interpolating
 opt :   3.7248  next Energy=  -504.345354 (dE=-0.425E+00)
 bond charge predicted
       N       E                     dE             d eps       ncg     rms          rms(c)
DAV:   1    -0.504122859181E+03    0.20815E+00   -0.10047E+02 12955   0.106E+01    0.192E+00
DAV:   2    -0.504320615205E+03   -0.19776E+00   -0.18952E+00 12504   0.262E+00    0.137E+00
DAV:   3    -0.504339668906E+03   -0.19054E-01   -0.87985E-02 22072   0.837E-01    0.140E+00
DAV:   4    -0.504353519264E+03   -0.13850E-01   -0.82944E-02 21592   0.142E+00    0.191E+00
DAV:   5    -0.504346696082E+03    0.68232E-02   -0.55369E-02 21848   0.108E+00    0.725E-01
DAV:   6    -0.504348531296E+03   -0.18352E-02   -0.66645E-03 18152   0.307E-01    0.353E-01
DAV:   7    -0.504348356185E+03    0.17511E-03   -0.13591E-03 19136   0.156E-01    0.273E-01
DAV:   8    -0.504348317624E+03    0.38562E-04   -0.41558E-04 15760   0.768E-02    0.260E-01
DAV:   9    -0.504348133718E+03    0.18391E-03   -0.47955E-04 19712   0.111E-01    0.200E-01
DAV:  10    -0.504347992081E+03    0.14164E-03   -0.57542E-04 20296   0.116E-01    0.165E-01
DAV:  11    -0.504347927080E+03    0.65001E-04   -0.32527E-04 18592   0.638E-02    0.134E-01
DAV:  12    -0.504347894218E+03    0.32862E-04   -0.14346E-04 17792   0.481E-02    0.863E-02
DAV:  13    -0.504347917047E+03   -0.22829E-04   -0.98097E-05 16128   0.377E-02    0.651E-02
DAV:  14    -0.504347927666E+03   -0.10619E-04   -0.26139E-05  9120   0.214E-02    0.548E-02
DAV:  15    -0.504347930360E+03   -0.26945E-05   -0.14943E-05  6928   0.151E-02
  28 F= -.50434793E+03 E0= -.50435763E+03  d E =-.427146E+00  mag=   114.5293
 curvature:  -4.85 expect dE=-0.102E+01 dE for cont linesearch -0.503E-03
 trial: gam= 0.81599 g(F)=  0.210E+00 g(S)=  0.000E+00 ort = 0.120E-01 (trialstep = 0.111E+01)
 search vector abs. value=  0.115E+01
 bond charge predicted
       N       E                     dE             d eps       ncg     rms          rms(c)
DAV:   1    -0.502711043085E+03    0.16369E+01   -0.68027E+02 13417   0.323E+01    0.490E+00
DAV:   2    -0.504353438700E+03   -0.16424E+01   -0.15939E+01 12664   0.711E+00    0.335E+00
DAV:   3    -0.504897489408E+03   -0.54405E+00   -0.16645E+00 22568   0.585E+00    0.934E+00
DAV:   4    -0.504433728115E+03    0.46376E+00   -0.11891E+00 22288   0.527E+00    0.269E+00
DAV:   5    -0.504481527078E+03   -0.47799E-01   -0.63831E-02 18184   0.927E-01    0.180E+00
DAV:   6    -0.504508054962E+03   -0.26528E-01   -0.29466E-02 18448   0.762E-01    0.109E+00
DAV:   7    -0.504510288687E+03   -0.22337E-02   -0.12536E-02 19864   0.599E-01    0.858E-01
DAV:   8    -0.504508839262E+03    0.14494E-02   -0.60660E-03 19912   0.456E-01    0.680E-01
DAV:   9    -0.504508688857E+03    0.15040E-03   -0.16897E-03 19120   0.192E-01    0.632E-01
DAV:  10    -0.504508369210E+03    0.31965E-03   -0.23202E-03 18752   0.168E-01    0.516E-01
DAV:  11    -0.504507824977E+03    0.54423E-03   -0.45038E-03 20272   0.259E-01    0.323E-01
DAV:  12    -0.504508117643E+03   -0.29267E-03   -0.11950E-03 18904   0.120E-01    0.341E-01
DAV:  13    -0.504508215510E+03   -0.97867E-04   -0.37089E-04 16832   0.769E-02    0.285E-01
DAV:  14    -0.504508140320E+03    0.75189E-04   -0.81457E-04 21168   0.138E-01    0.150E-01
DAV:  15    -0.504508252349E+03   -0.11203E-03   -0.28926E-04 18800   0.653E-02    0.165E-01
DAV:  16    -0.504508256632E+03   -0.42831E-05   -0.93463E-05 14560   0.389E-02
  29 F= -.50450826E+03 E0= -.50451726E+03  d E =-.160326E+00  mag=   114.9166
 trial-energy change:   -0.160326  1 .order   -0.151126   -0.243282   -0.058969
 step:   1.3642(harm=  1.4596)  dis= 0.04978  next Energy=  -504.515262 (dE=-0.167E+00)
 bond charge predicted
       N       E                     dE             d eps       ncg     rms          rms(c)
DAV:   1    -0.504382621684E+03    0.12563E+00   -0.25516E+01 13216   0.596E+00    0.118E+00
DAV:   2    -0.504508347933E+03   -0.12573E+00   -0.12286E+00 12870   0.167E+00    0.880E-01
DAV:   3    -0.504552807205E+03   -0.44459E-01   -0.13671E-01 22056   0.180E+00    0.269E+00
DAV:   4    -0.504511304957E+03    0.41502E-01   -0.10655E-01 22336   0.157E+00    0.651E-01
DAV:   5    -0.504514469437E+03   -0.31645E-02   -0.59834E-03 19648   0.333E-01    0.531E-01
DAV:   6    -0.504516123180E+03   -0.16537E-02   -0.32097E-03 19832   0.319E-01    0.445E-01
DAV:   7    -0.504515805310E+03    0.31787E-03   -0.15641E-03 18800   0.219E-01    0.228E-01
DAV:   8    -0.504515739109E+03    0.66201E-04   -0.48534E-04 19760   0.933E-02    0.167E-01
DAV:   9    -0.504515768408E+03   -0.29299E-04   -0.16389E-04 15352   0.456E-02    0.148E-01
DAV:  10    -0.504515816789E+03   -0.48381E-04   -0.21447E-04 18840   0.515E-02    0.108E-01
DAV:  11    -0.504515834748E+03   -0.17958E-04   -0.15312E-04 18288   0.448E-02    0.771E-02
DAV:  12    -0.504515843804E+03   -0.90566E-05   -0.30405E-05  9480   0.225E-02
  30 F= -.50451584E+03 E0= -.50452468E+03  d E =-.167913E+00  mag=   114.9855
 curvature:  -3.54 expect dE=-0.524E+00 dE for cont linesearch -0.309E-04
 trial: gam= 0.02486 g(F)=  0.148E+00 g(S)=  0.000E+00 ort = 0.317E-02 (trialstep = 0.116E+01)
 search vector abs. value=  0.149E+00
 bond charge predicted
       N       E                     dE             d eps       ncg     rms          rms(c)
DAV:   1    -0.503951404929E+03    0.56443E+00   -0.53150E+01 13243   0.197E+01    0.424E+00
DAV:   2    -0.504591852940E+03   -0.64045E+00   -0.59242E+00 12632   0.545E+00    0.333E+00
DAV:   3    -0.505196019590E+03   -0.60417E+00   -0.18101E+00 21592   0.683E+00    0.104E+01
DAV:   4    -0.504606511773E+03    0.58951E+00   -0.13587E+00 22224   0.559E+00    0.224E+00
DAV:   5    -0.504634060637E+03   -0.27549E-01   -0.46951E-02 19752   0.916E-01    0.180E+00
DAV:   6    -0.504657286244E+03   -0.23226E-01   -0.33501E-02 19960   0.100E+00    0.149E+00
DAV:   7    -0.504664132959E+03   -0.68467E-02   -0.17998E-02 19904   0.702E-01    0.996E-01
DAV:   8    -0.504662019298E+03    0.21137E-02   -0.91962E-03 18992   0.470E-01    0.539E-01
DAV:   9    -0.504661805818E+03    0.21348E-03   -0.20218E-03 19112   0.167E-01    0.494E-01
DAV:  10    -0.504661545231E+03    0.26059E-03   -0.99988E-04 18432   0.107E-01    0.443E-01
DAV:  11    -0.504660956997E+03    0.58823E-03   -0.22669E-03 20056   0.196E-01    0.271E-01
DAV:  12    -0.504660929314E+03    0.27683E-04   -0.10504E-03 19480   0.124E-01    0.224E-01
DAV:  13    -0.504661035092E+03   -0.10578E-03   -0.23871E-04 18168   0.531E-02    0.206E-01
DAV:  14    -0.504661094007E+03   -0.58915E-04   -0.29684E-04 19808   0.814E-02    0.123E-01
DAV:  15    -0.504661187858E+03   -0.93850E-04   -0.18293E-04 18536   0.513E-02    0.113E-01
DAV:  16    -0.504661210799E+03   -0.22942E-04   -0.37999E-05 10776   0.256E-02    0.112E-01
DAV:  17    -0.504661192463E+03    0.18336E-04   -0.41033E-05  8904   0.408E-02    0.681E-02
DAV:  18    -0.504661198511E+03   -0.60478E-05   -0.93996E-05 12920   0.394E-02
  31 F= -.50466120E+03 E0= -.50466967E+03  d E =-.145355E+00  mag=   115.2891
 trial-energy change:   -0.145355  1 .order   -0.144856   -0.171542   -0.118171
 step:   3.3617(harm=  3.7203)  dis= 0.09796  next Energy=  -504.777156 (dE=-0.261E+00)
 bond charge predicted
       N       E                     dE             d eps       ncg     rms          rms(c)
DAV:   1    -0.502190176838E+03    0.24710E+01   -0.19459E+02 13443   0.374E+01    0.996E+00
DAV:   2    -0.504644825581E+03   -0.24546E+01   -0.21631E+01 12808   0.115E+01    0.846E+00
DAV:   3    -0.508121821540E+03   -0.34770E+01   -0.77363E+00 22160   0.170E+01    0.256E+01
DAV:   4    -0.504591812901E+03    0.35300E+01   -0.58822E+00 22288   0.130E+01    0.479E+00
DAV:   5    -0.504674057618E+03   -0.82245E-01   -0.27536E-01 19120   0.185E+00    0.372E+00
DAV:   6    -0.504731647647E+03   -0.57590E-01   -0.97266E-02 17560   0.151E+00    0.292E+00
DAV:   7    -0.504813775934E+03   -0.82128E-01   -0.96928E-02 21808   0.159E+00    0.296E+00
DAV:   8    -0.504809140808E+03    0.46351E-02   -0.56587E-02 20008   0.121E+00    0.191E+00
DAV:   9    -0.504796368902E+03    0.12772E-01   -0.30042E-02 19584   0.849E-01    0.100E+00
DAV:  10    -0.504795492529E+03    0.87637E-03   -0.92144E-03 19552   0.302E-01    0.888E-01
DAV:  11    -0.504794788072E+03    0.70446E-03   -0.20957E-03 15248   0.168E-01    0.795E-01
DAV:  12    -0.504792775057E+03    0.20130E-02   -0.55653E-03 20080   0.296E-01    0.505E-01
DAV:  13    -0.504792602447E+03    0.17261E-03   -0.36644E-03 19216   0.214E-01    0.422E-01
DAV:  14    -0.504792616906E+03   -0.14459E-04   -0.12907E-03 19040   0.140E-01    0.323E-01
DAV:  15    -0.504792869685E+03   -0.25278E-03   -0.63182E-04 18488   0.930E-02    0.212E-01
DAV:  16    -0.504793077139E+03   -0.20745E-03   -0.40668E-04 20016   0.901E-02    0.180E-01
DAV:  17    -0.504793098976E+03   -0.21837E-04   -0.14569E-04 16544   0.588E-02    0.142E-01
DAV:  18    -0.504793109204E+03   -0.10228E-04   -0.15286E-04 18584   0.553E-02    0.966E-02
DAV:  19    -0.504793131849E+03   -0.22645E-04   -0.12385E-04 17056   0.491E-02    0.742E-02
DAV:  20    -0.504793147431E+03   -0.15581E-04   -0.38940E-05 10936   0.259E-02    0.575E-02
DAV:  21    -0.504793158096E+03   -0.10665E-04   -0.13899E-05  7224   0.181E-02    0.380E-02
DAV:  22    -0.504793166518E+03   -0.84221E-05   -0.30565E-05 10256   0.154E-02
  32 F= -.50479317E+03 E0= -.50480082E+03  d E =-.277323E+00  mag=   115.6983
 curvature:  -1.83 expect dE=-0.617E-01 dE for cont linesearch -0.306E-02
 ZBRENT: extrapolating
 opt :   3.7644  next Energy=  -504.796342 (dE=-0.280E+00)
 bond charge predicted
       N       E                     dE             d eps       ncg     rms          rms(c)
DAV:   1    -0.504712154766E+03    0.81003E-01   -0.64259E+00 13323   0.682E+00    0.138E+00
DAV:   2    -0.504785666267E+03   -0.73512E-01   -0.69769E-01 12592   0.174E+00    0.899E-01
DAV:   3    -0.504792266923E+03   -0.66007E-02   -0.23514E-02 21768   0.485E-01    0.918E-01
DAV:   4    -0.504799144873E+03   -0.68780E-02   -0.39536E-02 21792   0.933E-01    0.134E+00
DAV:   5    -0.504796069085E+03    0.30758E-02   -0.28750E-02 21816   0.788E-01    0.597E-01
DAV:   6    -0.504796523825E+03   -0.45474E-03   -0.47152E-03 21200   0.362E-01    0.299E-01
DAV:   7    -0.504796524249E+03   -0.42460E-06   -0.13342E-03 18080   0.168E-01    0.191E-01
DAV:   8    -0.504796524995E+03   -0.74568E-06   -0.21170E-04 14824   0.545E-02    0.177E-01
DAV:   9    -0.504796462357E+03    0.62638E-04   -0.11995E-04 17520   0.442E-02    0.136E-01
DAV:  10    -0.504796432986E+03    0.29372E-04   -0.26132E-04 18472   0.541E-02    0.891E-02
DAV:  11    -0.504796446124E+03   -0.13138E-04   -0.12752E-04 17584   0.376E-02    0.758E-02
DAV:  12    -0.504796459488E+03   -0.13365E-04   -0.35920E-05  9720   0.293E-02    0.532E-02
DAV:  13    -0.504796479452E+03   -0.19964E-04   -0.33388E-05  9024   0.180E-02    0.394E-02
DAV:  14    -0.504796489104E+03   -0.96513E-05   -0.16619E-05  6984   0.137E-02
  33 F= -.50479649E+03 E0= -.50480399E+03  d E =-.280645E+00  mag=   115.7524
 curvature:  -1.90 expect dE=-0.763E-01 dE for cont linesearch -0.384E-06
 trial: gam= 0.27334 g(F)=  0.401E-01 g(S)=  0.000E+00 ort = 0.174E-03 (trialstep = 0.168E+01)
 search vector abs. value=  0.513E-01
 bond charge predicted
       N       E                     dE             d eps       ncg     rms          rms(c)
DAV:   1    -0.504431047123E+03    0.36543E+00   -0.35846E+01 12512   0.150E+01    0.338E+00
DAV:   2    -0.504780322569E+03   -0.34928E+00   -0.32000E+00 12592   0.423E+00    0.254E+00
DAV:   3    -0.505038482383E+03   -0.25816E+00   -0.72396E-01 22272   0.403E+00    0.661E+00
DAV:   4    -0.504815539238E+03    0.22294E+00   -0.76647E-01 22584   0.403E+00    0.226E+00
DAV:   5    -0.504840119187E+03   -0.24580E-01   -0.51422E-02 19928   0.107E+00    0.156E+00
DAV:   6    -0.504847414438E+03   -0.72953E-02   -0.26262E-02 19696   0.895E-01    0.825E-01
DAV:   7    -0.504848919632E+03   -0.15052E-02   -0.11245E-02 18872   0.578E-01    0.504E-01
DAV:   8    -0.504848700626E+03    0.21901E-03   -0.17684E-03 18032   0.197E-01    0.410E-01
DAV:   9    -0.504848451665E+03    0.24896E-03   -0.63319E-04 17408   0.966E-02    0.383E-01
DAV:  10    -0.504847767241E+03    0.68442E-03   -0.12641E-03 18328   0.125E-01    0.274E-01
DAV:  11    -0.504847461148E+03    0.30609E-03   -0.72199E-04 18984   0.987E-02    0.192E-01
DAV:  12    -0.504847427715E+03    0.33434E-04   -0.24898E-04 19080   0.550E-02    0.173E-01
DAV:  13    -0.504847425404E+03    0.23103E-05   -0.20041E-04 17512   0.482E-02    0.119E-01
DAV:  14    -0.504847445839E+03   -0.20435E-04   -0.18881E-04 18560   0.560E-02    0.719E-02
DAV:  15    -0.504847454005E+03   -0.81657E-05   -0.29042E-05  9784   0.258E-02
  34 F= -.50484745E+03 E0= -.50485560E+03  d E =-.509649E-01  mag=   115.9232
 trial-energy change:   -0.050965  1 .order   -0.050540   -0.067381   -0.033699
 step:   3.1497(harm=  3.3585)  dis= 0.04045  next Energy=  -504.862501 (dE=-0.660E-01)
 bond charge predicted
       N       E                     dE             d eps       ncg     rms          rms(c)
DAV:   1    -0.504546188512E+03    0.30126E+00   -0.27516E+01 12488   0.132E+01    0.295E+00
DAV:   2    -0.504810973691E+03   -0.26479E+00   -0.24444E+00 12592   0.366E+00    0.209E+00
DAV:   3    -0.504887538401E+03   -0.76565E-01   -0.21208E-01 22352   0.201E+00    0.343E+00
DAV:   4    -0.504853894568E+03    0.33644E-01   -0.31533E-01 21712   0.261E+00    0.238E+00
DAV:   5    -0.504859102929E+03   -0.52084E-02   -0.49929E-02 20608   0.107E+00    0.131E+00
DAV:   6    -0.504864998652E+03   -0.58957E-02   -0.19225E-02 19992   0.733E-01    0.671E-01
DAV:   7    -0.504865666934E+03   -0.66828E-03   -0.74106E-03 18872   0.485E-01    0.436E-01
DAV:   8    -0.504865556141E+03    0.11079E-03   -0.12606E-03 17248   0.173E-01    0.355E-01
DAV:   9    -0.504865340897E+03    0.21524E-03   -0.41960E-04 18664   0.793E-02    0.316E-01
DAV:  10    -0.504864933223E+03    0.40767E-03   -0.11327E-03 18104   0.115E-01    0.248E-01
DAV:  11    -0.504864714202E+03    0.21902E-03   -0.49479E-04 18648   0.821E-02    0.178E-01
DAV:  12    -0.504864670350E+03    0.43852E-04   -0.20578E-04 16128   0.570E-02    0.139E-01
DAV:  13    -0.504864739447E+03   -0.69097E-04   -0.26296E-04 17552   0.487E-02    0.103E-01
DAV:  14    -0.504864737580E+03    0.18676E-05   -0.84094E-05 13824   0.458E-02
  35 F= -.50486474E+03 E0= -.50487338E+03  d E =-.682485E-01  mag=   116.0222
 curvature:  -2.11 expect dE=-0.280E-01 dE for cont linesearch -0.290E-03
 ZBRENT: extrapolating
 opt :   3.3739  next Energy=  -504.865035 (dE=-0.685E-01)
 bond charge predicted
       N       E                     dE             d eps       ncg     rms          rms(c)
DAV:   1    -0.504857868093E+03    0.68714E-02   -0.63964E-01 12530   0.201E+00    0.452E-01
DAV:   2    -0.504863739614E+03   -0.58715E-02   -0.54415E-02 12606   0.541E-01    0.318E-01
DAV:   3    -0.504865385984E+03   -0.16464E-02   -0.44034E-03 22176   0.296E-01    0.498E-01
DAV:   4    -0.504864784104E+03    0.60188E-03   -0.69755E-03 21272   0.391E-01    0.369E-01
DAV:   5    -0.504864860716E+03   -0.76613E-04   -0.11903E-03 20192   0.161E-01    0.157E-01
DAV:   6    -0.504865072129E+03   -0.21141E-03   -0.37698E-04 18488   0.868E-02    0.974E-02
DAV:   7    -0.504865063493E+03    0.86363E-05   -0.12200E-04 15584   0.665E-02    0.691E-02
DAV:   8    -0.504865064902E+03   -0.14096E-05   -0.14196E-05  7280   0.208E-02
  36 F= -.50486506E+03 E0= -.50487377E+03  d E =-.685758E-01  mag=   116.0249
 curvature:  -2.17 expect dE=-0.321E-01 dE for cont linesearch -0.176E-04
 trial: gam= 0.34286 g(F)=  0.148E-01 g(S)=  0.000E+00 ort = 0.645E-03 (trialstep = 0.202E+01)
 search vector abs. value=  0.213E-01
 bond charge predicted
       N       E                     dE             d eps       ncg     rms          rms(c)
DAV:   1    -0.504628162694E+03    0.23690E+00   -0.22280E+01 12737   0.117E+01    0.263E+00
DAV:   2    -0.504847336928E+03   -0.21917E+00   -0.20176E+00 12544   0.324E+00    0.196E+00
DAV:   3    -0.505008207285E+03   -0.16087E+00   -0.47125E-01 21216   0.326E+00    0.532E+00
DAV:   4    -0.504861585880E+03    0.14662E+00   -0.43197E-01 22296   0.299E+00    0.157E+00
DAV:   5    -0.504877037037E+03   -0.15451E-01   -0.20687E-02 20488   0.684E-01    0.119E+00
DAV:   6    -0.504885965345E+03   -0.89283E-02   -0.17902E-02 19824   0.761E-01    0.806E-01
DAV:   7    -0.504886206382E+03   -0.24104E-03   -0.61732E-03 19104   0.398E-01    0.471E-01
DAV:   8    -0.504885716299E+03    0.49008E-03   -0.19196E-03 19344   0.201E-01    0.322E-01
DAV:   9    -0.504885608511E+03    0.10779E-03   -0.59731E-04 17216   0.857E-02    0.292E-01
DAV:  10    -0.504885373578E+03    0.23493E-03   -0.67389E-04 18320   0.916E-02    0.221E-01
DAV:  11    -0.504885181932E+03    0.19165E-03   -0.68091E-04 18752   0.913E-02    0.143E-01
DAV:  12    -0.504885192116E+03   -0.10184E-04   -0.13051E-04 15896   0.430E-02    0.128E-01
DAV:  13    -0.504885236095E+03   -0.43978E-04   -0.78807E-05 14888   0.335E-02    0.920E-02
DAV:  14    -0.504885275458E+03   -0.39363E-04   -0.84865E-05 15688   0.369E-02    0.541E-02
DAV:  15    -0.504885283348E+03   -0.78904E-05   -0.16363E-05  7168   0.203E-02
  37 F= -.50488528E+03 E0= -.50489385E+03  d E =-.202184E-01  mag=   116.0465
 trial-energy change:   -0.020218  1 .order   -0.020027   -0.030378   -0.009676
 step:   2.8915(harm=  2.9610)  dis= 0.02988  next Energy=  -504.887393 (dE=-0.223E-01)
 bond charge predicted
       N       E                     dE             d eps       ncg     rms          rms(c)
DAV:   1    -0.504840251084E+03    0.45024E-01   -0.41749E+00 12724   0.508E+00    0.113E+00
DAV:   2    -0.504880045301E+03   -0.39794E-01   -0.36929E-01 12608   0.136E+00    0.777E-01
DAV:   3    -0.504883422906E+03   -0.33776E-02   -0.10301E-02 18976   0.316E-01    0.634E-01
DAV:   4    -0.504887757263E+03   -0.43344E-02   -0.64348E-03 22248   0.398E-01    0.737E-01
DAV:   5    -0.504895582904E+03   -0.78256E-02   -0.42031E-02 22264   0.916E-01    0.128E+00
DAV:   6    -0.504887685843E+03    0.78971E-02   -0.23705E-02 21920   0.708E-01    0.301E-01
DAV:   7    -0.504887823121E+03   -0.13728E-03   -0.13495E-03 19440   0.160E-01    0.155E-01
DAV:   8    -0.504887831684E+03   -0.85630E-05   -0.24646E-04 14352   0.567E-02    0.138E-01
DAV:   9    -0.504887824787E+03    0.68973E-05   -0.60168E-05 13400   0.300E-02
  38 F= -.50488782E+03 E0= -.50489625E+03  d E =-.227599E-01  mag=   116.0418
 curvature:  -2.08 expect dE=-0.104E-01 dE for cont linesearch -0.244E-03
 ZBRENT: extrapolating
 opt :   3.3208  next Energy=  -504.888164 (dE=-0.231E-01)
 bond charge predicted
       N       E                     dE             d eps       ncg     rms          rms(c)
DAV:   1    -0.504876573577E+03    0.11258E-01   -0.10113E+00 12788   0.252E+00    0.552E-01
DAV:   2    -0.504886922837E+03   -0.10349E-01   -0.88591E-02 12592   0.728E-01    0.621E-01
DAV:   3    -0.504891154605E+03   -0.42318E-02   -0.27322E-02 18536   0.827E-01    0.999E-01
DAV:   4    -0.504886671036E+03    0.44836E-02   -0.15471E-02 20336   0.567E-01    0.347E-01
DAV:   5    -0.504887424901E+03   -0.75386E-03   -0.13062E-03 19656   0.179E-01    0.274E-01
DAV:   6    -0.504887813927E+03   -0.38903E-03   -0.88943E-04 20584   0.165E-01    0.240E-01
DAV:   7    -0.504887700263E+03    0.11366E-03   -0.44353E-04 18768   0.105E-01    0.125E-01
DAV:   8    -0.504887681869E+03    0.18394E-04   -0.11668E-04 11192   0.469E-02    0.104E-01
DAV:   9    -0.504887682457E+03   -0.58788E-06   -0.10163E-04 15528   0.302E-02    0.830E-02
DAV:  10    -0.504887683046E+03   -0.58909E-06   -0.11291E-04 17088   0.379E-02    0.422E-02
DAV:  11    -0.504887691685E+03   -0.86396E-05   -0.22408E-05  8224   0.167E-02
  39 F= -.50488769E+03 E0= -.50489605E+03  d E =-.226268E-01  mag=   116.0406
 curvature:  -2.89 expect dE=-0.201E-01 dE for cont linesearch -0.208E-03
 trial: gam= 0.53598 g(F)=  0.694E-02 g(S)=  0.000E+00 ort =-0.124E-02 (trialstep = 0.228E+01)
 search vector abs. value=  0.117E-01
 bond charge predicted
       N       E                     dE             d eps       ncg     rms          rms(c)
DAV:   1    -0.504762529299E+03    0.12515E+00   -0.14869E+01 12448   0.805E+00    0.211E+00
DAV:   2    -0.504867420662E+03   -0.10489E+00   -0.91699E-01 12736   0.221E+00    0.158E+00
DAV:   3    -0.504891106933E+03   -0.23686E-01   -0.55270E-02 21568   0.104E+00    0.189E+00
DAV:   4    -0.504901938568E+03   -0.10832E-01   -0.14229E-01 21496   0.176E+00    0.222E+00
DAV:   5    -0.504894251052E+03    0.76875E-02   -0.70972E-02 21848   0.122E+00    0.976E-01
DAV:   6    -0.504898206823E+03   -0.39558E-02   -0.13006E-02 20872   0.598E-01    0.535E-01
DAV:   7    -0.504898119499E+03    0.87325E-04   -0.36469E-03 18600   0.293E-01    0.288E-01
DAV:   8    -0.504898136471E+03   -0.16972E-04   -0.63200E-04 16520   0.882E-02    0.271E-01
DAV:   9    -0.504898034711E+03    0.10176E-03   -0.21562E-04 18832   0.561E-02    0.227E-01
DAV:  10    -0.504897805025E+03    0.22969E-03   -0.70838E-04 19712   0.103E-01    0.153E-01
DAV:  11    -0.504897763025E+03    0.42000E-04   -0.21855E-04 17936   0.469E-02    0.128E-01
DAV:  12    -0.504897756477E+03    0.65475E-05   -0.71611E-05 15088   0.327E-02
  40 F= -.50489776E+03 E0= -.50490568E+03  d E =-.100648E-01  mag=   116.0094
 trial-energy change:   -0.010065  1 .order   -0.010328   -0.014311   -0.006346
 step:   6.3018(harm=  4.0935)  dis= 0.04343  next Energy=  -504.901908 (dE=-0.142E-01)
 bond charge predicted
       N       E                     dE             d eps       ncg     rms          rms(c)
DAV:   1    -0.504459820233E+03    0.43794E+00   -0.46438E+01 12408   0.143E+01    0.383E+00
DAV:   2    -0.504798631198E+03   -0.33881E+00   -0.29800E+00 12640   0.405E+00    0.281E+00
DAV:   3    -0.504848138096E+03   -0.49507E-01   -0.13073E-01 20240   0.144E+00    0.271E+00
DAV:   4    -0.505008038064E+03   -0.15990E+00   -0.59085E-01 21800   0.350E+00    0.553E+00
DAV:   5    -0.504878294418E+03    0.12974E+00   -0.41326E-01 22016   0.304E+00    0.181E+00
DAV:   6    -0.504894649278E+03   -0.16355E-01   -0.42244E-02 21320   0.100E+00    0.105E+00
DAV:   7    -0.504895855035E+03   -0.12058E-02   -0.12651E-02 18760   0.533E-01    0.526E-01
DAV:   8    -0.504895858693E+03   -0.36574E-05   -0.23033E-03 17456   0.182E-01    0.460E-01
DAV:   9    -0.504895668335E+03    0.19036E-03   -0.59082E-04 17464   0.108E-01    0.408E-01
DAV:  10    -0.504895125220E+03    0.54312E-03   -0.15328E-03 18232   0.130E-01    0.296E-01
DAV:  11    -0.504894852299E+03    0.27292E-03   -0.98539E-04 18400   0.102E-01    0.229E-01
DAV:  12    -0.504894791651E+03    0.60648E-04   -0.40504E-04 19576   0.843E-02    0.177E-01
DAV:  13    -0.504894879088E+03   -0.87437E-04   -0.26700E-04 17904   0.541E-02    0.137E-01
DAV:  14    -0.504894910808E+03   -0.31720E-04   -0.92161E-05 15064   0.441E-02    0.973E-02
DAV:  15    -0.504894897426E+03    0.13382E-04   -0.41367E-05  7464   0.351E-02    0.682E-02
DAV:  16    -0.504894906267E+03   -0.88408E-05   -0.66168E-05 11776   0.275E-02
  41 F= -.50489491E+03 E0= -.50490215E+03  d E =-.721458E-02  mag=   115.9231
 curvature:   1.84 expect dE= 0.167E-01 dE for cont linesearch  0.294E-02
 ZBRENT: interpolating
 opt :   3.8529  next Energy=  -504.899949 (dE=-0.123E-01)
 bond charge predicted
       N       E                     dE             d eps       ncg     rms          rms(c)
DAV:   1    -0.504742567584E+03    0.15233E+00   -0.17147E+01 12397   0.867E+00    0.227E+00
DAV:   2    -0.504872111229E+03   -0.12954E+00   -0.10807E+00 12680   0.251E+00    0.211E+00
DAV:   3    -0.504980362303E+03   -0.10825E+00   -0.41563E-01 20608   0.315E+00    0.461E+00
DAV:   4    -0.504881859957E+03    0.98502E-01   -0.34327E-01 21800   0.262E+00    0.143E+00
DAV:   5    -0.504898293792E+03   -0.16434E-01   -0.28009E-02 19896   0.746E-01    0.805E-01
DAV:   6    -0.504900900804E+03   -0.26070E-02   -0.71821E-03 17720   0.343E-01    0.475E-01
DAV:   7    -0.504900351978E+03    0.54883E-03   -0.22935E-03 20888   0.203E-01    0.289E-01
DAV:   8    -0.504900357479E+03   -0.55008E-05   -0.60889E-04 17248   0.100E-01    0.284E-01
DAV:   9    -0.504900175494E+03    0.18198E-03   -0.39245E-04 18832   0.110E-01    0.228E-01
DAV:  10    -0.504899955416E+03    0.22008E-03   -0.44178E-04 18624   0.792E-02    0.162E-01
DAV:  11    -0.504899842940E+03    0.11248E-03   -0.28044E-04 18528   0.572E-02    0.134E-01
DAV:  12    -0.504899823963E+03    0.18978E-04   -0.85874E-05 15776   0.383E-02    0.107E-01
DAV:  13    -0.504899826853E+03   -0.28900E-05   -0.11529E-04 17088   0.381E-02    0.629E-02
DAV:  14    -0.504899836301E+03   -0.94486E-05   -0.24819E-05  8384   0.251E-02
  42 F= -.50489984E+03 E0= -.50490745E+03  d E =-.121446E-01  mag=   115.9869
 curvature:  -1.37 expect dE=-0.410E-02 dE for cont linesearch -0.120E-07
 trial: gam= 0.29703 g(F)=  0.299E-02 g(S)=  0.000E+00 ort = 0.102E-04 (trialstep = 0.259E+01)
 search vector abs. value=  0.403E-02
 bond charge predicted
       N       E                     dE             d eps       ncg     rms          rms(c)
DAV:   1    -0.504772373519E+03    0.12745E+00   -0.83708E+00 15123   0.919E+00    0.159E+00
DAV:   2    -0.504892301995E+03   -0.11993E+00   -0.11596E+00 12640   0.207E+00    0.966E-01
DAV:   3    -0.504898551155E+03   -0.62492E-02   -0.28956E-02 20936   0.373E-01    0.813E-01
DAV:   4    -0.504929569041E+03   -0.31018E-01   -0.79434E-02 22608   0.126E+00    0.233E+00
DAV:   5    -0.504903223815E+03    0.26345E-01   -0.77368E-02 22016   0.127E+00    0.552E-01
DAV:   6    -0.504905300632E+03   -0.20768E-02   -0.55097E-03 21704   0.355E-01    0.376E-01
DAV:   7    -0.504905090992E+03    0.20964E-03   -0.16815E-03 19424   0.217E-01    0.225E-01
DAV:   8    -0.504905062420E+03    0.28571E-04   -0.33199E-04 15824   0.722E-02    0.196E-01
DAV:   9    -0.504904990554E+03    0.71867E-04   -0.20261E-04 14888   0.693E-02    0.155E-01
DAV:  10    -0.504904918865E+03    0.71689E-04   -0.36101E-04 18752   0.624E-02    0.105E-01
DAV:  11    -0.504904917229E+03    0.16358E-05   -0.18956E-04 17896   0.435E-02    0.775E-02
DAV:  12    -0.504904936581E+03   -0.19352E-04   -0.45188E-05 11112   0.258E-02    0.638E-02
DAV:  13    -0.504904958030E+03   -0.21449E-04   -0.22345E-05  8384   0.173E-02    0.480E-02
DAV:  14    -0.504904967691E+03   -0.96611E-05   -0.18695E-05  6952   0.213E-02
  43 F= -.50490497E+03 E0= -.50491246E+03  d E =-.513139E-02  mag=   115.9849
 trial-energy change:   -0.005131  1 .order   -0.005149   -0.007756   -0.002542
 step:   3.8580(harm=  3.8580)  dis= 0.02212  next Energy=  -504.905605 (dE=-0.577E-02)
 bond charge predicted
       N       E                     dE             d eps       ncg     rms          rms(c)
DAV:   1    -0.504874084896E+03    0.30873E-01   -0.19882E+00 15145   0.448E+00    0.779E-01
DAV:   2    -0.504902416184E+03   -0.28331E-01   -0.27454E-01 12640   0.100E+00    0.471E-01
DAV:   3    -0.504903891387E+03   -0.14752E-02   -0.66436E-03 20128   0.180E-01    0.393E-01
DAV:   4    -0.504912194768E+03   -0.83034E-02   -0.20445E-02 22600   0.641E-01    0.119E+00
DAV:   5    -0.504905050230E+03    0.71445E-02   -0.20624E-02 21992   0.646E-01    0.235E-01
DAV:   6    -0.504905559243E+03   -0.50901E-03   -0.11077E-03 20960   0.145E-01    0.151E-01
DAV:   7    -0.504905525244E+03    0.34000E-04   -0.27299E-04 19376   0.891E-02    0.112E-01
DAV:   8    -0.504905521838E+03    0.34059E-05   -0.53844E-05 12656   0.350E-02
  44 F= -.50490552E+03 E0= -.50491299E+03  d E =-.568554E-02  mag=   115.9845
 curvature:  -2.60 expect dE=-0.274E-02 dE for cont linesearch -0.296E-04
 ZBRENT: extrapolating
 opt :   4.2119  next Energy=  -504.905560 (dE=-0.572E-02)
 bond charge predicted
       N       E                     dE             d eps       ncg     rms          rms(c)
DAV:   1    -0.504903033897E+03    0.24913E-02   -0.15621E-01 15277   0.126E+00    0.220E-01
DAV:   2    -0.504905346544E+03   -0.23126E-02   -0.21763E-02 12646   0.294E-01    0.234E-01
DAV:   3    -0.504906109794E+03   -0.76325E-03   -0.42934E-03 19432   0.320E-01    0.407E-01
DAV:   4    -0.504905299049E+03    0.81074E-03   -0.26084E-03 17024   0.231E-01    0.156E-01
DAV:   5    -0.504905422931E+03   -0.12388E-03   -0.26444E-04 17192   0.761E-02    0.121E-01
DAV:   6    -0.504905481549E+03   -0.58618E-04   -0.14269E-04 18176   0.556E-02    0.891E-02
DAV:   7    -0.504905470149E+03    0.11400E-04   -0.56489E-05 11664   0.454E-02    0.677E-02
DAV:   8    -0.504905474772E+03   -0.46227E-05   -0.19505E-05  7640   0.175E-02
  45 F= -.50490547E+03 E0= -.50491293E+03  d E =-.563847E-02  mag=   115.9834
 curvature:  -3.33 expect dE=-0.432E-02 dE for cont linesearch -0.123E-04
 trial: gam= 0.49723 g(F)=  0.130E-02 g(S)=  0.000E+00 ort =-0.122E-03 (trialstep = 0.292E+01)
 search vector abs. value=  0.217E-02
 bond charge predicted
       N       E                     dE             d eps       ncg     rms          rms(c)
DAV:   1    -0.504847538314E+03    0.57932E-01   -0.46654E+00 12715   0.586E+00    0.126E+00
DAV:   2    -0.504897666745E+03   -0.50128E-01   -0.46058E-01 12576   0.151E+00    0.916E-01
DAV:   3    -0.504925820567E+03   -0.28154E-01   -0.78656E-02 21896   0.130E+00    0.220E+00
DAV:   4    -0.504902277889E+03    0.23543E-01   -0.83590E-02 22464   0.129E+00    0.804E-01
DAV:   5    -0.504906162263E+03   -0.38844E-02   -0.71418E-03 20984   0.409E-01    0.578E-01
DAV:   6    -0.504907803880E+03   -0.16416E-02   -0.38933E-03 19976   0.356E-01    0.368E-01
DAV:   7    -0.504907554727E+03    0.24915E-03   -0.14540E-03 19088   0.199E-01    0.202E-01
DAV:   8    -0.504907535578E+03    0.19149E-04   -0.35985E-04 19616   0.738E-02    0.179E-01
DAV:   9    -0.504907501220E+03    0.34357E-04   -0.19035E-04 16720   0.494E-02    0.150E-01
DAV:  10    -0.504907418119E+03    0.83102E-04   -0.32774E-04 19200   0.744E-02    0.919E-02
DAV:  11    -0.504907424794E+03   -0.66757E-05   -0.10272E-04 15536   0.283E-02    0.926E-02
DAV:  12    -0.504907435547E+03   -0.10753E-04   -0.17458E-05  8088   0.186E-02    0.820E-02
DAV:  13    -0.504907438602E+03   -0.30546E-05   -0.55044E-05 12304   0.327E-02
  46 F= -.50490744E+03 E0= -.50491477E+03  d E =-.196383E-02  mag=   115.9911
 trial-energy change:   -0.001964  1 .order   -0.002089   -0.003612   -0.000565
 step:   3.7049(harm=  3.4584)  dis= 0.01991  next Energy=  -504.907512 (dE=-0.204E-02)
 bond charge predicted
       N       E                     dE             d eps       ncg     rms          rms(c)
DAV:   1    -0.504903068502E+03    0.43670E-02   -0.33965E-01 12735   0.158E+00    0.349E-01
DAV:   2    -0.504906715869E+03   -0.36474E-02   -0.33517E-02 12582   0.399E-01    0.256E-01
DAV:   3    -0.504910181520E+03   -0.34657E-02   -0.10006E-02 22424   0.461E-01    0.777E-01
DAV:   4    -0.504906970220E+03    0.32113E-02   -0.88631E-03 22416   0.426E-01    0.196E-01
DAV:   5    -0.504907403336E+03   -0.43312E-03   -0.51038E-04 19544   0.104E-01    0.147E-01
DAV:   6    -0.504907480014E+03   -0.76678E-04   -0.24215E-04 19096   0.894E-02    0.997E-02
DAV:   7    -0.504907455907E+03    0.24107E-04   -0.86752E-05 13816   0.527E-02    0.546E-02
DAV:   8    -0.504907456596E+03   -0.68896E-06   -0.20544E-05  7696   0.194E-02
  47 F= -.50490746E+03 E0= -.50491478E+03  d E =-.198182E-02  mag=   115.9918
 curvature:  -2.41 expect dE=-0.218E-02 dE for cont linesearch -0.416E-05
 trial: gam= 0.55915 g(F)=  0.907E-03 g(S)=  0.000E+00 ort =-0.613E-04 (trialstep = 0.307E+01)
 search vector abs. value=  0.152E-02
 bond charge predicted
       N       E                     dE             d eps       ncg     rms          rms(c)
DAV:   1    -0.504877075398E+03    0.30381E-01   -0.32024E+00 12159   0.423E+00    0.106E+00
DAV:   2    -0.504901454371E+03   -0.24379E-01   -0.20669E-01 12648   0.113E+00    0.827E-01
DAV:   3    -0.504927714280E+03   -0.26260E-01   -0.68947E-02 22192   0.123E+00    0.213E+00
DAV:   4    -0.504905141607E+03    0.22573E-01   -0.74149E-02 22440   0.121E+00    0.673E-01
DAV:   5    -0.504909541357E+03   -0.43998E-02   -0.74657E-03 19216   0.380E-01    0.396E-01
DAV:   6    -0.504909451884E+03    0.89473E-04   -0.17540E-03 19048   0.210E-01    0.244E-01
DAV:   7    -0.504909333258E+03    0.11863E-03   -0.57707E-04 19320   0.128E-01    0.170E-01
DAV:   8    -0.504909337867E+03   -0.46091E-05   -0.16873E-04 15744   0.523E-02    0.163E-01
DAV:   9    -0.504909316713E+03    0.21154E-04   -0.10624E-04 16272   0.366E-02    0.133E-01
DAV:  10    -0.504909269654E+03    0.47059E-04   -0.34710E-04 18848   0.692E-02    0.814E-02
DAV:  11    -0.504909274217E+03   -0.45631E-05   -0.87252E-05 14728   0.271E-02
  48 F= -.50490927E+03 E0= -.50491659E+03  d E =-.181762E-02  mag=   116.0016
 trial-energy change:   -0.001818  1 .order   -0.001921   -0.002683   -0.001160
 step:   5.4149(harm=  5.4149)  dis= 0.02809  next Energy=  -504.909819 (dE=-0.236E-02)
 bond charge predicted
       N       E                     dE             d eps       ncg     rms          rms(c)
DAV:   1    -0.504890966286E+03    0.18303E-01   -0.18549E+00 12164   0.320E+00    0.814E-01
DAV:   2    -0.504904889792E+03   -0.13924E-01   -0.11915E-01 12654   0.841E-01    0.610E-01
DAV:   3    -0.504913065721E+03   -0.81759E-02   -0.18837E-02 22464   0.633E-01    0.114E+00
DAV:   4    -0.504907730447E+03    0.53353E-02   -0.25348E-02 22344   0.716E-01    0.551E-01
DAV:   5    -0.504909648033E+03   -0.19176E-02   -0.44915E-03 19789   0.296E-01    0.255E-01
DAV:   6    -0.504909568138E+03    0.79895E-04   -0.83920E-04 19040   0.151E-01    0.172E-01
DAV:   7    -0.504909523440E+03    0.44699E-04   -0.27052E-04 17032   0.858E-02    0.128E-01
DAV:   8    -0.504909527112E+03   -0.36726E-05   -0.54142E-05 10744   0.311E-02
  49 F= -.50490953E+03 E0= -.50491688E+03  d E =-.207052E-02  mag=   116.0040
 curvature:  -4.71 expect dE=-0.389E-02 dE for cont linesearch -0.187E-05
 trial: gam= 0.83509 g(F)=  0.825E-03 g(S)=  0.000E+00 ort = 0.245E-04 (trialstep = 0.279E+01)
 search vector abs. value=  0.192E-02
 bond charge predicted
       N       E                     dE             d eps       ncg     rms          rms(c)
DAV:   1    -0.504883848108E+03    0.25675E-01   -0.31363E+00 11897   0.375E+00    0.109E+00
DAV:   2    -0.504903739456E+03   -0.19891E-01   -0.14458E-01 12654   0.102E+00    0.105E+00
DAV:   3    -0.504920975516E+03   -0.17236E-01   -0.74948E-02 19496   0.136E+00    0.190E+00
DAV:   4    -0.504907219281E+03    0.13756E-01   -0.55582E-02 22240   0.107E+00    0.666E-01
DAV:   5    -0.504911496078E+03   -0.42768E-02   -0.88208E-03 20352   0.404E-01    0.491E-01
DAV:   6    -0.504911197307E+03    0.29877E-03   -0.21968E-03 19080   0.222E-01    0.279E-01
DAV:   7    -0.504911027977E+03    0.16933E-03   -0.67536E-04 19016   0.135E-01    0.192E-01
DAV:   8    -0.504911021866E+03    0.61114E-05   -0.18613E-04 15376   0.509E-02    0.179E-01
DAV:   9    -0.504910964838E+03    0.57027E-04   -0.37588E-04 18272   0.740E-02    0.123E-01
DAV:  10    -0.504910916406E+03    0.48432E-04   -0.35635E-04 18776   0.650E-02    0.881E-02
DAV:  11    -0.504910922992E+03   -0.65854E-05   -0.61896E-05 13615   0.316E-02
  50 F= -.50491092E+03 E0= -.50491842E+03  d E =-.139588E-02  mag=   116.0184
 trial-energy change:   -0.001396  1 .order   -0.001570   -0.002363   -0.000778
 step:   4.1646(harm=  4.1646)  dis= 0.02404  next Energy=  -504.911288 (dE=-0.176E-02)
 bond charge predicted
       N       E                     dE             d eps       ncg     rms          rms(c)
DAV:   1    -0.504904562884E+03    0.63535E-02   -0.75434E-01 11894   0.184E+00    0.538E-01
DAV:   2    -0.504908894558E+03   -0.43317E-02   -0.33971E-02 12662   0.466E-01    0.411E-01
DAV:   3    -0.504911310931E+03   -0.24164E-02   -0.41542E-03 22520   0.288E-01    0.554E-01
DAV:   4    -0.504911067217E+03    0.24371E-03   -0.99770E-03 22048   0.453E-01    0.477E-01
DAV:   5    -0.504911167136E+03   -0.99920E-04   -0.32287E-03 21501   0.269E-01    0.225E-01
DAV:   6    -0.504911037153E+03    0.12998E-03   -0.57504E-04 19664   0.133E-01    0.910E-02
DAV:   7    -0.504911050197E+03   -0.13044E-04   -0.10868E-04 12624   0.331E-02    0.842E-02
DAV:   8    -0.504911050978E+03   -0.78077E-06   -0.10758E-05  7384   0.176E-02
  51 F= -.50491105E+03 E0= -.50491862E+03  d E =-.152387E-02  mag=   116.0185
 curvature:  -4.74 expect dE=-0.238E-02 dE for cont linesearch -0.372E-05
 trial: gam= 0.38140 g(F)=  0.503E-03 g(S)=  0.000E+00 ort = 0.389E-04 (trialstep = 0.307E+01)
 search vector abs. value=  0.812E-03
 bond charge predicted
       N       E                     dE             d eps       ncg     rms          rms(c)
DAV:   1    -0.504884428808E+03    0.26621E-01   -0.19238E+00 13160   0.396E+00    0.823E-01
DAV:   2    -0.504907868571E+03   -0.23440E-01   -0.21882E-01 12640   0.952E-01    0.593E-01
DAV:   3    -0.504922248856E+03   -0.14380E-01   -0.41666E-02 22312   0.950E-01    0.157E+00
DAV:   4    -0.504909378061E+03    0.12871E-01   -0.38497E-02 22376   0.905E-01    0.500E-01
DAV:   5    -0.504911238174E+03   -0.18601E-02   -0.29860E-03 21184   0.268E-01    0.414E-01
DAV:   6    -0.504911739039E+03   -0.50086E-03   -0.16914E-03 19816   0.228E-01    0.242E-01
DAV:   7    -0.504911681588E+03    0.57451E-04   -0.59616E-04 18816   0.118E-01    0.145E-01
DAV:   8    -0.504911667733E+03    0.13854E-04   -0.12155E-04 13160   0.477E-02    0.129E-01
DAV:   9    -0.504911680791E+03   -0.13057E-04   -0.95363E-05 14848   0.333E-02    0.109E-01
DAV:  10    -0.504911696332E+03   -0.15541E-04   -0.21956E-04 18128   0.478E-02    0.615E-02
DAV:  11    -0.504911705356E+03   -0.90238E-05   -0.62065E-05 11184   0.270E-02
  52 F= -.50491171E+03 E0= -.50491938E+03  d E =-.654378E-03  mag=   116.0237
 trial-energy change:   -0.000654  1 .order   -0.000756   -0.001588    0.000076
 step:   2.8559(harm=  2.9283)  dis= 0.00901  next Energy=  -504.911708 (dE=-0.657E-03)
 bond charge predicted
       N       E                     dE             d eps       ncg     rms          rms(c)
DAV:   1    -0.504911587527E+03    0.10881E-03   -0.92001E-03 13173   0.273E-01    0.710E-02
DAV:   2    -0.504912092242E+03   -0.50472E-03   -0.20586E-03 19856   0.182E-01    0.264E-01
DAV:   3    -0.504911701070E+03    0.39117E-03   -0.13008E-03 19432   0.170E-01    0.680E-02
DAV:   4    -0.504911717334E+03   -0.16265E-04   -0.61692E-05 12104   0.334E-02    0.445E-02
DAV:   5    -0.504911726572E+03   -0.92377E-05   -0.13268E-05  7080   0.156E-02
  53 F= -.50491173E+03 E0= -.50491937E+03  d E =-.675594E-03  mag=   116.0226
 curvature:  -1.68 expect dE=-0.259E-03 dE for cont linesearch -0.300E-05
 ZBRENT: interpolating
 opt :   2.9845  next Energy=  -504.911706 (dE=-0.655E-03)
 bond charge predicted
       N       E                     dE             d eps       ncg     rms          rms(c)
DAV:   1    -0.504911682399E+03    0.34935E-04   -0.33158E-03 12981   0.165E-01    0.499E-02
DAV:   2    -0.504912026130E+03   -0.34373E-03   -0.12146E-03 20144   0.149E-01    0.234E-01
DAV:   3    -0.504911702565E+03    0.32356E-03   -0.87028E-04 15912   0.139E-01    0.384E-02
DAV:   4    -0.504911721582E+03   -0.19017E-04   -0.56900E-05 12576   0.335E-02    0.303E-02
DAV:   5    -0.504911722412E+03   -0.82936E-06   -0.67132E-06  7144   0.141E-02
  54 F= -.50491172E+03 E0= -.50491938E+03  d E =-.671434E-03  mag=   116.0222
 curvature:  -0.58 expect dE=-0.965E-04 dE for cont linesearch -0.573E-05
 ZBRENT: interpolating
 opt :   2.8942  next Energy=  -504.911727 (dE=-0.676E-03)
 bond charge predicted
       N       E                     dE             d eps       ncg     rms          rms(c)
DAV:   1    -0.504911707106E+03    0.14476E-04   -0.16653E-03 13133   0.117E-01    0.281E-02
DAV:   2    -0.504911840265E+03   -0.13316E-03   -0.46932E-04 15904   0.896E-02    0.143E-01
DAV:   3    -0.504911716883E+03    0.12338E-03   -0.30212E-04 10920   0.853E-02    0.229E-02
DAV:   4    -0.504911729243E+03   -0.12361E-04   -0.28116E-05  9952   0.142E-02    0.193E-02
DAV:   5    -0.504911729625E+03   -0.38206E-06   -0.38470E-06  6728   0.696E-03
  55 F= -.50491173E+03 E0= -.50491938E+03  d E =-.678647E-03  mag=   116.0221
 curvature:  -0.07 expect dE=-0.111E-04 dE for cont linesearch -0.105E-07
 trial: gam= 0.21078 g(F)=  0.151E-03 g(S)=  0.000E+00 ort = 0.108E-04 (trialstep = 0.303E+01)
 search vector abs. value=  0.191E-03
 bond charge predicted
       N       E                     dE             d eps       ncg     rms          rms(c)
DAV:   1    -0.504905876724E+03    0.58525E-02   -0.44385E-01 12896   0.186E+00    0.409E-01
DAV:   2    -0.504911067948E+03   -0.51912E-02   -0.46897E-02 12616   0.475E-01    0.336E-01
DAV:   3    -0.504915894980E+03   -0.48270E-02   -0.15604E-02 21368   0.603E-01    0.932E-01
DAV:   4    -0.504911325799E+03    0.45692E-02   -0.12866E-02 22344   0.514E-01    0.237E-01
DAV:   5    -0.504912101135E+03   -0.77534E-03   -0.12007E-03 20024   0.161E-01    0.211E-01
DAV:   6    -0.504912060230E+03    0.40906E-04   -0.38731E-04 19072   0.104E-01    0.120E-01
DAV:   7    -0.504912015448E+03    0.44782E-04   -0.16597E-04 15344   0.683E-02    0.558E-02
DAV:   8    -0.504912023129E+03   -0.76809E-05   -0.41092E-05 11680   0.220E-02
  56 F= -.50491202E+03 E0= -.50491967E+03  d E =-.293503E-03  mag=   116.0110
 trial-energy change:   -0.000294  1 .order   -0.000342   -0.000464   -0.000220
 step:   5.7735(harm=  5.7735)  dis= 0.00768  next Energy=  -504.912171 (dE=-0.442E-03)
 reached required accuracy - stopping structural energy minimisation
 PROFILE, used timers:     231
