 
:: initializing oneAPI environment ...
   slurm_script: BASH_VERSION = 4.4.20(1)-release
   args: Using "$@" for setvars.sh arguments: --force
:: advisor -- latest
:: ccl -- latest
:: compiler -- latest
:: dal -- latest
:: debugger -- latest
:: dev-utilities -- latest
:: dnnl -- latest
:: dpcpp-ct -- latest
:: dpl -- latest
:: ipp -- latest
:: ippcp -- latest
:: mkl -- latest
:: mpi -- latest
:: pti -- latest
:: tbb -- latest
:: umf -- latest
:: vtune -- latest
:: oneAPI environment initialized ::
 
 running   96 mpi-ranks, on    1 nodes
 distrk:  each k-point on   12 cores,    8 groups
 distr:  one band on    4 cores,    3 groups
 vasp.6.5.1 10Mar25 (build Oct 09 2025 23:55:08) complex                        
  
 POSCAR found type information on POSCAR CrFePb
 POSCAR found :  3 types and      63 ions
 -----------------------------------------------------------------------------
|                                                                             |
|           W    W    AA    RRRRR   N    N  II  N    N   GGGG   !!!           |
|           W    W   A  A   R    R  NN   N  II  NN   N  G    G  !!!           |
|           W    W  A    A  R    R  N N  N  II  N N  N  G       !!!           |
|           W WW W  AAAAAA  RRRRR   N  N N  II  N  N N  G  GGG   !            |
|           WW  WW  A    A  R   R   N   NN  II  N   NN  G    G                |
|           W    W  A    A  R    R  N    N  II  N    N   GGGG   !!!           |
|                                                                             |
|     You requested a magnetic or noncollinear calculation, but did not       |
|     specify the initial magnetic moment with the MAGMOM tag. Note that      |
|     a default of 1 will be used for all atoms. This ferromagnetic setup     |
|     may break the symmetry of the crystal, in particular it may rule        |
|     out finding an antiferromagnetic solution. Thence, we recommend         |
|     setting the initial magnetic moment manually or verifying carefully     |
|     that this magnetic setup is desired.                                    |
|                                                                             |
 -----------------------------------------------------------------------------

 scaLAPACK will be used
 -----------------------------------------------------------------------------
|                                                                             |
|           W    W    AA    RRRRR   N    N  II  N    N   GGGG   !!!           |
|           W    W   A  A   R    R  NN   N  II  NN   N  G    G  !!!           |
|           W    W  A    A  R    R  N N  N  II  N N  N  G       !!!           |
|           W WW W  AAAAAA  RRRRR   N  N N  II  N  N N  G  GGG   !            |
|           WW  WW  A    A  R   R   N   NN  II  N   NN  G    G                |
|           W    W  A    A  R    R  N    N  II  N    N   GGGG   !!!           |
|                                                                             |
|     For optimal performance we recommend to set                             |
|       NCORE = 2 up to number-of-cores-per-socket                            |
|     NCORE specifies how many cores store one orbital (NPAR=cpu/NCORE).      |
|     This setting can greatly improve the performance of VASP for DFT.       |
|     The default, NCORE=1 might be grossly inefficient on modern             |
|     multi-core architectures or massively parallel machines. Do your        |
|     own testing! More info at https://www.vasp.at/wiki/index.php/NCORE      |
|     Unfortunately you need to use the default for GW and RPA                |
|     calculations (for HF NCORE is supported but not extensively tested      |
|     yet).                                                                   |
|                                                                             |
 -----------------------------------------------------------------------------

 LDA part: xc-table for (Slater+PW92), standard interpolation
 POSCAR, INCAR and KPOINTS ok, starting setup
 FFT: planning ... GRIDC
 FFT: planning ... GRID_SOFT
 FFT: planning ... GRID
 WAVECAR not read
 WARNING: chargedensity file is incomplete
 WARNING: random wavefunctions but no delay for mixing, default for NELMDL
 entering main loop
       N       E                     dE             d eps       ncg     rms          rms(c)
DAV:   1     0.558261568027E+04    0.55826E+04   -0.24069E+05 15816   0.144E+03
DAV:   2    -0.676891393568E+02   -0.56503E+04   -0.54515E+04 14880   0.422E+02
DAV:   3    -0.523077205542E+03   -0.45539E+03   -0.40534E+03 15396   0.163E+02
DAV:   4    -0.580265759191E+03   -0.57189E+02   -0.53389E+02 26070   0.445E+01
DAV:   5    -0.583566308438E+03   -0.33005E+01   -0.31066E+01 24522   0.105E+01    0.933E+01
DAV:   6    -0.686788174693E+03   -0.10322E+03   -0.33769E+02 26871   0.784E+01    0.149E+02
DAV:   7    -0.603500185273E+03    0.83288E+02   -0.22728E+02 27393   0.854E+01    0.125E+02
DAV:   8    -0.560757792276E+03    0.42742E+02   -0.11684E+02 27033   0.636E+01    0.968E+01
DAV:   9    -0.524435430760E+03    0.36322E+02   -0.66534E+01 25026   0.372E+01    0.684E+01
DAV:  10    -0.504268200053E+03    0.20167E+02   -0.54534E+01 23622   0.283E+01    0.511E+01
DAV:  11    -0.493856281713E+03    0.10412E+02   -0.55834E+01 21714   0.288E+01    0.464E+01
DAV:  12    -0.491369375116E+03    0.24869E+01   -0.17334E+01 21444   0.189E+01    0.383E+01
DAV:  13    -0.493252220186E+03   -0.18828E+01   -0.61109E+00 23109   0.851E+00    0.420E+01
DAV:  14    -0.493403012306E+03   -0.15079E+00   -0.94292E-01 18753   0.341E+00    0.409E+01
DAV:  15    -0.493386925971E+03    0.16086E-01   -0.13387E-01 26484   0.936E-01    0.405E+01
DAV:  16    -0.493494985496E+03   -0.10806E+00   -0.21447E-01 27150   0.196E+00    0.388E+01
DAV:  17    -0.494628874384E+03   -0.11339E+01   -0.51387E-01 25692   0.260E+00    0.372E+01
DAV:  18    -0.500098672111E+03   -0.54698E+01   -0.46602E+00 25458   0.793E+00    0.351E+01
DAV:  19    -0.502791452383E+03   -0.26928E+01   -0.62876E+00 25944   0.992E+00    0.286E+01
DAV:  20    -0.502200591117E+03    0.59086E+00   -0.28592E+00 25287   0.751E+00    0.229E+01
DAV:  21    -0.502234111244E+03   -0.33520E-01   -0.91339E-01 22452   0.323E+00    0.219E+01
DAV:  22    -0.501924757608E+03    0.30935E+00   -0.57458E-01 26295   0.247E+00    0.190E+01
DAV:  23    -0.502024417883E+03   -0.99660E-01   -0.64386E-01 25521   0.257E+00    0.174E+01
DAV:  24    -0.502125913088E+03   -0.10150E+00   -0.10363E+00 26682   0.390E+00    0.157E+01
DAV:  25    -0.502349060288E+03   -0.22315E+00   -0.37490E-01 24558   0.184E+00    0.146E+01
DAV:  26    -0.502779537860E+03   -0.43048E+00   -0.60438E-01 26466   0.224E+00    0.130E+01
DAV:  27    -0.503175614729E+03   -0.39608E+00   -0.44678E-01 26016   0.203E+00    0.120E+01
DAV:  28    -0.503743651352E+03   -0.56804E+00   -0.79985E-01 26268   0.255E+00    0.100E+01
DAV:  29    -0.504299419054E+03   -0.55577E+00   -0.19077E+00 25584   0.352E+00    0.710E+00
DAV:  30    -0.504304241314E+03   -0.48223E-02   -0.10422E+00 25098   0.359E+00    0.519E+00
DAV:  31    -0.504328693719E+03   -0.24452E-01   -0.22323E-01 22902   0.169E+00    0.510E+00
DAV:  32    -0.504367904452E+03   -0.39211E-01   -0.13639E-01 24144   0.147E+00    0.453E+00
DAV:  33    -0.504397840912E+03   -0.29936E-01   -0.42493E-01 25449   0.184E+00    0.333E+00
DAV:  34    -0.504401588442E+03   -0.37475E-02   -0.81322E-02 22596   0.922E-01    0.260E+00
DAV:  35    -0.504407720541E+03   -0.61321E-02   -0.49229E-02 25845   0.744E-01    0.201E+00
DAV:  36    -0.504415328953E+03   -0.76084E-02   -0.31363E-02 24909   0.584E-01    0.177E+00
DAV:  37    -0.504427454400E+03   -0.12125E-01   -0.26354E-02 23316   0.535E-01    0.154E+00
DAV:  38    -0.504431418945E+03   -0.39645E-02   -0.12010E-02 24936   0.413E-01    0.136E+00
DAV:  39    -0.504436243482E+03   -0.48245E-02   -0.78769E-03 25665   0.290E-01    0.125E+00
DAV:  40    -0.504437319290E+03   -0.10758E-02   -0.97149E-03 26061   0.345E-01    0.913E-01
DAV:  41    -0.504436648925E+03    0.67037E-03   -0.62738E-03 25386   0.271E-01    0.687E-01
DAV:  42    -0.504437520593E+03   -0.87167E-03   -0.26675E-03 24459   0.162E-01    0.559E-01
DAV:  43    -0.504438326665E+03   -0.80607E-03   -0.28555E-03 25962   0.176E-01    0.449E-01
DAV:  44    -0.504439440576E+03   -0.11139E-02   -0.37482E-03 26124   0.194E-01    0.391E-01
DAV:  45    -0.504439944381E+03   -0.50380E-03   -0.13642E-03 23262   0.118E-01    0.359E-01
DAV:  46    -0.504440076973E+03   -0.13259E-03   -0.94969E-04 25701   0.109E-01    0.254E-01
DAV:  47    -0.504440007860E+03    0.69114E-04   -0.46070E-04 24945   0.889E-02    0.196E-01
DAV:  48    -0.504440102203E+03   -0.94343E-04   -0.43007E-04 24891   0.781E-02    0.144E-01
DAV:  49    -0.504440182782E+03   -0.80579E-04   -0.57011E-04 25746   0.684E-02    0.148E-01
DAV:  50    -0.504440229274E+03   -0.46492E-04   -0.15812E-04 22209   0.508E-02    0.120E-01
DAV:  51    -0.504440245385E+03   -0.16111E-04   -0.67723E-05 17970   0.398E-02    0.874E-02
DAV:  52    -0.504440265218E+03   -0.19833E-04   -0.13715E-04 22794   0.328E-02    0.708E-02
DAV:  53    -0.504440284185E+03   -0.18967E-04   -0.65332E-05 17808   0.302E-02    0.477E-02
DAV:  54    -0.504440291310E+03   -0.71250E-05   -0.19448E-05 10473   0.152E-02
   1 F= -.50444029E+03 E0= -.50445071E+03  d E =-.504440E+03  mag=   101.1071
 curvature:   0.00 expect dE= 0.000E+00 dE for cont linesearch  0.000E+00
 trial: gam= 0.00000 g(F)=  0.134E+00 g(S)=  0.000E+00 ort = 0.000E+00 (trialstep = 0.100E+01)
 search vector abs. value=  0.134E+00
 bond charge predicted
       N       E                     dE             d eps       ncg     rms          rms(c)
DAV:   1    -0.504044180245E+03    0.39610E+00   -0.47813E+01 19326   0.148E+01    0.319E+00
DAV:   2    -0.504520312234E+03   -0.47613E+00   -0.46433E+00 15528   0.326E+00    0.184E+00
DAV:   3    -0.504580166651E+03   -0.59854E-01   -0.21542E-01 27834   0.175E+00    0.274E+00
DAV:   4    -0.504558193994E+03    0.21973E-01   -0.18312E-01 27663   0.229E+00    0.190E+00
DAV:   5    -0.504553318189E+03    0.48758E-02   -0.44728E-02 25719   0.114E+00    0.120E+00
DAV:   6    -0.504563810905E+03   -0.10493E-01   -0.10371E-02 22848   0.462E-01    0.732E-01
DAV:   7    -0.504565628353E+03   -0.18174E-02   -0.59708E-03 24684   0.405E-01    0.518E-01
DAV:   8    -0.504565359302E+03    0.26905E-03   -0.15854E-03 22434   0.207E-01    0.421E-01
DAV:   9    -0.504565060602E+03    0.29870E-03   -0.50644E-04 23604   0.106E-01    0.342E-01
DAV:  10    -0.504564800576E+03    0.26003E-03   -0.12277E-03 25125   0.126E-01    0.214E-01
DAV:  11    -0.504564777937E+03    0.22639E-04   -0.89875E-04 23001   0.833E-02    0.170E-01
DAV:  12    -0.504564735906E+03    0.42031E-04   -0.31617E-04 22407   0.824E-02    0.131E-01
DAV:  13    -0.504564802639E+03   -0.66733E-04   -0.15813E-04 18339   0.545E-02    0.146E-01
DAV:  14    -0.504564857004E+03   -0.54365E-04   -0.17996E-04 22398   0.357E-02    0.141E-01
DAV:  15    -0.504564812371E+03    0.44633E-04   -0.56326E-05 16278   0.393E-02    0.954E-02
DAV:  16    -0.504564781684E+03    0.30687E-04   -0.54318E-05 10095   0.401E-02    0.551E-02
DAV:  17    -0.504564804380E+03   -0.22695E-04   -0.86769E-05 17853   0.294E-02    0.604E-02
DAV:  18    -0.504564800862E+03    0.35178E-05   -0.31229E-05 11823   0.233E-02
   2 F= -.50456480E+03 E0= -.50457507E+03  d E =-.124510E+00  mag=   101.0583
 ZBRENT: can't locate minimum, use default step
 trial-energy change:   -0.124510  1 .order   -0.124659   -0.133956   -0.115362
 step:   4.0000(harm=  7.2044)  dis= 0.14512  next Energy=  -504.922824 (dE=-0.483E+00)
 bond charge predicted
       N       E                     dE             d eps       ncg     rms          rms(c)
DAV:   1    -0.500846402050E+03    0.37184E+01   -0.47354E+02 20886   0.451E+01    0.152E+01
DAV:   2    -0.505067773428E+03   -0.42214E+01   -0.34866E+01 16935   0.120E+01    0.137E+01
DAV:   3    -0.511152542734E+03   -0.60848E+01   -0.12298E+01 27825   0.242E+01    0.361E+01
DAV:   4    -0.504618560078E+03    0.65340E+01   -0.10805E+01 28014   0.186E+01    0.575E+00
DAV:   5    -0.504704524034E+03   -0.85964E-01   -0.63268E-01 21858   0.250E+00    0.434E+00
DAV:   6    -0.504741907595E+03   -0.37384E-01   -0.10636E-01 24072   0.128E+00    0.347E+00
DAV:   7    -0.504818483058E+03   -0.76575E-01   -0.12442E-01 26394   0.143E+00    0.305E+00
DAV:   8    -0.504868375601E+03   -0.49893E-01   -0.67319E-02 26988   0.138E+00    0.335E+00
DAV:   9    -0.504840235734E+03    0.28140E-01   -0.56850E-02 23586   0.145E+00    0.213E+00
DAV:  10    -0.504829297243E+03    0.10938E-01   -0.29612E-02 25341   0.634E-01    0.123E+00
DAV:  11    -0.504828632383E+03    0.66486E-03   -0.70292E-03 23973   0.321E-01    0.104E+00
DAV:  12    -0.504829302331E+03   -0.66995E-03   -0.46923E-03 22290   0.292E-01    0.939E-01
DAV:  13    -0.504830649180E+03   -0.13468E-02   -0.55376E-03 24594   0.239E-01    0.840E-01
DAV:  14    -0.504833602679E+03   -0.29535E-02   -0.88251E-03 24756   0.248E-01    0.849E-01
DAV:  15    -0.504834483565E+03   -0.88089E-03   -0.42166E-03 24378   0.198E-01    0.746E-01
DAV:  16    -0.504834861295E+03   -0.37773E-03   -0.22941E-03 24693   0.155E-01    0.597E-01
DAV:  17    -0.504835663426E+03   -0.80213E-03   -0.24652E-03 24261   0.123E-01    0.485E-01
DAV:  18    -0.504835878262E+03   -0.21484E-03   -0.96726E-04 24711   0.105E-01    0.424E-01
DAV:  19    -0.504836875029E+03   -0.99677E-03   -0.26596E-03 25710   0.172E-01    0.415E-01
DAV:  20    -0.504837251649E+03   -0.37662E-03   -0.17019E-03 24306   0.106E-01    0.347E-01
DAV:  21    -0.504837516573E+03   -0.26492E-03   -0.10346E-03 24423   0.871E-02    0.298E-01
DAV:  22    -0.504837888276E+03   -0.37170E-03   -0.12808E-03 24288   0.852E-02    0.241E-01
DAV:  23    -0.504838329619E+03   -0.44134E-03   -0.16065E-03 24549   0.977E-02    0.193E-01
DAV:  24    -0.504838730898E+03   -0.40128E-03   -0.15100E-03 24846   0.981E-02    0.197E-01
DAV:  25    -0.504839249245E+03   -0.51835E-03   -0.20226E-03 23901   0.876E-02    0.213E-01
DAV:  26    -0.504839415070E+03   -0.16583E-03   -0.26951E-04 19347   0.350E-02    0.210E-01
DAV:  27    -0.504839591700E+03   -0.17663E-03   -0.34643E-04 22542   0.391E-02    0.190E-01
DAV:  28    -0.504840391221E+03   -0.79952E-03   -0.60615E-03 25521   0.163E-01    0.170E-01
DAV:  29    -0.504840437713E+03   -0.46491E-04   -0.36817E-04 17115   0.573E-02    0.176E-01
DAV:  30    -0.504840532060E+03   -0.94347E-04   -0.43120E-05 15630   0.237E-02    0.162E-01
DAV:  31    -0.504841013899E+03   -0.48184E-03   -0.13889E-03 25269   0.808E-02    0.170E-01
DAV:  32    -0.504841447446E+03   -0.43355E-03   -0.10094E-03 24036   0.641E-02    0.186E-01
DAV:  33    -0.504841018840E+03    0.42861E-03   -0.87428E-04 24360   0.776E-02    0.184E-01
DAV:  34    -0.504840804073E+03    0.21477E-03   -0.34925E-04 22317   0.367E-02    0.176E-01
DAV:  35    -0.504839688377E+03    0.11157E-02   -0.55178E-03 25458   0.156E-01    0.158E-01
DAV:  36    -0.504840609170E+03   -0.92079E-03   -0.35357E-03 25719   0.147E-01    0.154E-01
DAV:  37    -0.504841755260E+03   -0.11461E-02   -0.78784E-03 25674   0.184E-01    0.181E-01
DAV:  38    -0.504840805586E+03    0.94967E-03   -0.46169E-03 25854   0.165E-01    0.166E-01
DAV:  39    -0.504840160126E+03    0.64546E-03   -0.27275E-03 25116   0.107E-01    0.148E-01
DAV:  40    -0.504839482998E+03    0.67713E-03   -0.30800E-03 25098   0.110E-01    0.141E-01
DAV:  41    -0.504839115694E+03    0.36730E-03   -0.14485E-03 23694   0.709E-02    0.138E-01
DAV:  42    -0.504839077535E+03    0.38159E-04   -0.16577E-04 19356   0.267E-02    0.140E-01
DAV:  43    -0.504839551824E+03   -0.47429E-03   -0.15263E-03 25044   0.903E-02    0.135E-01
DAV:  44    -0.504840553146E+03   -0.10013E-02   -0.91755E-03 25485   0.201E-01    0.153E-01
DAV:  45    -0.504840921318E+03   -0.36817E-03   -0.72263E-04 17979   0.610E-02    0.153E-01
DAV:  46    -0.504840965340E+03   -0.44022E-04   -0.82848E-05 17889   0.141E-02    0.158E-01
DAV:  47    -0.504840440861E+03    0.52448E-03   -0.11338E-03 24837   0.724E-02    0.159E-01
DAV:  48    -0.504840360666E+03    0.80194E-04   -0.15610E-04 18681   0.260E-02    0.157E-01
DAV:  49    -0.504840424422E+03   -0.63756E-04   -0.21767E-05 12633   0.153E-02    0.156E-01
DAV:  50    -0.504841781105E+03   -0.13567E-02   -0.11490E-02 25530   0.234E-01    0.187E-01
DAV:  51    -0.504838151076E+03    0.36300E-02   -0.46830E-02 25881   0.499E-01    0.166E-01
DAV:  52    -0.504834754919E+03    0.33962E-02   -0.49187E-02 25278   0.446E-01    0.237E-01
DAV:  53    -0.504837778723E+03   -0.30238E-02   -0.13598E-02 25368   0.320E-01    0.147E-01
DAV:  54    -0.504837581009E+03    0.19771E-03   -0.65256E-04 22308   0.717E-02    0.173E-01
DAV:  55    -0.504838180656E+03   -0.59965E-03   -0.21610E-03 25377   0.108E-01    0.156E-01
DAV:  56    -0.504839491450E+03   -0.13108E-02   -0.21829E-02 25575   0.311E-01    0.162E-01
DAV:  57    -0.504840828145E+03   -0.13367E-02   -0.83893E-03 23469   0.187E-01    0.184E-01
DAV:  58    -0.504841090008E+03   -0.26186E-03   -0.86801E-04 15801   0.784E-02    0.168E-01
DAV:  59    -0.504841086813E+03    0.31945E-05   -0.90472E-05 17421   0.128E-02
   3 F= -.50484109E+03 E0= -.50485143E+03  d E =-.400796E+00  mag=   100.0848
 curvature:  -2.64 expect dE=-0.329E+00 dE for cont linesearch -0.125E+00
 ZBRENT: increasing intervall
 opt :  10.0000  next Energy=  -505.104199 (dE=-0.664E+00)
 bond charge predicted
       N       E                     dE             d eps       ncg     rms          rms(c)
DAV:   1    -0.479103887163E+03    0.25737E+02   -0.22937E+03 16731   0.936E+01    0.192E+01
DAV:   2    -0.508429962031E+03   -0.29326E+02   -0.23765E+02 20082   0.284E+01    0.300E+01
DAV:   3    -0.512980434315E+03   -0.45505E+01   -0.33162E+01 25755   0.397E+01    0.414E+01
DAV:   4    -0.504322379944E+03    0.86581E+01   -0.13588E+01 27663   0.209E+01    0.892E+00
DAV:   5    -0.504627090005E+03   -0.30471E+00   -0.16035E+00 19482   0.401E+00    0.805E+00
DAV:   6    -0.504792173751E+03   -0.16508E+00   -0.38038E-01 21537   0.378E+00    0.752E+00
DAV:   7    -0.504975075807E+03   -0.18290E+00   -0.22500E-01 26880   0.239E+00    0.701E+00
DAV:   8    -0.505168717959E+03   -0.19364E+00   -0.24028E-01 25647   0.213E+00    0.566E+00
DAV:   9    -0.505170027339E+03   -0.13094E-02   -0.13339E-01 24522   0.177E+00    0.463E+00
DAV:  10    -0.505202221477E+03   -0.32194E-01   -0.60568E-02 25332   0.710E-01    0.422E+00
DAV:  11    -0.505265738431E+03   -0.63517E-01   -0.66291E-02 26340   0.773E-01    0.374E+00
DAV:  12    -0.505373740123E+03   -0.10800E+00   -0.13511E-01 25521   0.981E-01    0.301E+00
DAV:  13    -0.505464586721E+03   -0.90847E-01   -0.18686E-01 25773   0.123E+00    0.198E+00
DAV:  14    -0.505481793241E+03   -0.17207E-01   -0.47526E-02 23892   0.703E-01    0.164E+00
DAV:  15    -0.505497207099E+03   -0.15414E-01   -0.29875E-02 25998   0.592E-01    0.119E+00
DAV:  16    -0.505503051430E+03   -0.58443E-02   -0.21118E-02 24225   0.433E-01    0.875E-01
DAV:  17    -0.505503899512E+03   -0.84808E-03   -0.62429E-03 24576   0.271E-01    0.741E-01
DAV:  18    -0.505504908934E+03   -0.10094E-02   -0.35164E-03 26268   0.239E-01    0.624E-01
DAV:  19    -0.505506703367E+03   -0.17944E-02   -0.31462E-03 25332   0.243E-01    0.655E-01
DAV:  20    -0.505506132429E+03    0.57094E-03   -0.24313E-03 22992   0.200E-01    0.522E-01
DAV:  21    -0.505505577704E+03    0.55472E-03   -0.97920E-04 24603   0.129E-01    0.357E-01
DAV:  22    -0.505505377167E+03    0.20054E-03   -0.11556E-03 26142   0.150E-01    0.209E-01
DAV:  23    -0.505505447784E+03   -0.70616E-04   -0.41440E-04 19068   0.688E-02    0.178E-01
DAV:  24    -0.505505487260E+03   -0.39476E-04   -0.17289E-04 19527   0.666E-02    0.107E-01
DAV:  25    -0.505505495102E+03   -0.78423E-05   -0.13787E-04 23100   0.512E-02    0.596E-02
DAV:  26    -0.505505503433E+03   -0.83310E-05   -0.32246E-05 12993   0.258E-02
   4 F= -.50550550E+03 E0= -.50551559E+03  d E =-.106521E+01  mag=    96.5719
 curvature:  -5.56 expect dE=-0.330E+01 dE for cont linesearch -0.281E+00
 ZBRENT: bracketing found
 ZBRENT: interpolating
 opt :   6.9508  next Energy=  -504.958538 (dE=-0.518E+00)
 bond charge predicted
       N       E                     dE             d eps       ncg     rms          rms(c)
DAV:   1    -0.501894557046E+03    0.36109E+01   -0.48230E+02 20163   0.474E+01    0.917E+00
DAV:   2    -0.505539719263E+03   -0.36452E+01   -0.32461E+01 16686   0.122E+01    0.927E+00
DAV:   3    -0.507027351038E+03   -0.14876E+01   -0.60337E+00 26232   0.154E+01    0.165E+01
DAV:   4    -0.505397393609E+03    0.16300E+01   -0.37761E+00 27528   0.106E+01    0.477E+00
DAV:   5    -0.505471685113E+03   -0.74292E-01   -0.20196E-01 20085   0.193E+00    0.389E+00
DAV:   6    -0.505527036838E+03   -0.55352E-01   -0.10641E-01 23694   0.185E+00    0.337E+00
DAV:   7    -0.505598771779E+03   -0.71735E-01   -0.87076E-02 26700   0.173E+00    0.224E+00
DAV:   8    -0.505600328921E+03   -0.15571E-02   -0.48060E-02 23964   0.110E+00    0.135E+00
DAV:   9    -0.505598600822E+03    0.17281E-02   -0.18786E-02 24990   0.536E-01    0.110E+00
DAV:  10    -0.505599779952E+03   -0.11791E-02   -0.75435E-03 23667   0.277E-01    0.105E+00
DAV:  11    -0.505597971190E+03    0.18088E-02   -0.40480E-03 24153   0.269E-01    0.779E-01
DAV:  12    -0.505596557796E+03    0.14134E-02   -0.73071E-03 26862   0.364E-01    0.457E-01
DAV:  13    -0.505596639669E+03   -0.81874E-04   -0.27662E-03 23199   0.166E-01    0.373E-01
DAV:  14    -0.505596788746E+03   -0.14908E-03   -0.80313E-04 22992   0.113E-01    0.302E-01
DAV:  15    -0.505596911509E+03   -0.12276E-03   -0.36265E-04 23037   0.889E-02    0.219E-01
DAV:  16    -0.505597029464E+03   -0.11796E-03   -0.22244E-04 23262   0.817E-02    0.184E-01
DAV:  17    -0.505597101131E+03   -0.71666E-04   -0.11464E-04 20220   0.401E-02    0.151E-01
DAV:  18    -0.505597134908E+03   -0.33778E-04   -0.17169E-04 24279   0.637E-02    0.715E-02
DAV:  19    -0.505597164742E+03   -0.29834E-04   -0.68347E-05 15081   0.433E-02    0.679E-02
DAV:  20    -0.505597162980E+03    0.17622E-05   -0.39645E-05 13632   0.277E-02
   5 F= -.50559716E+03 E0= -.50560608E+03  d E =-.115687E+01  mag=    96.2972
 curvature:  -2.32 expect dE=-0.501E+00 dE for cont linesearch -0.500E-02
 trial: gam= 1.48325 g(F)=  0.216E+00 g(S)=  0.000E+00 ort = 0.170E-01 (trialstep = 0.523E+00)
 search vector abs. value=  0.561E+00
 bond charge predicted
       N       E                     dE             d eps       ncg     rms          rms(c)
DAV:   1    -0.505454817449E+03    0.14235E+00   -0.52469E+01 16878   0.106E+01    0.205E+00
DAV:   2    -0.505694832859E+03   -0.24002E+00   -0.22888E+00 15708   0.270E+00    0.157E+00
DAV:   3    -0.505795426705E+03   -0.10059E+00   -0.29511E-01 25242   0.312E+00    0.350E+00
DAV:   4    -0.505704372077E+03    0.91055E-01   -0.22319E-01 27141   0.271E+00    0.116E+00
DAV:   5    -0.505711378685E+03   -0.70066E-02   -0.14869E-02 25620   0.661E-01    0.936E-01
DAV:   6    -0.505716636758E+03   -0.52581E-02   -0.97877E-03 24216   0.580E-01    0.684E-01
DAV:   7    -0.505716194376E+03    0.44238E-03   -0.63388E-03 23190   0.433E-01    0.266E-01
DAV:   8    -0.505716216345E+03   -0.21969E-04   -0.11180E-03 22740   0.102E-01    0.246E-01
DAV:   9    -0.505716105053E+03    0.11129E-03   -0.29557E-04 18375   0.635E-02    0.212E-01
DAV:  10    -0.505715836463E+03    0.26859E-03   -0.46428E-04 23820   0.827E-02    0.130E-01
DAV:  11    -0.505715792191E+03    0.44272E-04   -0.17536E-04 21930   0.421E-02    0.105E-01
DAV:  12    -0.505715786262E+03    0.59297E-05   -0.54692E-05 16350   0.336E-02
   6 F= -.50571579E+03 E0= -.50572504E+03  d E =-.118623E+00  mag=    96.3462
 ZBRENT: can't locate minimum, use default step
 trial-energy change:   -0.118623  1 .order   -0.118929   -0.126010   -0.111848
 step:   2.0930(harm=  4.6557)  dis= 0.07475  next Energy=  -506.157759 (dE=-0.561E+00)
 bond charge predicted
       N       E                     dE             d eps       ncg     rms          rms(c)
DAV:   1    -0.503701782308E+03    0.20140E+01   -0.61011E+02 17532   0.368E+01    0.689E+00
DAV:   2    -0.505715449993E+03   -0.20137E+01   -0.19362E+01 15369   0.820E+00    0.457E+00
DAV:   3    -0.506374562750E+03   -0.65911E+00   -0.19419E+00 26277   0.716E+00    0.855E+00
DAV:   4    -0.505918943356E+03    0.45562E+00   -0.16418E+00 27276   0.756E+00    0.406E+00
DAV:   5    -0.505916232766E+03    0.27106E-02   -0.20060E-01 26421   0.248E+00    0.277E+00
DAV:   6    -0.505952259429E+03   -0.36027E-01   -0.57610E-02 23874   0.149E+00    0.231E+00
DAV:   7    -0.505976079267E+03   -0.23820E-01   -0.51223E-02 23487   0.112E+00    0.103E+00
DAV:   8    -0.505976369161E+03   -0.28989E-03   -0.11009E-02 22920   0.415E-01    0.776E-01
DAV:   9    -0.505976064605E+03    0.30456E-03   -0.28147E-03 24315   0.224E-01    0.724E-01
DAV:  10    -0.505974881638E+03    0.11830E-02   -0.19356E-03 22803   0.187E-01    0.596E-01
DAV:  11    -0.505973313874E+03    0.15678E-02   -0.26694E-03 24234   0.243E-01    0.419E-01
DAV:  12    -0.505972782058E+03    0.53182E-03   -0.19734E-03 22371   0.155E-01    0.308E-01
DAV:  13    -0.505972783908E+03   -0.18505E-05   -0.68886E-04 22632   0.943E-02    0.245E-01
DAV:  14    -0.505972886799E+03   -0.10289E-03   -0.34526E-04 22839   0.728E-02    0.161E-01
DAV:  15    -0.505972970865E+03   -0.84066E-04   -0.17098E-04 22758   0.614E-02    0.115E-01
DAV:  16    -0.505972977884E+03   -0.70195E-05   -0.46219E-05 14694   0.344E-02
   7 F= -.50597298E+03 E0= -.50598308E+03  d E =-.375815E+00  mag=    96.4210
 curvature:  -3.34 expect dE=-0.427E+00 dE for cont linesearch -0.704E-01
 ZBRENT: increasing intervall
 opt :   5.2325  next Energy=  -505.985137 (dE=-0.388E+00)
 bond charge predicted
       N       E                     dE             d eps       ncg     rms          rms(c)
DAV:   1    -0.446133487598E+03    0.59839E+02   -0.31575E+03 17115   0.814E+01    0.231E+01
DAV:   2    -0.501332916332E+03   -0.55199E+02   -0.55462E+02 15270   0.231E+01    0.111E+01
DAV:   3    -0.506551680522E+03   -0.52188E+01   -0.38891E+01 26718   0.137E+01    0.154E+01
DAV:   4    -0.506824119106E+03   -0.27244E+00   -0.88119E+00 27483   0.185E+01    0.145E+01
DAV:   5    -0.505549986268E+03    0.12741E+01   -0.28123E+00 26907   0.999E+00    0.624E+00
DAV:   6    -0.505645843109E+03   -0.95857E-01   -0.30248E-01 19086   0.228E+00    0.524E+00
DAV:   7    -0.505828314694E+03   -0.18247E+00   -0.15883E-01 26763   0.255E+00    0.450E+00
DAV:   8    -0.505881511489E+03   -0.53197E-01   -0.18004E-01 26169   0.233E+00    0.292E+00
DAV:   9    -0.505878801404E+03    0.27101E-02   -0.73327E-02 24342   0.139E+00    0.192E+00
DAV:  10    -0.505874030124E+03    0.47713E-02   -0.24840E-02 24909   0.676E-01    0.151E+00
DAV:  11    -0.505869486379E+03    0.45437E-02   -0.89632E-03 23838   0.440E-01    0.126E+00
DAV:  12    -0.505864919439E+03    0.45669E-02   -0.89532E-03 24891   0.406E-01    0.100E+00
DAV:  13    -0.505860648665E+03    0.42708E-02   -0.10880E-02 22470   0.342E-01    0.665E-01
DAV:  14    -0.505859639595E+03    0.10091E-02   -0.46711E-03 24135   0.248E-01    0.463E-01
DAV:  15    -0.505859816570E+03   -0.17697E-03   -0.12638E-03 24063   0.119E-01    0.364E-01
DAV:  16    -0.505860125092E+03   -0.30852E-03   -0.53575E-04 21858   0.851E-02    0.259E-01
DAV:  17    -0.505860272841E+03   -0.14775E-03   -0.41159E-04 23109   0.904E-02    0.200E-01
DAV:  18    -0.505860279094E+03   -0.62532E-05   -0.10448E-04 18951   0.435E-02    0.177E-01
DAV:  19    -0.505860262063E+03    0.17031E-04   -0.18133E-04 22047   0.582E-02    0.112E-01
DAV:  20    -0.505860313340E+03   -0.51277E-04   -0.29704E-04 22524   0.736E-02    0.803E-02
DAV:  21    -0.505860332531E+03   -0.19190E-04   -0.66648E-05 16773   0.251E-02    0.791E-02
DAV:  22    -0.505860320803E+03    0.11728E-04   -0.13770E-05  8538   0.228E-02    0.530E-02
DAV:  23    -0.505860314477E+03    0.63252E-05   -0.41839E-05 10662   0.329E-02
   8 F= -.50586031E+03 E0= -.50587107E+03  d E =-.263151E+00  mag=    96.3301
 curvature:  -0.58 expect dE=-0.245E+00 dE for cont linesearch -0.473E-01
 ZBRENT: bracketing found
 ZBRENT: interpolating
 opt :   3.1489  next Energy=  -506.030428 (dE=-0.433E+00)
 bond charge predicted
       N       E                     dE             d eps       ncg     rms          rms(c)
DAV:   1    -0.500403603036E+03    0.54567E+01   -0.12931E+03 18684   0.540E+01    0.975E+00
DAV:   2    -0.506072910426E+03   -0.56693E+01   -0.50631E+01 20385   0.144E+01    0.103E+01
DAV:   3    -0.507486554188E+03   -0.14136E+01   -0.77495E+00 26448   0.177E+01    0.168E+01
DAV:   4    -0.505838810653E+03    0.16477E+01   -0.34277E+00 27861   0.101E+01    0.491E+00
DAV:   5    -0.505912923625E+03   -0.74113E-01   -0.22284E-01 19995   0.197E+00    0.391E+00
DAV:   6    -0.505989770045E+03   -0.76846E-01   -0.12085E-01 22497   0.172E+00    0.315E+00
DAV:   7    -0.506049658325E+03   -0.59888E-01   -0.94388E-02 27123   0.188E+00    0.219E+00
DAV:   8    -0.506055664649E+03   -0.60063E-02   -0.37145E-02 24162   0.979E-01    0.140E+00
DAV:   9    -0.506049313547E+03    0.63511E-02   -0.17653E-02 24423   0.557E-01    0.892E-01
DAV:  10    -0.506048193270E+03    0.11203E-02   -0.62280E-03 24081   0.272E-01    0.822E-01
DAV:  11    -0.506046309409E+03    0.18839E-02   -0.26395E-03 19221   0.215E-01    0.666E-01
DAV:  12    -0.506044189884E+03    0.21195E-02   -0.44419E-03 24036   0.247E-01    0.427E-01
DAV:  13    -0.506043838867E+03    0.35102E-03   -0.22167E-03 23064   0.154E-01    0.361E-01
DAV:  14    -0.506043948408E+03   -0.10954E-03   -0.58969E-04 23001   0.102E-01    0.296E-01
DAV:  15    -0.506044127284E+03   -0.17888E-03   -0.52603E-04 23739   0.982E-02    0.177E-01
DAV:  16    -0.506044205649E+03   -0.78365E-04   -0.25735E-04 23802   0.694E-02    0.129E-01
DAV:  17    -0.506044211162E+03   -0.55131E-05   -0.72581E-05 17637   0.350E-02
   9 F= -.50604421E+03 E0= -.50605470E+03  d E =-.447048E+00  mag=    96.4243
 curvature:  -0.70 expect dE=-0.101E+00 dE for cont linesearch -0.714E-03
 trial: gam= 0.28518 g(F)=  0.144E+00 g(S)=  0.000E+00 ort = 0.239E-01 (trialstep = 0.105E+01)
 search vector abs. value=  0.204E+00
 bond charge predicted
       N       E                     dE             d eps       ncg     rms          rms(c)
DAV:   1    -0.505689247350E+03    0.35496E+00   -0.72591E+01 16800   0.152E+01    0.323E+00
DAV:   2    -0.506121619031E+03   -0.43237E+00   -0.40900E+00 15231   0.374E+00    0.218E+00
DAV:   3    -0.506239992134E+03   -0.11837E+00   -0.35200E-01 27906   0.287E+00    0.363E+00
DAV:   4    -0.506161036628E+03    0.78956E-01   -0.28073E-01 27825   0.299E+00    0.188E+00
DAV:   5    -0.506176630514E+03   -0.15594E-01   -0.26406E-02 24054   0.909E-01    0.115E+00
DAV:   6    -0.506185258802E+03   -0.86283E-02   -0.16171E-02 25161   0.761E-01    0.842E-01
DAV:   7    -0.506185525091E+03   -0.26629E-03   -0.81652E-03 24225   0.523E-01    0.394E-01
DAV:   8    -0.506185497151E+03    0.27940E-04   -0.15581E-03 19455   0.147E-01    0.351E-01
DAV:   9    -0.506185338623E+03    0.15853E-03   -0.45380E-04 25098   0.940E-02    0.310E-01
DAV:  10    -0.506184928861E+03    0.40976E-03   -0.11813E-03 23118   0.104E-01    0.205E-01
DAV:  11    -0.506184795476E+03    0.13339E-03   -0.53461E-04 23532   0.913E-02    0.153E-01
DAV:  12    -0.506184808276E+03   -0.12800E-04   -0.10762E-04 20499   0.409E-02    0.134E-01
DAV:  13    -0.506184837504E+03   -0.29228E-04   -0.12193E-04 21822   0.481E-02    0.794E-02
DAV:  14    -0.506184869765E+03   -0.32261E-04   -0.61459E-05 16521   0.355E-02    0.637E-02
DAV:  15    -0.506184876066E+03   -0.63013E-05   -0.21183E-05  9501   0.180E-02
  10 F= -.50618488E+03 E0= -.50619544E+03  d E =-.140665E+00  mag=    96.4027
 ZBRENT: can't locate minimum, use default step
 trial-energy change:   -0.140665  1 .order   -0.140737   -0.158414   -0.123060
 step:   4.1935(harm=  4.6977)  dis= 0.12010  next Energy=  -506.399126 (dE=-0.355E+00)
 bond charge predicted
       N       E                     dE             d eps       ncg     rms          rms(c)
DAV:   1    -0.502030026135E+03    0.41548E+01   -0.83131E+02 17430   0.509E+01    0.118E+01
DAV:   2    -0.505873377655E+03   -0.38434E+01   -0.35531E+01 15594   0.123E+01    0.839E+00
DAV:   3    -0.509343908093E+03   -0.34705E+01   -0.68410E+00 27672   0.166E+01    0.247E+01
DAV:   4    -0.506102693082E+03    0.32412E+01   -0.74281E+00 27735   0.142E+01    0.561E+00
DAV:   5    -0.506222569485E+03   -0.11988E+00   -0.28236E-01 21579   0.190E+00    0.432E+00
DAV:   6    -0.506365964897E+03   -0.14340E+00   -0.14765E-01 26079   0.192E+00    0.353E+00
DAV:   7    -0.506418609892E+03   -0.52645E-01   -0.16165E-01 27051   0.253E+00    0.219E+00
DAV:   8    -0.506414494198E+03    0.41157E-02   -0.37570E-02 24378   0.107E+00    0.155E+00
DAV:   9    -0.506407735311E+03    0.67589E-02   -0.19990E-02 23874   0.677E-01    0.110E+00
DAV:  10    -0.506406607997E+03    0.11273E-02   -0.11306E-02 25062   0.332E-01    0.961E-01
DAV:  11    -0.506405723618E+03    0.88438E-03   -0.34661E-03 21480   0.231E-01    0.856E-01
DAV:  12    -0.506402666850E+03    0.30568E-02   -0.43508E-03 25350   0.312E-01    0.574E-01
DAV:  13    -0.506401780522E+03    0.88633E-03   -0.31740E-03 23721   0.160E-01    0.405E-01
DAV:  14    -0.506401903958E+03   -0.12344E-03   -0.13129E-03 25926   0.175E-01    0.364E-01
DAV:  15    -0.506402053822E+03   -0.14986E-03   -0.76930E-04 23280   0.118E-01    0.266E-01
DAV:  16    -0.506402027268E+03    0.26553E-04   -0.47781E-04 24477   0.105E-01    0.165E-01
DAV:  17    -0.506402068424E+03   -0.41156E-04   -0.14197E-04 20679   0.411E-02    0.141E-01
DAV:  18    -0.506402093038E+03   -0.24614E-04   -0.60775E-05 16809   0.384E-02    0.114E-01
DAV:  19    -0.506402120757E+03   -0.27718E-04   -0.22654E-04 24324   0.582E-02    0.611E-02
DAV:  20    -0.506402132859E+03   -0.12102E-04   -0.35264E-05 12750   0.267E-02    0.501E-02
DAV:  21    -0.506402140073E+03   -0.72144E-05   -0.85057E-06  8583   0.133E-02
  11 F= -.50640214E+03 E0= -.50641306E+03  d E =-.357929E+00  mag=    96.2307
 curvature:  -3.10 expect dE=-0.209E+00 dE for cont linesearch -0.690E-02
 ZBRENT: extrapolating
 opt :   4.8897  next Energy=  -506.409544 (dE=-0.365E+00)
 bond charge predicted
       N       E                     dE             d eps       ncg     rms          rms(c)
DAV:   1    -0.506159897164E+03    0.24224E+00   -0.31645E+01 16611   0.989E+00    0.217E+00
DAV:   2    -0.506382022132E+03   -0.22212E+00   -0.21185E+00 15330   0.245E+00    0.144E+00
DAV:   3    -0.506403684385E+03   -0.21662E-01   -0.66406E-02 27663   0.101E+00    0.153E+00
DAV:   4    -0.506409194783E+03   -0.55104E-02   -0.76596E-02 27492   0.161E+00    0.158E+00
DAV:   5    -0.506407856935E+03    0.13378E-02   -0.36985E-02 27078   0.107E+00    0.680E-01
DAV:   6    -0.506410739768E+03   -0.28828E-02   -0.84083E-03 24792   0.499E-01    0.494E-01
DAV:   7    -0.506410144233E+03    0.59554E-03   -0.28840E-03 24171   0.319E-01    0.246E-01
DAV:   8    -0.506410150224E+03   -0.59910E-05   -0.56201E-04 17907   0.794E-02    0.226E-01
DAV:   9    -0.506410021981E+03    0.12824E-03   -0.22325E-04 23793   0.626E-02    0.177E-01
DAV:  10    -0.506409902213E+03    0.11977E-03   -0.35018E-04 23505   0.673E-02    0.127E-01
DAV:  11    -0.506409870635E+03    0.31578E-04   -0.17551E-04 20229   0.418E-02    0.993E-02
DAV:  12    -0.506409869141E+03    0.14944E-05   -0.54933E-05 13101   0.374E-02
  12 F= -.50640987E+03 E0= -.50642079E+03  d E =-.365658E+00  mag=    96.1683
 curvature:  -3.33 expect dE=-0.276E+00 dE for cont linesearch -0.338E-04
 trial: gam= 0.56448 g(F)=  0.830E-01 g(S)=  0.000E+00 ort = 0.144E-02 (trialstep = 0.182E+01)
 search vector abs. value=  0.149E+00
 bond charge predicted
       N       E                     dE             d eps       ncg     rms          rms(c)
DAV:   1    -0.506011908416E+03    0.39796E+00   -0.15117E+02 15381   0.158E+01    0.414E+00
DAV:   2    -0.506397418009E+03   -0.38551E+00   -0.33290E+00 16161   0.411E+00    0.312E+00
DAV:   3    -0.506582371868E+03   -0.18495E+00   -0.41990E-01 27924   0.331E+00    0.453E+00
DAV:   4    -0.506501632102E+03    0.80740E-01   -0.55800E-01 27555   0.425E+00    0.304E+00
DAV:   5    -0.506522944195E+03   -0.21312E-01   -0.83985E-02 25089   0.167E+00    0.136E+00
DAV:   6    -0.506523327082E+03   -0.38289E-03   -0.29582E-02 24558   0.965E-01    0.781E-01
DAV:   7    -0.506523263915E+03    0.63167E-04   -0.90446E-03 19059   0.492E-01    0.582E-01
DAV:   8    -0.506522972202E+03    0.29171E-03   -0.19470E-03 22326   0.143E-01    0.522E-01
DAV:   9    -0.506522342827E+03    0.62938E-03   -0.48759E-04 23082   0.962E-02    0.443E-01
DAV:  10    -0.506521103146E+03    0.12397E-02   -0.19612E-03 22452   0.154E-01    0.287E-01
DAV:  11    -0.506520788713E+03    0.31443E-03   -0.76446E-04 22803   0.106E-01    0.231E-01
DAV:  12    -0.506520745299E+03    0.43414E-04   -0.21064E-04 23037   0.688E-02    0.183E-01
DAV:  13    -0.506520800181E+03   -0.54882E-04   -0.29636E-04 22092   0.629E-02    0.102E-01
DAV:  14    -0.506520857138E+03   -0.56956E-04   -0.13279E-04 21840   0.454E-02    0.627E-02
DAV:  15    -0.506520863601E+03   -0.64633E-05   -0.16324E-05  9384   0.198E-02
  13 F= -.50652086E+03 E0= -.50653110E+03  d E =-.110994E+00  mag=    96.1142
 trial-energy change:   -0.110994  1 .order   -0.109636   -0.152244   -0.067029
 step:   3.0480(harm=  3.2456)  dis= 0.06458  next Energy=  -506.544003 (dE=-0.134E+00)
 bond charge predicted
       N       E                     dE             d eps       ncg     rms          rms(c)
DAV:   1    -0.506241438753E+03    0.27942E+00   -0.65972E+01 15042   0.104E+01    0.281E+00
DAV:   2    -0.506483625554E+03   -0.24219E+00   -0.21903E+00 15864   0.279E+00    0.210E+00
DAV:   3    -0.506542388816E+03   -0.58763E-01   -0.16858E-01 26799   0.162E+00    0.234E+00
DAV:   4    -0.506546890733E+03   -0.45019E-02   -0.17832E-01 26799   0.247E+00    0.219E+00
DAV:   5    -0.506548425888E+03   -0.15352E-02   -0.87932E-02 27231   0.160E+00    0.918E-01
DAV:   6    -0.506547934437E+03    0.49145E-03   -0.15839E-02 24414   0.681E-01    0.568E-01
DAV:   7    -0.506547482886E+03    0.45155E-03   -0.42132E-03 20832   0.350E-01    0.386E-01
DAV:   8    -0.506547480209E+03    0.26774E-05   -0.96694E-04 18906   0.101E-01    0.370E-01
DAV:   9    -0.506547064787E+03    0.41542E-03   -0.52013E-04 22002   0.963E-02    0.282E-01
DAV:  10    -0.506546687028E+03    0.37776E-03   -0.89798E-04 23208   0.118E-01    0.193E-01
DAV:  11    -0.506546620591E+03    0.66437E-04   -0.27990E-04 22236   0.633E-02    0.158E-01
DAV:  12    -0.506546602918E+03    0.17673E-04   -0.12536E-04 21813   0.505E-02    0.119E-01
DAV:  13    -0.506546658330E+03   -0.55412E-04   -0.11948E-04 21867   0.397E-02    0.687E-02
DAV:  14    -0.506546685831E+03   -0.27501E-04   -0.35074E-05 13785   0.275E-02    0.466E-02
DAV:  15    -0.506546687717E+03   -0.18859E-05   -0.12467E-05  8223   0.156E-02
  14 F= -.50654669E+03 E0= -.50655661E+03  d E =-.136819E+00  mag=    96.0620
 curvature:  -2.84 expect dE=-0.915E-01 dE for cont linesearch -0.233E-03
 trial: gam= 0.24196 g(F)=  0.322E-01 g(S)=  0.000E+00 ort = 0.351E-02 (trialstep = 0.206E+01)
 search vector abs. value=  0.427E-01
 bond charge predicted
       N       E                     dE             d eps       ncg     rms          rms(c)
DAV:   1    -0.506116469324E+03    0.43022E+00   -0.53416E+01 15783   0.143E+01    0.344E+00
DAV:   2    -0.506525360402E+03   -0.40889E+00   -0.37785E+00 15420   0.384E+00    0.245E+00
DAV:   3    -0.506677905808E+03   -0.15255E+00   -0.37182E-01 27807   0.329E+00    0.425E+00
DAV:   4    -0.506571006919E+03    0.10690E+00   -0.39667E-01 28212   0.355E+00    0.216E+00
DAV:   5    -0.506593894097E+03   -0.22887E-01   -0.44862E-02 26169   0.128E+00    0.148E+00
DAV:   6    -0.506599420938E+03   -0.55268E-02   -0.25304E-02 24882   0.953E-01    0.653E-01
DAV:   7    -0.506599946657E+03   -0.52572E-03   -0.78513E-03 22794   0.446E-01    0.397E-01
DAV:   8    -0.506599893974E+03    0.52683E-04   -0.12538E-03 19230   0.140E-01    0.348E-01
DAV:   9    -0.506599674652E+03    0.21932E-03   -0.31635E-04 22479   0.757E-02    0.304E-01
DAV:  10    -0.506599201534E+03    0.47312E-03   -0.75139E-04 22452   0.979E-02    0.199E-01
DAV:  11    -0.506599047858E+03    0.15368E-03   -0.41571E-04 22155   0.669E-02    0.159E-01
DAV:  12    -0.506599022296E+03    0.25563E-04   -0.10705E-04 19815   0.453E-02    0.132E-01
DAV:  13    -0.506599060523E+03   -0.38227E-04   -0.17432E-04 21219   0.462E-02    0.736E-02
DAV:  14    -0.506599095832E+03   -0.35309E-04   -0.56877E-05 16611   0.287E-02    0.525E-02
DAV:  15    -0.506599097797E+03   -0.19646E-05   -0.10364E-05  8745   0.161E-02
  15 F= -.50659910E+03 E0= -.50660937E+03  d E =-.524101E-01  mag=    95.9578
 trial-energy change:   -0.052410  1 .order   -0.052031   -0.068264   -0.035798
 step:   4.0619(harm=  4.3376)  dis= 0.03339  next Energy=  -506.616787 (dE=-0.701E-01)
 bond charge predicted
       N       E                     dE             d eps       ncg     rms          rms(c)
DAV:   1    -0.506165513746E+03    0.43358E+00   -0.50097E+01 15795   0.139E+01    0.333E+00
DAV:   2    -0.506548459414E+03   -0.38295E+00   -0.35456E+00 15420   0.370E+00    0.235E+00
DAV:   3    -0.506664243962E+03   -0.11578E+00   -0.28210E-01 27834   0.277E+00    0.367E+00
DAV:   4    -0.506596412968E+03    0.67831E-01   -0.32717E-01 28158   0.324E+00    0.218E+00
DAV:   5    -0.506613624614E+03   -0.17212E-01   -0.47269E-02 26367   0.133E+00    0.142E+00
DAV:   6    -0.506618347056E+03   -0.47224E-02   -0.23330E-02 24933   0.912E-01    0.612E-01
DAV:   7    -0.506618885848E+03   -0.53879E-03   -0.69118E-03 22461   0.406E-01    0.387E-01
DAV:   8    -0.506618836655E+03    0.49192E-04   -0.10787E-03 19725   0.131E-01    0.339E-01
DAV:   9    -0.506618648484E+03    0.18817E-03   -0.29379E-04 22596   0.734E-02    0.297E-01
DAV:  10    -0.506618260453E+03    0.38803E-03   -0.68928E-04 22470   0.964E-02    0.196E-01
DAV:  11    -0.506618115195E+03    0.14526E-03   -0.39262E-04 22191   0.650E-02    0.156E-01
DAV:  12    -0.506618104440E+03    0.10756E-04   -0.10508E-04 20031   0.455E-02    0.128E-01
DAV:  13    -0.506618159392E+03   -0.54952E-04   -0.15912E-04 21291   0.430E-02    0.725E-02
DAV:  14    -0.506618191677E+03   -0.32285E-04   -0.48192E-05 15540   0.280E-02    0.497E-02
DAV:  15    -0.506618194105E+03   -0.24282E-05   -0.10060E-05  8511   0.157E-02
  16 F= -.50661819E+03 E0= -.50662886E+03  d E =-.715064E-01  mag=    95.8486
 curvature:  -2.76 expect dE=-0.334E-01 dE for cont linesearch -0.122E-03
 trial: gam= 0.34090 g(F)=  0.121E-01 g(S)=  0.000E+00 ort = 0.137E-02 (trialstep = 0.246E+01)
 search vector abs. value=  0.180E-01
 bond charge predicted
       N       E                     dE             d eps       ncg     rms          rms(c)
DAV:   1    -0.506210613069E+03    0.40758E+00   -0.37086E+01 16467   0.140E+01    0.310E+00
DAV:   2    -0.506593200425E+03   -0.38259E+00   -0.36001E+00 15330   0.359E+00    0.220E+00
DAV:   3    -0.506806373811E+03   -0.21317E+00   -0.58368E-01 26745   0.430E+00    0.518E+00
DAV:   4    -0.506612850829E+03    0.19352E+00   -0.47463E-01 28221   0.379E+00    0.165E+00
DAV:   5    -0.506631628494E+03   -0.18778E-01   -0.24533E-02 25728   0.893E-01    0.132E+00
DAV:   6    -0.506640540229E+03   -0.89117E-02   -0.18677E-02 24612   0.809E-01    0.844E-01
DAV:   7    -0.506641236429E+03   -0.69620E-03   -0.89248E-03 22713   0.504E-01    0.322E-01
DAV:   8    -0.506641239770E+03   -0.33419E-05   -0.16411E-03 18690   0.111E-01    0.283E-01
DAV:   9    -0.506641057465E+03    0.18231E-03   -0.51653E-04 25134   0.806E-02    0.247E-01
DAV:  10    -0.506640705520E+03    0.35194E-03   -0.48384E-04 22029   0.857E-02    0.170E-01
DAV:  11    -0.506640569458E+03    0.13606E-03   -0.27542E-04 23235   0.641E-02    0.134E-01
DAV:  12    -0.506640541267E+03    0.28191E-04   -0.10314E-04 19788   0.361E-02    0.115E-01
DAV:  13    -0.506640527121E+03    0.14146E-04   -0.19825E-04 22578   0.488E-02    0.608E-02
DAV:  14    -0.506640548397E+03   -0.21276E-04   -0.47096E-05 11706   0.309E-02    0.538E-02
DAV:  15    -0.506640555891E+03   -0.74935E-05   -0.21816E-05 10905   0.158E-02
  17 F= -.50664056E+03 E0= -.50665147E+03  d E =-.223618E-01  mag=    95.7243
 trial-energy change:   -0.022362  1 .order   -0.022031   -0.030998   -0.013063
 step:   3.9837(harm=  4.2563)  dis= 0.03107  next Energy=  -506.644668 (dE=-0.265E-01)
 bond charge predicted
       N       E                     dE             d eps       ncg     rms          rms(c)
DAV:   1    -0.506482610792E+03    0.15794E+00   -0.14107E+01 16479   0.865E+00    0.188E+00
DAV:   2    -0.506626057111E+03   -0.14345E+00   -0.13618E+00 15330   0.217E+00    0.126E+00
DAV:   3    -0.506673294875E+03   -0.47238E-01   -0.12436E-01 27492   0.188E+00    0.239E+00
DAV:   4    -0.506636114074E+03    0.37181E-01   -0.10978E-01 28257   0.185E+00    0.104E+00
DAV:   5    -0.506643241685E+03   -0.71276E-02   -0.10959E-02 26151   0.628E-01    0.809E-01
DAV:   6    -0.506645624136E+03   -0.23825E-02   -0.72727E-03 24693   0.505E-01    0.418E-01
DAV:   7    -0.506645480417E+03    0.14372E-03   -0.27434E-03 22317   0.272E-01    0.197E-01
DAV:   8    -0.506645478166E+03    0.22508E-05   -0.49437E-04 18591   0.633E-02    0.177E-01
DAV:   9    -0.506645387552E+03    0.90614E-04   -0.17538E-04 21948   0.405E-02    0.140E-01
DAV:  10    -0.506645270806E+03    0.11675E-03   -0.21558E-04 22338   0.562E-02    0.927E-02
DAV:  11    -0.506645251119E+03    0.19687E-04   -0.59624E-05 14649   0.251E-02    0.817E-02
DAV:  12    -0.506645251479E+03   -0.35985E-06   -0.41660E-05 12624   0.238E-02
  18 F= -.50664525E+03 E0= -.50665633E+03  d E =-.270574E-01  mag=    95.6402
 curvature:  -2.98 expect dE=-0.166E-01 dE for cont linesearch -0.180E-03
 trial: gam= 0.40804 g(F)=  0.557E-02 g(S)=  0.000E+00 ort = 0.104E-02 (trialstep = 0.277E+01)
 search vector abs. value=  0.942E-02
 bond charge predicted
       N       E                     dE             d eps       ncg     rms          rms(c)
DAV:   1    -0.506414674909E+03    0.23058E+00   -0.21077E+01 16263   0.106E+01    0.254E+00
DAV:   2    -0.506616573477E+03   -0.20190E+00   -0.18642E+00 15420   0.270E+00    0.174E+00
DAV:   3    -0.506639909596E+03   -0.23336E-01   -0.58792E-02 27411   0.863E-01    0.158E+00
DAV:   4    -0.506683394014E+03   -0.43484E-01   -0.15213E-01 27681   0.222E+00    0.258E+00
DAV:   5    -0.506653968864E+03    0.29425E-01   -0.95363E-02 27420   0.185E+00    0.106E+00
DAV:   6    -0.506655899183E+03   -0.19303E-02   -0.12973E-02 26295   0.645E-01    0.407E-01
DAV:   7    -0.506656265239E+03   -0.36606E-03   -0.36766E-03 22227   0.284E-01    0.292E-01
DAV:   8    -0.506656232045E+03    0.33194E-04   -0.59055E-04 17736   0.950E-02    0.263E-01
DAV:   9    -0.506656014468E+03    0.21758E-03   -0.24171E-04 23379   0.751E-02    0.205E-01
DAV:  10    -0.506655789818E+03    0.22465E-03   -0.35859E-04 23253   0.715E-02    0.147E-01
DAV:  11    -0.506655690262E+03    0.99555E-04   -0.23554E-04 21651   0.495E-02    0.115E-01
DAV:  12    -0.506655659120E+03    0.31143E-04   -0.12143E-04 21462   0.390E-02    0.857E-02
DAV:  13    -0.506655676171E+03   -0.17051E-04   -0.72944E-05 18996   0.281E-02    0.514E-02
DAV:  14    -0.506655690975E+03   -0.14805E-04   -0.18692E-05  9681   0.193E-02    0.387E-02
DAV:  15    -0.506655693829E+03   -0.28536E-05   -0.83385E-06  8349   0.126E-02
  19 F= -.50665569E+03 E0= -.50666672E+03  d E =-.104423E-01  mag=    95.5247
 trial-energy change:   -0.010442  1 .order   -0.010421   -0.016587   -0.004256
 step:   3.7219(harm=  3.7219)  dis= 0.01538  next Energy=  -506.656407 (dE=-0.112E-01)
 bond charge predicted
       N       E                     dE             d eps       ncg     rms          rms(c)
DAV:   1    -0.506628466403E+03    0.27225E-01   -0.25127E+00 16146   0.366E+00    0.868E-01
DAV:   2    -0.506651761674E+03   -0.23295E-01   -0.21485E-01 15330   0.927E-01    0.595E-01
DAV:   3    -0.506654849704E+03   -0.30880E-02   -0.71013E-03 26574   0.350E-01    0.579E-01
DAV:   4    -0.506657509207E+03   -0.26595E-02   -0.13803E-02 27420   0.677E-01    0.734E-01
DAV:   5    -0.506656640450E+03    0.86876E-03   -0.10400E-02 27276   0.561E-01    0.355E-01
DAV:   6    -0.506656498721E+03    0.14173E-03   -0.16944E-03 25629   0.232E-01    0.130E-01
DAV:   7    -0.506656527380E+03   -0.28660E-04   -0.37163E-04 19995   0.806E-02    0.962E-02
DAV:   8    -0.506656520665E+03    0.67157E-05   -0.42037E-05 15162   0.287E-02
  20 F= -.50665652E+03 E0= -.50666755E+03  d E =-.112692E-01  mag=    95.4869
 curvature:  -2.92 expect dE=-0.508E-02 dE for cont linesearch -0.502E-04
 ZBRENT: extrapolating
 opt :   4.0598  next Energy=  -506.656589 (dE=-0.113E-01)
 bond charge predicted
       N       E                     dE             d eps       ncg     rms          rms(c)
DAV:   1    -0.506652980370E+03    0.35470E-02   -0.31562E-01 15981   0.130E+00    0.307E-01
DAV:   2    -0.506655887725E+03   -0.29074E-02   -0.26782E-02 15246   0.327E-01    0.233E-01
DAV:   3    -0.506657098919E+03   -0.12112E-02   -0.28964E-03 27456   0.298E-01    0.388E-01
DAV:   4    -0.506656212727E+03    0.88619E-03   -0.31069E-03 26403   0.316E-01    0.208E-01
DAV:   5    -0.506656445229E+03   -0.23250E-03   -0.46996E-04 23469   0.118E-01    0.101E-01
DAV:   6    -0.506656454805E+03   -0.95754E-05   -0.14651E-04 21975   0.550E-02    0.740E-02
DAV:   7    -0.506656447732E+03    0.70731E-05   -0.27757E-05 10986   0.339E-02
  21 F= -.50665645E+03 E0= -.50666747E+03  d E =-.111963E-01  mag=    95.4705
 curvature:  -3.96 expect dE=-0.839E-02 dE for cont linesearch -0.110E-04
 trial: gam= 0.48602 g(F)=  0.212E-02 g(S)=  0.000E+00 ort =-0.162E-03 (trialstep = 0.303E+01)
 search vector abs. value=  0.419E-02
 bond charge predicted
       N       E                     dE             d eps       ncg     rms          rms(c)
DAV:   1    -0.506545722092E+03    0.11073E+00   -0.10415E+01 16032   0.726E+00    0.185E+00
DAV:   2    -0.506639591891E+03   -0.93870E-01   -0.82988E-01 15402   0.196E+00    0.144E+00
DAV:   3    -0.506711947101E+03   -0.72355E-01   -0.19503E-01 25179   0.255E+00    0.306E+00
DAV:   4    -0.506648077230E+03    0.63870E-01   -0.16796E-01 27123   0.229E+00    0.111E+00
DAV:   5    -0.506656002938E+03   -0.79257E-02   -0.10433E-02 26673   0.605E-01    0.837E-01
DAV:   6    -0.506659569666E+03   -0.35667E-02   -0.80787E-03 24405   0.513E-01    0.439E-01
DAV:   7    -0.506659490046E+03    0.79621E-04   -0.28099E-03 22317   0.278E-01    0.223E-01
DAV:   8    -0.506659468164E+03    0.21881E-04   -0.47740E-04 21156   0.659E-02    0.201E-01
DAV:   9    -0.506659354405E+03    0.11376E-03   -0.17910E-04 20265   0.524E-02    0.167E-01
DAV:  10    -0.506659159939E+03    0.19447E-03   -0.36639E-04 22020   0.669E-02    0.106E-01
DAV:  11    -0.506659137257E+03    0.22682E-04   -0.10000E-04 18105   0.333E-02    0.919E-02
DAV:  12    -0.506659146219E+03   -0.89617E-05   -0.34054E-05 12606   0.223E-02
  22 F= -.50665915E+03 E0= -.50667000E+03  d E =-.269849E-02  mag=    95.4375
 trial-energy change:   -0.002698  1 .order   -0.003142   -0.006174   -0.000110
 step:   3.1254(harm=  3.0801)  dis= 0.00698  next Energy=  -506.659148 (dE=-0.270E-02)
 bond charge predicted
       N       E                     dE             d eps       ncg     rms          rms(c)
DAV:   1    -0.506659011533E+03    0.12572E-03   -0.11500E-02 15939   0.247E-01    0.824E-02
DAV:   2    -0.506659328613E+03   -0.31708E-03   -0.13862E-03 24468   0.158E-01    0.175E-01
DAV:   3    -0.506659116352E+03    0.21226E-03   -0.68846E-04 23364   0.152E-01    0.677E-02
DAV:   4    -0.506659124361E+03   -0.80094E-05   -0.58157E-05 13083   0.458E-02
  23 F= -.50665912E+03 E0= -.50666997E+03  d E =-.267663E-02  mag=    95.4385
 curvature:  -0.99 expect dE=-0.680E-03 dE for cont linesearch -0.528E-04
 ZBRENT: interpolating
 opt :   3.0326  next Energy=  -506.659146 (dE=-0.270E-02)
 bond charge predicted
       N       E                     dE             d eps       ncg     rms          rms(c)
DAV:   1    -0.506659075932E+03    0.40419E-04   -0.98543E-03 15924   0.227E-01    0.569E-02
DAV:   2    -0.506659544309E+03   -0.46838E-03   -0.15988E-03 25782   0.192E-01    0.217E-01
DAV:   3    -0.506659139724E+03    0.40458E-03   -0.95964E-04 22200   0.177E-01    0.491E-02
DAV:   4    -0.506659154506E+03   -0.14783E-04   -0.56560E-05 16602   0.341E-02    0.346E-02
DAV:   5    -0.506659155947E+03   -0.14409E-05   -0.66882E-06  9186   0.132E-02
  24 F= -.50665916E+03 E0= -.50667001E+03  d E =-.270822E-02  mag=    95.4399
 curvature:  -0.00 expect dE=-0.145E-05 dE for cont linesearch -0.192E-08
 trial: gam= 0.15819 g(F)=  0.598E-03 g(S)=  0.000E+00 ort =-0.575E-04 (trialstep = 0.303E+01)
 search vector abs. value=  0.684E-03
 bond charge predicted
       N       E                     dE             d eps       ncg     rms          rms(c)
DAV:   1    -0.506645844243E+03    0.13310E-01   -0.15635E+00 15279   0.261E+00    0.687E-01
DAV:   2    -0.506656755176E+03   -0.10911E-01   -0.95588E-02 15330   0.693E-01    0.520E-01
DAV:   3    -0.506664092130E+03   -0.73370E-02   -0.15954E-02 27204   0.713E-01    0.926E-01
DAV:   4    -0.506658955543E+03    0.51366E-02   -0.18666E-02 28005   0.783E-01    0.457E-01
DAV:   5    -0.506659898783E+03   -0.94324E-03   -0.21486E-03 26772   0.277E-01    0.312E-01
DAV:   6    -0.506660123641E+03   -0.22486E-03   -0.11529E-03 23739   0.193E-01    0.118E-01
DAV:   7    -0.506660121376E+03    0.22649E-05   -0.27487E-04 21255   0.749E-02    0.855E-02
DAV:   8    -0.506660116963E+03    0.44139E-05   -0.31105E-05 12048   0.209E-02
  25 F= -.50666012E+03 E0= -.50667093E+03  d E =-.961015E-03  mag=    95.4533
 trial-energy change:   -0.000961  1 .order   -0.001115   -0.001782   -0.000447
 step:   4.0414(harm=  4.0414)  dis= 0.00710  next Energy=  -506.660346 (dE=-0.119E-02)
 bond charge predicted
       N       E                     dE             d eps       ncg     rms          rms(c)
DAV:   1    -0.506658489303E+03    0.16321E-02   -0.17562E-01 15210   0.880E-01    0.237E-01
DAV:   2    -0.506659725118E+03   -0.12358E-02   -0.10700E-02 15279   0.243E-01    0.200E-01
DAV:   3    -0.506660726664E+03   -0.10015E-02   -0.26511E-03 24918   0.307E-01    0.371E-01
DAV:   4    -0.506659869249E+03    0.85741E-03   -0.22667E-03 22173   0.270E-01    0.154E-01
DAV:   5    -0.506660066860E+03   -0.19761E-03   -0.28039E-04 23190   0.921E-02    0.122E-01
DAV:   6    -0.506660070281E+03   -0.34214E-05   -0.14991E-04 23100   0.702E-02    0.815E-02
DAV:   7    -0.506660057784E+03    0.12498E-04   -0.33483E-05 12579   0.308E-02    0.600E-02
DAV:   8    -0.506660053350E+03    0.44336E-05   -0.15293E-05  9105   0.175E-02
  26 F= -.50666005E+03 E0= -.50667085E+03  d E =-.897403E-03  mag=    95.4599
 curvature:  -2.35 expect dE=-0.553E-03 dE for cont linesearch -0.483E-05
 trial: gam= 0.41693 g(F)=  0.236E-03 g(S)=  0.000E+00 ort =-0.375E-04 (trialstep = 0.323E+01)
 search vector abs. value=  0.323E-03
 bond charge predicted
       N       E                     dE             d eps       ncg     rms          rms(c)
DAV:   1    -0.506646906746E+03    0.13151E-01   -0.11177E+00 15819   0.241E+00    0.569E-01
DAV:   2    -0.506659365693E+03   -0.12459E-01   -0.11105E-01 16233   0.693E-01    0.526E-01
DAV:   3    -0.506665500448E+03   -0.61348E-02   -0.25778E-02 24135   0.959E-01    0.945E-01
DAV:   4    -0.506659275579E+03    0.62249E-02   -0.13904E-02 25827   0.690E-01    0.311E-01
DAV:   5    -0.506660033012E+03   -0.75743E-03   -0.92675E-04 23334   0.177E-01    0.261E-01
DAV:   6    -0.506660441112E+03   -0.40810E-03   -0.82445E-04 23082   0.166E-01    0.183E-01
DAV:   7    -0.506660357489E+03    0.83623E-04   -0.50109E-04 22875   0.126E-01    0.681E-02
DAV:   8    -0.506660365741E+03   -0.82527E-05   -0.78731E-05 17412   0.243E-02
  27 F= -.50666037E+03 E0= -.50667111E+03  d E =-.312391E-03  mag=    95.4770
 trial-energy change:   -0.000312  1 .order   -0.000412   -0.000710   -0.000113
 step:   3.8435(harm=  3.8435)  dis= 0.00708  next Energy=  -506.660476 (dE=-0.423E-03)
 bond charge predicted
       N       E                     dE             d eps       ncg     rms          rms(c)
DAV:   1    -0.506659858912E+03    0.49858E-03   -0.40477E-02 15756   0.463E-01    0.112E-01
DAV:   2    -0.506660301456E+03   -0.44254E-03   -0.40549E-03 15402   0.137E-01    0.110E-01
DAV:   3    -0.506660454002E+03   -0.15255E-03   -0.69896E-04 21363   0.158E-01    0.161E-01
DAV:   4    -0.506660297771E+03    0.15623E-03   -0.38859E-04 12948   0.117E-01    0.805E-02
DAV:   5    -0.506660330347E+03   -0.32576E-04   -0.39004E-05 14838   0.314E-02    0.655E-02
DAV:   6    -0.506660335038E+03   -0.46912E-05   -0.37818E-05 13578   0.384E-02
  28 F= -.50666034E+03 E0= -.50667106E+03  d E =-.281688E-03  mag=    95.4821
 curvature:  -2.82 expect dE=-0.414E-03 dE for cont linesearch -0.187E-04
 ZBRENT: interpolating
 opt :   3.4946  next Energy=  -506.660370 (dE=-0.317E-03)
 bond charge predicted
       N       E                     dE             d eps       ncg     rms          rms(c)
DAV:   1    -0.506660190775E+03    0.13957E-03   -0.13008E-02 15696   0.260E-01    0.802E-02
DAV:   2    -0.506660679279E+03   -0.48850E-03   -0.20031E-03 25575   0.181E-01    0.209E-01
DAV:   3    -0.506660325757E+03    0.35352E-03   -0.10298E-03 23811   0.188E-01    0.680E-02
DAV:   4    -0.506660337376E+03   -0.11618E-04   -0.59530E-05 16170   0.371E-02    0.418E-02
DAV:   5    -0.506660344544E+03   -0.71687E-05   -0.11324E-05  9267   0.190E-02
  29 F= -.50666034E+03 E0= -.50667108E+03  d E =-.291194E-03  mag=    95.4807
 curvature:  -0.70 expect dE=-0.915E-04 dE for cont linesearch -0.130E-05
 trial: gam= 0.24696 g(F)=  0.130E-03 g(S)=  0.000E+00 ort = 0.245E-04 (trialstep = 0.328E+01)
 search vector abs. value=  0.162E-03
 bond charge predicted
       N       E                     dE             d eps       ncg     rms          rms(c)
DAV:   1    -0.506654759388E+03    0.55780E-02   -0.50131E-01 15570   0.163E+00    0.397E-01
DAV:   2    -0.506659512457E+03   -0.47531E-02   -0.43953E-02 15330   0.421E-01    0.281E-01
DAV:   3    -0.506661309639E+03   -0.17972E-02   -0.40309E-03 27078   0.347E-01    0.455E-01
DAV:   4    -0.506660099268E+03    0.12104E-02   -0.43475E-03 26943   0.375E-01    0.243E-01
DAV:   5    -0.506660525522E+03   -0.42625E-03   -0.63063E-04 24765   0.143E-01    0.154E-01
DAV:   6    -0.506660530046E+03   -0.45238E-05   -0.28457E-04 24126   0.104E-01    0.713E-02
DAV:   7    -0.506660525239E+03    0.48075E-05   -0.78447E-05 17052   0.435E-02
  30 F= -.50666053E+03 E0= -.50667120E+03  d E =-.180694E-03  mag=    95.4961
 trial-energy change:   -0.000181  1 .order   -0.000237   -0.000448   -0.000027
 step:   3.4930(harm=  3.4930)  dis= 0.00347  next Energy=  -506.660583 (dE=-0.238E-03)
 reached required accuracy - stopping structural energy minimisation
