INCAR-For-OPT                           
           1
     8.497000    0.000000    0.000000
    -0.007999    8.519196    0.000000
     0.000000    0.000000   23.573700
   Cr   Fe   Pb
    14    48     1
Direct configuration=     1
   0.99559000  0.32828000  0.12092000
   0.32395000  0.33606000  0.36616000
   0.33554000  0.33717000  0.12244000
   0.99808000  0.00294000  0.00138000
   0.00420000  0.00459000  0.37164000
   0.33205000  0.99934000  0.12171000
   0.66680000  0.99880000  0.24350000
   0.83452000  0.16613000  0.06120000
   0.67294000  0.00204000  0.12069000
   0.33405000  0.66695000  0.24111000
   0.99910000  0.66743000  0.12138000
   0.33020000  0.66453000  0.36739000
   0.33151000  0.66804000  0.00174000
   0.33268000  0.33220000  0.00000000
   0.83466000  0.83460000  0.06076000
   0.66791000  0.66529000  0.36033000
   0.66616000  0.66699000  0.00091000
   0.83433000  0.83345000  0.30321000
   0.66704000  0.66746000  0.24229000
   0.50180000  0.83456000  0.18079000
   0.33306000  0.66709000  0.12143000
   0.50009000  0.83568000  0.06165000
   0.83330000  0.83486000  0.18207000
   0.66751000  0.66780000  0.12127000
   0.00329000  0.66736000  0.36001000
   0.16644000  0.83420000  0.06149000
   0.16615000  0.83349000  0.30142000
   0.00140000  0.66613000  0.00100000
   0.83479000  0.50089000  0.18130000
   0.00007000  0.66669000  0.24225000
   0.83460000  0.50057000  0.06135000
   0.66585000  0.33313000  0.12140000
   0.16565000  0.83456000  0.18183000
   0.50128000  0.83304000  0.30234000
   0.00179000  0.33550000  0.00090000
   0.49795000  0.16690000  0.06150000
   0.50074000  0.16494000  0.18144000
   0.83289000  0.17076000  0.30277000
   0.66500000  0.00040000  0.00060000
   0.66744000  0.00231000  0.36079000
   0.83245000  0.16547000  0.18171000
   0.99997000  0.33361000  0.24198000
   0.16278000  0.50093000  0.30091000
   0.33438000  0.99945000  0.24203000
   0.50053000  0.16764000  0.30212000
   0.00050000  0.00053000  0.12178000
   0.16809000  0.16736000  0.18138000
   0.16609000  0.16801000  0.30016000
   0.16764000  0.16833000  0.06179000
   0.99934000  0.00030000  0.24219000
   0.33250000  0.00057000  0.00106000
   0.33071000  0.00181000  0.35809000
   0.16564000  0.49971000  0.18123000
   0.16746000  0.49787000  0.06247000
   0.50035000  0.50000000  0.30190000
   0.33345000  0.33400000  0.24176000
   0.50128000  0.50087000  0.18167000
   0.49793000  0.50025000  0.06116000
   0.83592000  0.49701000  0.30355000
   0.66663000  0.33329000  0.24218000
   0.66077000  0.33341000  0.36091000
   0.66547000  0.33470000  0.00081000
   0.09788000  0.34790000  0.44485000
Direct configuration=     2
   0.99559000  0.32828000  0.12092000
   0.32821908  0.33536632  0.36487871
   0.33554000  0.33717000  0.12244000
   0.99808000  0.00294000  0.00138000
   0.00427922  0.00523443  0.37200727
   0.33205000  0.99934000  0.12171000
   0.66680000  0.99880000  0.24350000
   0.83452000  0.16613000  0.06120000
   0.67294000  0.00204000  0.12069000
   0.33405000  0.66695000  0.24111000
   0.99910000  0.66743000  0.12138000
   0.32969658  0.66396575  0.36792239
   0.33151000  0.66804000  0.00174000
   0.33268000  0.33220000  0.00000000
   0.83466000  0.83460000  0.06076000
   0.66816134  0.66525492  0.36041804
   0.66616000  0.66699000  0.00091000
   0.83434138  0.83335993  0.30324894
   0.66704000  0.66746000  0.24229000
   0.50180000  0.83456000  0.18079000
   0.33306000  0.66709000  0.12143000
   0.50009000  0.83568000  0.06165000
   0.83330000  0.83486000  0.18207000
   0.66751000  0.66780000  0.12127000
   0.00321347  0.66679732  0.36044088
   0.16644000  0.83420000  0.06149000
   0.16621884  0.83355254  0.30134321
   0.00140000  0.66613000  0.00100000
   0.83479000  0.50089000  0.18130000
   0.00007000  0.66669000  0.24225000
   0.83460000  0.50057000  0.06135000
   0.66585000  0.33313000  0.12140000
   0.16565000  0.83456000  0.18183000
   0.50119013  0.83304491  0.30239045
   0.00179000  0.33550000  0.00090000
   0.49795000  0.16690000  0.06150000
   0.50074000  0.16494000  0.18144000
   0.83312865  0.17088799  0.30288933
   0.66500000  0.00040000  0.00060000
   0.66706989  0.00230939  0.36082878
   0.83245000  0.16547000  0.18171000
   0.99997000  0.33361000  0.24198000
   0.16256469  0.49939064  0.30149242
   0.33438000  0.99945000  0.24203000
   0.50018752  0.16784633  0.30227004
   0.00050000  0.00053000  0.12178000
   0.16809000  0.16736000  0.18138000
   0.16581551  0.16935583  0.30074304
   0.16764000  0.16833000  0.06179000
   0.99934000  0.00030000  0.24219000
   0.33250000  0.00057000  0.00106000
   0.33066818  0.00254687  0.35846063
   0.16564000  0.49971000  0.18123000
   0.16746000  0.49787000  0.06247000
   0.50017685  0.50000232  0.30202350
   0.33345000  0.33400000  0.24176000
   0.50128000  0.50087000  0.18167000
   0.49793000  0.50025000  0.06116000
   0.83615741  0.49679588  0.30367118
   0.66663000  0.33329000  0.24218000
   0.66095714  0.33353395  0.36109725
   0.66547000  0.33470000  0.00081000
   0.09440277  0.34824045  0.44296854
Direct configuration=     3
   0.99559000  0.32828000  0.12092000
   0.34102631  0.33328530  0.36103485
   0.33554000  0.33717000  0.12244000
   0.99808000  0.00294000  0.00138000
   0.00451687  0.00716774  0.37310907
   0.33205000  0.99934000  0.12171000
   0.66680000  0.99880000  0.24350000
   0.83452000  0.16613000  0.06120000
   0.67294000  0.00204000  0.12069000
   0.33405000  0.66695000  0.24111000
   0.99910000  0.66743000  0.12138000
   0.32818632  0.66227301  0.36951954
   0.33151000  0.66804000  0.00174000
   0.33268000  0.33220000  0.00000000
   0.83466000  0.83460000  0.06076000
   0.66891535  0.66514968  0.36068218
   0.66616000  0.66699000  0.00091000
   0.83437553  0.83308972  0.30336577
   0.66704000  0.66746000  0.24229000
   0.50180000  0.83456000  0.18079000
   0.33306000  0.66709000  0.12143000
   0.50009000  0.83568000  0.06165000
   0.83330000  0.83486000  0.18207000
   0.66751000  0.66780000  0.12127000
   0.00298387  0.66510929  0.36173353
   0.16644000  0.83420000  0.06149000
   0.16642537  0.83374014  0.30111285
   0.00140000  0.66613000  0.00100000
   0.83479000  0.50089000  0.18130000
   0.00007000  0.66669000  0.24225000
   0.83460000  0.50057000  0.06135000
   0.66585000  0.33313000  0.12140000
   0.16565000  0.83456000  0.18183000
   0.50092050  0.83305964  0.30254180
   0.00179000  0.33550000  0.00090000
   0.49795000  0.16690000  0.06150000
   0.50074000  0.16494000  0.18144000
   0.83384459  0.17127197  0.30324731
   0.66500000  0.00040000  0.00060000
   0.66595956  0.00230757  0.36094510
   0.83245000  0.16547000  0.18171000
   0.99997000  0.33361000  0.24198000
   0.16191875  0.49477255  0.30323970
   0.33438000  0.99945000  0.24203000
   0.49916009  0.16846533  0.30272017
   0.00050000  0.00053000  0.12178000
   0.16809000  0.16736000  0.18138000
   0.16499203  0.17339333  0.30249215
   0.16764000  0.16833000  0.06179000
   0.99934000  0.00030000  0.24219000
   0.33250000  0.00057000  0.00106000
   0.33054274  0.00475749  0.35957252
   0.16564000  0.49971000  0.18123000
   0.16746000  0.49787000  0.06247000
   0.49965742  0.50000929  0.30239401
   0.33345000  0.33400000  0.24176000
   0.50128000  0.50087000  0.18167000
   0.49793000  0.50025000  0.06116000
   0.83686966  0.49615352  0.30403470
   0.66663000  0.33329000  0.24218000
   0.66151855  0.33390581  0.36165900
   0.66547000  0.33470000  0.00081000
   0.08397107  0.34926180  0.43732415
Direct configuration=     4
   0.99559000  0.32828000  0.12092000
   0.36664079  0.32912324  0.35334713
   0.33554000  0.33717000  0.12244000
   0.99808000  0.00294000  0.00138000
   0.00499217  0.01103434  0.37531268
   0.33205000  0.99934000  0.12171000
   0.66680000  0.99880000  0.24350000
   0.83452000  0.16613000  0.06120000
   0.67294000  0.00204000  0.12069000
   0.33405000  0.66695000  0.24111000
   0.99910000  0.66743000  0.12138000
   0.32516579  0.65888752  0.37271385
   0.33151000  0.66804000  0.00174000
   0.33268000  0.33220000  0.00000000
   0.83466000  0.83460000  0.06076000
   0.67042337  0.66493919  0.36121045
   0.66616000  0.66699000  0.00091000
   0.83444383  0.83254931  0.30359944
   0.66704000  0.66746000  0.24229000
   0.50180000  0.83456000  0.18079000
   0.33306000  0.66709000  0.12143000
   0.50009000  0.83568000  0.06165000
   0.83330000  0.83486000  0.18207000
   0.66751000  0.66780000  0.12127000
   0.00252467  0.66173321  0.36431884
   0.16644000  0.83420000  0.06149000
   0.16683842  0.83411536  0.30065213
   0.00140000  0.66613000  0.00100000
   0.83479000  0.50089000  0.18130000
   0.00007000  0.66669000  0.24225000
   0.83460000  0.50057000  0.06135000
   0.66585000  0.33313000  0.12140000
   0.16565000  0.83456000  0.18183000
   0.50038125  0.83308909  0.30284449
   0.00179000  0.33550000  0.00090000
   0.49795000  0.16690000  0.06150000
   0.50074000  0.16494000  0.18144000
   0.83527648  0.17203994  0.30396328
   0.66500000  0.00040000  0.00060000
   0.66373889  0.00230392  0.36117775
   0.83245000  0.16547000  0.18171000
   0.99997000  0.33361000  0.24198000
   0.16062687  0.48553636  0.30673424
   0.33438000  0.99945000  0.24203000
   0.49710522  0.16970333  0.30362043
   0.00050000  0.00053000  0.12178000
   0.16809000  0.16736000  0.18138000
   0.16334507  0.18146833  0.30599036
   0.16764000  0.16833000  0.06179000
   0.99934000  0.00030000  0.24219000
   0.33250000  0.00057000  0.00106000
   0.33029185  0.00917872  0.36179629
   0.16564000  0.49971000  0.18123000
   0.16746000  0.49787000  0.06247000
   0.49861854  0.50002324  0.30313503
   0.33345000  0.33400000  0.24176000
   0.50128000  0.50087000  0.18167000
   0.49793000  0.50025000  0.06116000
   0.83829415  0.49486880  0.30476176
   0.66663000  0.33329000  0.24218000
   0.66264137  0.33464953  0.36278250
   0.66547000  0.33470000  0.00081000
   0.06310768  0.35130450  0.42603537
Direct configuration=     5
   0.99559000  0.32828000  0.12092000
   0.35362336  0.33123842  0.35725407
   0.33554000  0.33717000  0.12244000
   0.99808000  0.00294000  0.00138000
   0.00475062  0.00906931  0.37419279
   0.33205000  0.99934000  0.12171000
   0.66680000  0.99880000  0.24350000
   0.83452000  0.16613000  0.06120000
   0.67294000  0.00204000  0.12069000
   0.33405000  0.66695000  0.24111000
   0.99910000  0.66743000  0.12138000
   0.32670084  0.66060804  0.37109049
   0.33151000  0.66804000  0.00174000
   0.33268000  0.33220000  0.00000000
   0.83466000  0.83460000  0.06076000
   0.66965699  0.66504616  0.36094198
   0.66616000  0.66699000  0.00091000
   0.83440912  0.83282395  0.30348069
   0.66704000  0.66746000  0.24229000
   0.50180000  0.83456000  0.18079000
   0.33306000  0.66709000  0.12143000
   0.50009000  0.83568000  0.06165000
   0.83330000  0.83486000  0.18207000
   0.66751000  0.66780000  0.12127000
   0.00275804  0.66344895  0.36300497
   0.16644000  0.83420000  0.06149000
   0.16662850  0.83392467  0.30088627
   0.00140000  0.66613000  0.00100000
   0.83479000  0.50089000  0.18130000
   0.00007000  0.66669000  0.24225000
   0.83460000  0.50057000  0.06135000
   0.66585000  0.33313000  0.12140000
   0.16565000  0.83456000  0.18183000
   0.50065530  0.83307412  0.30269066
   0.00179000  0.33550000  0.00090000
   0.49795000  0.16690000  0.06150000
   0.50074000  0.16494000  0.18144000
   0.83454878  0.17164965  0.30359942
   0.66500000  0.00040000  0.00060000
   0.66486745  0.00230578  0.36105952
   0.83245000  0.16547000  0.18171000
   0.99997000  0.33361000  0.24198000
   0.16128341  0.49023025  0.30495829
   0.33438000  0.99945000  0.24203000
   0.49814951  0.16907417  0.30316292
   0.00050000  0.00053000  0.12178000
   0.16809000  0.16736000  0.18138000
   0.16418206  0.17736457  0.30421255
   0.16764000  0.16833000  0.06179000
   0.99934000  0.00030000  0.24219000
   0.33250000  0.00057000  0.00106000
   0.33041935  0.00693182  0.36066615
   0.16564000  0.49971000  0.18123000
   0.16746000  0.49787000  0.06247000
   0.49914650  0.50001615  0.30275844
   0.33345000  0.33400000  0.24176000
   0.50128000  0.50087000  0.18167000
   0.49793000  0.50025000  0.06116000
   0.83757022  0.49552171  0.30439226
   0.66663000  0.33329000  0.24218000
   0.66207075  0.33427157  0.36221153
   0.66547000  0.33470000  0.00081000
   0.07371058  0.35026639  0.43177240
Direct configuration=     6
   0.99559000  0.32828000  0.12092000
   0.35582325  0.33184893  0.35692372
   0.33554000  0.33717000  0.12244000
   0.99808000  0.00294000  0.00138000
   0.00460937  0.00911383  0.37451754
   0.33205000  0.99934000  0.12171000
   0.66680000  0.99880000  0.24350000
   0.83452000  0.16613000  0.06120000
   0.67294000  0.00204000  0.12069000
   0.33405000  0.66695000  0.24111000
   0.99910000  0.66743000  0.12138000
   0.32653456  0.66006557  0.37181755
   0.33151000  0.66804000  0.00174000
   0.33268000  0.33220000  0.00000000
   0.83466000  0.83460000  0.06076000
   0.66991696  0.66481510  0.36092515
   0.66616000  0.66699000  0.00091000
   0.83487448  0.83268379  0.30371487
   0.66704000  0.66746000  0.24229000
   0.50180000  0.83456000  0.18079000
   0.33306000  0.66709000  0.12143000
   0.50009000  0.83568000  0.06165000
   0.83330000  0.83486000  0.18207000
   0.66751000  0.66780000  0.12127000
   0.00238548  0.66337423  0.36320010
   0.16644000  0.83420000  0.06149000
   0.16656129  0.83404681  0.30122725
   0.00140000  0.66613000  0.00100000
   0.83479000  0.50089000  0.18130000
   0.00007000  0.66669000  0.24225000
   0.83460000  0.50057000  0.06135000
   0.66585000  0.33313000  0.12140000
   0.16565000  0.83456000  0.18183000
   0.50006082  0.83312493  0.30293315
   0.00179000  0.33550000  0.00090000
   0.49795000  0.16690000  0.06150000
   0.50074000  0.16494000  0.18144000
   0.83461266  0.17158543  0.30373491
   0.66500000  0.00040000  0.00060000
   0.66445505  0.00244861  0.36100718
   0.83245000  0.16547000  0.18171000
   0.99997000  0.33361000  0.24198000
   0.16012182  0.48984115  0.30536374
   0.33438000  0.99945000  0.24203000
   0.49926937  0.16750522  0.30299961
   0.00050000  0.00053000  0.12178000
   0.16809000  0.16736000  0.18138000
   0.16380383  0.17726092  0.30460204
   0.16764000  0.16833000  0.06179000
   0.99934000  0.00030000  0.24219000
   0.33250000  0.00057000  0.00106000
   0.33023423  0.00698370  0.36083869
   0.16564000  0.49971000  0.18123000
   0.16746000  0.49787000  0.06247000
   0.50054695  0.50119889  0.30258574
   0.33345000  0.33400000  0.24176000
   0.50128000  0.50087000  0.18167000
   0.49793000  0.50025000  0.06116000
   0.83764798  0.49572514  0.30458574
   0.66663000  0.33329000  0.24218000
   0.66276391  0.33430208  0.36245127
   0.66547000  0.33470000  0.00081000
   0.07022987  0.35069451  0.42892175
Direct configuration=     7
   0.99559000  0.32828000  0.12092000
   0.36242294  0.33368045  0.35593268
   0.33554000  0.33717000  0.12244000
   0.99808000  0.00294000  0.00138000
   0.00418563  0.00924739  0.37549180
   0.33205000  0.99934000  0.12171000
   0.66680000  0.99880000  0.24350000
   0.83452000  0.16613000  0.06120000
   0.67294000  0.00204000  0.12069000
   0.33405000  0.66695000  0.24111000
   0.99910000  0.66743000  0.12138000
   0.32603570  0.65843817  0.37399874
   0.33151000  0.66804000  0.00174000
   0.33268000  0.33220000  0.00000000
   0.83466000  0.83460000  0.06076000
   0.67069688  0.66412191  0.36087465
   0.66616000  0.66699000  0.00091000
   0.83627057  0.83226331  0.30441743
   0.66704000  0.66746000  0.24229000
   0.50180000  0.83456000  0.18079000
   0.33306000  0.66709000  0.12143000
   0.50009000  0.83568000  0.06165000
   0.83330000  0.83486000  0.18207000
   0.66751000  0.66780000  0.12127000
   0.00126781  0.66315006  0.36378550
   0.16644000  0.83420000  0.06149000
   0.16635966  0.83441324  0.30225019
   0.00140000  0.66613000  0.00100000
   0.83479000  0.50089000  0.18130000
   0.00007000  0.66669000  0.24225000
   0.83460000  0.50057000  0.06135000
   0.66585000  0.33313000  0.12140000
   0.16565000  0.83456000  0.18183000
   0.49827735  0.83327736  0.30366062
   0.00179000  0.33550000  0.00090000
   0.49795000  0.16690000  0.06150000
   0.50074000  0.16494000  0.18144000
   0.83480428  0.17139276  0.30414139
   0.66500000  0.00040000  0.00060000
   0.66321786  0.00287710  0.36085017
   0.83245000  0.16547000  0.18171000
   0.99997000  0.33361000  0.24198000
   0.15663707  0.48867386  0.30658010
   0.33438000  0.99945000  0.24203000
   0.50262894  0.16279835  0.30250970
   0.00050000  0.00053000  0.12178000
   0.16809000  0.16736000  0.18138000
   0.16266914  0.17695000  0.30577052
   0.16764000  0.16833000  0.06179000
   0.99934000  0.00030000  0.24219000
   0.33250000  0.00057000  0.00106000
   0.32967888  0.00713933  0.36135628
   0.16564000  0.49971000  0.18123000
   0.16746000  0.49787000  0.06247000
   0.50474829  0.50474711  0.30206762
   0.33345000  0.33400000  0.24176000
   0.50128000  0.50087000  0.18167000
   0.49793000  0.50025000  0.06116000
   0.83788127  0.49633546  0.30516618
   0.66663000  0.33329000  0.24218000
   0.66484339  0.33439361  0.36317051
   0.66547000  0.33470000  0.00081000
   0.05978774  0.35197890  0.42036980
Direct configuration=     8
   0.99559000  0.32828000  0.12092000
   0.37562230  0.33734348  0.35395058
   0.33554000  0.33717000  0.12244000
   0.99808000  0.00294000  0.00138000
   0.00333816  0.00951452  0.37744031
   0.33205000  0.99934000  0.12171000
   0.66680000  0.99880000  0.24350000
   0.83452000  0.16613000  0.06120000
   0.67294000  0.00204000  0.12069000
   0.33405000  0.66695000  0.24111000
   0.99910000  0.66743000  0.12138000
   0.32503800  0.65518337  0.37836113
   0.33151000  0.66804000  0.00174000
   0.33268000  0.33220000  0.00000000
   0.83466000  0.83460000  0.06076000
   0.67225673  0.66273555  0.36077366
   0.66616000  0.66699000  0.00091000
   0.83906273  0.83142235  0.30582255
   0.66704000  0.66746000  0.24229000
   0.50180000  0.83456000  0.18079000
   0.33306000  0.66709000  0.12143000
   0.50009000  0.83568000  0.06165000
   0.83330000  0.83486000  0.18207000
   0.66751000  0.66780000  0.12127000
   0.99903247  0.66270171  0.36495628
   0.16644000  0.83420000  0.06149000
   0.16595640  0.83514608  0.30429605
   0.00140000  0.66613000  0.00100000
   0.83479000  0.50089000  0.18130000
   0.00007000  0.66669000  0.24225000
   0.83460000  0.50057000  0.06135000
   0.66585000  0.33313000  0.12140000
   0.16565000  0.83456000  0.18183000
   0.49471042  0.83358222  0.30511556
   0.00179000  0.33550000  0.00090000
   0.49795000  0.16690000  0.06150000
   0.50074000  0.16494000  0.18144000
   0.83518753  0.17100743  0.30495433
   0.66500000  0.00040000  0.00060000
   0.66074348  0.00373408  0.36053614
   0.83245000  0.16547000  0.18171000
   0.99997000  0.33361000  0.24198000
   0.14966756  0.48633928  0.30901280
   0.33438000  0.99945000  0.24203000
   0.50934807  0.15338463  0.30152989
   0.00050000  0.00053000  0.12178000
   0.16809000  0.16736000  0.18138000
   0.16039977  0.17632815  0.30810747
   0.16764000  0.16833000  0.06179000
   0.99934000  0.00030000  0.24219000
   0.33250000  0.00057000  0.00106000
   0.32856816  0.00745059  0.36239148
   0.16564000  0.49971000  0.18123000
   0.16746000  0.49787000  0.06247000
   0.51315098  0.51184354  0.30103138
   0.33345000  0.33400000  0.24176000
   0.50128000  0.50087000  0.18167000
   0.49793000  0.50025000  0.06116000
   0.83834784  0.49755609  0.30632705
   0.66663000  0.33329000  0.24218000
   0.66900234  0.33457667  0.36460897
   0.66547000  0.33470000  0.00081000
   0.03890347  0.35454767  0.40326590
Direct configuration=     9
   0.99559000  0.32828000  0.12092000
   0.36686235  0.33491246  0.35526603
   0.33554000  0.33717000  0.12244000
   0.99808000  0.00294000  0.00138000
   0.00390060  0.00933724  0.37614715
   0.33205000  0.99934000  0.12171000
   0.66680000  0.99880000  0.24350000
   0.83452000  0.16613000  0.06120000
   0.67294000  0.00204000  0.12069000
   0.33405000  0.66695000  0.24111000
   0.99910000  0.66743000  0.12138000
   0.32570014  0.65734347  0.37546597
   0.33151000  0.66804000  0.00174000
   0.33268000  0.33220000  0.00000000
   0.83466000  0.83460000  0.06076000
   0.67122152  0.66365563  0.36084068
   0.66616000  0.66699000  0.00091000
   0.83720967  0.83198047  0.30489002
   0.66704000  0.66746000  0.24229000
   0.50180000  0.83456000  0.18079000
   0.33306000  0.66709000  0.12143000
   0.50009000  0.83568000  0.06165000
   0.83330000  0.83486000  0.18207000
   0.66751000  0.66780000  0.12127000
   0.00051598  0.66299926  0.36417927
   0.16644000  0.83420000  0.06149000
   0.16622403  0.83465972  0.30293828
   0.00140000  0.66613000  0.00100000
   0.83479000  0.50089000  0.18130000
   0.00007000  0.66669000  0.24225000
   0.83460000  0.50057000  0.06135000
   0.66585000  0.33313000  0.12140000
   0.16565000  0.83456000  0.18183000
   0.49707767  0.83337990  0.30414997
   0.00179000  0.33550000  0.00090000
   0.49795000  0.16690000  0.06150000
   0.50074000  0.16494000  0.18144000
   0.83493318  0.17126316  0.30441481
   0.66500000  0.00040000  0.00060000
   0.66238564  0.00316533  0.36074455
   0.83245000  0.16547000  0.18171000
   0.99997000  0.33361000  0.24198000
   0.15429298  0.48788866  0.30739830
   0.33438000  0.99945000  0.24203000
   0.50488882  0.15963219  0.30218016
   0.00050000  0.00053000  0.12178000
   0.16809000  0.16736000  0.18138000
   0.16190587  0.17674085  0.30655652
   0.16764000  0.16833000  0.06179000
   0.99934000  0.00030000  0.24219000
   0.33250000  0.00057000  0.00106000
   0.32930530  0.00724402  0.36170446
   0.16564000  0.49971000  0.18123000
   0.16746000  0.49787000  0.06247000
   0.50757441  0.50713389  0.30171910
   0.33345000  0.33400000  0.24176000
   0.50128000  0.50087000  0.18167000
   0.49793000  0.50025000  0.06116000
   0.83803819  0.49674600  0.30555662
   0.66663000  0.33329000  0.24218000
   0.66624219  0.33445518  0.36365431
   0.66547000  0.33470000  0.00081000
   0.05276362  0.35284287  0.41461715
Direct configuration=    10
   0.99559000  0.32828000  0.12092000
   0.36486947  0.33676495  0.35653966
   0.33554000  0.33717000  0.12244000
   0.99808000  0.00294000  0.00138000
   0.00289259  0.00779778  0.37623477
   0.33205000  0.99934000  0.12171000
   0.66680000  0.99880000  0.24350000
   0.83452000  0.16613000  0.06120000
   0.67294000  0.00204000  0.12069000
   0.33405000  0.66695000  0.24111000
   0.99910000  0.66743000  0.12138000
   0.32663382  0.65652990  0.37562583
   0.33151000  0.66804000  0.00174000
   0.33268000  0.33220000  0.00000000
   0.83466000  0.83460000  0.06076000
   0.67104741  0.66405267  0.36112102
   0.66616000  0.66699000  0.00091000
   0.83705691  0.83239611  0.30485022
   0.66704000  0.66746000  0.24229000
   0.50180000  0.83456000  0.18079000
   0.33306000  0.66709000  0.12143000
   0.50009000  0.83568000  0.06165000
   0.83330000  0.83486000  0.18207000
   0.66751000  0.66780000  0.12127000
   0.99985491  0.66480824  0.36407712
   0.16644000  0.83420000  0.06149000
   0.16622745  0.83433739  0.30347428
   0.00140000  0.66613000  0.00100000
   0.83479000  0.50089000  0.18130000
   0.00007000  0.66669000  0.24225000
   0.83460000  0.50057000  0.06135000
   0.66585000  0.33313000  0.12140000
   0.16565000  0.83456000  0.18183000
   0.49675475  0.83255795  0.30435563
   0.00179000  0.33550000  0.00090000
   0.49795000  0.16690000  0.06150000
   0.50074000  0.16494000  0.18144000
   0.83538563  0.17134287  0.30449933
   0.66500000  0.00040000  0.00060000
   0.66313043  0.00247295  0.36112825
   0.83245000  0.16547000  0.18171000
   0.99997000  0.33361000  0.24198000
   0.15538538  0.49062883  0.30641266
   0.33438000  0.99945000  0.24203000
   0.50469680  0.15979691  0.30184344
   0.00050000  0.00053000  0.12178000
   0.16809000  0.16736000  0.18138000
   0.16313243  0.17465478  0.30587457
   0.16764000  0.16833000  0.06179000
   0.99934000  0.00030000  0.24219000
   0.33250000  0.00057000  0.00106000
   0.32913042  0.00646648  0.36145980
   0.16564000  0.49971000  0.18123000
   0.16746000  0.49787000  0.06247000
   0.50766289  0.50770188  0.30154520
   0.33345000  0.33400000  0.24176000
   0.50128000  0.50087000  0.18167000
   0.49793000  0.50025000  0.06116000
   0.83784052  0.49654511  0.30540526
   0.66663000  0.33329000  0.24218000
   0.66737381  0.33393280  0.36344683
   0.66547000  0.33470000  0.00081000
   0.04872552  0.35222073  0.41167584
Direct configuration=    11
   0.99559000  0.32828000  0.12092000
   0.35889083  0.34232244  0.36036054
   0.33554000  0.33717000  0.12244000
   0.99808000  0.00294000  0.00138000
   0.99986858  0.00317939  0.37649762
   0.33205000  0.99934000  0.12171000
   0.66680000  0.99880000  0.24350000
   0.83452000  0.16613000  0.06120000
   0.67294000  0.00204000  0.12069000
   0.33405000  0.66695000  0.24111000
   0.99910000  0.66743000  0.12138000
   0.32943488  0.65408920  0.37610543
   0.33151000  0.66804000  0.00174000
   0.33268000  0.33220000  0.00000000
   0.83466000  0.83460000  0.06076000
   0.67052507  0.66524381  0.36196204
   0.66616000  0.66699000  0.00091000
   0.83659864  0.83364303  0.30473081
   0.66704000  0.66746000  0.24229000
   0.50180000  0.83456000  0.18079000
   0.33306000  0.66709000  0.12143000
   0.50009000  0.83568000  0.06165000
   0.83330000  0.83486000  0.18207000
   0.66751000  0.66780000  0.12127000
   0.99787169  0.67023516  0.36377068
   0.16644000  0.83420000  0.06149000
   0.16623769  0.83337041  0.30508229
   0.00140000  0.66613000  0.00100000
   0.83479000  0.50089000  0.18130000
   0.00007000  0.66669000  0.24225000
   0.83460000  0.50057000  0.06135000
   0.66585000  0.33313000  0.12140000
   0.16565000  0.83456000  0.18183000
   0.49578599  0.83009209  0.30497263
   0.00179000  0.33550000  0.00090000
   0.49795000  0.16690000  0.06150000
   0.50074000  0.16494000  0.18144000
   0.83674297  0.17158201  0.30475289
   0.66500000  0.00040000  0.00060000
   0.66536482  0.00039580  0.36227935
   0.83245000  0.16547000  0.18171000
   0.99997000  0.33361000  0.24198000
   0.15866261  0.49884935  0.30345575
   0.33438000  0.99945000  0.24203000
   0.50412073  0.16029108  0.30083330
   0.00050000  0.00053000  0.12178000
   0.16809000  0.16736000  0.18138000
   0.16681210  0.16839660  0.30382872
   0.16764000  0.16833000  0.06179000
   0.99934000  0.00030000  0.24219000
   0.33250000  0.00057000  0.00106000
   0.32860576  0.00413386  0.36072583
   0.16564000  0.49971000  0.18123000
   0.16746000  0.49787000  0.06247000
   0.50792833  0.50940586  0.30102351
   0.33345000  0.33400000  0.24176000
   0.50128000  0.50087000  0.18167000
   0.49793000  0.50025000  0.06116000
   0.83724751  0.49594242  0.30495117
   0.66663000  0.33329000  0.24218000
   0.67076867  0.33236568  0.36282438
   0.66547000  0.33470000  0.00081000
   0.03661123  0.35035431  0.40285192
Direct configuration=    12
   0.99559000  0.32828000  0.12092000
   0.35756759  0.34355247  0.36120621
   0.33554000  0.33717000  0.12244000
   0.99808000  0.00294000  0.00138000
   0.99919928  0.00215721  0.37655580
   0.33205000  0.99934000  0.12171000
   0.66680000  0.99880000  0.24350000
   0.83452000  0.16613000  0.06120000
   0.67294000  0.00204000  0.12069000
   0.33405000  0.66695000  0.24111000
   0.99910000  0.66743000  0.12138000
   0.33005484  0.65354901  0.37621157
   0.33151000  0.66804000  0.00174000
   0.33268000  0.33220000  0.00000000
   0.83466000  0.83460000  0.06076000
   0.67040947  0.66550744  0.36214818
   0.66616000  0.66699000  0.00091000
   0.83649721  0.83391901  0.30470438
   0.66704000  0.66746000  0.24229000
   0.50180000  0.83456000  0.18079000
   0.33306000  0.66709000  0.12143000
   0.50009000  0.83568000  0.06165000
   0.83330000  0.83486000  0.18207000
   0.66751000  0.66780000  0.12127000
   0.99743274  0.67143630  0.36370286
   0.16644000  0.83420000  0.06149000
   0.16623995  0.83315638  0.30543819
   0.00140000  0.66613000  0.00100000
   0.83479000  0.50089000  0.18130000
   0.00007000  0.66669000  0.24225000
   0.83460000  0.50057000  0.06135000
   0.66585000  0.33313000  0.12140000
   0.16565000  0.83456000  0.18183000
   0.49557158  0.82954632  0.30510919
   0.00179000  0.33550000  0.00090000
   0.49795000  0.16690000  0.06150000
   0.50074000  0.16494000  0.18144000
   0.83704339  0.17163493  0.30480901
   0.66500000  0.00040000  0.00060000
   0.66585935  0.99993607  0.36253412
   0.83245000  0.16547000  0.18171000
   0.99997000  0.33361000  0.24198000
   0.15938795  0.50066879  0.30280130
   0.33438000  0.99945000  0.24203000
   0.50399323  0.16040046  0.30060973
   0.00050000  0.00053000  0.12178000
   0.16809000  0.16736000  0.18138000
   0.16762652  0.16701148  0.30337591
   0.16764000  0.16833000  0.06179000
   0.99934000  0.00030000  0.24219000
   0.33250000  0.00057000  0.00106000
   0.32848964  0.00361758  0.36056339
   0.16564000  0.49971000  0.18123000
   0.16746000  0.49787000  0.06247000
   0.50798708  0.50978300  0.30090804
   0.33345000  0.33400000  0.24176000
   0.50128000  0.50087000  0.18167000
   0.49793000  0.50025000  0.06116000
   0.83711626  0.49580903  0.30485067
   0.66663000  0.33329000  0.24218000
   0.67152005  0.33201883  0.36268662
   0.66547000  0.33470000  0.00081000
   0.03392999  0.34994122  0.40089893
Direct configuration=    13
   0.99559000  0.32828000  0.12092000
   0.35666601  0.34495911  0.36174020
   0.33554000  0.33717000  0.12244000
   0.99808000  0.00294000  0.00138000
   0.99899493  0.00075030  0.37626197
   0.33205000  0.99934000  0.12171000
   0.66680000  0.99880000  0.24350000
   0.83452000  0.16613000  0.06120000
   0.67294000  0.00204000  0.12069000
   0.33405000  0.66695000  0.24111000
   0.99910000  0.66743000  0.12138000
   0.33096896  0.65283885  0.37622810
   0.33151000  0.66804000  0.00174000
   0.33268000  0.33220000  0.00000000
   0.83466000  0.83460000  0.06076000
   0.66952208  0.66535095  0.36217790
   0.66616000  0.66699000  0.00091000
   0.83447932  0.83388752  0.30422671
   0.66704000  0.66746000  0.24229000
   0.50180000  0.83456000  0.18079000
   0.33306000  0.66709000  0.12143000
   0.50009000  0.83568000  0.06165000
   0.83330000  0.83486000  0.18207000
   0.66751000  0.66780000  0.12127000
   0.99783621  0.67308757  0.36294122
   0.16644000  0.83420000  0.06149000
   0.16650839  0.83284003  0.30456878
   0.00140000  0.66613000  0.00100000
   0.83479000  0.50089000  0.18130000
   0.00007000  0.66669000  0.24225000
   0.83460000  0.50057000  0.06135000
   0.66585000  0.33313000  0.12140000
   0.16565000  0.83456000  0.18183000
   0.49689036  0.83065802  0.30487372
   0.00179000  0.33550000  0.00090000
   0.49795000  0.16690000  0.06150000
   0.50074000  0.16494000  0.18144000
   0.83648280  0.17030376  0.30451717
   0.66500000  0.00040000  0.00060000
   0.66533168  0.99990220  0.36232826
   0.83245000  0.16547000  0.18171000
   0.99997000  0.33361000  0.24198000
   0.16199059  0.50359273  0.30139336
   0.33438000  0.99945000  0.24203000
   0.50252787  0.16342297  0.30224244
   0.00050000  0.00053000  0.12178000
   0.16809000  0.16736000  0.18138000
   0.16946884  0.16697451  0.30268130
   0.16764000  0.16833000  0.06179000
   0.99934000  0.00030000  0.24219000
   0.33250000  0.00057000  0.00106000
   0.33011982  0.00217351  0.36060367
   0.16564000  0.49971000  0.18123000
   0.16746000  0.49787000  0.06247000
   0.50688428  0.50577161  0.30171824
   0.33345000  0.33400000  0.24176000
   0.50128000  0.50087000  0.18167000
   0.49793000  0.50025000  0.06116000
   0.83667486  0.49786712  0.30451433
   0.66663000  0.33329000  0.24218000
   0.67081652  0.33123357  0.36211907
   0.66547000  0.33470000  0.00081000
   0.02407164  0.34695091  0.39763555
Direct configuration=    14
   0.99559000  0.32828000  0.12092000
   0.35605490  0.34591255  0.36210216
   0.33554000  0.33717000  0.12244000
   0.99808000  0.00294000  0.00138000
   0.99885642  0.99979666  0.37606281
   0.33205000  0.99934000  0.12171000
   0.66680000  0.99880000  0.24350000
   0.83452000  0.16613000  0.06120000
   0.67294000  0.00204000  0.12069000
   0.33405000  0.66695000  0.24111000
   0.99910000  0.66743000  0.12138000
   0.33158858  0.65235748  0.37623931
   0.33151000  0.66804000  0.00174000
   0.33268000  0.33220000  0.00000000
   0.83466000  0.83460000  0.06076000
   0.66892059  0.66524488  0.36219805
   0.66616000  0.66699000  0.00091000
   0.83311156  0.83386617  0.30390293
   0.66704000  0.66746000  0.24229000
   0.50180000  0.83456000  0.18079000
   0.33306000  0.66709000  0.12143000
   0.50009000  0.83568000  0.06165000
   0.83330000  0.83486000  0.18207000
   0.66751000  0.66780000  0.12127000
   0.99810969  0.67420684  0.36242497
   0.16644000  0.83420000  0.06149000
   0.16669033  0.83262561  0.30397947
   0.00140000  0.66613000  0.00100000
   0.83479000  0.50089000  0.18130000
   0.00007000  0.66669000  0.24225000
   0.83460000  0.50057000  0.06135000
   0.66585000  0.33313000  0.12140000
   0.16565000  0.83456000  0.18183000
   0.49778426  0.83141156  0.30471411
   0.00179000  0.33550000  0.00090000
   0.49795000  0.16690000  0.06150000
   0.50074000  0.16494000  0.18144000
   0.83610282  0.16940146  0.30431936
   0.66500000  0.00040000  0.00060000
   0.66497401  0.99987924  0.36218872
   0.83245000  0.16547000  0.18171000
   0.99997000  0.33361000  0.24198000
   0.16375471  0.50557463  0.30043903
   0.33438000  0.99945000  0.24203000
   0.50153461  0.16547170  0.30334912
   0.00050000  0.00053000  0.12178000
   0.16809000  0.16736000  0.18138000
   0.17071760  0.16694945  0.30221049
   0.16764000  0.16833000  0.06179000
   0.99934000  0.00030000  0.24219000
   0.33250000  0.00057000  0.00106000
   0.33122479  0.00119468  0.36063098
   0.16564000  0.49971000  0.18123000
   0.16746000  0.49787000  0.06247000
   0.50613678  0.50305261  0.30226741
   0.33345000  0.33400000  0.24176000
   0.50128000  0.50087000  0.18167000
   0.49793000  0.50025000  0.06116000
   0.83637568  0.49926213  0.30428634
   0.66663000  0.33329000  0.24218000
   0.67033966  0.33070130  0.36173438
   0.66547000  0.33470000  0.00081000
   0.01738945  0.34492401  0.39542357
Direct configuration=    15
   0.99559000  0.32828000  0.12092000
   0.35326098  0.34539522  0.36207329
   0.33554000  0.33717000  0.12244000
   0.99808000  0.00294000  0.00138000
   0.00048087  0.99950598  0.37513221
   0.33205000  0.99934000  0.12171000
   0.66680000  0.99880000  0.24350000
   0.83452000  0.16613000  0.06120000
   0.67294000  0.00204000  0.12069000
   0.33405000  0.66695000  0.24111000
   0.99910000  0.66743000  0.12138000
   0.33124331  0.65392365  0.37586010
   0.33151000  0.66804000  0.00174000
   0.33268000  0.33220000  0.00000000
   0.83466000  0.83460000  0.06076000
   0.66807392  0.66440383  0.36182303
   0.66616000  0.66699000  0.00091000
   0.83340882  0.83354550  0.30375935
   0.66704000  0.66746000  0.24229000
   0.50180000  0.83456000  0.18079000
   0.33306000  0.66709000  0.12143000
   0.50009000  0.83568000  0.06165000
   0.83330000  0.83486000  0.18207000
   0.66751000  0.66780000  0.12127000
   0.99974041  0.67319186  0.36152854
   0.16644000  0.83420000  0.06149000
   0.16758577  0.83352404  0.30321042
   0.00140000  0.66613000  0.00100000
   0.83479000  0.50089000  0.18130000
   0.00007000  0.66669000  0.24225000
   0.83460000  0.50057000  0.06135000
   0.66585000  0.33313000  0.12140000
   0.16565000  0.83456000  0.18183000
   0.49818681  0.83140116  0.30416666
   0.00179000  0.33550000  0.00090000
   0.49795000  0.16690000  0.06150000
   0.50074000  0.16494000  0.18144000
   0.83449951  0.16824055  0.30355807
   0.66500000  0.00040000  0.00060000
   0.66357981  0.00088590  0.36184599
   0.83245000  0.16547000  0.18171000
   0.99997000  0.33361000  0.24198000
   0.16383684  0.50385994  0.30115840
   0.33438000  0.99945000  0.24203000
   0.50123456  0.16496403  0.30374966
   0.00050000  0.00053000  0.12178000
   0.16809000  0.16736000  0.18138000
   0.17068470  0.16818914  0.30286337
   0.16764000  0.16833000  0.06179000
   0.99934000  0.00030000  0.24219000
   0.33250000  0.00057000  0.00106000
   0.33160897  0.00028992  0.36089861
   0.16564000  0.49971000  0.18123000
   0.16746000  0.49787000  0.06247000
   0.50719236  0.50318006  0.30223133
   0.33345000  0.33400000  0.24176000
   0.50128000  0.50087000  0.18167000
   0.49793000  0.50025000  0.06116000
   0.83571469  0.50067080  0.30384191
   0.66663000  0.33329000  0.24218000
   0.66908126  0.33128476  0.36197368
   0.66547000  0.33470000  0.00081000
   0.01186882  0.34282206  0.39432059
Direct configuration=    16
   0.99559000  0.32828000  0.12092000
   0.35055362  0.34489391  0.36204532
   0.33554000  0.33717000  0.12244000
   0.99808000  0.00294000  0.00138000
   0.00205500  0.99922430  0.37423044
   0.33205000  0.99934000  0.12171000
   0.66680000  0.99880000  0.24350000
   0.83452000  0.16613000  0.06120000
   0.67294000  0.00204000  0.12069000
   0.33405000  0.66695000  0.24111000
   0.99910000  0.66743000  0.12138000
   0.33090874  0.65544130  0.37549264
   0.33151000  0.66804000  0.00174000
   0.33268000  0.33220000  0.00000000
   0.83466000  0.83460000  0.06076000
   0.66725349  0.66358883  0.36145963
   0.66616000  0.66699000  0.00091000
   0.83369687  0.83323478  0.30362021
   0.66704000  0.66746000  0.24229000
   0.50180000  0.83456000  0.18079000
   0.33306000  0.66709000  0.12143000
   0.50009000  0.83568000  0.06165000
   0.83330000  0.83486000  0.18207000
   0.66751000  0.66780000  0.12127000
   0.00132061  0.67220833  0.36065989
   0.16644000  0.83420000  0.06149000
   0.16845347  0.83439464  0.30246520
   0.00140000  0.66613000  0.00100000
   0.83479000  0.50089000  0.18130000
   0.00007000  0.66669000  0.24225000
   0.83460000  0.50057000  0.06135000
   0.66585000  0.33313000  0.12140000
   0.16565000  0.83456000  0.18183000
   0.49857689  0.83139108  0.30363618
   0.00179000  0.33550000  0.00090000
   0.49795000  0.16690000  0.06150000
   0.50074000  0.16494000  0.18144000
   0.83294588  0.16711561  0.30282037
   0.66500000  0.00040000  0.00060000
   0.66222880  0.00186136  0.36151388
   0.83245000  0.16547000  0.18171000
   0.99997000  0.33361000  0.24198000
   0.16391642  0.50219838  0.30185548
   0.33438000  0.99945000  0.24203000
   0.50094380  0.16447208  0.30413779
   0.00050000  0.00053000  0.12178000
   0.16809000  0.16736000  0.18138000
   0.17065281  0.16939042  0.30349602
   0.16764000  0.16833000  0.06179000
   0.99934000  0.00030000  0.24219000
   0.33250000  0.00057000  0.00106000
   0.33198125  0.99941318  0.36115795
   0.16564000  0.49971000  0.18123000
   0.16746000  0.49787000  0.06247000
   0.50821523  0.50330355  0.30219636
   0.33345000  0.33400000  0.24176000
   0.50128000  0.50087000  0.18167000
   0.49793000  0.50025000  0.06116000
   0.83507418  0.50203583  0.30341125
   0.66663000  0.33329000  0.24218000
   0.66786184  0.33185014  0.36220557
   0.66547000  0.33470000  0.00081000
   0.00651925  0.34078524  0.39325178
Direct configuration=    17
   0.99559000  0.32828000  0.12092000
   0.34810490  0.34460416  0.36201621
   0.33554000  0.33717000  0.12244000
   0.99808000  0.00294000  0.00138000
   0.00258911  0.99835742  0.37308567
   0.33205000  0.99934000  0.12171000
   0.66680000  0.99880000  0.24350000
   0.83452000  0.16613000  0.06120000
   0.67294000  0.00204000  0.12069000
   0.33405000  0.66695000  0.24111000
   0.99910000  0.66743000  0.12138000
   0.33134381  0.65769602  0.37472373
   0.33151000  0.66804000  0.00174000
   0.33268000  0.33220000  0.00000000
   0.83466000  0.83460000  0.06076000
   0.66732559  0.66378874  0.36135518
   0.66616000  0.66699000  0.00091000
   0.83400055  0.83349228  0.30365552
   0.66704000  0.66746000  0.24229000
   0.50180000  0.83456000  0.18079000
   0.33306000  0.66709000  0.12143000
   0.50009000  0.83568000  0.06165000
   0.83330000  0.83486000  0.18207000
   0.66751000  0.66780000  0.12127000
   0.00224417  0.67142508  0.36017440
   0.16644000  0.83420000  0.06149000
   0.16923521  0.83363840  0.30239375
   0.00140000  0.66613000  0.00100000
   0.83479000  0.50089000  0.18130000
   0.00007000  0.66669000  0.24225000
   0.83460000  0.50057000  0.06135000
   0.66585000  0.33313000  0.12140000
   0.16565000  0.83456000  0.18183000
   0.49831958  0.83104681  0.30355492
   0.00179000  0.33550000  0.00090000
   0.49795000  0.16690000  0.06150000
   0.50074000  0.16494000  0.18144000
   0.83191844  0.16763799  0.30277047
   0.66500000  0.00040000  0.00060000
   0.66246804  0.00184308  0.36148528
   0.83245000  0.16547000  0.18171000
   0.99997000  0.33361000  0.24198000
   0.16354736  0.50130311  0.30201079
   0.33438000  0.99945000  0.24203000
   0.49982873  0.16481447  0.30356425
   0.00050000  0.00053000  0.12178000
   0.16809000  0.16736000  0.18138000
   0.17059306  0.16856142  0.30343650
   0.16764000  0.16833000  0.06179000
   0.99934000  0.00030000  0.24219000
   0.33250000  0.00057000  0.00106000
   0.33197449  0.99910615  0.36102931
   0.16564000  0.49971000  0.18123000
   0.16746000  0.49787000  0.06247000
   0.50608104  0.50284210  0.30215691
   0.33345000  0.33400000  0.24176000
   0.50128000  0.50087000  0.18167000
   0.49793000  0.50025000  0.06116000
   0.83488563  0.50029344  0.30315233
   0.66663000  0.33329000  0.24218000
   0.66577664  0.33274410  0.36209961
   0.66547000  0.33470000  0.00081000
   0.00233517  0.33924058  0.39328917
Direct configuration=    18
   0.99559000  0.32828000  0.12092000
   0.34659252  0.34442520  0.36199824
   0.33554000  0.33717000  0.12244000
   0.99808000  0.00294000  0.00138000
   0.00291899  0.99782202  0.37237864
   0.33205000  0.99934000  0.12171000
   0.66680000  0.99880000  0.24350000
   0.83452000  0.16613000  0.06120000
   0.67294000  0.00204000  0.12069000
   0.33405000  0.66695000  0.24111000
   0.99910000  0.66743000  0.12138000
   0.33161252  0.65908857  0.37424884
   0.33151000  0.66804000  0.00174000
   0.33268000  0.33220000  0.00000000
   0.83466000  0.83460000  0.06076000
   0.66737012  0.66391220  0.36129067
   0.66616000  0.66699000  0.00091000
   0.83418811  0.83365131  0.30367733
   0.66704000  0.66746000  0.24229000
   0.50180000  0.83456000  0.18079000
   0.33306000  0.66709000  0.12143000
   0.50009000  0.83568000  0.06165000
   0.83330000  0.83486000  0.18207000
   0.66751000  0.66780000  0.12127000
   0.00281458  0.67094134  0.35987456
   0.16644000  0.83420000  0.06149000
   0.16971803  0.83317133  0.30234962
   0.00140000  0.66613000  0.00100000
   0.83479000  0.50089000  0.18130000
   0.00007000  0.66669000  0.24225000
   0.83460000  0.50057000  0.06135000
   0.66585000  0.33313000  0.12140000
   0.16565000  0.83456000  0.18183000
   0.49816065  0.83083419  0.30350474
   0.00179000  0.33550000  0.00090000
   0.49795000  0.16690000  0.06150000
   0.50074000  0.16494000  0.18144000
   0.83128387  0.16796062  0.30273966
   0.66500000  0.00040000  0.00060000
   0.66261580  0.00183179  0.36146762
   0.83245000  0.16547000  0.18171000
   0.99997000  0.33361000  0.24198000
   0.16331943  0.50075017  0.30210672
   0.33438000  0.99945000  0.24203000
   0.49914004  0.16502593  0.30321002
   0.00050000  0.00053000  0.12178000
   0.16809000  0.16736000  0.18138000
   0.17055615  0.16804942  0.30339973
   0.16764000  0.16833000  0.06179000
   0.99934000  0.00030000  0.24219000
   0.33250000  0.00057000  0.00106000
   0.33197031  0.99891652  0.36094986
   0.16564000  0.49971000  0.18123000
   0.16746000  0.49787000  0.06247000
   0.50476293  0.50255710  0.30213254
   0.33345000  0.33400000  0.24176000
   0.50128000  0.50087000  0.18167000
   0.49793000  0.50025000  0.06116000
   0.83476918  0.49921731  0.30299241
   0.66663000  0.33329000  0.24218000
   0.66448878  0.33329623  0.36203417
   0.66547000  0.33470000  0.00081000
   0.99975100  0.33828657  0.39331226
Direct configuration=    19
   0.99559000  0.32828000  0.12092000
   0.34417192  0.34391529  0.36215560
   0.33554000  0.33717000  0.12244000
   0.99808000  0.00294000  0.00138000
   0.00270544  0.99716274  0.37166871
   0.33205000  0.99934000  0.12171000
   0.66680000  0.99880000  0.24350000
   0.83452000  0.16613000  0.06120000
   0.67294000  0.00204000  0.12069000
   0.33405000  0.66695000  0.24111000
   0.99910000  0.66743000  0.12138000
   0.33213104  0.66029788  0.37388436
   0.33151000  0.66804000  0.00174000
   0.33268000  0.33220000  0.00000000
   0.83466000  0.83460000  0.06076000
   0.66775408  0.66356727  0.36088093
   0.66616000  0.66699000  0.00091000
   0.83330169  0.83288542  0.30350210
   0.66704000  0.66746000  0.24229000
   0.50180000  0.83456000  0.18079000
   0.33306000  0.66709000  0.12143000
   0.50009000  0.83568000  0.06165000
   0.83330000  0.83486000  0.18207000
   0.66751000  0.66780000  0.12127000
   0.00248611  0.66992807  0.35989356
   0.16644000  0.83420000  0.06149000
   0.16939824  0.83260053  0.30196674
   0.00140000  0.66613000  0.00100000
   0.83479000  0.50089000  0.18130000
   0.00007000  0.66669000  0.24225000
   0.83460000  0.50057000  0.06135000
   0.66585000  0.33313000  0.12140000
   0.16565000  0.83456000  0.18183000
   0.49928400  0.83148062  0.30337883
   0.00179000  0.33550000  0.00090000
   0.49795000  0.16690000  0.06150000
   0.50074000  0.16494000  0.18144000
   0.83103837  0.16798981  0.30303315
   0.66500000  0.00040000  0.00060000
   0.66283508  0.00198739  0.36118094
   0.83245000  0.16547000  0.18171000
   0.99997000  0.33361000  0.24198000
   0.16280440  0.50041297  0.30196129
   0.33438000  0.99945000  0.24203000
   0.49925185  0.16496191  0.30321849
   0.00050000  0.00053000  0.12178000
   0.16809000  0.16736000  0.18138000
   0.16992559  0.16746455  0.30292428
   0.16764000  0.16833000  0.06179000
   0.99934000  0.00030000  0.24219000
   0.33250000  0.00057000  0.00106000
   0.33228344  0.99937112  0.36063666
   0.16564000  0.49971000  0.18123000
   0.16746000  0.49787000  0.06247000
   0.50456424  0.50284430  0.30194417
   0.33345000  0.33400000  0.24176000
   0.50128000  0.50087000  0.18167000
   0.49793000  0.50025000  0.06116000
   0.83364104  0.49951677  0.30314077
   0.66663000  0.33329000  0.24218000
   0.66141960  0.33384905  0.36169600
   0.66547000  0.33470000  0.00081000
   0.99741080  0.33697132  0.39379716
Direct configuration=    20
   0.99559000  0.32828000  0.12092000
   0.34333645  0.34373929  0.36220992
   0.33554000  0.33717000  0.12244000
   0.99808000  0.00294000  0.00138000
   0.00263174  0.99693519  0.37142368
   0.33205000  0.99934000  0.12171000
   0.66680000  0.99880000  0.24350000
   0.83452000  0.16613000  0.06120000
   0.67294000  0.00204000  0.12069000
   0.33405000  0.66695000  0.24111000
   0.99910000  0.66743000  0.12138000
   0.33231000  0.66071528  0.37375856
   0.33151000  0.66804000  0.00174000
   0.33268000  0.33220000  0.00000000
   0.83466000  0.83460000  0.06076000
   0.66788660  0.66344821  0.36073951
   0.66616000  0.66699000  0.00091000
   0.83299575  0.83262107  0.30344161
   0.66704000  0.66746000  0.24229000
   0.50180000  0.83456000  0.18079000
   0.33306000  0.66709000  0.12143000
   0.50009000  0.83568000  0.06165000
   0.83330000  0.83486000  0.18207000
   0.66751000  0.66780000  0.12127000
   0.00237273  0.66957833  0.35990012
   0.16644000  0.83420000  0.06149000
   0.16928787  0.83240352  0.30183459
   0.00140000  0.66613000  0.00100000
   0.83479000  0.50089000  0.18130000
   0.00007000  0.66669000  0.24225000
   0.83460000  0.50057000  0.06135000
   0.66585000  0.33313000  0.12140000
   0.16565000  0.83456000  0.18183000
   0.49967172  0.83170374  0.30333538
   0.00179000  0.33550000  0.00090000
   0.49795000  0.16690000  0.06150000
   0.50074000  0.16494000  0.18144000
   0.83095363  0.16799989  0.30313444
   0.66500000  0.00040000  0.00060000
   0.66291077  0.00204110  0.36108199
   0.83245000  0.16547000  0.18171000
   0.99997000  0.33361000  0.24198000
   0.16262663  0.50029658  0.30191110
   0.33438000  0.99945000  0.24203000
   0.49929044  0.16493982  0.30322141
   0.00050000  0.00053000  0.12178000
   0.16809000  0.16736000  0.18138000
   0.16970794  0.16726268  0.30276017
   0.16764000  0.16833000  0.06179000
   0.99934000  0.00030000  0.24219000
   0.33250000  0.00057000  0.00106000
   0.33239151  0.99952803  0.36052856
   0.16564000  0.49971000  0.18123000
   0.16746000  0.49787000  0.06247000
   0.50449566  0.50294343  0.30187915
   0.33345000  0.33400000  0.24176000
   0.50128000  0.50087000  0.18167000
   0.49793000  0.50025000  0.06116000
   0.83325166  0.49962013  0.30319197
   0.66663000  0.33329000  0.24218000
   0.66036026  0.33403986  0.36157928
   0.66547000  0.33470000  0.00081000
   0.99660306  0.33651736  0.39396453
Direct configuration=    21
   0.99559000  0.32828000  0.12092000
   0.34304087  0.34367702  0.36222913
   0.33554000  0.33717000  0.12244000
   0.99808000  0.00294000  0.00138000
   0.00260566  0.99685468  0.37133699
   0.33205000  0.99934000  0.12171000
   0.66680000  0.99880000  0.24350000
   0.83452000  0.16613000  0.06120000
   0.67294000  0.00204000  0.12069000
   0.33405000  0.66695000  0.24111000
   0.99910000  0.66743000  0.12138000
   0.33237332  0.66086295  0.37371405
   0.33151000  0.66804000  0.00174000
   0.33268000  0.33220000  0.00000000
   0.83466000  0.83460000  0.06076000
   0.66793348  0.66340609  0.36068948
   0.66616000  0.66699000  0.00091000
   0.83288751  0.83252755  0.30342021
   0.66704000  0.66746000  0.24229000
   0.50180000  0.83456000  0.18079000
   0.33306000  0.66709000  0.12143000
   0.50009000  0.83568000  0.06165000
   0.83330000  0.83486000  0.18207000
   0.66751000  0.66780000  0.12127000
   0.00233262  0.66945460  0.35990245
   0.16644000  0.83420000  0.06149000
   0.16924882  0.83233382  0.30178784
   0.00140000  0.66613000  0.00100000
   0.83479000  0.50089000  0.18130000
   0.00007000  0.66669000  0.24225000
   0.83460000  0.50057000  0.06135000
   0.66585000  0.33313000  0.12140000
   0.16565000  0.83456000  0.18183000
   0.49980889  0.83178268  0.30332000
   0.00179000  0.33550000  0.00090000
   0.49795000  0.16690000  0.06150000
   0.50074000  0.16494000  0.18144000
   0.83092365  0.16800345  0.30317028
   0.66500000  0.00040000  0.00060000
   0.66293754  0.00206010  0.36104698
   0.83245000  0.16547000  0.18171000
   0.99997000  0.33361000  0.24198000
   0.16256374  0.50025541  0.30189334
   0.33438000  0.99945000  0.24203000
   0.49930410  0.16493200  0.30322244
   0.00050000  0.00053000  0.12178000
   0.16809000  0.16736000  0.18138000
   0.16963094  0.16719127  0.30270212
   0.16764000  0.16833000  0.06179000
   0.99934000  0.00030000  0.24219000
   0.33250000  0.00057000  0.00106000
   0.33242975  0.99958354  0.36049032
   0.16564000  0.49971000  0.18123000
   0.16746000  0.49787000  0.06247000
   0.50447140  0.50297850  0.30185615
   0.33345000  0.33400000  0.24176000
   0.50128000  0.50087000  0.18167000
   0.49793000  0.50025000  0.06116000
   0.83311391  0.49965669  0.30321009
   0.66663000  0.33329000  0.24218000
   0.65998548  0.33410736  0.36153799
   0.66547000  0.33470000  0.00081000
   0.99631730  0.33635676  0.39402374
Direct configuration=    22
   0.99559000  0.32828000  0.12092000
   0.34107680  0.34311391  0.36219301
   0.33554000  0.33717000  0.12244000
   0.99808000  0.00294000  0.00138000
   0.00249979  0.99597559  0.37107764
   0.33205000  0.99934000  0.12171000
   0.66680000  0.99880000  0.24350000
   0.83452000  0.16613000  0.06120000
   0.67294000  0.00204000  0.12069000
   0.33405000  0.66695000  0.24111000
   0.99910000  0.66743000  0.12138000
   0.33256631  0.66100426  0.37347449
   0.33151000  0.66804000  0.00174000
   0.33268000  0.33220000  0.00000000
   0.83466000  0.83460000  0.06076000
   0.66801700  0.66314969  0.36084392
   0.66616000  0.66699000  0.00091000
   0.83339303  0.83237379  0.30316798
   0.66704000  0.66746000  0.24229000
   0.50180000  0.83456000  0.18079000
   0.33306000  0.66709000  0.12143000
   0.50009000  0.83568000  0.06165000
   0.83330000  0.83486000  0.18207000
   0.66751000  0.66780000  0.12127000
   0.00171603  0.66879700  0.36002636
   0.16644000  0.83420000  0.06149000
   0.16894741  0.83229039  0.30168200
   0.00140000  0.66613000  0.00100000
   0.83479000  0.50089000  0.18130000
   0.00007000  0.66669000  0.24225000
   0.83460000  0.50057000  0.06135000
   0.66585000  0.33313000  0.12140000
   0.16565000  0.83456000  0.18183000
   0.49956815  0.83234292  0.30295724
   0.00179000  0.33550000  0.00090000
   0.49795000  0.16690000  0.06150000
   0.50074000  0.16494000  0.18144000
   0.83100992  0.16814879  0.30305813
   0.66500000  0.00040000  0.00060000
   0.66345558  0.00227114  0.36112418
   0.83245000  0.16547000  0.18171000
   0.99997000  0.33361000  0.24198000
   0.16218950  0.50014353  0.30212161
   0.33438000  0.99945000  0.24203000
   0.49910768  0.16531949  0.30317075
   0.00050000  0.00053000  0.12178000
   0.16809000  0.16736000  0.18138000
   0.16892393  0.16768359  0.30254933
   0.16764000  0.16833000  0.06179000
   0.99934000  0.00030000  0.24219000
   0.33250000  0.00057000  0.00106000
   0.33221057  0.00005098  0.36009560
   0.16564000  0.49971000  0.18123000
   0.16746000  0.49787000  0.06247000
   0.50398134  0.50301144  0.30156203
   0.33345000  0.33400000  0.24176000
   0.50128000  0.50087000  0.18167000
   0.49793000  0.50025000  0.06116000
   0.83367514  0.49952010  0.30318648
   0.66663000  0.33329000  0.24218000
   0.65733636  0.33458862  0.36163690
   0.66547000  0.33470000  0.00081000
   0.99473563  0.33549144  0.39431051
Direct configuration=    23
   0.99559000  0.32828000  0.12092000
   0.34101194  0.34309531  0.36219182
   0.33554000  0.33717000  0.12244000
   0.99808000  0.00294000  0.00138000
   0.00249629  0.99594656  0.37106908
   0.33205000  0.99934000  0.12171000
   0.66680000  0.99880000  0.24350000
   0.83452000  0.16613000  0.06120000
   0.67294000  0.00204000  0.12069000
   0.33405000  0.66695000  0.24111000
   0.99910000  0.66743000  0.12138000
   0.33257268  0.66100892  0.37346658
   0.33151000  0.66804000  0.00174000
   0.33268000  0.33220000  0.00000000
   0.83466000  0.83460000  0.06076000
   0.66801976  0.66314122  0.36084902
   0.66616000  0.66699000  0.00091000
   0.83340973  0.83236871  0.30315965
   0.66704000  0.66746000  0.24229000
   0.50180000  0.83456000  0.18079000
   0.33306000  0.66709000  0.12143000
   0.50009000  0.83568000  0.06165000
   0.83330000  0.83486000  0.18207000
   0.66751000  0.66780000  0.12127000
   0.00169567  0.66877528  0.36003045
   0.16644000  0.83420000  0.06149000
   0.16893746  0.83228896  0.30167851
   0.00140000  0.66613000  0.00100000
   0.83479000  0.50089000  0.18130000
   0.00007000  0.66669000  0.24225000
   0.83460000  0.50057000  0.06135000
   0.66585000  0.33313000  0.12140000
   0.16565000  0.83456000  0.18183000
   0.49956020  0.83236142  0.30294526
   0.00179000  0.33550000  0.00090000
   0.49795000  0.16690000  0.06150000
   0.50074000  0.16494000  0.18144000
   0.83101277  0.16815359  0.30305442
   0.66500000  0.00040000  0.00060000
   0.66347269  0.00227811  0.36112673
   0.83245000  0.16547000  0.18171000
   0.99997000  0.33361000  0.24198000
   0.16217714  0.50013984  0.30212915
   0.33438000  0.99945000  0.24203000
   0.49910119  0.16533228  0.30316904
   0.00050000  0.00053000  0.12178000
   0.16809000  0.16736000  0.18138000
   0.16890058  0.16769984  0.30254428
   0.16764000  0.16833000  0.06179000
   0.99934000  0.00030000  0.24219000
   0.33250000  0.00057000  0.00106000
   0.33220334  0.00006642  0.36008257
   0.16564000  0.49971000  0.18123000
   0.16746000  0.49787000  0.06247000
   0.50396516  0.50301253  0.30155232
   0.33345000  0.33400000  0.24176000
   0.50128000  0.50087000  0.18167000
   0.49793000  0.50025000  0.06116000
   0.83369367  0.49951558  0.30318570
   0.66663000  0.33329000  0.24218000
   0.65724888  0.33460451  0.36164017
   0.66547000  0.33470000  0.00081000
   0.99468340  0.33546286  0.39431998
Direct configuration=    24
   0.99559000  0.32828000  0.12092000
   0.34107218  0.34311258  0.36219293
   0.33554000  0.33717000  0.12244000
   0.99808000  0.00294000  0.00138000
   0.00249954  0.99597352  0.37107703
   0.33205000  0.99934000  0.12171000
   0.66680000  0.99880000  0.24350000
   0.83452000  0.16613000  0.06120000
   0.67294000  0.00204000  0.12069000
   0.33405000  0.66695000  0.24111000
   0.99910000  0.66743000  0.12138000
   0.33256677  0.66100459  0.37347393
   0.33151000  0.66804000  0.00174000
   0.33268000  0.33220000  0.00000000
   0.83466000  0.83460000  0.06076000
   0.66801719  0.66314909  0.36084428
   0.66616000  0.66699000  0.00091000
   0.83339422  0.83237343  0.30316739
   0.66704000  0.66746000  0.24229000
   0.50180000  0.83456000  0.18079000
   0.33306000  0.66709000  0.12143000
   0.50009000  0.83568000  0.06165000
   0.83330000  0.83486000  0.18207000
   0.66751000  0.66780000  0.12127000
   0.00171458  0.66879545  0.36002665
   0.16644000  0.83420000  0.06149000
   0.16894670  0.83229029  0.30168175
   0.00140000  0.66613000  0.00100000
   0.83479000  0.50089000  0.18130000
   0.00007000  0.66669000  0.24225000
   0.83460000  0.50057000  0.06135000
   0.66585000  0.33313000  0.12140000
   0.16565000  0.83456000  0.18183000
   0.49956759  0.83234424  0.30295638
   0.00179000  0.33550000  0.00090000
   0.49795000  0.16690000  0.06150000
   0.50074000  0.16494000  0.18144000
   0.83101013  0.16814914  0.30305786
   0.66500000  0.00040000  0.00060000
   0.66345680  0.00227164  0.36112436
   0.83245000  0.16547000  0.18171000
   0.99997000  0.33361000  0.24198000
   0.16218862  0.50014327  0.30212215
   0.33438000  0.99945000  0.24203000
   0.49910721  0.16532040  0.30317063
   0.00050000  0.00053000  0.12178000
   0.16809000  0.16736000  0.18138000
   0.16892226  0.16768474  0.30254897
   0.16764000  0.16833000  0.06179000
   0.99934000  0.00030000  0.24219000
   0.33250000  0.00057000  0.00106000
   0.33221006  0.00005208  0.36009467
   0.16564000  0.49971000  0.18123000
   0.16746000  0.49787000  0.06247000
   0.50398019  0.50301152  0.30156134
   0.33345000  0.33400000  0.24176000
   0.50128000  0.50087000  0.18167000
   0.49793000  0.50025000  0.06116000
   0.83367646  0.49951977  0.30318642
   0.66663000  0.33329000  0.24218000
   0.65733013  0.33458975  0.36163714
   0.66547000  0.33470000  0.00081000
   0.99473191  0.33548940  0.39431119
Direct configuration=    25
   0.99559000  0.32828000  0.12092000
   0.34075926  0.34292036  0.36207968
   0.33554000  0.33717000  0.12244000
   0.99808000  0.00294000  0.00138000
   0.00253868  0.99587994  0.37126325
   0.33205000  0.99934000  0.12171000
   0.66680000  0.99880000  0.24350000
   0.83452000  0.16613000  0.06120000
   0.67294000  0.00204000  0.12069000
   0.33405000  0.66695000  0.24111000
   0.99910000  0.66743000  0.12138000
   0.33253842  0.66070648  0.37342444
   0.33151000  0.66804000  0.00174000
   0.33268000  0.33220000  0.00000000
   0.83466000  0.83460000  0.06076000
   0.66799115  0.66306550  0.36086042
   0.66616000  0.66699000  0.00091000
   0.83339752  0.83255716  0.30330152
   0.66704000  0.66746000  0.24229000
   0.50180000  0.83456000  0.18079000
   0.33306000  0.66709000  0.12143000
   0.50009000  0.83568000  0.06165000
   0.83330000  0.83486000  0.18207000
   0.66751000  0.66780000  0.12127000
   0.00153967  0.66892106  0.36011816
   0.16644000  0.83420000  0.06149000
   0.16902480  0.83234035  0.30182454
   0.00140000  0.66613000  0.00100000
   0.83479000  0.50089000  0.18130000
   0.00007000  0.66669000  0.24225000
   0.83460000  0.50057000  0.06135000
   0.66585000  0.33313000  0.12140000
   0.16565000  0.83456000  0.18183000
   0.49940268  0.83209580  0.30306951
   0.00179000  0.33550000  0.00090000
   0.49795000  0.16690000  0.06150000
   0.50074000  0.16494000  0.18144000
   0.83072540  0.16819789  0.30296473
   0.66500000  0.00040000  0.00060000
   0.66364682  0.00245584  0.36109158
   0.83245000  0.16547000  0.18171000
   0.99997000  0.33361000  0.24198000
   0.16213242  0.50012460  0.30230364
   0.33438000  0.99945000  0.24203000
   0.49916041  0.16545534  0.30308146
   0.00050000  0.00053000  0.12178000
   0.16809000  0.16736000  0.18138000
   0.16856788  0.16811796  0.30276994
   0.16764000  0.16833000  0.06179000
   0.99934000  0.00030000  0.24219000
   0.33250000  0.00057000  0.00106000
   0.33186163  0.00002177  0.35999287
   0.16564000  0.49971000  0.18123000
   0.16746000  0.49787000  0.06247000
   0.50400473  0.50302256  0.30163686
   0.33345000  0.33400000  0.24176000
   0.50128000  0.50087000  0.18167000
   0.49793000  0.50025000  0.06116000
   0.83356742  0.49921852  0.30317053
   0.66663000  0.33329000  0.24218000
   0.65688287  0.33496559  0.36186268
   0.66547000  0.33470000  0.00081000
   0.99402550  0.33520588  0.39431586
Direct configuration=    26
   0.99559000  0.32828000  0.12092000
   0.34065438  0.34285593  0.36204172
   0.33554000  0.33717000  0.12244000
   0.99808000  0.00294000  0.00138000
   0.00255179  0.99584857  0.37132567
   0.33205000  0.99934000  0.12171000
   0.66680000  0.99880000  0.24350000
   0.83452000  0.16613000  0.06120000
   0.67294000  0.00204000  0.12069000
   0.33405000  0.66695000  0.24111000
   0.99910000  0.66743000  0.12138000
   0.33252892  0.66060656  0.37340785
   0.33151000  0.66804000  0.00174000
   0.33268000  0.33220000  0.00000000
   0.83466000  0.83460000  0.06076000
   0.66798242  0.66303748  0.36086583
   0.66616000  0.66699000  0.00091000
   0.83339862  0.83261874  0.30334648
   0.66704000  0.66746000  0.24229000
   0.50180000  0.83456000  0.18079000
   0.33306000  0.66709000  0.12143000
   0.50009000  0.83568000  0.06165000
   0.83330000  0.83486000  0.18207000
   0.66751000  0.66780000  0.12127000
   0.00148105  0.66896316  0.36014882
   0.16644000  0.83420000  0.06149000
   0.16905097  0.83235713  0.30187239
   0.00140000  0.66613000  0.00100000
   0.83479000  0.50089000  0.18130000
   0.00007000  0.66669000  0.24225000
   0.83460000  0.50057000  0.06135000
   0.66585000  0.33313000  0.12140000
   0.16565000  0.83456000  0.18183000
   0.49934741  0.83201253  0.30310742
   0.00179000  0.33550000  0.00090000
   0.49795000  0.16690000  0.06150000
   0.50074000  0.16494000  0.18144000
   0.83062997  0.16821423  0.30293351
   0.66500000  0.00040000  0.00060000
   0.66371050  0.00251758  0.36108059
   0.83245000  0.16547000  0.18171000
   0.99997000  0.33361000  0.24198000
   0.16211358  0.50011834  0.30236447
   0.33438000  0.99945000  0.24203000
   0.49917824  0.16550057  0.30305157
   0.00050000  0.00053000  0.12178000
   0.16809000  0.16736000  0.18138000
   0.16844910  0.16826316  0.30284400
   0.16764000  0.16833000  0.06179000
   0.99934000  0.00030000  0.24219000
   0.33250000  0.00057000  0.00106000
   0.33174484  0.00001161  0.35995875
   0.16564000  0.49971000  0.18123000
   0.16746000  0.49787000  0.06247000
   0.50401296  0.50302626  0.30166217
   0.33345000  0.33400000  0.24176000
   0.50128000  0.50087000  0.18167000
   0.49793000  0.50025000  0.06116000
   0.83353087  0.49911755  0.30316521
   0.66663000  0.33329000  0.24218000
   0.65673296  0.33509156  0.36193828
   0.66547000  0.33470000  0.00081000
   0.99378873  0.33511085  0.39431742
Direct configuration=    27
   0.99559000  0.32828000  0.12092000
   0.34054928  0.34270737  0.36198853
   0.33554000  0.33717000  0.12244000
   0.99808000  0.00294000  0.00138000
   0.00236525  0.99610936  0.37157802
   0.33205000  0.99934000  0.12171000
   0.66680000  0.99880000  0.24350000
   0.83452000  0.16613000  0.06120000
   0.67294000  0.00204000  0.12069000
   0.33405000  0.66695000  0.24111000
   0.99910000  0.66743000  0.12138000
   0.33246346  0.66030451  0.37354179
   0.33151000  0.66804000  0.00174000
   0.33268000  0.33220000  0.00000000
   0.83466000  0.83460000  0.06076000
   0.66796056  0.66286190  0.36088655
   0.66616000  0.66699000  0.00091000
   0.83329164  0.83265715  0.30341023
   0.66704000  0.66746000  0.24229000
   0.50180000  0.83456000  0.18079000
   0.33306000  0.66709000  0.12143000
   0.50009000  0.83568000  0.06165000
   0.83330000  0.83486000  0.18207000
   0.66751000  0.66780000  0.12127000
   0.00134182  0.66896483  0.36022045
   0.16644000  0.83420000  0.06149000
   0.16883078  0.83237012  0.30189101
   0.00140000  0.66613000  0.00100000
   0.83479000  0.50089000  0.18130000
   0.00007000  0.66669000  0.24225000
   0.83460000  0.50057000  0.06135000
   0.66585000  0.33313000  0.12140000
   0.16565000  0.83456000  0.18183000
   0.49951819  0.83201926  0.30318450
   0.00179000  0.33550000  0.00090000
   0.49795000  0.16690000  0.06150000
   0.50074000  0.16494000  0.18144000
   0.83057909  0.16814317  0.30302298
   0.66500000  0.00040000  0.00060000
   0.66370267  0.00281592  0.36104262
   0.83245000  0.16547000  0.18171000
   0.99997000  0.33361000  0.24198000
   0.16179957  0.50015960  0.30235444
   0.33438000  0.99945000  0.24203000
   0.49916115  0.16548761  0.30309732
   0.00050000  0.00053000  0.12178000
   0.16809000  0.16736000  0.18138000
   0.16814032  0.16821577  0.30290295
   0.16764000  0.16833000  0.06179000
   0.99934000  0.00030000  0.24219000
   0.33250000  0.00057000  0.00106000
   0.33172853  0.99991976  0.35999292
   0.16564000  0.49971000  0.18123000
   0.16746000  0.49787000  0.06247000
   0.50412636  0.50285895  0.30169692
   0.33345000  0.33400000  0.24176000
   0.50128000  0.50087000  0.18167000
   0.49793000  0.50025000  0.06116000
   0.83334022  0.49930143  0.30320510
   0.66663000  0.33329000  0.24218000
   0.65653044  0.33530676  0.36204648
   0.66547000  0.33470000  0.00081000
   0.99319949  0.33502439  0.39435641
Direct configuration=    28
   0.99559000  0.32828000  0.12092000
   0.34052931  0.34267915  0.36197842
   0.33554000  0.33717000  0.12244000
   0.99808000  0.00294000  0.00138000
   0.00232981  0.99615891  0.37162596
   0.33205000  0.99934000  0.12171000
   0.66680000  0.99880000  0.24350000
   0.83452000  0.16613000  0.06120000
   0.67294000  0.00204000  0.12069000
   0.33405000  0.66695000  0.24111000
   0.99910000  0.66743000  0.12138000
   0.33245102  0.66024712  0.37356724
   0.33151000  0.66804000  0.00174000
   0.33268000  0.33220000  0.00000000
   0.83466000  0.83460000  0.06076000
   0.66795641  0.66282854  0.36089049
   0.66616000  0.66699000  0.00091000
   0.83327131  0.83266445  0.30342234
   0.66704000  0.66746000  0.24229000
   0.50180000  0.83456000  0.18079000
   0.33306000  0.66709000  0.12143000
   0.50009000  0.83568000  0.06165000
   0.83330000  0.83486000  0.18207000
   0.66751000  0.66780000  0.12127000
   0.00131537  0.66896514  0.36023406
   0.16644000  0.83420000  0.06149000
   0.16878895  0.83237259  0.30189455
   0.00140000  0.66613000  0.00100000
   0.83479000  0.50089000  0.18130000
   0.00007000  0.66669000  0.24225000
   0.83460000  0.50057000  0.06135000
   0.66585000  0.33313000  0.12140000
   0.16565000  0.83456000  0.18183000
   0.49955064  0.83202054  0.30319914
   0.00179000  0.33550000  0.00090000
   0.49795000  0.16690000  0.06150000
   0.50074000  0.16494000  0.18144000
   0.83056942  0.16812967  0.30303998
   0.66500000  0.00040000  0.00060000
   0.66370118  0.00287261  0.36103540
   0.83245000  0.16547000  0.18171000
   0.99997000  0.33361000  0.24198000
   0.16173991  0.50016744  0.30235254
   0.33438000  0.99945000  0.24203000
   0.49915790  0.16548515  0.30310601
   0.00050000  0.00053000  0.12178000
   0.16809000  0.16736000  0.18138000
   0.16808165  0.16820677  0.30291415
   0.16764000  0.16833000  0.06179000
   0.99934000  0.00030000  0.24219000
   0.33250000  0.00057000  0.00106000
   0.33172543  0.99990230  0.35999941
   0.16564000  0.49971000  0.18123000
   0.16746000  0.49787000  0.06247000
   0.50414790  0.50282717  0.30170352
   0.33345000  0.33400000  0.24176000
   0.50128000  0.50087000  0.18167000
   0.49793000  0.50025000  0.06116000
   0.83330399  0.49933637  0.30321268
   0.66663000  0.33329000  0.24218000
   0.65649196  0.33534764  0.36206704
   0.66547000  0.33470000  0.00081000
   0.99308754  0.33500796  0.39436381
Direct configuration=    29
   0.99559000  0.32828000  0.12092000
   0.34054067  0.34269520  0.36198417
   0.33554000  0.33717000  0.12244000
   0.99808000  0.00294000  0.00138000
   0.00234996  0.99613074  0.37159870
   0.33205000  0.99934000  0.12171000
   0.66680000  0.99880000  0.24350000
   0.83452000  0.16613000  0.06120000
   0.67294000  0.00204000  0.12069000
   0.33405000  0.66695000  0.24111000
   0.99910000  0.66743000  0.12138000
   0.33245809  0.66027975  0.37355277
   0.33151000  0.66804000  0.00174000
   0.33268000  0.33220000  0.00000000
   0.83466000  0.83460000  0.06076000
   0.66795877  0.66284751  0.36088825
   0.66616000  0.66699000  0.00091000
   0.83328287  0.83266030  0.30341545
   0.66704000  0.66746000  0.24229000
   0.50180000  0.83456000  0.18079000
   0.33306000  0.66709000  0.12143000
   0.50009000  0.83568000  0.06165000
   0.83330000  0.83486000  0.18207000
   0.66751000  0.66780000  0.12127000
   0.00133041  0.66896496  0.36022632
   0.16644000  0.83420000  0.06149000
   0.16881274  0.83237119  0.30189254
   0.00140000  0.66613000  0.00100000
   0.83479000  0.50089000  0.18130000
   0.00007000  0.66669000  0.24225000
   0.83460000  0.50057000  0.06135000
   0.66585000  0.33313000  0.12140000
   0.16565000  0.83456000  0.18183000
   0.49953219  0.83201981  0.30319082
   0.00179000  0.33550000  0.00090000
   0.49795000  0.16690000  0.06150000
   0.50074000  0.16494000  0.18144000
   0.83057492  0.16813735  0.30303031
   0.66500000  0.00040000  0.00060000
   0.66370203  0.00284038  0.36103951
   0.83245000  0.16547000  0.18171000
   0.99997000  0.33361000  0.24198000
   0.16177383  0.50016298  0.30235362
   0.33438000  0.99945000  0.24203000
   0.49915975  0.16548655  0.30310107
   0.00050000  0.00053000  0.12178000
   0.16809000  0.16736000  0.18138000
   0.16811501  0.16821189  0.30290778
   0.16764000  0.16833000  0.06179000
   0.99934000  0.00030000  0.24219000
   0.33250000  0.00057000  0.00106000
   0.33172719  0.99991223  0.35999572
   0.16564000  0.49971000  0.18123000
   0.16746000  0.49787000  0.06247000
   0.50413565  0.50284524  0.30169976
   0.33345000  0.33400000  0.24176000
   0.50128000  0.50087000  0.18167000
   0.49793000  0.50025000  0.06116000
   0.83332459  0.49931650  0.30320837
   0.66663000  0.33329000  0.24218000
   0.65651384  0.33532440  0.36205535
   0.66547000  0.33470000  0.00081000
   0.99315119  0.33501730  0.39435960
Direct configuration=    30
   0.99559000  0.32828000  0.12092000
   0.34033210  0.34265705  0.36199578
   0.33554000  0.33717000  0.12244000
   0.99808000  0.00294000  0.00138000
   0.00215368  0.99616589  0.37173712
   0.33205000  0.99934000  0.12171000
   0.66680000  0.99880000  0.24350000
   0.83452000  0.16613000  0.06120000
   0.67294000  0.00204000  0.12069000
   0.33405000  0.66695000  0.24111000
   0.99910000  0.66743000  0.12138000
   0.33238205  0.66012223  0.37364929
   0.33151000  0.66804000  0.00174000
   0.33268000  0.33220000  0.00000000
   0.83466000  0.83460000  0.06076000
   0.66791632  0.66275672  0.36097490
   0.66616000  0.66699000  0.00091000
   0.83338214  0.83262911  0.30338757
   0.66704000  0.66746000  0.24229000
   0.50180000  0.83456000  0.18079000
   0.33306000  0.66709000  0.12143000
   0.50009000  0.83568000  0.06165000
   0.83330000  0.83486000  0.18207000
   0.66751000  0.66780000  0.12127000
   0.00124121  0.66898313  0.36025894
   0.16644000  0.83420000  0.06149000
   0.16866688  0.83241041  0.30192768
   0.00140000  0.66613000  0.00100000
   0.83479000  0.50089000  0.18130000
   0.00007000  0.66669000  0.24225000
   0.83460000  0.50057000  0.06135000
   0.66585000  0.33313000  0.12140000
   0.16565000  0.83456000  0.18183000
   0.49946693  0.83206991  0.30317432
   0.00179000  0.33550000  0.00090000
   0.49795000  0.16690000  0.06150000
   0.50074000  0.16494000  0.18144000
   0.83072110  0.16822309  0.30309815
   0.66500000  0.00040000  0.00060000
   0.66362259  0.00303383  0.36112814
   0.83245000  0.16547000  0.18171000
   0.99997000  0.33361000  0.24198000
   0.16164619  0.50015554  0.30228828
   0.33438000  0.99945000  0.24203000
   0.49899627  0.16547890  0.30316308
   0.00050000  0.00053000  0.12178000
   0.16809000  0.16736000  0.18138000
   0.16817822  0.16792486  0.30281457
   0.16764000  0.16833000  0.06179000
   0.99934000  0.00030000  0.24219000
   0.33250000  0.00057000  0.00106000
   0.33181626  0.99975059  0.36006452
   0.16564000  0.49971000  0.18123000
   0.16746000  0.49787000  0.06247000
   0.50397097  0.50280249  0.30165234
   0.33345000  0.33400000  0.24176000
   0.50128000  0.50087000  0.18167000
   0.49793000  0.50025000  0.06116000
   0.83340732  0.49946279  0.30320935
   0.66663000  0.33329000  0.24218000
   0.65646322  0.33529452  0.36203690
   0.66547000  0.33470000  0.00081000
   0.99298050  0.33523340  0.39442658
