CONTCAR11
1.0
        8.5392999649         0.0000000000         0.0000000000
        0.0135247189         8.5058896306         0.0000000000
        0.0000000000         0.0000000000        23.5338993073
   Cr   Fe   Pb
   14   49    1
Direct
     0.002180000         0.998670000         0.241660000
     0.003020000         0.333610000         0.000570000
     0.990420000         0.327490000         0.369070000
     0.162170000         0.494310000         0.059810000
     0.164920000         0.835540000         0.060270000
     0.502400000         0.497180000         0.304270000
     0.504470000         0.496540000         0.060320000
     0.505140000         0.162370000         0.181670000
     0.661360000         0.000650000         0.240220000
     0.666030000         0.997990000         0.000470000
     0.666520000         0.002110000         0.364240000
     0.659890000         0.339500000         0.000310000
     0.655900000         0.336600000         0.366140000
     0.663520000         0.999350000         0.121620000
     0.165270000         0.161290000         0.302500000
     0.999970000         0.332050000         0.241660000
     0.166460000         0.498610000         0.303640000
     0.000130000         0.664930000         0.241430000
     0.167900000         0.832450000         0.303470000
     0.998540000         0.000480000         0.000000000
     0.991250000         0.997880000         0.360600000
     0.165500000         0.165000000         0.060500000
     0.001060000         0.666620000         0.000570000
     0.991890000         0.665400000         0.360270000
     0.999300000         0.999360000         0.120740000
     0.166850000         0.165380000         0.181050000
     0.999360000         0.331610000         0.120830000
     0.165440000         0.498120000         0.180930000
     0.000400000         0.665360000         0.120570000
     0.166270000         0.832030000         0.181030000
     0.333600000         0.997310000         0.241160000
     0.495480000         0.162890000         0.301510000
     0.332510000         0.332440000         0.241150000
     0.332430000         0.664110000         0.241350000
     0.499650000         0.832280000         0.303430000
     0.334060000         0.998500000         0.000620000
     0.343650000         0.000980000         0.362580000
     0.501120000         0.164660000         0.060490000
     0.333060000         0.332600000         0.000650000
     0.325400000         0.322660000         0.360160000
     0.332790000         0.661910000         0.001030000
     0.335180000         0.669320000         0.361180000
     0.500000000         0.831160000         0.060600000
     0.333360000         0.998540000         0.120890000
     0.332590000         0.332820000         0.120150000
     0.499580000         0.497790000         0.180760000
     0.331920000         0.663300000         0.120250000
     0.499720000         0.830170000         0.180810000
     0.831320000         0.162190000         0.299750000
     0.665320000         0.332320000         0.241370000
     0.831690000         0.501140000         0.301360000
     0.666230000         0.665340000         0.241240000
     0.832620000         0.832610000         0.301470000
     0.831780000         0.166090000         0.060060000
     0.834240000         0.499240000         0.060200000
     0.666750000         0.666970000         0.000340000
     0.672570000         0.676920000         0.362340000
     0.832910000         0.833870000         0.060670000
     0.834690000         0.165890000         0.181620000
     0.666810000         0.331590000         0.120720000
     0.832790000         0.498510000         0.181350000
     0.667090000         0.665020000         0.120810000
     0.833370000         0.833960000         0.181430000
     0.165500000         0.833400000         0.444760000
