   64   64  300    2
  0.2670890E+02  0.8539300E-09  0.8505900E-09  0.2353390E-08  0.5000000E-15
  1.000000000000000E-004
  CAR 
 ni3al                                   
    574      8    376
 
  0.1250000E+00  0.1250000E+00  0.0000000E+00  0.1250000E+00
      1        -42.904977      -43.153331   1.000000   1.000000
      2        -42.804789      -43.146271   1.000000   1.000000
      3        -42.780044      -43.114467   1.000000   1.000000
      4        -42.770007      -43.094754   1.000000   1.000000
      5        -42.739449      -43.089197   1.000000   1.000000
      6        -42.728090      -43.063986   1.000000   1.000000
      7        -42.678181      -43.009437   1.000000   1.000000
      8        -42.649646      -42.991733   1.000000   1.000000
      9        -42.620021      -42.972653   1.000000   1.000000
     10        -42.341425      -42.793170   1.000000   1.000000
     11        -42.340453      -42.785911   1.000000   1.000000
     12        -42.275691      -42.774683   1.000000   1.000000
     13        -42.197926      -42.759844   1.000000   1.000000
     14        -42.175728      -42.756386   1.000000   1.000000
     15        -42.167269      -42.722318   1.000000   1.000000
     16        -42.151130      -42.700475   1.000000   1.000000
     17        -42.107009      -42.662979   1.000000   1.000000
     18        -42.083986      -42.653644   1.000000   1.000000
     19        -41.998036      -42.637719   1.000000   1.000000
     20        -41.975411      -42.617733   1.000000   1.000000
     21        -41.961811      -42.523051   1.000000   1.000000
     22        -41.930671      -42.361721   1.000000   1.000000
     23        -41.908192      -42.134209   1.000000   1.000000
     24        -41.837374      -42.069489   1.000000   1.000000
     25        -41.813050      -42.021103   1.000000   1.000000
     26        -41.799474      -41.906749   1.000000   1.000000
     27        -41.765957      -41.884521   1.000000   1.000000
     28        -41.759073      -41.789244   1.000000   1.000000
     29        -41.756768      -41.757091   1.000000   1.000000
     30        -41.724504      -41.635498   1.000000   1.000000
     31        -41.680165      -41.516233   1.000000   1.000000
     32        -41.675710      -41.439641   1.000000   1.000000
     33        -41.670773      -41.359979   1.000000   1.000000
     34        -41.654631      -40.096211   1.000000   1.000000
     35        -41.650976      -39.987114   1.000000   1.000000
     36        -41.638279      -39.904912   1.000000   1.000000
     37        -41.635738      -39.879843   1.000000   1.000000
     38        -41.630287      -39.809649   1.000000   1.000000
     39        -41.604390      -39.678003   1.000000   1.000000
     40        -41.478648      -39.595093   1.000000   1.000000
     41        -41.472545      -39.536448   1.000000   1.000000
     42        -41.384242      -39.309485   1.000000   1.000000
     43        -15.424772      -15.466893   1.000000   1.000000
     44        -15.422760      -15.457582   1.000000   1.000000
     45        -15.412452      -15.454867   1.000000   1.000000
     46        -15.382554      -15.421649   1.000000   1.000000
     47        -15.364424      -15.413511   1.000000   1.000000
     48         -7.535498       -7.618697   1.000000   1.000000
     49         -7.026633       -6.922807   1.000000   1.000000
     50         -6.037669       -5.894918   1.000000   1.000000
     51         -5.552123       -5.391826   1.000000   1.000000
     52         -5.511214       -5.338368   1.000000   1.000000
     53         -4.835084       -4.579814   1.000000   1.000000
     54         -4.777019       -4.486955   1.000000   1.000000
     55         -4.730735       -4.478695   1.000000   1.000000
     56         -4.708803       -4.439723   1.000000   1.000000
     57         -4.663169       -4.419767   1.000000   1.000000
     58         -4.385152       -4.088037   1.000000   1.000000
     59         -4.243746       -3.822844   1.000000   1.000000
     60         -4.199880       -3.754099   1.000000   1.000000
     61         -4.054209       -3.537369   1.000000   1.000000
     62         -4.001741       -3.496316   1.000000   1.000000
     63         -3.982657       -3.452547   1.000000   1.000000
     64         -3.942395       -3.413010   1.000000   1.000000
     65         -3.901689       -3.265787   1.000000   1.000000
     66         -3.884327       -3.148436   1.000000   1.000000
     67         -3.805532       -3.119005   1.000000   1.000000
     68         -3.753934       -3.083333   1.000000   1.000000
     69         -3.735941       -3.003583   1.000000   1.000000
     70         -3.670287       -2.748439   1.000000   1.000000
     71         -3.628461       -2.728334   1.000000   1.000000
     72         -3.607230       -2.691500   1.000000   1.000000
     73         -3.574764       -2.655479   1.000000   1.000000
     74         -3.499949       -2.617232   1.000000   1.000000
     75         -3.465253       -2.568434   1.000000   1.000000
     76         -3.455119       -2.510225   1.000000   1.000000
     77         -3.346751       -2.476873   1.000000   1.000000
     78         -3.332859       -2.393764   1.000000   1.000000
     79         -3.317575       -2.353823   1.000000   1.000000
     80         -3.307904       -2.338516   1.000000   1.000000
     81         -3.290251       -2.281969   1.000000   1.000000
     82         -3.282148       -2.258704   1.000000   1.000000
     83         -3.275759       -2.239243   1.000000   1.000000
     84         -3.258512       -2.191590   1.000000   1.000000
     85         -3.248803       -2.176029   1.000000   1.000000
     86         -3.206810       -2.110970   1.000000   1.000000
     87         -3.201832       -2.080161   1.000000   1.000000
     88         -3.151066       -2.044222   1.000000   1.000000
     89         -3.137051       -2.021762   1.000000   1.000000
     90         -3.120536       -1.980896   1.000000   1.000000
     91         -3.106168       -1.957391   1.000000   1.000000
     92         -3.092712       -1.943250   1.000000   1.000000
     93         -3.089057       -1.922828   1.000000   1.000000
     94         -3.048923       -1.877426   1.000000   1.000000
     95         -3.027956       -1.862291   1.000000   1.000000
     96         -3.007518       -1.835707   1.000000   1.000000
     97         -2.984876       -1.809606   1.000000   1.000000
     98         -2.949758       -1.773024   1.000000   1.000000
     99         -2.941415       -1.759017   1.000000   1.000000
    100         -2.935261       -1.739375   1.000000   1.000000
    101         -2.905029       -1.710240   1.000000   1.000000
    102         -2.896374       -1.684044   1.000000   1.000000
    103         -2.893362       -1.662062   1.000000   1.000000
    104         -2.877011       -1.639425   1.000000   1.000000
    105         -2.812270       -1.601755   1.000000   1.000000
    106         -2.759750       -1.565713   1.000000   1.000000
    107         -2.741998       -1.527385   1.000000   1.000000
    108         -2.730112       -1.504150   1.000000   1.000000
    109         -2.704768       -1.472958   1.000000   1.000000
    110         -2.676613       -1.447422   1.000000   1.000000
    111         -2.648852       -1.426561   1.000000   1.000000
    112         -2.610410       -1.382606   1.000000   1.000000
    113         -2.598738       -1.331729   1.000000   1.000000
    114         -2.578407       -1.308752   1.000000   1.000000
    115         -2.558281       -1.291992   1.000000   1.000000
    116         -2.545503       -1.285006   1.000000   1.000000
    117         -2.527275       -1.239980   1.000000   1.000000
    118         -2.516359       -1.207747   1.000000   1.000000
    119         -2.490348       -1.182757   1.000000   1.000000
    120         -2.477962       -1.162570   1.000000   1.000000
    121         -2.466863       -1.141534   1.000000   1.000000
    122         -2.448461       -1.109683   1.000000   1.000000
    123         -2.439994       -1.094057   1.000000   1.000000
    124         -2.434798       -1.082222   1.000000   1.000000
    125         -2.420079       -1.061279   1.000000   1.000000
    126         -2.407165       -1.042961   1.000000   1.000000
    127         -2.395149       -1.029606   1.000000   1.000000
    128         -2.383636       -1.008072   1.000000   1.000000
    129         -2.376864       -0.991028   1.000000   1.000000
    130         -2.371545       -0.979656   1.000000   1.000000
    131         -2.360492       -0.962978   1.000000   1.000000
    132         -2.349977       -0.951547   1.000000   1.000000
    133         -2.342482       -0.925460   1.000000   1.000000
    134         -2.335840       -0.921896   1.000000   1.000000
    135         -2.317801       -0.889018   1.000000   1.000000
    136         -2.305833       -0.880511   1.000000   1.000000
    137         -2.293736       -0.875936   1.000000   1.000000
    138         -2.275892       -0.862228   1.000000   1.000000
    139         -2.269233       -0.840367   1.000000   1.000000
    140         -2.256051       -0.818418   1.000000   1.000000
    141         -2.241289       -0.792032   1.000000   1.000000
    142         -2.231508       -0.782137   1.000000   1.000000
    143         -2.224453       -0.761433   1.000000   1.000000
    144         -2.200567       -0.752867   1.000000   1.000000
    145         -2.188828       -0.735716   1.000000   1.000000
    146         -2.173320       -0.725981   1.000000   1.000000
    147         -2.169696       -0.701480   1.000000   1.000000
    148         -2.154478       -0.687524   1.000000   1.000000
    149         -2.148159       -0.668765   1.000000   1.000000
    150         -2.130781       -0.660241   1.000000   1.000000
    151         -2.120247       -0.646113   1.000000   1.000000
    152         -2.108709       -0.629219   1.000000   1.000000
    153         -2.092232       -0.607008   1.000000   1.000000
    154         -2.079299       -0.602070   1.000000   1.000000
    155         -2.065333       -0.580963   1.000000   1.000000
    156         -2.051960       -0.566044   1.000000   1.000000
    157         -2.044095       -0.557185   1.000000   1.000000
    158         -2.031857       -0.545453   1.000000   1.000000
    159         -2.018763       -0.526158   1.000000   1.000000
    160         -2.004757       -0.510718   1.000000   1.000000
    161         -1.994793       -0.501396   1.000000   1.000000
    162         -1.971358       -0.489411   1.000000   1.000000
    163         -1.963711       -0.475102   1.000000   1.000000
    164         -1.952911       -0.458791   1.000000   1.000000
    165         -1.949180       -0.445529   1.000000   1.000000
    166         -1.929169       -0.426441   1.000000   1.000000
    167         -1.916261       -0.407331   1.000000   1.000000
    168         -1.905348       -0.402081   1.000000   1.000000
    169         -1.893694       -0.376996   1.000000   1.000000
    170         -1.868207       -0.363414   1.000000   1.000000
    171         -1.858477       -0.358779   1.000000   1.000000
    172         -1.846049       -0.341294   1.000000   1.000000
    173         -1.830410       -0.329576   1.000000   1.000000
    174         -1.817256       -0.313398   1.000000   1.000000
    175         -1.805835       -0.284324   1.000000   1.000000
    176         -1.775554       -0.274395   1.000000   1.000000
    177         -1.766911       -0.252434   1.000000   1.000000
    178         -1.742980       -0.246519   1.000000   1.000000
    179         -1.719714       -0.230394   1.000000   1.000000
    180         -1.706495       -0.206160   1.000000   1.000000
    181         -1.691975       -0.182176   1.000000   1.000000
    182         -1.666977       -0.165202   1.000000   1.000000
    183         -1.658576       -0.148900   1.000000   1.000000
    184         -1.647579       -0.114250   1.000000   1.000000
    185         -1.619239       -0.101744   1.000000   1.000000
    186         -1.605141       -0.077971   1.000000   1.000000
    187         -1.590695       -0.065511   1.000000   1.000000
    188         -1.584024       -0.044376   1.000000   1.000000
    189         -1.561992       -0.018942   1.000000   1.000000
    190         -1.539228        0.018677   1.000000   1.000000
    191         -1.530820        0.036357   1.000000   1.000000
    192         -1.513172        0.054033   1.000000   1.000000
    193         -1.504274        0.065771   1.000000   1.000000
    194         -1.489885        0.085005   1.000000   1.000000
    195         -1.480888        0.097495   1.000000   1.000000
    196         -1.468004        0.105784   1.000000   1.000000
    197         -1.454695        0.124833   1.000000   1.000000
    198         -1.442574        0.170979   1.000000   1.000000
    199         -1.431604        0.185882   1.000000   1.000000
    200         -1.426160        0.201978   1.000000   1.000000
    201         -1.398000        0.233365   1.000000   1.000000
    202         -1.384551        0.242819   1.000000   1.000000
    203         -1.373551        0.269766   1.000000   1.000000
    204         -1.346029        0.282129   1.000000   1.000000
    205         -1.336965        0.318766   1.000000   1.000000
    206         -1.327931        0.340618   1.000000   1.000000
    207         -1.309988        0.365913   1.000000   1.000000
    208         -1.298230        0.379405   1.000000   1.000000
    209         -1.288020        0.407345   1.000000   1.000000
    210         -1.265528        0.438418   1.000000   1.000001
    211         -1.260380        0.484322   1.000000   1.000009
    212         -1.231602        0.506330   1.000000   1.000023
    213         -1.213960        0.521279   1.000000   1.000042
    214         -1.199742        0.549804   1.000000   1.000124
    215         -1.191054        0.583439   1.000000   1.000402
    216         -1.169812        0.611537   1.000000   1.000981
    217         -1.148046        0.641091   1.000000   1.002300
    218         -1.134384        0.657324   1.000000   1.003529
    219         -1.123483        0.674614   1.000000   1.005395
    220         -1.078184        0.693024   1.000000   1.008165
    221         -1.069381        0.708516   1.000000   1.011214
    222         -1.043662        0.727489   1.000000   1.015865
    223         -1.017675        0.753319   1.000000   1.023459
    224         -1.011837        0.809982   1.000000   1.035439
    225         -0.990229        0.822875   1.000000   1.033811
    226         -0.966804        0.872490   1.000000   0.989282
    227         -0.940318        0.882150   1.000000   0.970748
    228         -0.915377        0.930350   1.000000   0.817562
    229         -0.889851        0.950707   1.000000   0.723680
    230         -0.864797        1.000196   1.000000   0.454074
    231         -0.857493        1.044352   1.000000   0.223835
    232         -0.840465        1.058858   1.000000   0.161327
    233         -0.818140        1.089045   1.000000   0.060137
    234         -0.810025        1.109991   1.000000   0.013535
    235         -0.797317        1.127597   1.000000  -0.012032
    236         -0.784544        1.142851   1.000000  -0.025678
    237         -0.767484        1.179397   1.000000  -0.035370
    238         -0.745903        1.197808   1.000000  -0.032753
    239         -0.719871        1.209913   1.000000  -0.029709
    240         -0.708327        1.245815   1.000000  -0.018906
    241         -0.686584        1.267402   1.000000  -0.013096
    242         -0.675756        1.282555   1.000000  -0.009755
    243         -0.661832        1.303332   1.000000  -0.006222
    244         -0.629889        1.318528   1.000000  -0.004338
    245         -0.613908        1.332726   1.000000  -0.003025
    246         -0.596798        1.354297   1.000000  -0.001678
    247         -0.586214        1.389398   1.000000  -0.000580
    248         -0.563525        1.405235   1.000000  -0.000345
    249         -0.560775        1.431237   1.000000  -0.000139
    250         -0.539471        1.446287   1.000000  -0.000080
    251         -0.516560        1.450322   1.000000  -0.000068
    252         -0.507872        1.480692   1.000000  -0.000021
    253         -0.501958        1.502254   1.000000  -0.000008
    254         -0.490006        1.519621   1.000000  -0.000004
    255         -0.471743        1.532820   1.000000  -0.000002
    256         -0.461245        1.542430   1.000000  -0.000001
    257         -0.451768        1.552448   1.000000  -0.000001
    258         -0.437462        1.565741   1.000000  -0.000000
    259         -0.427335        1.584257   1.000000  -0.000000
    260         -0.412984        1.602502   1.000000  -0.000000
    261         -0.406401        1.615583   1.000000  -0.000000
    262         -0.390575        1.631336   1.000000  -0.000000
    263         -0.378802        1.644713   1.000000  -0.000000
    264         -0.371453        1.656538   1.000000  -0.000000
    265         -0.352185        1.673052   1.000000  -0.000000
    266         -0.345352        1.693269   1.000000  -0.000000
    267         -0.336153        1.721498   1.000000  -0.000000
    268         -0.326530        1.730085   1.000000  -0.000000
    269         -0.318760        1.743211   1.000000  -0.000000
    270         -0.314072        1.753408   1.000000  -0.000000
    271         -0.303055        1.771682   1.000000  -0.000000
    272         -0.285694        1.782164   1.000000  -0.000000
    273         -0.276833        1.784559   1.000000  -0.000000
    274         -0.268995        1.796653   1.000000  -0.000000
    275         -0.256805        1.805377   1.000000  -0.000000
    276         -0.244499        1.828081   1.000000  -0.000000
    277         -0.229165        1.846631   1.000000  -0.000000
    278         -0.225301        1.858392   1.000000  -0.000000
    279         -0.216914        1.867091   1.000000  -0.000000
    280         -0.206904        1.887425   1.000000  -0.000000
    281         -0.193438        1.898088   1.000000  -0.000000
    282         -0.175988        1.919392   1.000000  -0.000000
    283         -0.170811        1.930275   1.000000  -0.000000
    284         -0.159498        1.945259   1.000000  -0.000000
    285         -0.153658        1.961822   1.000000  -0.000000
    286         -0.144570        1.989212   1.000000  -0.000000
    287         -0.141205        2.000080   1.000000  -0.000000
    288         -0.131071        2.013898   1.000000  -0.000000
    289         -0.123862        2.017230   1.000000  -0.000000
    290         -0.114647        2.033702   1.000000  -0.000000
    291         -0.105550        2.051204   1.000000  -0.000000
    292         -0.096499        2.052947   1.000000  -0.000000
    293         -0.084783        2.068424   1.000000  -0.000000
    294         -0.076757        2.081234   1.000000  -0.000000
    295         -0.058679        2.103377   1.000000  -0.000000
    296         -0.046447        2.107277   1.000000  -0.000000
    297         -0.041968        2.120052   1.000000  -0.000000
    298         -0.006595        2.132429   1.000000  -0.000000
    299          0.013862        2.151776   1.000000  -0.000000
    300          0.024535        2.166987   1.000000  -0.000000
    301          0.030093        2.193799   1.000000  -0.000000
    302          0.053225        2.201155   1.000000  -0.000000
    303          0.067414        2.208706   1.000000  -0.000000
    304          0.082713        2.226683   1.000000  -0.000000
    305          0.094092        2.236275   1.000000  -0.000000
    306          0.099121        2.249133   1.000000  -0.000000
    307          0.118010        2.256378   1.000000  -0.000000
    308          0.147172        2.262848   1.000000  -0.000000
    309          0.158767        2.276015   1.000000  -0.000000
    310          0.183606        2.281252   1.000000  -0.000000
    311          0.205790        2.287230   1.000000  -0.000000
    312          0.223279        2.301934   1.000000  -0.000000
    313          0.254318        2.308374   1.000000  -0.000000
    314          0.268915        2.325252   1.000000  -0.000000
    315          0.289544        2.338794   1.000000  -0.000000
    316          0.308988        2.343872   1.000000  -0.000000
    317          0.322885        2.356712   1.000000  -0.000000
    318          0.346710        2.371481   1.000000  -0.000000
    319          0.375612        2.388156   1.000000  -0.000000
    320          0.393801        2.397100   1.000000  -0.000000
    321          0.399886        2.407156   1.000000  -0.000000
    322          0.452294        2.418419   1.000002  -0.000000
    323          0.472949        2.426344   1.000006  -0.000000
    324          0.483933        2.434451   1.000009  -0.000000
    325          0.505088        2.444643   1.000022  -0.000000
    326          0.553484        2.454662   1.000142  -0.000000
    327          0.577639        2.468022   1.000331  -0.000000
    328          0.579383        2.483107   1.000351  -0.000000
    329          0.596921        2.487953   1.000623  -0.000000
    330          0.618639        2.496981   1.001214  -0.000000
    331          0.631539        2.501791   1.001764  -0.000000
    332          0.661022        2.513654   1.003875  -0.000000
    333          0.676897        2.526336   1.005692  -0.000000
    334          0.693469        2.534269   1.008243  -0.000000
    335          0.712883        2.538323   1.012197  -0.000000
    336          0.735279        2.545032   1.018038  -0.000000
    337          0.749332        2.559473   1.022232  -0.000000
    338          0.773559        2.567986   1.029538  -0.000000
    339          0.791337        2.569608   1.033770  -0.000000
    340          0.799150        2.588656   1.034927  -0.000000
    341          0.843473        2.593788   1.024109  -0.000000
    342          0.876192        2.603375   0.982629  -0.000000
    343          0.900052        2.608084   0.925882  -0.000000
    344          0.933889        2.621523   0.802352  -0.000000
    345          0.947592        2.628758   0.738993  -0.000000
    346          0.966077        2.642354   0.644090  -0.000000
    347          0.992023        2.655355   0.500109  -0.000000
    348          1.026485        2.666080   0.311246  -0.000000
    349          1.046137        2.675504   0.215699  -0.000000
    350          1.101169        2.688948   0.030888  -0.000000
    351          1.127956        2.694862  -0.012438  -0.000000
    352          1.143697        2.702878  -0.026234  -0.000000
    353          1.181623        2.716176  -0.035234  -0.000000
    354          1.191393        2.729511  -0.034010  -0.000000
    355          1.224813        2.736428  -0.025295  -0.000000
    356          1.251596        2.764548  -0.017245  -0.000000
    357          1.306398        2.770999  -0.005797  -0.000000
    358          1.334996        2.800709  -0.002850  -0.000000
    359          1.367585        2.810420  -0.001139  -0.000000
    360          1.394027        2.826093  -0.000499  -0.000000
    361          1.430151        2.833895  -0.000144  -0.000000
    362          1.477304        2.855579  -0.000024  -0.000000
    363          1.497208        2.865087  -0.000010  -0.000000
    364          1.549003        2.884337  -0.000001  -0.000000
    365          1.584472        2.901186  -0.000000  -0.000000
    366          1.609962        2.917917  -0.000000  -0.000000
    367          1.638202        2.937782  -0.000000  -0.000000
    368          1.653276        2.955960  -0.000000  -0.000000
    369          1.675566        2.968205  -0.000000  -0.000000
    370          1.703932        2.983258  -0.000000  -0.000000
    371          1.712855        3.018923  -0.000000  -0.000000
    372          1.756208        3.048944  -0.000000  -0.000000
    373          1.774808        3.064128  -0.000000  -0.000000
    374          1.838764        3.076203  -0.000000  -0.000000
    375          1.853692        3.092604  -0.000000  -0.000000
    376          1.875812        3.118040  -0.000000  -0.000000
 
  0.3750000E+00  0.1250000E+00  0.0000000E+00  0.1250000E+00
      1        -42.904976      -43.153330   1.000000   1.000000
      2        -42.804784      -43.146270   1.000000   1.000000
      3        -42.780015      -43.114474   1.000000   1.000000
      4        -42.770008      -43.094755   1.000000   1.000000
      5        -42.739457      -43.089199   1.000000   1.000000
      6        -42.728090      -43.063990   1.000000   1.000000
      7        -42.678237      -43.009440   1.000000   1.000000
      8        -42.649650      -42.991742   1.000000   1.000000
      9        -42.620025      -42.972658   1.000000   1.000000
     10        -42.341287      -42.793161   1.000000   1.000000
     11        -42.340222      -42.785862   1.000000   1.000000
     12        -42.276093      -42.774674   1.000000   1.000000
     13        -42.197935      -42.759855   1.000000   1.000000
     14        -42.175735      -42.756398   1.000000   1.000000
     15        -42.167273      -42.722398   1.000000   1.000000
     16        -42.151235      -42.700483   1.000000   1.000000
     17        -42.107019      -42.662986   1.000000   1.000000
     18        -42.083888      -42.653655   1.000000   1.000000
     19        -41.998132      -42.637298   1.000000   1.000000
     20        -41.975406      -42.618186   1.000000   1.000000
     21        -41.961843      -42.523054   1.000000   1.000000
     22        -41.930673      -42.361720   1.000000   1.000000
     23        -41.908192      -42.134212   1.000000   1.000000
     24        -41.837366      -42.069491   1.000000   1.000000
     25        -41.813053      -42.021113   1.000000   1.000000
     26        -41.799343      -41.906744   1.000000   1.000000
     27        -41.766344      -41.884510   1.000000   1.000000
     28        -41.758695      -41.789303   1.000000   1.000000
     29        -41.756780      -41.757096   1.000000   1.000000
     30        -41.724492      -41.635503   1.000000   1.000000
     31        -41.680152      -41.516123   1.000000   1.000000
     32        -41.675716      -41.439643   1.000000   1.000000
     33        -41.670712      -41.360067   1.000000   1.000000
     34        -41.654651      -40.096218   1.000000   1.000000
     35        -41.649314      -39.987105   1.000000   1.000000
     36        -41.638298      -39.904907   1.000000   1.000000
     37        -41.637494      -39.879857   1.000000   1.000000
     38        -41.630304      -39.809650   1.000000   1.000000
     39        -41.604395      -39.678008   1.000000   1.000000
     40        -41.478660      -39.595124   1.000000   1.000000
     41        -41.472544      -39.536450   1.000000   1.000000
     42        -41.384247      -39.309488   1.000000   1.000000
     43        -15.424770      -15.466894   1.000000   1.000000
     44        -15.422763      -15.457582   1.000000   1.000000
     45        -15.412454      -15.454870   1.000000   1.000000
     46        -15.382554      -15.421649   1.000000   1.000000
     47        -15.364424      -15.413511   1.000000   1.000000
     48         -7.505091       -7.603101   1.000000   1.000000
     49         -6.776149       -6.656929   1.000000   1.000000
     50         -6.263625       -6.129101   1.000000   1.000000
     51         -5.808259       -5.648974   1.000000   1.000000
     52         -5.368864       -5.179931   1.000000   1.000000
     53         -5.292352       -5.116454   1.000000   1.000000
     54         -4.900565       -4.679645   1.000000   1.000000
     55         -4.578069       -4.287322   1.000000   1.000000
     56         -4.535121       -4.255565   1.000000   1.000000
     57         -4.489467       -4.224647   1.000000   1.000000
     58         -4.279459       -3.910460   1.000000   1.000000
     59         -4.201766       -3.865819   1.000000   1.000000
     60         -4.124001       -3.826644   1.000000   1.000000
     61         -4.001431       -3.558456   1.000000   1.000000
     62         -3.964169       -3.534973   1.000000   1.000000
     63         -3.909201       -3.238081   1.000000   1.000000
     64         -3.886547       -3.191522   1.000000   1.000000
     65         -3.783957       -3.129156   1.000000   1.000000
     66         -3.739213       -2.992396   1.000000   1.000000
     67         -3.709703       -2.973584   1.000000   1.000000
     68         -3.678352       -2.920960   1.000000   1.000000
     69         -3.670252       -2.889946   1.000000   1.000000
     70         -3.643607       -2.849548   1.000000   1.000000
     71         -3.629460       -2.825945   1.000000   1.000000
     72         -3.605193       -2.797435   1.000000   1.000000
     73         -3.584199       -2.733131   1.000000   1.000000
     74         -3.539564       -2.691435   1.000000   1.000000
     75         -3.481929       -2.637602   1.000000   1.000000
     76         -3.462788       -2.526015   1.000000   1.000000
     77         -3.440732       -2.501373   1.000000   1.000000
     78         -3.426074       -2.441355   1.000000   1.000000
     79         -3.405734       -2.421694   1.000000   1.000000
     80         -3.388416       -2.361795   1.000000   1.000000
     81         -3.362175       -2.337226   1.000000   1.000000
     82         -3.323803       -2.300686   1.000000   1.000000
     83         -3.301034       -2.226685   1.000000   1.000000
     84         -3.272572       -2.188784   1.000000   1.000000
     85         -3.215863       -2.144504   1.000000   1.000000
     86         -3.170267       -2.135537   1.000000   1.000000
     87         -3.147860       -2.107566   1.000000   1.000000
     88         -3.135427       -2.088493   1.000000   1.000000
     89         -3.125190       -2.059655   1.000000   1.000000
     90         -3.113299       -2.024781   1.000000   1.000000
     91         -3.097530       -1.995920   1.000000   1.000000
     92         -3.088363       -1.968271   1.000000   1.000000
     93         -3.077716       -1.939810   1.000000   1.000000
     94         -3.069810       -1.922906   1.000000   1.000000
     95         -3.053892       -1.880087   1.000000   1.000000
     96         -3.030291       -1.858556   1.000000   1.000000
     97         -3.010340       -1.836898   1.000000   1.000000
     98         -2.994630       -1.804296   1.000000   1.000000
     99         -2.978927       -1.780996   1.000000   1.000000
    100         -2.974673       -1.758069   1.000000   1.000000
    101         -2.956636       -1.733006   1.000000   1.000000
    102         -2.943625       -1.710297   1.000000   1.000000
    103         -2.912527       -1.656827   1.000000   1.000000
    104         -2.870490       -1.637212   1.000000   1.000000
    105         -2.852792       -1.617005   1.000000   1.000000
    106         -2.832860       -1.575616   1.000000   1.000000
    107         -2.781278       -1.550942   1.000000   1.000000
    108         -2.756746       -1.541621   1.000000   1.000000
    109         -2.746353       -1.518108   1.000000   1.000000
    110         -2.718310       -1.496035   1.000000   1.000000
    111         -2.703099       -1.434825   1.000000   1.000000
    112         -2.664602       -1.425093   1.000000   1.000000
    113         -2.649171       -1.392161   1.000000   1.000000
    114         -2.627315       -1.358968   1.000000   1.000000
    115         -2.610731       -1.344877   1.000000   1.000000
    116         -2.594683       -1.320470   1.000000   1.000000
    117         -2.579060       -1.251836   1.000000   1.000000
    118         -2.562702       -1.223155   1.000000   1.000000
    119         -2.548903       -1.211286   1.000000   1.000000
    120         -2.534626       -1.175258   1.000000   1.000000
    121         -2.525602       -1.162980   1.000000   1.000000
    122         -2.507395       -1.142952   1.000000   1.000000
    123         -2.496716       -1.110062   1.000000   1.000000
    124         -2.481127       -1.094951   1.000000   1.000000
    125         -2.461138       -1.084974   1.000000   1.000000
    126         -2.449024       -1.065344   1.000000   1.000000
    127         -2.438748       -1.029830   1.000000   1.000000
    128         -2.421307       -1.022444   1.000000   1.000000
    129         -2.410601       -1.007405   1.000000   1.000000
    130         -2.398687       -0.987608   1.000000   1.000000
    131         -2.381879       -0.969791   1.000000   1.000000
    132         -2.377165       -0.945177   1.000000   1.000000
    133         -2.358026       -0.925441   1.000000   1.000000
    134         -2.346071       -0.912081   1.000000   1.000000
    135         -2.337148       -0.898448   1.000000   1.000000
    136         -2.332462       -0.872559   1.000000   1.000000
    137         -2.316079       -0.862993   1.000000   1.000000
    138         -2.305823       -0.837164   1.000000   1.000000
    139         -2.291693       -0.826453   1.000000   1.000000
    140         -2.279832       -0.799892   1.000000   1.000000
    141         -2.263809       -0.788978   1.000000   1.000000
    142         -2.255205       -0.766780   1.000000   1.000000
    143         -2.240331       -0.751655   1.000000   1.000000
    144         -2.214812       -0.737700   1.000000   1.000000
    145         -2.199118       -0.723537   1.000000   1.000000
    146         -2.189077       -0.703120   1.000000   1.000000
    147         -2.168100       -0.677083   1.000000   1.000000
    148         -2.147039       -0.662402   1.000000   1.000000
    149         -2.135415       -0.654528   1.000000   1.000000
    150         -2.122447       -0.638281   1.000000   1.000000
    151         -2.100022       -0.628347   1.000000   1.000000
    152         -2.096339       -0.604682   1.000000   1.000000
    153         -2.079007       -0.586152   1.000000   1.000000
    154         -2.075237       -0.574964   1.000000   1.000000
    155         -2.048124       -0.552992   1.000000   1.000000
    156         -2.034344       -0.544655   1.000000   1.000000
    157         -2.016335       -0.515074   1.000000   1.000000
    158         -2.005185       -0.501377   1.000000   1.000000
    159         -1.994432       -0.491288   1.000000   1.000000
    160         -1.978813       -0.464235   1.000000   1.000000
    161         -1.967864       -0.456603   1.000000   1.000000
    162         -1.956582       -0.447692   1.000000   1.000000
    163         -1.947537       -0.427098   1.000000   1.000000
    164         -1.932549       -0.416293   1.000000   1.000000
    165         -1.910280       -0.393711   1.000000   1.000000
    166         -1.902349       -0.384150   1.000000   1.000000
    167         -1.893878       -0.371848   1.000000   1.000000
    168         -1.876614       -0.357872   1.000000   1.000000
    169         -1.852088       -0.341214   1.000000   1.000000
    170         -1.841583       -0.325584   1.000000   1.000000
    171         -1.819365       -0.312763   1.000000   1.000000
    172         -1.813924       -0.301998   1.000000   1.000000
    173         -1.801633       -0.288216   1.000000   1.000000
    174         -1.780297       -0.271038   1.000000   1.000000
    175         -1.764836       -0.260097   1.000000   1.000000
    176         -1.755678       -0.237930   1.000000   1.000000
    177         -1.748183       -0.218837   1.000000   1.000000
    178         -1.725351       -0.208641   1.000000   1.000000
    179         -1.708414       -0.183805   1.000000   1.000000
    180         -1.702248       -0.174569   1.000000   1.000000
    181         -1.677428       -0.161258   1.000000   1.000000
    182         -1.665347       -0.138076   1.000000   1.000000
    183         -1.663265       -0.129190   1.000000   1.000000
    184         -1.646114       -0.119941   1.000000   1.000000
    185         -1.629942       -0.093322   1.000000   1.000000
    186         -1.604333       -0.088909   1.000000   1.000000
    187         -1.596236       -0.067804   1.000000   1.000000
    188         -1.585191       -0.051917   1.000000   1.000000
    189         -1.572834       -0.042960   1.000000   1.000000
    190         -1.564411       -0.021961   1.000000   1.000000
    191         -1.544389       -0.006140   1.000000   1.000000
    192         -1.523987        0.015686   1.000000   1.000000
    193         -1.521071        0.030169   1.000000   1.000000
    194         -1.511341        0.056134   1.000000   1.000000
    195         -1.499163        0.063568   1.000000   1.000000
    196         -1.490549        0.077988   1.000000   1.000000
    197         -1.469030        0.097519   1.000000   1.000000
    198         -1.455365        0.119031   1.000000   1.000000
    199         -1.447919        0.134963   1.000000   1.000000
    200         -1.438192        0.150263   1.000000   1.000000
    201         -1.419418        0.165153   1.000000   1.000000
    202         -1.404422        0.171865   1.000000   1.000000
    203         -1.392517        0.184565   1.000000   1.000000
    204         -1.376043        0.220851   1.000000   1.000000
    205         -1.371080        0.236022   1.000000   1.000000
    206         -1.348532        0.266592   1.000000   1.000000
    207         -1.331346        0.287613   1.000000   1.000000
    208         -1.303482        0.315194   1.000000   1.000000
    209         -1.297477        0.355084   1.000000   1.000000
    210         -1.275341        0.391547   1.000000   1.000000
    211         -1.262855        0.401398   1.000000   1.000000
    212         -1.241702        0.448344   1.000000   1.000002
    213         -1.225989        0.493335   1.000000   1.000014
    214         -1.212426        0.540787   1.000000   1.000089
    215         -1.194368        0.581457   1.000000   1.000376
    216         -1.173983        0.598670   1.000000   1.000658
    217         -1.147521        0.650023   1.000000   1.002921
    218         -1.127461        0.670403   1.000000   1.004880
    219         -1.115949        0.736514   1.000000   1.018394
    220         -1.088553        0.746439   1.000000   1.021348
    221         -1.068367        0.773342   1.000000   1.029477
    222         -1.054514        0.789900   1.000000   1.033500
    223         -1.037321        0.817293   1.000000   1.034862
    224         -1.012455        0.849494   1.000000   1.019175
    225         -0.988228        0.879972   1.000000   0.975262
    226         -0.955577        0.899794   1.000000   0.926629
    227         -0.938428        0.947722   1.000000   0.738358
    228         -0.924604        0.964139   1.000000   0.654446
    229         -0.876535        0.981705   1.000000   0.558170
    230         -0.864697        1.007951   1.000000   0.410806
    231         -0.855586        1.042258   1.000000   0.233530
    232         -0.829488        1.061547   1.000000   0.150685
    233         -0.819195        1.083736   1.000000   0.074985
    234         -0.798640        1.119568   1.000000  -0.001792
    235         -0.772311        1.140703   1.000000  -0.024175
    236         -0.750518        1.153317   1.000000  -0.031271
    237         -0.737779        1.170062   1.000000  -0.035224
    238         -0.722707        1.187560   1.000000  -0.034602
    239         -0.698327        1.202992   1.000000  -0.031538
    240         -0.684884        1.224759   1.000000  -0.025312
    241         -0.676189        1.255341   1.000000  -0.016206
    242         -0.641549        1.260567   1.000000  -0.014813
    243         -0.627443        1.292619   1.000000  -0.007896
    244         -0.605778        1.327462   1.000000  -0.003467
    245         -0.595671        1.340948   1.000000  -0.002431
    246         -0.585422        1.359487   1.000000  -0.001446
    247         -0.569479        1.383574   1.000000  -0.000698
    248         -0.551982        1.396859   1.000000  -0.000455
    249         -0.544244        1.434101   1.000000  -0.000125
    250         -0.529606        1.461644   1.000000  -0.000044
    251         -0.511703        1.493788   1.000000  -0.000012
    252         -0.506806        1.504563   1.000000  -0.000008
    253         -0.498457        1.533033   1.000000  -0.000002
    254         -0.482378        1.550219   1.000000  -0.000001
    255         -0.465216        1.568431   1.000000  -0.000000
    256         -0.455311        1.602859   1.000000  -0.000000
    257         -0.444206        1.616482   1.000000  -0.000000
    258         -0.433539        1.636345   1.000000  -0.000000
    259         -0.418525        1.648968   1.000000  -0.000000
    260         -0.407129        1.668773   1.000000  -0.000000
    261         -0.400536        1.684549   1.000000  -0.000000
    262         -0.385793        1.701704   1.000000  -0.000000
    263         -0.375061        1.713487   1.000000  -0.000000
    264         -0.364961        1.734557   1.000000  -0.000000
    265         -0.360853        1.741399   1.000000  -0.000000
    266         -0.348441        1.749117   1.000000  -0.000000
    267         -0.323963        1.758317   1.000000  -0.000000
    268         -0.313514        1.787043   1.000000  -0.000000
    269         -0.307126        1.798826   1.000000  -0.000000
    270         -0.294766        1.808132   1.000000  -0.000000
    271         -0.281846        1.819230   1.000000  -0.000000
    272         -0.268465        1.829623   1.000000  -0.000000
    273         -0.263927        1.842222   1.000000  -0.000000
    274         -0.255825        1.865070   1.000000  -0.000000
    275         -0.244883        1.879109   1.000000  -0.000000
    276         -0.241253        1.884985   1.000000  -0.000000
    277         -0.221842        1.901407   1.000000  -0.000000
    278         -0.202307        1.911579   1.000000  -0.000000
    279         -0.196741        1.914854   1.000000  -0.000000
    280         -0.189490        1.923241   1.000000  -0.000000
    281         -0.176970        1.929912   1.000000  -0.000000
    282         -0.161752        1.951024   1.000000  -0.000000
    283         -0.157891        1.961275   1.000000  -0.000000
    284         -0.143787        1.984798   1.000000  -0.000000
    285         -0.133374        1.992219   1.000000  -0.000000
    286         -0.125845        1.999471   1.000000  -0.000000
    287         -0.114119        2.003933   1.000000  -0.000000
    288         -0.104818        2.018863   1.000000  -0.000000
    289         -0.084811        2.032807   1.000000  -0.000000
    290         -0.076187        2.048990   1.000000  -0.000000
    291         -0.072914        2.056324   1.000000  -0.000000
    292         -0.048645        2.073598   1.000000  -0.000000
    293         -0.040254        2.083090   1.000000  -0.000000
    294         -0.024741        2.088605   1.000000  -0.000000
    295         -0.010119        2.099312   1.000000  -0.000000
    296          0.005926        2.114580   1.000000  -0.000000
    297          0.019875        2.127581   1.000000  -0.000000
    298          0.028154        2.137001   1.000000  -0.000000
    299          0.063035        2.143686   1.000000  -0.000000
    300          0.073615        2.153863   1.000000  -0.000000
    301          0.082867        2.164590   1.000000  -0.000000
    302          0.094410        2.174582   1.000000  -0.000000
    303          0.108329        2.191060   1.000000  -0.000000
    304          0.117752        2.200830   1.000000  -0.000000
    305          0.134979        2.226046   1.000000  -0.000000
    306          0.152170        2.230002   1.000000  -0.000000
    307          0.183924        2.243112   1.000000  -0.000000
    308          0.194025        2.260192   1.000000  -0.000000
    309          0.213599        2.263810   1.000000  -0.000000
    310          0.233445        2.271893   1.000000  -0.000000
    311          0.253875        2.287226   1.000000  -0.000000
    312          0.269735        2.291062   1.000000  -0.000000
    313          0.290766        2.304559   1.000000  -0.000000
    314          0.309734        2.315216   1.000000  -0.000000
    315          0.323562        2.336358   1.000000  -0.000000
    316          0.344027        2.344554   1.000000  -0.000000
    317          0.364049        2.364201   1.000000  -0.000000
    318          0.394893        2.372128   1.000000  -0.000000
    319          0.402649        2.389109   1.000000  -0.000000
    320          0.419069        2.396832   1.000000  -0.000000
    321          0.442661        2.406561   1.000001  -0.000000
    322          0.460981        2.428859   1.000003  -0.000000
    323          0.491925        2.436717   1.000013  -0.000000
    324          0.502833        2.449312   1.000020  -0.000000
    325          0.532862        2.455691   1.000066  -0.000000
    326          0.549795        2.472632   1.000124  -0.000000
    327          0.563242        2.480387   1.000201  -0.000000
    328          0.581488        2.490569   1.000376  -0.000000
    329          0.611576        2.499342   1.000982  -0.000000
    330          0.624876        2.507609   1.001458  -0.000000
    331          0.654500        2.522780   1.003283  -0.000000
    332          0.676070        2.536065   1.005583  -0.000000
    333          0.685674        2.537464   1.006953  -0.000000
    334          0.707874        2.547855   1.011074  -0.000000
    335          0.743574        2.557408   1.020481  -0.000000
    336          0.761248        2.568230   1.025901  -0.000000
    337          0.785524        2.575537   1.032586  -0.000000
    338          0.815386        2.582126   1.035095  -0.000000
    339          0.833182        2.591343   1.030221  -0.000000
    340          0.864572        2.601403   1.001715  -0.000000
    341          0.886159        2.611093   0.961913  -0.000000
    342          0.913056        2.618800   0.884344  -0.000000
    343          0.944876        2.624025   0.752082  -0.000000
    344          0.955877        2.635648   0.697611  -0.000000
    345          0.989914        2.638746   0.512008  -0.000000
    346          1.004808        2.652260   0.428267  -0.000000
    347          1.055563        2.663680   0.174782  -0.000000
    348          1.061994        2.682364   0.148945  -0.000000
    349          1.101856        2.690626   0.029421  -0.000000
    350          1.112914        2.696353   0.008482  -0.000000
    351          1.157680        2.706098  -0.032837  -0.000000
    352          1.191950        2.724303  -0.033914  -0.000000
    353          1.204435        2.730515  -0.031174  -0.000000
    354          1.239746        2.742077  -0.020712  -0.000000
    355          1.266817        2.751125  -0.013238  -0.000000
    356          1.296840        2.769683  -0.007200  -0.000000
    357          1.324800        2.774948  -0.003710  -0.000000
    358          1.342422        2.792364  -0.002336  -0.000000
    359          1.374732        2.801847  -0.000918  -0.000000
    360          1.405550        2.816585  -0.000341  -0.000000
    361          1.435034        2.840221  -0.000121  -0.000000
    362          1.455346        2.855353  -0.000056  -0.000000
    363          1.502263        2.863624  -0.000008  -0.000000
    364          1.539821        2.878536  -0.000002  -0.000000
    365          1.582091        2.883663  -0.000000  -0.000000
    366          1.610081        2.910146  -0.000000  -0.000000
    367          1.628140        2.918771  -0.000000  -0.000000
    368          1.666336        2.942339  -0.000000  -0.000000
    369          1.688469        2.966863  -0.000000  -0.000000
    370          1.721715        2.983485  -0.000000  -0.000000
    371          1.740578        2.998590  -0.000000  -0.000000
    372          1.752761        3.016792  -0.000000  -0.000000
    373          1.794226        3.035525  -0.000000  -0.000000
    374          1.808734        3.048939  -0.000000  -0.000000
    375          1.847806        3.067397  -0.000000  -0.000000
    376          1.875386        3.101276  -0.000000  -0.000000
 
 -0.3750000E+00  0.1250000E+00  0.0000000E+00  0.1250000E+00
      1        -42.904976      -43.153324   1.000000   1.000000
      2        -42.804782      -43.146264   1.000000   1.000000
      3        -42.780013      -43.114473   1.000000   1.000000
      4        -42.770003      -43.094755   1.000000   1.000000
      5        -42.739453      -43.089191   1.000000   1.000000
      6        -42.728080      -43.063982   1.000000   1.000000
      7        -42.678233      -43.009435   1.000000   1.000000
      8        -42.649647      -42.991744   1.000000   1.000000
      9        -42.620020      -42.972656   1.000000   1.000000
     10        -42.341278      -42.793156   1.000000   1.000000
     11        -42.340218      -42.785856   1.000000   1.000000
     12        -42.276092      -42.774672   1.000000   1.000000
     13        -42.197942      -42.759847   1.000000   1.000000
     14        -42.175733      -42.756396   1.000000   1.000000
     15        -42.167268      -42.722395   1.000000   1.000000
     16        -42.151227      -42.700483   1.000000   1.000000
     17        -42.107020      -42.662977   1.000000   1.000000
     18        -42.083888      -42.653657   1.000000   1.000000
     19        -41.998130      -42.637294   1.000000   1.000000
     20        -41.975399      -42.618182   1.000000   1.000000
     21        -41.961836      -42.523053   1.000000   1.000000
     22        -41.930669      -42.361710   1.000000   1.000000
     23        -41.908182      -42.134208   1.000000   1.000000
     24        -41.837359      -42.069488   1.000000   1.000000
     25        -41.813052      -42.021105   1.000000   1.000000
     26        -41.799338      -41.906737   1.000000   1.000000
     27        -41.766341      -41.884500   1.000000   1.000000
     28        -41.758692      -41.789304   1.000000   1.000000
     29        -41.756777      -41.757089   1.000000   1.000000
     30        -41.724485      -41.635506   1.000000   1.000000
     31        -41.680143      -41.516119   1.000000   1.000000
     32        -41.675710      -41.439638   1.000000   1.000000
     33        -41.670708      -41.360062   1.000000   1.000000
     34        -41.654647      -40.096221   1.000000   1.000000
     35        -41.649307      -39.987097   1.000000   1.000000
     36        -41.638293      -39.904897   1.000000   1.000000
     37        -41.637495      -39.879856   1.000000   1.000000
     38        -41.630299      -39.809644   1.000000   1.000000
     39        -41.604390      -39.678002   1.000000   1.000000
     40        -41.478658      -39.595122   1.000000   1.000000
     41        -41.472537      -39.536444   1.000000   1.000000
     42        -41.384242      -39.309483   1.000000   1.000000
     43        -15.424770      -15.466894   1.000000   1.000000
     44        -15.422763      -15.457582   1.000000   1.000000
     45        -15.412454      -15.454870   1.000000   1.000000
     46        -15.382554      -15.421649   1.000000   1.000000
     47        -15.364424      -15.413511   1.000000   1.000000
     48         -7.505143       -7.603067   1.000000   1.000000
     49         -6.774938       -6.656664   1.000000   1.000000
     50         -6.265917       -6.129497   1.000000   1.000000
     51         -5.806321       -5.648896   1.000000   1.000000
     52         -5.376750       -5.179328   1.000000   1.000000
     53         -5.291439       -5.119934   1.000000   1.000000
     54         -4.885741       -4.673366   1.000000   1.000000
     55         -4.581748       -4.293361   1.000000   1.000000
     56         -4.532158       -4.250244   1.000000   1.000000
     57         -4.497718       -4.232922   1.000000   1.000000
     58         -4.275247       -3.903539   1.000000   1.000000
     59         -4.209068       -3.872909   1.000000   1.000000
     60         -4.130103       -3.818421   1.000000   1.000000
     61         -3.996104       -3.557932   1.000000   1.000000
     62         -3.960780       -3.528851   1.000000   1.000000
     63         -3.903646       -3.256072   1.000000   1.000000
     64         -3.887242       -3.190312   1.000000   1.000000
     65         -3.784918       -3.130643   1.000000   1.000000
     66         -3.741224       -2.994760   1.000000   1.000000
     67         -3.715025       -2.966092   1.000000   1.000000
     68         -3.670580       -2.907493   1.000000   1.000000
     69         -3.663761       -2.891416   1.000000   1.000000
     70         -3.645103       -2.855223   1.000000   1.000000
     71         -3.625238       -2.833434   1.000000   1.000000
     72         -3.613955       -2.784065   1.000000   1.000000
     73         -3.593555       -2.729521   1.000000   1.000000
     74         -3.534829       -2.692240   1.000000   1.000000
     75         -3.481820       -2.634310   1.000000   1.000000
     76         -3.461756       -2.532455   1.000000   1.000000
     77         -3.445660       -2.503006   1.000000   1.000000
     78         -3.433650       -2.449724   1.000000   1.000000
     79         -3.396226       -2.417033   1.000000   1.000000
     80         -3.380522       -2.362716   1.000000   1.000000
     81         -3.360640       -2.331566   1.000000   1.000000
     82         -3.326561       -2.302685   1.000000   1.000000
     83         -3.302131       -2.234517   1.000000   1.000000
     84         -3.278729       -2.192553   1.000000   1.000000
     85         -3.214765       -2.148299   1.000000   1.000000
     86         -3.179212       -2.121800   1.000000   1.000000
     87         -3.143343       -2.111630   1.000000   1.000000
     88         -3.132519       -2.071938   1.000000   1.000000
     89         -3.117645       -2.063089   1.000000   1.000000
     90         -3.108557       -2.028206   1.000000   1.000000
     91         -3.093690       -2.009250   1.000000   1.000000
     92         -3.090837       -1.950067   1.000000   1.000000
     93         -3.083811       -1.948493   1.000000   1.000000
     94         -3.078063       -1.922559   1.000000   1.000000
     95         -3.050478       -1.881449   1.000000   1.000000
     96         -3.044161       -1.860431   1.000000   1.000000
     97         -3.010194       -1.843327   1.000000   1.000000
     98         -2.986647       -1.823518   1.000000   1.000000
     99         -2.979307       -1.791685   1.000000   1.000000
    100         -2.963848       -1.744560   1.000000   1.000000
    101         -2.952805       -1.717287   1.000000   1.000000
    102         -2.937828       -1.705327   1.000000   1.000000
    103         -2.912752       -1.678928   1.000000   1.000000
    104         -2.871540       -1.657442   1.000000   1.000000
    105         -2.847450       -1.623195   1.000000   1.000000
    106         -2.834594       -1.571959   1.000000   1.000000
    107         -2.781160       -1.563292   1.000000   1.000000
    108         -2.770968       -1.507446   1.000000   1.000000
    109         -2.734603       -1.496340   1.000000   1.000000
    110         -2.719407       -1.465547   1.000000   1.000000
    111         -2.703033       -1.446569   1.000000   1.000000
    112         -2.684480       -1.416258   1.000000   1.000000
    113         -2.639143       -1.395889   1.000000   1.000000
    114         -2.625419       -1.370119   1.000000   1.000000
    115         -2.618167       -1.348547   1.000000   1.000000
    116         -2.601587       -1.306942   1.000000   1.000000
    117         -2.587546       -1.246373   1.000000   1.000000
    118         -2.562015       -1.217392   1.000000   1.000000
    119         -2.550784       -1.210333   1.000000   1.000000
    120         -2.541861       -1.182950   1.000000   1.000000
    121         -2.521236       -1.168648   1.000000   1.000000
    122         -2.505826       -1.137473   1.000000   1.000000
    123         -2.498809       -1.123514   1.000000   1.000000
    124         -2.476163       -1.094063   1.000000   1.000000
    125         -2.467349       -1.076213   1.000000   1.000000
    126         -2.445433       -1.064072   1.000000   1.000000
    127         -2.432157       -1.050317   1.000000   1.000000
    128         -2.413954       -1.044174   1.000000   1.000000
    129         -2.406048       -1.018270   1.000000   1.000000
    130         -2.392959       -0.990327   1.000000   1.000000
    131         -2.381160       -0.965134   1.000000   1.000000
    132         -2.374398       -0.943707   1.000000   1.000000
    133         -2.365993       -0.928151   1.000000   1.000000
    134         -2.351101       -0.918976   1.000000   1.000000
    135         -2.336177       -0.898175   1.000000   1.000000
    136         -2.319204       -0.869416   1.000000   1.000000
    137         -2.313518       -0.857572   1.000000   1.000000
    138         -2.302879       -0.830099   1.000000   1.000000
    139         -2.290041       -0.814731   1.000000   1.000000
    140         -2.279473       -0.795770   1.000000   1.000000
    141         -2.269113       -0.786051   1.000000   1.000000
    142         -2.254650       -0.763964   1.000000   1.000000
    143         -2.236718       -0.755588   1.000000   1.000000
    144         -2.224705       -0.743368   1.000000   1.000000
    145         -2.205373       -0.729635   1.000000   1.000000
    146         -2.180734       -0.700030   1.000000   1.000000
    147         -2.161702       -0.685802   1.000000   1.000000
    148         -2.149853       -0.673336   1.000000   1.000000
    149         -2.137013       -0.644731   1.000000   1.000000
    150         -2.115862       -0.632028   1.000000   1.000000
    151         -2.114129       -0.629355   1.000000   1.000000
    152         -2.087994       -0.604217   1.000000   1.000000
    153         -2.075645       -0.593046   1.000000   1.000000
    154         -2.069876       -0.567186   1.000000   1.000000
    155         -2.052440       -0.542909   1.000000   1.000000
    156         -2.039364       -0.534478   1.000000   1.000000
    157         -2.020571       -0.514452   1.000000   1.000000
    158         -2.011125       -0.501942   1.000000   1.000000
    159         -1.992654       -0.480172   1.000000   1.000000
    160         -1.983544       -0.466905   1.000000   1.000000
    161         -1.975753       -0.457066   1.000000   1.000000
    162         -1.961894       -0.445278   1.000000   1.000000
    163         -1.936317       -0.436413   1.000000   1.000000
    164         -1.927388       -0.408396   1.000000   1.000000
    165         -1.908324       -0.397947   1.000000   1.000000
    166         -1.898659       -0.392969   1.000000   1.000000
    167         -1.885311       -0.382037   1.000000   1.000000
    168         -1.866041       -0.353467   1.000000   1.000000
    169         -1.856478       -0.341053   1.000000   1.000000
    170         -1.843963       -0.333488   1.000000   1.000000
    171         -1.832521       -0.325242   1.000000   1.000000
    172         -1.811600       -0.301075   1.000000   1.000000
    173         -1.793150       -0.285651   1.000000   1.000000
    174         -1.781717       -0.269538   1.000000   1.000000
    175         -1.769910       -0.248197   1.000000   1.000000
    176         -1.762587       -0.237577   1.000000   1.000000
    177         -1.747001       -0.212659   1.000000   1.000000
    178         -1.735379       -0.197036   1.000000   1.000000
    179         -1.715963       -0.186560   1.000000   1.000000
    180         -1.694598       -0.165442   1.000000   1.000000
    181         -1.681087       -0.144063   1.000000   1.000000
    182         -1.674586       -0.139235   1.000000   1.000000
    183         -1.647328       -0.136015   1.000000   1.000000
    184         -1.637342       -0.113520   1.000000   1.000000
    185         -1.620559       -0.100916   1.000000   1.000000
    186         -1.613266       -0.092529   1.000000   1.000000
    187         -1.602306       -0.068596   1.000000   1.000000
    188         -1.589595       -0.054112   1.000000   1.000000
    189         -1.580192       -0.038083   1.000000   1.000000
    190         -1.571705       -0.020609   1.000000   1.000000
    191         -1.558988       -0.011565   1.000000   1.000000
    192         -1.536306        0.012400   1.000000   1.000000
    193         -1.525613        0.025591   1.000000   1.000000
    194         -1.507252        0.047143   1.000000   1.000000
    195         -1.494908        0.056723   1.000000   1.000000
    196         -1.478020        0.073305   1.000000   1.000000
    197         -1.475095        0.110005   1.000000   1.000000
    198         -1.455527        0.121191   1.000000   1.000000
    199         -1.445901        0.125318   1.000000   1.000000
    200         -1.432677        0.143931   1.000000   1.000000
    201         -1.404631        0.163183   1.000000   1.000000
    202         -1.396909        0.175169   1.000000   1.000000
    203         -1.381582        0.184949   1.000000   1.000000
    204         -1.371603        0.215067   1.000000   1.000000
    205         -1.365401        0.250705   1.000000   1.000000
    206         -1.337040        0.266843   1.000000   1.000000
    207         -1.328693        0.302413   1.000000   1.000000
    208         -1.314238        0.311826   1.000000   1.000000
    209         -1.296815        0.373066   1.000000   1.000000
    210         -1.283550        0.406618   1.000000   1.000000
    211         -1.256227        0.416593   1.000000   1.000000
    212         -1.237919        0.427007   1.000000   1.000001
    213         -1.226080        0.479786   1.000000   1.000008
    214         -1.200003        0.507488   1.000000   1.000024
    215         -1.191332        0.588644   1.000000   1.000477
    216         -1.166793        0.608110   1.000000   1.000884
    217         -1.154550        0.652547   1.000000   1.003121
    218         -1.134068        0.672272   1.000000   1.005104
    219         -1.115139        0.703472   1.000000   1.010146
    220         -1.095209        0.733430   1.000000   1.017510
    221         -1.079023        0.759898   1.000000   1.025487
    222         -1.061838        0.798132   1.000000   1.034809
    223         -1.033772        0.813860   1.000000   1.035238
    224         -1.004525        0.847983   1.000000   1.020514
    225         -0.984745        0.892653   1.000000   0.946131
    226         -0.956756        0.920192   1.000000   0.858351
    227         -0.936631        0.963517   1.000000   0.657754
    228         -0.925574        0.974783   1.000000   0.596668
    229         -0.913753        0.989995   1.000000   0.511553
    230         -0.876100        1.006838   1.000000   0.416978
    231         -0.860046        1.039919   1.000000   0.244539
    232         -0.842817        1.051496   1.000000   0.192003
    233         -0.812772        1.083900   1.000000   0.074508
    234         -0.787178        1.127646   1.000000  -0.012088
    235         -0.768277        1.132412   1.000000  -0.017117
    236         -0.749798        1.141993   1.000000  -0.025092
    237         -0.741117        1.166318   1.000000  -0.034794
    238         -0.724579        1.189052   1.000000  -0.034387
    239         -0.698197        1.209390   1.000000  -0.029854
    240         -0.682100        1.229108   1.000000  -0.023971
    241         -0.663762        1.246115   1.000000  -0.018818
    242         -0.641387        1.259753   1.000000  -0.015025
    243         -0.632619        1.293835   1.000000  -0.007690
    244         -0.610164        1.310208   1.000000  -0.005302
    245         -0.593034        1.348958   1.000000  -0.001951
    246         -0.577294        1.362000   1.000000  -0.001344
    247         -0.568474        1.387568   1.000000  -0.000615
    248         -0.555705        1.428835   1.000000  -0.000152
    249         -0.542329        1.440099   1.000000  -0.000100
    250         -0.529703        1.452535   1.000000  -0.000063
    251         -0.513922        1.478946   1.000000  -0.000022
    252         -0.496721        1.500155   1.000000  -0.000009
    253         -0.483809        1.523409   1.000000  -0.000003
    254         -0.478642        1.552461   1.000000  -0.000001
    255         -0.473289        1.578522   1.000000  -0.000000
    256         -0.459868        1.598016   1.000000  -0.000000
    257         -0.444208        1.608092   1.000000  -0.000000
    258         -0.426166        1.628322   1.000000  -0.000000
    259         -0.424448        1.651793   1.000000  -0.000000
    260         -0.406804        1.670652   1.000000  -0.000000
    261         -0.398195        1.682565   1.000000  -0.000000
    262         -0.391673        1.690500   1.000000  -0.000000
    263         -0.385400        1.706742   1.000000  -0.000000
    264         -0.361543        1.719824   1.000000  -0.000000
    265         -0.352481        1.744292   1.000000  -0.000000
    266         -0.342155        1.754195   1.000000  -0.000000
    267         -0.333541        1.765189   1.000000  -0.000000
    268         -0.326364        1.777818   1.000000  -0.000000
    269         -0.310720        1.792613   1.000000  -0.000000
    270         -0.295498        1.807672   1.000000  -0.000000
    271         -0.280057        1.824096   1.000000  -0.000000
    272         -0.272201        1.835523   1.000000  -0.000000
    273         -0.264023        1.843127   1.000000  -0.000000
    274         -0.254707        1.857377   1.000000  -0.000000
    275         -0.245044        1.873626   1.000000  -0.000000
    276         -0.236884        1.883313   1.000000  -0.000000
    277         -0.225925        1.898395   1.000000  -0.000000
    278         -0.210422        1.907476   1.000000  -0.000000
    279         -0.200205        1.920336   1.000000  -0.000000
    280         -0.190359        1.931055   1.000000  -0.000000
    281         -0.176557        1.942653   1.000000  -0.000000
    282         -0.164629        1.948797   1.000000  -0.000000
    283         -0.157099        1.958182   1.000000  -0.000000
    284         -0.148478        1.976770   1.000000  -0.000000
    285         -0.134183        1.987598   1.000000  -0.000000
    286         -0.123403        2.001272   1.000000  -0.000000
    287         -0.115836        2.013310   1.000000  -0.000000
    288         -0.090315        2.018406   1.000000  -0.000000
    289         -0.089010        2.034878   1.000000  -0.000000
    290         -0.076945        2.044557   1.000000  -0.000000
    291         -0.069994        2.057075   1.000000  -0.000000
    292         -0.044592        2.082243   1.000000  -0.000000
    293         -0.026529        2.091248   1.000000  -0.000000
    294         -0.017326        2.099278   1.000000  -0.000000
    295         -0.008278        2.106640   1.000000  -0.000000
    296          0.002370        2.122739   1.000000  -0.000000
    297          0.021915        2.130663   1.000000  -0.000000
    298          0.028325        2.145453   1.000000  -0.000000
    299          0.043586        2.147446   1.000000  -0.000000
    300          0.066636        2.159253   1.000000  -0.000000
    301          0.083849        2.173865   1.000000  -0.000000
    302          0.102820        2.180897   1.000000  -0.000000
    303          0.119583        2.193603   1.000000  -0.000000
    304          0.130322        2.212247   1.000000  -0.000000
    305          0.145581        2.217036   1.000000  -0.000000
    306          0.163275        2.224660   1.000000  -0.000000
    307          0.181751        2.238297   1.000000  -0.000000
    308          0.190489        2.245071   1.000000  -0.000000
    309          0.205756        2.260271   1.000000  -0.000000
    310          0.241026        2.273669   1.000000  -0.000000
    311          0.256286        2.281132   1.000000  -0.000000
    312          0.273585        2.296211   1.000000  -0.000000
    313          0.295760        2.307612   1.000000  -0.000000
    314          0.315247        2.324490   1.000000  -0.000000
    315          0.324718        2.333164   1.000000  -0.000000
    316          0.354805        2.342635   1.000000  -0.000000
    317          0.370865        2.357178   1.000000  -0.000000
    318          0.385249        2.375438   1.000000  -0.000000
    319          0.391505        2.388674   1.000000  -0.000000
    320          0.425124        2.398297   1.000001  -0.000000
    321          0.454549        2.416314   1.000002  -0.000000
    322          0.460597        2.421193   1.000003  -0.000000
    323          0.485238        2.428776   1.000010  -0.000000
    324          0.510925        2.443709   1.000028  -0.000000
    325          0.540436        2.452951   1.000088  -0.000000
    326          0.558832        2.476007   1.000172  -0.000000
    327          0.570751        2.482955   1.000262  -0.000000
    328          0.584712        2.489687   1.000419  -0.000000
    329          0.616384        2.497618   1.001135  -0.000000
    330          0.626991        2.508157   1.001549  -0.000000
    331          0.654376        2.515795   1.003272  -0.000000
    332          0.670234        2.519492   1.004860  -0.000000
    333          0.679013        2.546940   1.005978  -0.000000
    334          0.713956        2.555752   1.012447  -0.000000
    335          0.727965        2.558949   1.015994  -0.000000
    336          0.750356        2.566756   1.022547  -0.000000
    337          0.791634        2.574756   1.033824  -0.000000
    338          0.809986        2.582973   1.035439  -0.000000
    339          0.845065        2.591854   1.022908  -0.000000
    340          0.853954        2.596148   1.014804  -0.000000
    341          0.867848        2.608237   0.996861  -0.000000
    342          0.889761        2.612697   0.953387  -0.000000
    343          0.910915        2.626005   0.891705  -0.000000
    344          0.943741        2.630313   0.757477  -0.000000
    345          0.970448        2.643825   0.620442  -0.000000
    346          0.996005        2.648461   0.477652  -0.000000
    347          1.037892        2.666431   0.254237  -0.000000
    348          1.062017        2.676587   0.148856  -0.000000
    349          1.089703        2.684312   0.058383  -0.000000
    350          1.126104        2.689098  -0.010298  -0.000000
    351          1.149184        2.702183  -0.029389  -0.000000
    352          1.169857        2.717054  -0.035207  -0.000000
    353          1.208686        2.729045  -0.030047  -0.000000
    354          1.246055        2.749931  -0.018835  -0.000000
    355          1.280069        2.762271  -0.010258  -0.000000
    356          1.315898        2.766664  -0.004626  -0.000000
    357          1.344406        2.781725  -0.002213  -0.000000
    358          1.370780        2.789403  -0.001035  -0.000000
    359          1.386007        2.807813  -0.000646  -0.000000
    360          1.412929        2.818438  -0.000265  -0.000000
    361          1.421889        2.830118  -0.000194  -0.000000
    362          1.477900        2.847539  -0.000023  -0.000000
    363          1.496820        2.858596  -0.000010  -0.000000
    364          1.525862        2.872203  -0.000003  -0.000000
    365          1.558790        2.887023  -0.000001  -0.000000
    366          1.600091        2.913700  -0.000000  -0.000000
    367          1.629578        2.939114  -0.000000  -0.000000
    368          1.657056        2.948351  -0.000000  -0.000000
    369          1.662227        2.970489  -0.000000  -0.000000
    370          1.695894        2.978362  -0.000000  -0.000000
    371          1.713784        2.997517  -0.000000  -0.000000
    372          1.746643        3.024760  -0.000000  -0.000000
    373          1.809544        3.033776  -0.000000  -0.000000
    374          1.839253        3.048367  -0.000000  -0.000000
    375          1.863641        3.085993  -0.000000  -0.000000
    376          1.903230        3.108186  -0.000000  -0.000000
 
 -0.1250000E+00  0.1250000E+00  0.0000000E+00  0.1250000E+00
      1        -42.904987      -43.153331   1.000000   1.000000
      2        -42.804788      -43.146266   1.000000   1.000000
      3        -42.780051      -43.114475   1.000000   1.000000
      4        -42.770010      -43.094768   1.000000   1.000000
      5        -42.739451      -43.089189   1.000000   1.000000
      6        -42.728084      -43.063982   1.000000   1.000000
      7        -42.678189      -43.009441   1.000000   1.000000
      8        -42.649648      -42.991741   1.000000   1.000000
      9        -42.620019      -42.972660   1.000000   1.000000
     10        -42.341430      -42.793167   1.000000   1.000000
     11        -42.340451      -42.785907   1.000000   1.000000
     12        -42.275701      -42.774697   1.000000   1.000000
     13        -42.197942      -42.759835   1.000000   1.000000
     14        -42.175739      -42.756395   1.000000   1.000000
     15        -42.167264      -42.722320   1.000000   1.000000
     16        -42.151125      -42.700481   1.000000   1.000000
     17        -42.107019      -42.662969   1.000000   1.000000
     18        -42.084000      -42.653659   1.000000   1.000000
     19        -41.998042      -42.637724   1.000000   1.000000
     20        -41.975395      -42.617735   1.000000   1.000000
     21        -41.961801      -42.523059   1.000000   1.000000
     22        -41.930680      -42.361712   1.000000   1.000000
     23        -41.908184      -42.134213   1.000000   1.000000
     24        -41.837368      -42.069495   1.000000   1.000000
     25        -41.813057      -42.021112   1.000000   1.000000
     26        -41.799478      -41.906746   1.000000   1.000000
     27        -41.765958      -41.884515   1.000000   1.000000
     28        -41.759080      -41.789258   1.000000   1.000000
     29        -41.756775      -41.757090   1.000000   1.000000
     30        -41.724502      -41.635508   1.000000   1.000000
     31        -41.680176      -41.516241   1.000000   1.000000
     32        -41.675712      -41.439645   1.000000   1.000000
     33        -41.670776      -41.359976   1.000000   1.000000
     34        -41.654637      -40.096229   1.000000   1.000000
     35        -41.650981      -39.987108   1.000000   1.000000
     36        -41.638287      -39.904901   1.000000   1.000000
     37        -41.635744      -39.879855   1.000000   1.000000
     38        -41.630281      -39.809654   1.000000   1.000000
     39        -41.604395      -39.678008   1.000000   1.000000
     40        -41.478661      -39.595107   1.000000   1.000000
     41        -41.472534      -39.536440   1.000000   1.000000
     42        -41.384248      -39.309490   1.000000   1.000000
     43        -15.424772      -15.466893   1.000000   1.000000
     44        -15.422760      -15.457582   1.000000   1.000000
     45        -15.412452      -15.454867   1.000000   1.000000
     46        -15.382554      -15.421649   1.000000   1.000000
     47        -15.364424      -15.413511   1.000000   1.000000
     48         -7.535543       -7.618662   1.000000   1.000000
     49         -7.026236       -6.922730   1.000000   1.000000
     50         -6.036941       -5.894867   1.000000   1.000000
     51         -5.577779       -5.388474   1.000000   1.000000
     52         -5.486457       -5.343611   1.000000   1.000000
     53         -4.847637       -4.549330   1.000000   1.000000
     54         -4.773424       -4.527816   1.000000   1.000000
     55         -4.748545       -4.479715   1.000000   1.000000
     56         -4.689284       -4.436504   1.000000   1.000000
     57         -4.639771       -4.411811   1.000000   1.000000
     58         -4.401316       -4.089739   1.000000   1.000000
     59         -4.251983       -3.812449   1.000000   1.000000
     60         -4.192885       -3.756133   1.000000   1.000000
     61         -4.044895       -3.532691   1.000000   1.000000
     62         -4.015417       -3.500272   1.000000   1.000000
     63         -3.988431       -3.454150   1.000000   1.000000
     64         -3.931882       -3.418648   1.000000   1.000000
     65         -3.917845       -3.269856   1.000000   1.000000
     66         -3.867040       -3.147551   1.000000   1.000000
     67         -3.810170       -3.106171   1.000000   1.000000
     68         -3.754090       -3.083450   1.000000   1.000000
     69         -3.733049       -2.997467   1.000000   1.000000
     70         -3.666228       -2.792521   1.000000   1.000000
     71         -3.638137       -2.722274   1.000000   1.000000
     72         -3.612269       -2.681566   1.000000   1.000000
     73         -3.552941       -2.651971   1.000000   1.000000
     74         -3.498231       -2.615276   1.000000   1.000000
     75         -3.464353       -2.556395   1.000000   1.000000
     76         -3.456221       -2.512745   1.000000   1.000000
     77         -3.348377       -2.440090   1.000000   1.000000
     78         -3.334693       -2.421369   1.000000   1.000000
     79         -3.319409       -2.359820   1.000000   1.000000
     80         -3.307370       -2.310592   1.000000   1.000000
     81         -3.300407       -2.284517   1.000000   1.000000
     82         -3.288351       -2.276661   1.000000   1.000000
     83         -3.273033       -2.251021   1.000000   1.000000
     84         -3.261834       -2.195016   1.000000   1.000000
     85         -3.233866       -2.189536   1.000000   1.000000
     86         -3.220472       -2.086414   1.000000   1.000000
     87         -3.203299       -2.071008   1.000000   1.000000
     88         -3.163538       -2.032822   1.000000   1.000000
     89         -3.130954       -2.006272   1.000000   1.000000
     90         -3.116955       -1.983186   1.000000   1.000000
     91         -3.107515       -1.977264   1.000000   1.000000
     92         -3.096176       -1.954293   1.000000   1.000000
     93         -3.077408       -1.929884   1.000000   1.000000
     94         -3.039413       -1.887787   1.000000   1.000000
     95         -3.028311       -1.869251   1.000000   1.000000
     96         -3.002310       -1.837825   1.000000   1.000000
     97         -2.986025       -1.824197   1.000000   1.000000
     98         -2.963019       -1.784155   1.000000   1.000000
     99         -2.939346       -1.772988   1.000000   1.000000
    100         -2.926179       -1.744525   1.000000   1.000000
    101         -2.913199       -1.705606   1.000000   1.000000
    102         -2.897439       -1.676229   1.000000   1.000000
    103         -2.875278       -1.657852   1.000000   1.000000
    104         -2.856324       -1.629003   1.000000   1.000000
    105         -2.842578       -1.592488   1.000000   1.000000
    106         -2.748583       -1.532009   1.000000   1.000000
    107         -2.743070       -1.520143   1.000000   1.000000
    108         -2.732796       -1.500589   1.000000   1.000000
    109         -2.699793       -1.476206   1.000000   1.000000
    110         -2.688223       -1.445114   1.000000   1.000000
    111         -2.650863       -1.414375   1.000000   1.000000
    112         -2.606440       -1.393460   1.000000   1.000000
    113         -2.596735       -1.351196   1.000000   1.000000
    114         -2.583183       -1.301156   1.000000   1.000000
    115         -2.569044       -1.286300   1.000000   1.000000
    116         -2.545079       -1.264807   1.000000   1.000000
    117         -2.532357       -1.246812   1.000000   1.000000
    118         -2.500726       -1.215738   1.000000   1.000000
    119         -2.492351       -1.181420   1.000000   1.000000
    120         -2.481959       -1.158362   1.000000   1.000000
    121         -2.469065       -1.127805   1.000000   1.000000
    122         -2.458341       -1.120469   1.000000   1.000000
    123         -2.448896       -1.099903   1.000000   1.000000
    124         -2.428322       -1.080924   1.000000   1.000000
    125         -2.414412       -1.068128   1.000000   1.000000
    126         -2.407261       -1.050985   1.000000   1.000000
    127         -2.395935       -1.039769   1.000000   1.000000
    128         -2.385592       -1.018023   1.000000   1.000000
    129         -2.377513       -0.996704   1.000000   1.000000
    130         -2.367334       -0.986413   1.000000   1.000000
    131         -2.360356       -0.971863   1.000000   1.000000
    132         -2.349630       -0.942977   1.000000   1.000000
    133         -2.346299       -0.934848   1.000000   1.000000
    134         -2.336026       -0.916598   1.000000   1.000000
    135         -2.322287       -0.906236   1.000000   1.000000
    136         -2.308145       -0.885771   1.000000   1.000000
    137         -2.290687       -0.873061   1.000000   1.000000
    138         -2.283662       -0.840858   1.000000   1.000000
    139         -2.260933       -0.834076   1.000000   1.000000
    140         -2.248791       -0.816264   1.000000   1.000000
    141         -2.238226       -0.798115   1.000000   1.000000
    142         -2.222135       -0.778391   1.000000   1.000000
    143         -2.211146       -0.758877   1.000000   1.000000
    144         -2.197694       -0.751856   1.000000   1.000000
    145         -2.186062       -0.732775   1.000000   1.000000
    146         -2.177330       -0.714903   1.000000   1.000000
    147         -2.169703       -0.699947   1.000000   1.000000
    148         -2.154578       -0.676417   1.000000   1.000000
    149         -2.141572       -0.671281   1.000000   1.000000
    150         -2.136316       -0.664072   1.000000   1.000000
    151         -2.118733       -0.654017   1.000000   1.000000
    152         -2.105329       -0.636496   1.000000   1.000000
    153         -2.096851       -0.618172   1.000000   1.000000
    154         -2.086307       -0.598599   1.000000   1.000000
    155         -2.068597       -0.588093   1.000000   1.000000
    156         -2.051281       -0.572612   1.000000   1.000000
    157         -2.044975       -0.548426   1.000000   1.000000
    158         -2.040979       -0.540144   1.000000   1.000000
    159         -2.021104       -0.527400   1.000000   1.000000
    160         -2.012684       -0.508625   1.000000   1.000000
    161         -1.998952       -0.497248   1.000000   1.000000
    162         -1.989275       -0.487547   1.000000   1.000000
    163         -1.965471       -0.456326   1.000000   1.000000
    164         -1.947685       -0.448160   1.000000   1.000000
    165         -1.934089       -0.434643   1.000000   1.000000
    166         -1.924988       -0.429159   1.000000   1.000000
    167         -1.912453       -0.412875   1.000000   1.000000
    168         -1.892755       -0.398157   1.000000   1.000000
    169         -1.884570       -0.393757   1.000000   1.000000
    170         -1.865763       -0.370220   1.000000   1.000000
    171         -1.857071       -0.361523   1.000000   1.000000
    172         -1.838673       -0.338025   1.000000   1.000000
    173         -1.823710       -0.320458   1.000000   1.000000
    174         -1.813886       -0.311314   1.000000   1.000000
    175         -1.796091       -0.301222   1.000000   1.000000
    176         -1.775080       -0.279250   1.000000   1.000000
    177         -1.772551       -0.251514   1.000000   1.000000
    178         -1.751346       -0.231478   1.000000   1.000000
    179         -1.738604       -0.223014   1.000000   1.000000
    180         -1.721582       -0.200907   1.000000   1.000000
    181         -1.699507       -0.181147   1.000000   1.000000
    182         -1.686515       -0.169909   1.000000   1.000000
    183         -1.664451       -0.146527   1.000000   1.000000
    184         -1.643051       -0.132836   1.000000   1.000000
    185         -1.627190       -0.090265   1.000000   1.000000
    186         -1.599431       -0.078234   1.000000   1.000000
    187         -1.588703       -0.059621   1.000000   1.000000
    188         -1.572947       -0.044198   1.000000   1.000000
    189         -1.555895       -0.017431   1.000000   1.000000
    190         -1.538924        0.017150   1.000000   1.000000
    191         -1.529877        0.033406   1.000000   1.000000
    192         -1.518537        0.052396   1.000000   1.000000
    193         -1.506293        0.057873   1.000000   1.000000
    194         -1.490327        0.088560   1.000000   1.000000
    195         -1.479874        0.094997   1.000000   1.000000
    196         -1.459898        0.107885   1.000000   1.000000
    197         -1.447114        0.125920   1.000000   1.000000
    198         -1.439641        0.165578   1.000000   1.000000
    199         -1.426404        0.175341   1.000000   1.000000
    200         -1.406678        0.211150   1.000000   1.000000
    201         -1.393642        0.215883   1.000000   1.000000
    202         -1.383286        0.255875   1.000000   1.000000
    203         -1.371806        0.282225   1.000000   1.000000
    204         -1.353253        0.300070   1.000000   1.000000
    205         -1.340240        0.311616   1.000000   1.000000
    206         -1.330541        0.328968   1.000000   1.000000
    207         -1.320918        0.356853   1.000000   1.000000
    208         -1.308224        0.391681   1.000000   1.000000
    209         -1.287738        0.429549   1.000000   1.000001
    210         -1.272931        0.447738   1.000000   1.000002
    211         -1.242666        0.483373   1.000000   1.000009
    212         -1.224859        0.493224   1.000000   1.000013
    213         -1.213240        0.510151   1.000000   1.000027
    214         -1.198448        0.568704   1.000000   1.000244
    215         -1.181067        0.582429   1.000000   1.000388
    216         -1.170186        0.607820   1.000000   1.000876
    217         -1.132619        0.620044   1.000000   1.001266
    218         -1.124782        0.646130   1.000000   1.002635
    219         -1.113893        0.656355   1.000000   1.003443
    220         -1.101297        0.683082   1.000000   1.006560
    221         -1.075644        0.712493   1.000000   1.012107
    222         -1.063109        0.729447   1.000000   1.016399
    223         -1.050533        0.753635   1.000000   1.023557
    224         -1.024225        0.790474   1.000000   1.033610
    225         -0.997660        0.820179   1.000000   1.034390
    226         -0.954082        0.878988   1.000000   0.977235
    227         -0.930408        0.901502   1.000000   0.921625
    228         -0.919231        0.921938   1.000000   0.851651
    229         -0.907312        0.979170   1.000000   0.572331
    230         -0.881378        1.021326   1.000000   0.338228
    231         -0.865553        1.037269   1.000000   0.257246
    232         -0.845692        1.069798   1.000000   0.119981
    233         -0.832317        1.095610   1.000000   0.043504
    234         -0.812907        1.102407   1.000000   0.028260
    235         -0.778392        1.128392   1.000000  -0.012924
    236         -0.766706        1.141211   1.000000  -0.024542
    237         -0.744420        1.163519   1.000000  -0.034315
    238         -0.722928        1.183535   1.000000  -0.035072
    239         -0.716650        1.200253   1.000000  -0.032200
    240         -0.698557        1.232233   1.000000  -0.023007
    241         -0.671484        1.267021   1.000000  -0.013189
    242         -0.659556        1.285065   1.000000  -0.009264
    243         -0.652680        1.301171   1.000000  -0.006535
    244         -0.634613        1.322038   1.000000  -0.003976
    245         -0.625249        1.350550   1.000000  -0.001866
    246         -0.612199        1.364126   1.000000  -0.001262
    247         -0.597948        1.395634   1.000000  -0.000474
    248         -0.579485        1.403533   1.000000  -0.000365
    249         -0.567471        1.426236   1.000000  -0.000166
    250         -0.542659        1.444080   1.000000  -0.000087
    251         -0.524695        1.461146   1.000000  -0.000045
    252         -0.514805        1.483790   1.000000  -0.000018
    253         -0.499311        1.499922   1.000000  -0.000009
    254         -0.486546        1.516505   1.000000  -0.000004
    255         -0.471737        1.528489   1.000000  -0.000003
    256         -0.459705        1.543522   1.000000  -0.000001
    257         -0.451433        1.560634   1.000000  -0.000001
    258         -0.434353        1.574333   1.000000  -0.000000
    259         -0.421985        1.599062   1.000000  -0.000000
    260         -0.409486        1.607092   1.000000  -0.000000
    261         -0.402671        1.609470   1.000000  -0.000000
    262         -0.386275        1.626251   1.000000  -0.000000
    263         -0.381353        1.639881   1.000000  -0.000000
    264         -0.372269        1.653341   1.000000  -0.000000
    265         -0.359977        1.667380   1.000000  -0.000000
    266         -0.346071        1.684576   1.000000  -0.000000
    267         -0.344046        1.696583   1.000000  -0.000000
    268         -0.323181        1.712595   1.000000  -0.000000
    269         -0.307568        1.725603   1.000000  -0.000000
    270         -0.305966        1.749244   1.000000  -0.000000
    271         -0.290844        1.766994   1.000000  -0.000000
    272         -0.283538        1.771280   1.000000  -0.000000
    273         -0.279649        1.778933   1.000000  -0.000000
    274         -0.273871        1.798232   1.000000  -0.000000
    275         -0.265031        1.812111   1.000000  -0.000000
    276         -0.252394        1.832205   1.000000  -0.000000
    277         -0.248400        1.844124   1.000000  -0.000000
    278         -0.232241        1.857102   1.000000  -0.000000
    279         -0.221663        1.875685   1.000000  -0.000000
    280         -0.208706        1.901487   1.000000  -0.000000
    281         -0.193801        1.911128   1.000000  -0.000000
    282         -0.186966        1.923178   1.000000  -0.000000
    283         -0.178409        1.941737   1.000000  -0.000000
    284         -0.167148        1.958138   1.000000  -0.000000
    285         -0.155290        1.969469   1.000000  -0.000000
    286         -0.146438        1.976093   1.000000  -0.000000
    287         -0.130285        1.993476   1.000000  -0.000000
    288         -0.125270        1.996756   1.000000  -0.000000
    289         -0.119521        2.026412   1.000000  -0.000000
    290         -0.105314        2.042973   1.000000  -0.000000
    291         -0.096736        2.050340   1.000000  -0.000000
    292         -0.093134        2.065076   1.000000  -0.000000
    293         -0.079953        2.070912   1.000000  -0.000000
    294         -0.055685        2.088156   1.000000  -0.000000
    295         -0.050864        2.103802   1.000000  -0.000000
    296         -0.037527        2.120721   1.000000  -0.000000
    297         -0.023983        2.133855   1.000000  -0.000000
    298         -0.011113        2.158095   1.000000  -0.000000
    299          0.002673        2.164118   1.000000  -0.000000
    300          0.019520        2.169223   1.000000  -0.000000
    301          0.036691        2.187208   1.000000  -0.000000
    302          0.056275        2.193460   1.000000  -0.000000
    303          0.061070        2.202420   1.000000  -0.000000
    304          0.078960        2.214059   1.000000  -0.000000
    305          0.101091        2.231864   1.000000  -0.000000
    306          0.114915        2.242994   1.000000  -0.000000
    307          0.120931        2.249872   1.000000  -0.000000
    308          0.134102        2.258680   1.000000  -0.000000
    309          0.158769        2.273263   1.000000  -0.000000
    310          0.184755        2.277339   1.000000  -0.000000
    311          0.198943        2.292355   1.000000  -0.000000
    312          0.234270        2.300923   1.000000  -0.000000
    313          0.246207        2.307703   1.000000  -0.000000
    314          0.269462        2.322318   1.000000  -0.000000
    315          0.305091        2.333319   1.000000  -0.000000
    316          0.334840        2.346363   1.000000  -0.000000
    317          0.348937        2.355585   1.000000  -0.000000
    318          0.361596        2.375270   1.000000  -0.000000
    319          0.380689        2.383359   1.000000  -0.000000
    320          0.403038        2.397081   1.000000  -0.000000
    321          0.419647        2.402801   1.000000  -0.000000
    322          0.439408        2.412604   1.000001  -0.000000
    323          0.460522        2.421489   1.000003  -0.000000
    324          0.479987        2.435120   1.000008  -0.000000
    325          0.511467        2.445981   1.000029  -0.000000
    326          0.524104        2.454328   1.000047  -0.000000
    327          0.540850        2.466493   1.000089  -0.000000
    328          0.554847        2.473143   1.000149  -0.000000
    329          0.580277        2.487900   1.000362  -0.000000
    330          0.611830        2.495984   1.000990  -0.000000
    331          0.635555        2.502188   1.001974  -0.000000
    332          0.653582        2.511653   1.003206  -0.000000
    333          0.676555        2.520337   1.005646  -0.000000
    334          0.686503        2.530011   1.007082  -0.000000
    335          0.704337        2.544090   1.010324  -0.000000
    336          0.723008        2.550097   1.014680  -0.000000
    337          0.755490        2.561410   1.024130  -0.000000
    338          0.775954        2.568586   1.030199  -0.000000
    339          0.795635        2.579061   1.034476  -0.000000
    340          0.813438        2.587811   1.035271  -0.000000
    341          0.846181        2.594441   1.022022  -0.000000
    342          0.870009        2.601706   0.993435  -0.000000
    343          0.899669        2.608436   0.926989  -0.000000
    344          0.922407        2.619716   0.849828  -0.000000
    345          0.943785        2.630063   0.757271  -0.000000
    346          0.971070        2.642376   0.617051  -0.000000
    347          0.986800        2.652666   0.529562  -0.000000
    348          1.032132        2.662708   0.282533  -0.000000
    349          1.056175        2.672129   0.172250  -0.000000
    350          1.085503        2.686539   0.069903  -0.000000
    351          1.122054        2.695607  -0.005207  -0.000000
    352          1.148748        2.714086  -0.029166  -0.000000
    353          1.165743        2.723211  -0.034707  -0.000000
    354          1.184269        2.729967  -0.034999  -0.000000
    355          1.213683        2.743234  -0.028638  -0.000000
    356          1.254745        2.759666  -0.016369  -0.000000
    357          1.293996        2.771949  -0.007664  -0.000000
    358          1.333383        2.795107  -0.002974  -0.000000
    359          1.387473        2.821238  -0.000617  -0.000000
    360          1.405667        2.835599  -0.000340  -0.000000
    361          1.444003        2.854071  -0.000087  -0.000000
    362          1.476834        2.857905  -0.000024  -0.000000
    363          1.506038        2.871264  -0.000007  -0.000000
    364          1.566249        2.883130  -0.000000  -0.000000
    365          1.582810        2.897411  -0.000000  -0.000000
    366          1.607730        2.924640  -0.000000  -0.000000
    367          1.631877        2.935831  -0.000000  -0.000000
    368          1.647249        2.950156  -0.000000  -0.000000
    369          1.664121        2.969266  -0.000000  -0.000000
    370          1.694874        2.985854  -0.000000  -0.000000
    371          1.731657        3.008255  -0.000000  -0.000000
    372          1.740408        3.037985  -0.000000  -0.000000
    373          1.783240        3.063134  -0.000000  -0.000000
    374          1.824266        3.070296  -0.000000  -0.000000
    375          1.882988        3.082060  -0.000000  -0.000000
    376          1.904299        3.113292  -0.000000  -0.000000
 
  0.1250000E+00  0.3750000E+00  0.0000000E+00  0.1250000E+00
      1        -42.904971      -43.153333   1.000000   1.000000
      2        -42.804721      -43.146269   1.000000   1.000000
      3        -42.780055      -43.114471   1.000000   1.000000
      4        -42.770013      -43.094763   1.000000   1.000000
      5        -42.739457      -43.089196   1.000000   1.000000
      6        -42.728154      -43.063985   1.000000   1.000000
      7        -42.678185      -43.009440   1.000000   1.000000
      8        -42.649646      -42.991711   1.000000   1.000000
      9        -42.620021      -42.972657   1.000000   1.000000
     10        -42.341436      -42.793161   1.000000   1.000000
     11        -42.340446      -42.785923   1.000000   1.000000
     12        -42.275687      -42.774719   1.000000   1.000000
     13        -42.197943      -42.759838   1.000000   1.000000
     14        -42.175736      -42.756391   1.000000   1.000000
     15        -42.167243      -42.722320   1.000000   1.000000
     16        -42.151134      -42.700486   1.000000   1.000000
     17        -42.107020      -42.662978   1.000000   1.000000
     18        -42.083994      -42.653654   1.000000   1.000000
     19        -41.998052      -42.637715   1.000000   1.000000
     20        -41.975396      -42.617743   1.000000   1.000000
     21        -41.961832      -42.523052   1.000000   1.000000
     22        -41.930676      -42.361721   1.000000   1.000000
     23        -41.908198      -42.134213   1.000000   1.000000
     24        -41.837377      -42.069490   1.000000   1.000000
     25        -41.813050      -42.021100   1.000000   1.000000
     26        -41.799471      -41.906754   1.000000   1.000000
     27        -41.765941      -41.884506   1.000000   1.000000
     28        -41.759058      -41.789255   1.000000   1.000000
     29        -41.756770      -41.757094   1.000000   1.000000
     30        -41.724490      -41.635498   1.000000   1.000000
     31        -41.680170      -41.516243   1.000000   1.000000
     32        -41.675717      -41.439651   1.000000   1.000000
     33        -41.670796      -41.359978   1.000000   1.000000
     34        -41.654635      -40.096200   1.000000   1.000000
     35        -41.650976      -39.987068   1.000000   1.000000
     36        -41.638282      -39.904944   1.000000   1.000000
     37        -41.635761      -39.879870   1.000000   1.000000
     38        -41.630286      -39.809660   1.000000   1.000000
     39        -41.604397      -39.678006   1.000000   1.000000
     40        -41.478657      -39.595102   1.000000   1.000000
     41        -41.472540      -39.536443   1.000000   1.000000
     42        -41.384245      -39.309488   1.000000   1.000000
     43        -15.424774      -15.466894   1.000000   1.000000
     44        -15.422759      -15.457583   1.000000   1.000000
     45        -15.412454      -15.454868   1.000000   1.000000
     46        -15.382554      -15.421649   1.000000   1.000000
     47        -15.364423      -15.413510   1.000000   1.000000
     48         -7.504642       -7.603081   1.000000   1.000000
     49         -6.775654       -6.654533   1.000000   1.000000
     50         -6.255932       -6.121409   1.000000   1.000000
     51         -5.804106       -5.647982   1.000000   1.000000
     52         -5.361967       -5.175514   1.000000   1.000000
     53         -5.304367       -5.124317   1.000000   1.000000
     54         -4.904478       -4.684902   1.000000   1.000000
     55         -4.575543       -4.294255   1.000000   1.000000
     56         -4.544926       -4.264389   1.000000   1.000000
     57         -4.497462       -4.231916   1.000000   1.000000
     58         -4.267543       -3.904694   1.000000   1.000000
     59         -4.217729       -3.874991   1.000000   1.000000
     60         -4.122554       -3.830208   1.000000   1.000000
     61         -4.007006       -3.564988   1.000000   1.000000
     62         -3.952042       -3.516769   1.000000   1.000000
     63         -3.906986       -3.252259   1.000000   1.000000
     64         -3.883573       -3.184518   1.000000   1.000000
     65         -3.786733       -3.128772   1.000000   1.000000
     66         -3.743704       -2.993431   1.000000   1.000000
     67         -3.709014       -2.960488   1.000000   1.000000
     68         -3.672541       -2.928543   1.000000   1.000000
     69         -3.664474       -2.898323   1.000000   1.000000
     70         -3.649837       -2.845894   1.000000   1.000000
     71         -3.627070       -2.811589   1.000000   1.000000
     72         -3.606768       -2.794636   1.000000   1.000000
     73         -3.586933       -2.739463   1.000000   1.000000
     74         -3.553857       -2.691239   1.000000   1.000000
     75         -3.488326       -2.641635   1.000000   1.000000
     76         -3.446747       -2.532035   1.000000   1.000000
     77         -3.432672       -2.468913   1.000000   1.000000
     78         -3.410177       -2.430856   1.000000   1.000000
     79         -3.398807       -2.423624   1.000000   1.000000
     80         -3.384657       -2.359032   1.000000   1.000000
     81         -3.360107       -2.324962   1.000000   1.000000
     82         -3.317243       -2.286379   1.000000   1.000000
     83         -3.293220       -2.212314   1.000000   1.000000
     84         -3.272433       -2.182767   1.000000   1.000000
     85         -3.204863       -2.147674   1.000000   1.000000
     86         -3.175812       -2.125487   1.000000   1.000000
     87         -3.155311       -2.110294   1.000000   1.000000
     88         -3.139146       -2.082246   1.000000   1.000000
     89         -3.131656       -2.054505   1.000000   1.000000
     90         -3.107040       -2.035429   1.000000   1.000000
     91         -3.100989       -2.002927   1.000000   1.000000
     92         -3.087800       -1.964111   1.000000   1.000000
     93         -3.074585       -1.940016   1.000000   1.000000
     94         -3.066505       -1.915728   1.000000   1.000000
     95         -3.052249       -1.883430   1.000000   1.000000
     96         -3.034036       -1.858165   1.000000   1.000000
     97         -3.019674       -1.849282   1.000000   1.000000
     98         -2.988732       -1.816228   1.000000   1.000000
     99         -2.983305       -1.787484   1.000000   1.000000
    100         -2.972460       -1.781785   1.000000   1.000000
    101         -2.957627       -1.749046   1.000000   1.000000
    102         -2.941509       -1.714371   1.000000   1.000000
    103         -2.904670       -1.686854   1.000000   1.000000
    104         -2.865091       -1.649519   1.000000   1.000000
    105         -2.860830       -1.626897   1.000000   1.000000
    106         -2.823000       -1.604864   1.000000   1.000000
    107         -2.783037       -1.570170   1.000000   1.000000
    108         -2.768642       -1.529576   1.000000   1.000000
    109         -2.750197       -1.498773   1.000000   1.000000
    110         -2.730415       -1.486447   1.000000   1.000000
    111         -2.705621       -1.448094   1.000000   1.000000
    112         -2.675711       -1.427250   1.000000   1.000000
    113         -2.656064       -1.402821   1.000000   1.000000
    114         -2.635804       -1.357253   1.000000   1.000000
    115         -2.621657       -1.344356   1.000000   1.000000
    116         -2.595372       -1.289388   1.000000   1.000000
    117         -2.581240       -1.262882   1.000000   1.000000
    118         -2.570708       -1.215428   1.000000   1.000000
    119         -2.554891       -1.182171   1.000000   1.000000
    120         -2.549845       -1.169562   1.000000   1.000000
    121         -2.527866       -1.148893   1.000000   1.000000
    122         -2.509598       -1.129569   1.000000   1.000000
    123         -2.493370       -1.109841   1.000000   1.000000
    124         -2.478263       -1.091148   1.000000   1.000000
    125         -2.462447       -1.069019   1.000000   1.000000
    126         -2.450898       -1.046003   1.000000   1.000000
    127         -2.431324       -1.029369   1.000000   1.000000
    128         -2.420339       -1.022103   1.000000   1.000000
    129         -2.410843       -1.015767   1.000000   1.000000
    130         -2.399115       -0.987671   1.000000   1.000000
    131         -2.392797       -0.972668   1.000000   1.000000
    132         -2.376988       -0.964014   1.000000   1.000000
    133         -2.360125       -0.928115   1.000000   1.000000
    134         -2.354190       -0.917860   1.000000   1.000000
    135         -2.347003       -0.898740   1.000000   1.000000
    136         -2.334126       -0.880628   1.000000   1.000000
    137         -2.308483       -0.865044   1.000000   1.000000
    138         -2.292046       -0.850695   1.000000   1.000000
    139         -2.282257       -0.837935   1.000000   1.000000
    140         -2.266808       -0.804027   1.000000   1.000000
    141         -2.259793       -0.779965   1.000000   1.000000
    142         -2.251218       -0.770818   1.000000   1.000000
    143         -2.235610       -0.744050   1.000000   1.000000
    144         -2.204643       -0.730143   1.000000   1.000000
    145         -2.195788       -0.722688   1.000000   1.000000
    146         -2.166367       -0.687557   1.000000   1.000000
    147         -2.155124       -0.680663   1.000000   1.000000
    148         -2.129266       -0.672050   1.000000   1.000000
    149         -2.120172       -0.654431   1.000000   1.000000
    150         -2.112058       -0.629716   1.000000   1.000000
    151         -2.106882       -0.621678   1.000000   1.000000
    152         -2.090832       -0.609586   1.000000   1.000000
    153         -2.085533       -0.581897   1.000000   1.000000
    154         -2.067413       -0.554616   1.000000   1.000000
    155         -2.052503       -0.549323   1.000000   1.000000
    156         -2.044442       -0.531903   1.000000   1.000000
    157         -2.021375       -0.518817   1.000000   1.000000
    158         -2.010321       -0.499286   1.000000   1.000000
    159         -1.994657       -0.492969   1.000000   1.000000
    160         -1.981972       -0.474675   1.000000   1.000000
    161         -1.970157       -0.466595   1.000000   1.000000
    162         -1.960629       -0.443976   1.000000   1.000000
    163         -1.947193       -0.425876   1.000000   1.000000
    164         -1.937322       -0.411900   1.000000   1.000000
    165         -1.922954       -0.399116   1.000000   1.000000
    166         -1.901991       -0.385116   1.000000   1.000000
    167         -1.885546       -0.358315   1.000000   1.000000
    168         -1.865559       -0.355766   1.000000   1.000000
    169         -1.851375       -0.346780   1.000000   1.000000
    170         -1.843313       -0.333222   1.000000   1.000000
    171         -1.830850       -0.312902   1.000000   1.000000
    172         -1.819290       -0.301052   1.000000   1.000000
    173         -1.805395       -0.282469   1.000000   1.000000
    174         -1.789248       -0.267263   1.000000   1.000000
    175         -1.767738       -0.252378   1.000000   1.000000
    176         -1.763215       -0.236233   1.000000   1.000000
    177         -1.755025       -0.223640   1.000000   1.000000
    178         -1.739005       -0.206261   1.000000   1.000000
    179         -1.708155       -0.177570   1.000000   1.000000
    180         -1.697106       -0.169461   1.000000   1.000000
    181         -1.689870       -0.156647   1.000000   1.000000
    182         -1.672945       -0.139307   1.000000   1.000000
    183         -1.659541       -0.126590   1.000000   1.000000
    184         -1.646685       -0.120144   1.000000   1.000000
    185         -1.621625       -0.101868   1.000000   1.000000
    186         -1.617052       -0.093551   1.000000   1.000000
    187         -1.602598       -0.075146   1.000000   1.000000
    188         -1.585131       -0.061906   1.000000   1.000000
    189         -1.578083       -0.044464   1.000000   1.000000
    190         -1.561512       -0.027675   1.000000   1.000000
    191         -1.546171       -0.005865   1.000000   1.000000
    192         -1.527355        0.007638   1.000000   1.000000
    193         -1.520412        0.027663   1.000000   1.000000
    194         -1.504121        0.039208   1.000000   1.000000
    195         -1.491963        0.051942   1.000000   1.000000
    196         -1.481150        0.070685   1.000000   1.000000
    197         -1.473629        0.090678   1.000000   1.000000
    198         -1.464976        0.116139   1.000000   1.000000
    199         -1.447246        0.128981   1.000000   1.000000
    200         -1.431340        0.139536   1.000000   1.000000
    201         -1.414499        0.171776   1.000000   1.000000
    202         -1.403545        0.177078   1.000000   1.000000
    203         -1.388300        0.192059   1.000000   1.000000
    204         -1.371930        0.214098   1.000000   1.000000
    205         -1.368518        0.229240   1.000000   1.000000
    206         -1.350151        0.276904   1.000000   1.000000
    207         -1.332838        0.298520   1.000000   1.000000
    208         -1.315609        0.316454   1.000000   1.000000
    209         -1.294957        0.348659   1.000000   1.000000
    210         -1.281178        0.369153   1.000000   1.000000
    211         -1.266623        0.397606   1.000000   1.000000
    212         -1.244316        0.443156   1.000000   1.000001
    213         -1.233987        0.478375   1.000000   1.000007
    214         -1.216706        0.550318   1.000000   1.000127
    215         -1.195002        0.578843   1.000000   1.000345
    216         -1.177663        0.602323   1.000000   1.000739
    217         -1.147407        0.646759   1.000000   1.002679
    218         -1.130057        0.686953   1.000000   1.007153
    219         -1.112834        0.715743   1.000000   1.012870
    220         -1.091558        0.755741   1.000000   1.024207
    221         -1.077483        0.784876   1.000000   1.032440
    222         -1.052140        0.794548   1.000000   1.034313
    223         -1.031252        0.810931   1.000000   1.035410
    224         -1.010121        0.841986   1.000000   1.025167
    225         -0.984684        0.849810   1.000000   1.018886
    226         -0.962970        0.892401   1.000000   0.946779
    227         -0.935662        0.960382   1.000000   0.674288
    228         -0.923454        0.975588   1.000000   0.592221
    229         -0.887664        0.987539   1.000000   0.525396
    230         -0.876169        1.014212   1.000000   0.376428
    231         -0.863705        1.038483   1.000000   0.251396
    232         -0.841744        1.070249   1.000000   0.118388
    233         -0.822693        1.085484   1.000000   0.069956
    234         -0.800627        1.112027   1.000000   0.009980
    235         -0.781653        1.134089   1.000000  -0.018713
    236         -0.763220        1.161344   1.000000  -0.033843
    237         -0.745975        1.179792   1.000000  -0.035350
    238         -0.703883        1.185170   1.000000  -0.034901
    239         -0.688148        1.208767   1.000000  -0.030025
    240         -0.676772        1.223204   1.000000  -0.025789
    241         -0.665480        1.255515   1.000000  -0.016159
    242         -0.651541        1.267562   1.000000  -0.013057
    243         -0.625852        1.294049   1.000000  -0.007655
    244         -0.618824        1.329368   1.000000  -0.003301
    245         -0.606274        1.349411   1.000000  -0.001926
    246         -0.584888        1.360958   1.000000  -0.001385
    247         -0.574777        1.388495   1.000000  -0.000597
    248         -0.558887        1.399398   1.000000  -0.000419
    249         -0.541913        1.431894   1.000000  -0.000136
    250         -0.535508        1.470596   1.000000  -0.000031
    251         -0.524393        1.504247   1.000000  -0.000008
    252         -0.508031        1.522545   1.000000  -0.000003
    253         -0.492597        1.553065   1.000000  -0.000001
    254         -0.476513        1.562921   1.000000  -0.000001
    255         -0.463447        1.583180   1.000000  -0.000000
    256         -0.446725        1.601735   1.000000  -0.000000
    257         -0.434825        1.616830   1.000000  -0.000000
    258         -0.423447        1.638579   1.000000  -0.000000
    259         -0.411539        1.655049   1.000000  -0.000000
    260         -0.399529        1.663258   1.000000  -0.000000
    261         -0.387781        1.680749   1.000000  -0.000000
    262         -0.386208        1.697153   1.000000  -0.000000
    263         -0.373004        1.702378   1.000000  -0.000000
    264         -0.357410        1.728844   1.000000  -0.000000
    265         -0.344094        1.741350   1.000000  -0.000000
    266         -0.330544        1.758293   1.000000  -0.000000
    267         -0.323699        1.776314   1.000000  -0.000000
    268         -0.318726        1.781823   1.000000  -0.000000
    269         -0.306401        1.793415   1.000000  -0.000000
    270         -0.296827        1.796808   1.000000  -0.000000
    271         -0.282500        1.809666   1.000000  -0.000000
    272         -0.277100        1.821916   1.000000  -0.000000
    273         -0.265118        1.832621   1.000000  -0.000000
    274         -0.256213        1.863470   1.000000  -0.000000
    275         -0.244902        1.871927   1.000000  -0.000000
    276         -0.232179        1.881774   1.000000  -0.000000
    277         -0.222873        1.900360   1.000000  -0.000000
    278         -0.220578        1.908160   1.000000  -0.000000
    279         -0.199700        1.914771   1.000000  -0.000000
    280         -0.188557        1.928859   1.000000  -0.000000
    281         -0.178434        1.941611   1.000000  -0.000000
    282         -0.162213        1.953077   1.000000  -0.000000
    283         -0.154312        1.965312   1.000000  -0.000000
    284         -0.143169        1.977506   1.000000  -0.000000
    285         -0.129450        1.985444   1.000000  -0.000000
    286         -0.121688        2.000230   1.000000  -0.000000
    287         -0.116461        2.007083   1.000000  -0.000000
    288         -0.107835        2.020127   1.000000  -0.000000
    289         -0.094593        2.037465   1.000000  -0.000000
    290         -0.081967        2.049046   1.000000  -0.000000
    291         -0.066334        2.053405   1.000000  -0.000000
    292         -0.055846        2.072181   1.000000  -0.000000
    293         -0.044201        2.080356   1.000000  -0.000000
    294         -0.031680        2.091729   1.000000  -0.000000
    295         -0.014956        2.100755   1.000000  -0.000000
    296         -0.007076        2.108960   1.000000  -0.000000
    297          0.009823        2.120437   1.000000  -0.000000
    298          0.024931        2.133002   1.000000  -0.000000
    299          0.039570        2.136633   1.000000  -0.000000
    300          0.056513        2.148488   1.000000  -0.000000
    301          0.067458        2.158149   1.000000  -0.000000
    302          0.092450        2.176325   1.000000  -0.000000
    303          0.109720        2.194621   1.000000  -0.000000
    304          0.128163        2.201817   1.000000  -0.000000
    305          0.148094        2.219905   1.000000  -0.000000
    306          0.170500        2.224482   1.000000  -0.000000
    307          0.183702        2.235653   1.000000  -0.000000
    308          0.202501        2.244349   1.000000  -0.000000
    309          0.216495        2.258148   1.000000  -0.000000
    310          0.232897        2.272662   1.000000  -0.000000
    311          0.266533        2.281645   1.000000  -0.000000
    312          0.280214        2.293321   1.000000  -0.000000
    313          0.289899        2.301089   1.000000  -0.000000
    314          0.321924        2.324617   1.000000  -0.000000
    315          0.342866        2.341543   1.000000  -0.000000
    316          0.357719        2.354912   1.000000  -0.000000
    317          0.372403        2.367855   1.000000  -0.000000
    318          0.389346        2.375739   1.000000  -0.000000
    319          0.422261        2.390149   1.000001  -0.000000
    320          0.425745        2.398668   1.000001  -0.000000
    321          0.436990        2.406471   1.000001  -0.000000
    322          0.447666        2.426838   1.000002  -0.000000
    323          0.491213        2.435634   1.000012  -0.000000
    324          0.509730        2.454535   1.000027  -0.000000
    325          0.536718        2.460278   1.000076  -0.000000
    326          0.553732        2.465761   1.000143  -0.000000
    327          0.582002        2.476633   1.000383  -0.000000
    328          0.600060        2.498060   1.000688  -0.000000
    329          0.622236        2.506069   1.001350  -0.000000
    330          0.631371        2.514056   1.001755  -0.000000
    331          0.666073        2.519633   1.004393  -0.000000
    332          0.682024        2.529879   1.006405  -0.000000
    333          0.709636        2.537671   1.011461  -0.000000
    334          0.726846        2.545940   1.015692  -0.000000
    335          0.736558        2.554687   1.018407  -0.000000
    336          0.755399        2.568786   1.024102  -0.000000
    337          0.783247        2.573158   1.032062  -0.000000
    338          0.809400        2.584741   1.035450  -0.000000
    339          0.832459        2.596210   1.030550  -0.000000
    340          0.851370        2.602221   1.017413  -0.000000
    341          0.883261        2.607681   0.968368  -0.000000
    342          0.922073        2.614822   0.851126  -0.000000
    343          0.958490        2.623483   0.684151  -0.000000
    344          0.970504        2.636152   0.620139  -0.000000
    345          0.983405        2.648383   0.548644  -0.000000
    346          0.992117        2.653982   0.499582  -0.000000
    347          1.036189        2.660419   0.262492  -0.000000
    348          1.055789        2.672369   0.173844  -0.000000
    349          1.088446        2.680997   0.061749  -0.000000
    350          1.103077        2.700979   0.026863  -0.000000
    351          1.145988        2.714929  -0.027646  -0.000000
    352          1.166199        2.723893  -0.034777  -0.000000
    353          1.183108        2.730015  -0.035112  -0.000000
    354          1.233422        2.746841  -0.022641  -0.000000
    355          1.279124        2.750861  -0.010454  -0.000000
    356          1.291111        2.762954  -0.008156  -0.000000
    357          1.331547        2.774139  -0.003120  -0.000000
    358          1.351158        2.784908  -0.001834  -0.000000
    359          1.385049        2.791369  -0.000666  -0.000000
    360          1.426340        2.817074  -0.000166  -0.000000
    361          1.454992        2.822770  -0.000057  -0.000000
    362          1.474026        2.849687  -0.000027  -0.000000
    363          1.513059        2.870606  -0.000005  -0.000000
    364          1.540797        2.880574  -0.000001  -0.000000
    365          1.584357        2.890029  -0.000000  -0.000000
    366          1.601220        2.912580  -0.000000  -0.000000
    367          1.625461        2.924305  -0.000000  -0.000000
    368          1.669407        2.945584  -0.000000  -0.000000
    369          1.685045        2.955074  -0.000000  -0.000000
    370          1.709219        2.987086  -0.000000  -0.000000
    371          1.741449        3.013687  -0.000000  -0.000000
    372          1.784678        3.023415  -0.000000  -0.000000
    373          1.799613        3.043336  -0.000000  -0.000000
    374          1.826441        3.057168  -0.000000  -0.000000
    375          1.860569        3.067699  -0.000000  -0.000000
    376          1.912769        3.098148  -0.000000  -0.000000
 
  0.3750000E+00  0.3750000E+00  0.0000000E+00  0.1250000E+00
      1        -42.904960      -43.153320   1.000000   1.000000
      2        -42.804692      -43.146250   1.000000   1.000000
      3        -42.780012      -43.114464   1.000000   1.000000
      4        -42.770011      -43.094751   1.000000   1.000000
      5        -42.739450      -43.089179   1.000000   1.000000
      6        -42.728145      -43.063972   1.000000   1.000000
      7        -42.678233      -43.009438   1.000000   1.000000
      8        -42.649635      -42.991701   1.000000   1.000000
      9        -42.620011      -42.972655   1.000000   1.000000
     10        -42.341292      -42.793136   1.000000   1.000000
     11        -42.340210      -42.785854   1.000000   1.000000
     12        -42.276076      -42.774686   1.000000   1.000000
     13        -42.197930      -42.759831   1.000000   1.000000
     14        -42.175734      -42.756389   1.000000   1.000000
     15        -42.167223      -42.722393   1.000000   1.000000
     16        -42.151222      -42.700481   1.000000   1.000000
     17        -42.107022      -42.662958   1.000000   1.000000
     18        -42.083878      -42.653652   1.000000   1.000000
     19        -41.998140      -42.637291   1.000000   1.000000
     20        -41.975376      -42.618181   1.000000   1.000000
     21        -41.961842      -42.523054   1.000000   1.000000
     22        -41.930666      -42.361696   1.000000   1.000000
     23        -41.908169      -42.134210   1.000000   1.000000
     24        -41.837348      -42.069484   1.000000   1.000000
     25        -41.813048      -42.021100   1.000000   1.000000
     26        -41.799319      -41.906733   1.000000   1.000000
     27        -41.766294      -41.884475   1.000000   1.000000
     28        -41.758673      -41.789299   1.000000   1.000000
     29        -41.756775      -41.757081   1.000000   1.000000
     30        -41.724469      -41.635482   1.000000   1.000000
     31        -41.680143      -41.516124   1.000000   1.000000
     32        -41.675707      -41.439645   1.000000   1.000000
     33        -41.670720      -41.360050   1.000000   1.000000
     34        -41.654648      -40.096189   1.000000   1.000000
     35        -41.649308      -39.987034   1.000000   1.000000
     36        -41.638296      -39.904915   1.000000   1.000000
     37        -41.637509      -39.879873   1.000000   1.000000
     38        -41.630276      -39.809656   1.000000   1.000000
     39        -41.604396      -39.678004   1.000000   1.000000
     40        -41.478658      -39.595123   1.000000   1.000000
     41        -41.472514      -39.536418   1.000000   1.000000
     42        -41.384243      -39.309485   1.000000   1.000000
     43        -15.424773      -15.466895   1.000000   1.000000
     44        -15.422762      -15.457583   1.000000   1.000000
     45        -15.412455      -15.454870   1.000000   1.000000
     46        -15.382554      -15.421649   1.000000   1.000000
     47        -15.364423      -15.413510   1.000000   1.000000
     48         -7.487432       -7.593004   1.000000   1.000000
     49         -6.518542       -6.388141   1.000000   1.000000
     50         -6.028800       -5.892340   1.000000   1.000000
     51         -5.979810       -5.834919   1.000000   1.000000
     52         -5.583055       -5.405938   1.000000   1.000000
     53         -5.513504       -5.360993   1.000000   1.000000
     54         -5.154746       -4.979037   1.000000   1.000000
     55         -5.079820       -4.864684   1.000000   1.000000
     56         -4.669868       -4.457145   1.000000   1.000000
     57         -4.361708       -4.045602   1.000000   1.000000
     58         -4.108463       -3.735192   1.000000   1.000000
     59         -4.003736       -3.610005   1.000000   1.000000
     60         -3.835977       -3.389592   1.000000   1.000000
     61         -3.819830       -3.342151   1.000000   1.000000
     62         -3.776579       -3.270596   1.000000   1.000000
     63         -3.752620       -3.141954   1.000000   1.000000
     64         -3.738498       -3.112484   1.000000   1.000000
     65         -3.724165       -3.001710   1.000000   1.000000
     66         -3.709867       -2.927132   1.000000   1.000000
     67         -3.696350       -2.854403   1.000000   1.000000
     68         -3.685255       -2.809383   1.000000   1.000000
     69         -3.651516       -2.783439   1.000000   1.000000
     70         -3.622156       -2.757298   1.000000   1.000000
     71         -3.521255       -2.717369   1.000000   1.000000
     72         -3.511052       -2.665675   1.000000   1.000000
     73         -3.492112       -2.656224   1.000000   1.000000
     74         -3.482407       -2.635480   1.000000   1.000000
     75         -3.416271       -2.602821   1.000000   1.000000
     76         -3.400251       -2.576843   1.000000   1.000000
     77         -3.389585       -2.544255   1.000000   1.000000
     78         -3.380022       -2.523974   1.000000   1.000000
     79         -3.357483       -2.465238   1.000000   1.000000
     80         -3.342463       -2.455763   1.000000   1.000000
     81         -3.331892       -2.421509   1.000000   1.000000
     82         -3.321891       -2.363030   1.000000   1.000000
     83         -3.305445       -2.329106   1.000000   1.000000
     84         -3.292662       -2.300751   1.000000   1.000000
     85         -3.276318       -2.273099   1.000000   1.000000
     86         -3.266195       -2.242606   1.000000   1.000000
     87         -3.257309       -2.220830   1.000000   1.000000
     88         -3.239691       -2.172282   1.000000   1.000000
     89         -3.227783       -2.144119   1.000000   1.000000
     90         -3.202095       -2.070148   1.000000   1.000000
     91         -3.184118       -2.044714   1.000000   1.000000
     92         -3.161318       -2.004627   1.000000   1.000000
     93         -3.150613       -1.983352   1.000000   1.000000
     94         -3.126390       -1.938678   1.000000   1.000000
     95         -3.104425       -1.899247   1.000000   1.000000
     96         -3.053628       -1.881329   1.000000   1.000000
     97         -3.049461       -1.859036   1.000000   1.000000
     98         -3.031542       -1.842953   1.000000   1.000000
     99         -3.013031       -1.804449   1.000000   1.000000
    100         -2.991333       -1.785422   1.000000   1.000000
    101         -2.945380       -1.759558   1.000000   1.000000
    102         -2.934485       -1.724052   1.000000   1.000000
    103         -2.890833       -1.709692   1.000000   1.000000
    104         -2.878573       -1.696918   1.000000   1.000000
    105         -2.843263       -1.651953   1.000000   1.000000
    106         -2.832891       -1.634974   1.000000   1.000000
    107         -2.817097       -1.589866   1.000000   1.000000
    108         -2.795805       -1.578902   1.000000   1.000000
    109         -2.785824       -1.554881   1.000000   1.000000
    110         -2.750317       -1.512506   1.000000   1.000000
    111         -2.736839       -1.464831   1.000000   1.000000
    112         -2.717372       -1.447608   1.000000   1.000000
    113         -2.662974       -1.395368   1.000000   1.000000
    114         -2.650350       -1.388382   1.000000   1.000000
    115         -2.642646       -1.358611   1.000000   1.000000
    116         -2.616869       -1.323798   1.000000   1.000000
    117         -2.607191       -1.301531   1.000000   1.000000
    118         -2.576870       -1.272070   1.000000   1.000000
    119         -2.563369       -1.252213   1.000000   1.000000
    120         -2.558970       -1.202790   1.000000   1.000000
    121         -2.543480       -1.180843   1.000000   1.000000
    122         -2.522465       -1.159628   1.000000   1.000000
    123         -2.503632       -1.140739   1.000000   1.000000
    124         -2.497440       -1.133743   1.000000   1.000000
    125         -2.493789       -1.122307   1.000000   1.000000
    126         -2.480912       -1.098505   1.000000   1.000000
    127         -2.466462       -1.083207   1.000000   1.000000
    128         -2.451909       -1.057589   1.000000   1.000000
    129         -2.440569       -1.032524   1.000000   1.000000
    130         -2.434702       -1.001418   1.000000   1.000000
    131         -2.422158       -0.979508   1.000000   1.000000
    132         -2.415527       -0.959288   1.000000   1.000000
    133         -2.396367       -0.953543   1.000000   1.000000
    134         -2.383440       -0.925215   1.000000   1.000000
    135         -2.379478       -0.919866   1.000000   1.000000
    136         -2.370822       -0.900038   1.000000   1.000000
    137         -2.355425       -0.862603   1.000000   1.000000
    138         -2.338771       -0.856806   1.000000   1.000000
    139         -2.327546       -0.831246   1.000000   1.000000
    140         -2.300695       -0.811402   1.000000   1.000000
    141         -2.291918       -0.782195   1.000000   1.000000
    142         -2.283028       -0.771376   1.000000   1.000000
    143         -2.261318       -0.742516   1.000000   1.000000
    144         -2.259265       -0.721308   1.000000   1.000000
    145         -2.232202       -0.706324   1.000000   1.000000
    146         -2.215095       -0.697862   1.000000   1.000000
    147         -2.189167       -0.681772   1.000000   1.000000
    148         -2.176976       -0.658172   1.000000   1.000000
    149         -2.170961       -0.640182   1.000000   1.000000
    150         -2.148640       -0.626580   1.000000   1.000000
    151         -2.133904       -0.613331   1.000000   1.000000
    152         -2.121875       -0.586605   1.000000   1.000000
    153         -2.100880       -0.578464   1.000000   1.000000
    154         -2.075348       -0.563329   1.000000   1.000000
    155         -2.067214       -0.559773   1.000000   1.000000
    156         -2.053531       -0.526048   1.000000   1.000000
    157         -2.046791       -0.510758   1.000000   1.000000
    158         -2.024175       -0.491319   1.000000   1.000000
    159         -2.010556       -0.484895   1.000000   1.000000
    160         -1.986200       -0.459567   1.000000   1.000000
    161         -1.978531       -0.433851   1.000000   1.000000
    162         -1.954833       -0.428467   1.000000   1.000000
    163         -1.939202       -0.410663   1.000000   1.000000
    164         -1.922443       -0.388713   1.000000   1.000000
    165         -1.912155       -0.382813   1.000000   1.000000
    166         -1.903617       -0.361693   1.000000   1.000000
    167         -1.893052       -0.352670   1.000000   1.000000
    168         -1.876768       -0.332895   1.000000   1.000000
    169         -1.860268       -0.319011   1.000000   1.000000
    170         -1.853713       -0.306222   1.000000   1.000000
    171         -1.830173       -0.291379   1.000000   1.000000
    172         -1.826981       -0.273290   1.000000   1.000000
    173         -1.816230       -0.270469   1.000000   1.000000
    174         -1.802843       -0.255177   1.000000   1.000000
    175         -1.790191       -0.243166   1.000000   1.000000
    176         -1.772524       -0.224471   1.000000   1.000000
    177         -1.764928       -0.203570   1.000000   1.000000
    178         -1.760586       -0.181517   1.000000   1.000000
    179         -1.744317       -0.174450   1.000000   1.000000
    180         -1.732045       -0.167578   1.000000   1.000000
    181         -1.724544       -0.153850   1.000000   1.000000
    182         -1.703118       -0.133272   1.000000   1.000000
    183         -1.693720       -0.123541   1.000000   1.000000
    184         -1.673967       -0.116051   1.000000   1.000000
    185         -1.647490       -0.098628   1.000000   1.000000
    186         -1.638627       -0.080213   1.000000   1.000000
    187         -1.626026       -0.065855   1.000000   1.000000
    188         -1.603322       -0.058580   1.000000   1.000000
    189         -1.587110       -0.033712   1.000000   1.000000
    190         -1.577598       -0.021954   1.000000   1.000000
    191         -1.562899        0.013023   1.000000   1.000000
    192         -1.548170        0.023685   1.000000   1.000000
    193         -1.530552        0.040107   1.000000   1.000000
    194         -1.522191        0.055092   1.000000   1.000000
    195         -1.504037        0.065253   1.000000   1.000000
    196         -1.483649        0.082163   1.000000   1.000000
    197         -1.474227        0.105507   1.000000   1.000000
    198         -1.462239        0.128595   1.000000   1.000000
    199         -1.418485        0.134048   1.000000   1.000000
    200         -1.403682        0.150930   1.000000   1.000000
    201         -1.399636        0.179005   1.000000   1.000000
    202         -1.383724        0.199496   1.000000   1.000000
    203         -1.357430        0.227248   1.000000   1.000000
    204         -1.346637        0.260276   1.000000   1.000000
    205         -1.320459        0.279368   1.000000   1.000000
    206         -1.312080        0.302245   1.000000   1.000000
    207         -1.300970        0.314615   1.000000   1.000000
    208         -1.280168        0.376357   1.000000   1.000000
    209         -1.270923        0.410047   1.000000   1.000000
    210         -1.243690        0.458631   1.000000   1.000003
    211         -1.233500        0.475685   1.000000   1.000006
    212         -1.219133        0.492673   1.000000   1.000013
    213         -1.208370        0.515238   1.000000   1.000033
    214         -1.185298        0.576672   1.000000   1.000320
    215         -1.171363        0.628490   1.000000   1.001617
    216         -1.165967        0.653077   1.000000   1.003164
    217         -1.135026        0.687998   1.000000   1.007320
    218         -1.099378        0.716028   1.000000   1.012938
    219         -1.086068        0.757549   1.000000   1.024765
    220         -1.075037        0.761164   1.000000   1.025875
    221         -1.037514        0.764268   1.000000   1.026820
    222         -1.015768        0.797795   1.000000   1.034768
    223         -0.986980        0.835881   1.000000   1.028882
    224         -0.971885        0.862148   1.000000   1.005052
    225         -0.938372        0.874810   1.000000   0.985176
    226         -0.923558        0.882915   1.000000   0.969113
    227         -0.914638        0.932183   1.000000   0.809749
    228         -0.872378        0.951733   1.000000   0.718571
    229         -0.864956        0.972738   1.000000   0.607922
    230         -0.846432        1.009046   1.000000   0.404748
    231         -0.829703        1.037022   1.000000   0.258443
    232         -0.795691        1.060622   1.000000   0.154310
    233         -0.779636        1.078104   1.000000   0.092118
    234         -0.767228        1.088979   1.000000   0.060313
    235         -0.749292        1.103866   1.000000   0.025241
    236         -0.710804        1.130937   1.000000  -0.015640
    237         -0.689873        1.155755   1.000000  -0.032198
    238         -0.680493        1.186212   1.000000  -0.034778
    239         -0.662893        1.213869   1.000000  -0.028584
    240         -0.641616        1.231251   1.000000  -0.023310
    241         -0.617066        1.256311   1.000000  -0.015943
    242         -0.601044        1.276089   1.000000  -0.011101
    243         -0.592740        1.308670   1.000000  -0.005498
    244         -0.573336        1.319980   1.000000  -0.004185
    245         -0.563846        1.332842   1.000000  -0.003016
    246         -0.547961        1.349727   1.000000  -0.001909
    247         -0.529370        1.356846   1.000000  -0.001560
    248         -0.513653        1.391164   1.000000  -0.000548
    249         -0.506822        1.423574   1.000000  -0.000183
    250         -0.490413        1.440034   1.000000  -0.000101
    251         -0.479390        1.466316   1.000000  -0.000037
    252         -0.464719        1.514358   1.000000  -0.000005
    253         -0.456000        1.528635   1.000000  -0.000003
    254         -0.445585        1.540486   1.000000  -0.000001
    255         -0.432108        1.585144   1.000000  -0.000000
    256         -0.419014        1.597952   1.000000  -0.000000
    257         -0.409083        1.604943   1.000000  -0.000000
    258         -0.406264        1.626007   1.000000  -0.000000
    259         -0.395333        1.644474   1.000000  -0.000000
    260         -0.376324        1.656591   1.000000  -0.000000
    261         -0.370911        1.677791   1.000000  -0.000000
    262         -0.351897        1.692455   1.000000  -0.000000
    263         -0.344325        1.707483   1.000000  -0.000000
    264         -0.336321        1.724588   1.000000  -0.000000
    265         -0.327291        1.742469   1.000000  -0.000000
    266         -0.321238        1.754696   1.000000  -0.000000
    267         -0.307323        1.760722   1.000000  -0.000000
    268         -0.302768        1.775289   1.000000  -0.000000
    269         -0.291908        1.792687   1.000000  -0.000000
    270         -0.285413        1.805149   1.000000  -0.000000
    271         -0.272353        1.819109   1.000000  -0.000000
    272         -0.259584        1.845313   1.000000  -0.000000
    273         -0.252565        1.858973   1.000000  -0.000000
    274         -0.244930        1.869628   1.000000  -0.000000
    275         -0.230358        1.881595   1.000000  -0.000000
    276         -0.223113        1.888936   1.000000  -0.000000
    277         -0.216077        1.901537   1.000000  -0.000000
    278         -0.203451        1.922453   1.000000  -0.000000
    279         -0.191185        1.937658   1.000000  -0.000000
    280         -0.185657        1.965177   1.000000  -0.000000
    281         -0.169373        1.970270   1.000000  -0.000000
    282         -0.165197        1.981362   1.000000  -0.000000
    283         -0.147871        2.001264   1.000000  -0.000000
    284         -0.140501        2.010408   1.000000  -0.000000
    285         -0.124664        2.017375   1.000000  -0.000000
    286         -0.119785        2.030382   1.000000  -0.000000
    287         -0.102426        2.038694   1.000000  -0.000000
    288         -0.093320        2.056838   1.000000  -0.000000
    289         -0.077888        2.068690   1.000000  -0.000000
    290         -0.071791        2.075101   1.000000  -0.000000
    291         -0.047536        2.092238   1.000000  -0.000000
    292         -0.031081        2.106287   1.000000  -0.000000
    293         -0.020055        2.111257   1.000000  -0.000000
    294         -0.010414        2.125037   1.000000  -0.000000
    295          0.008318        2.126305   1.000000  -0.000000
    296          0.017731        2.140067   1.000000  -0.000000
    297          0.024057        2.151294   1.000000  -0.000000
    298          0.035763        2.162241   1.000000  -0.000000
    299          0.057032        2.167752   1.000000  -0.000000
    300          0.069864        2.183340   1.000000  -0.000000
    301          0.088887        2.199714   1.000000  -0.000000
    302          0.096930        2.204131   1.000000  -0.000000
    303          0.118480        2.221574   1.000000  -0.000000
    304          0.140399        2.228131   1.000000  -0.000000
    305          0.160964        2.239525   1.000000  -0.000000
    306          0.186089        2.250702   1.000000  -0.000000
    307          0.195377        2.264131   1.000000  -0.000000
    308          0.201910        2.269955   1.000000  -0.000000
    309          0.224006        2.284385   1.000000  -0.000000
    310          0.247265        2.303242   1.000000  -0.000000
    311          0.260721        2.313698   1.000000  -0.000000
    312          0.280187        2.320690   1.000000  -0.000000
    313          0.287963        2.326176   1.000000  -0.000000
    314          0.319867        2.332522   1.000000  -0.000000
    315          0.337450        2.347803   1.000000  -0.000000
    316          0.352166        2.351232   1.000000  -0.000000
    317          0.369256        2.369870   1.000000  -0.000000
    318          0.396174        2.379255   1.000000  -0.000000
    319          0.413244        2.392765   1.000000  -0.000000
    320          0.432315        2.406802   1.000001  -0.000000
    321          0.451309        2.417550   1.000002  -0.000000
    322          0.464226        2.428387   1.000004  -0.000000
    323          0.485322        2.439559   1.000010  -0.000000
    324          0.494568        2.447152   1.000014  -0.000000
    325          0.522166        2.458324   1.000044  -0.000000
    326          0.562243        2.466937   1.000194  -0.000000
    327          0.572054        2.476594   1.000274  -0.000000
    328          0.596106        2.491490   1.000607  -0.000000
    329          0.608129        2.500828   1.000884  -0.000000
    330          0.636244        2.505468   1.002012  -0.000000
    331          0.653851        2.519147   1.003228  -0.000000
    332          0.680920        2.527194   1.006245  -0.000000
    333          0.702564        2.535638   1.009962  -0.000000
    334          0.733832        2.546758   1.017624  -0.000000
    335          0.754225        2.557593   1.023739  -0.000000
    336          0.778302        2.569383   1.030825  -0.000000
    337          0.795241        2.573684   1.034418  -0.000000
    338          0.818531        2.585348   1.034677  -0.000000
    339          0.841622        2.590699   1.025416  -0.000000
    340          0.866277        2.595688   0.999239  -0.000000
    341          0.903089        2.611574   0.916860  -0.000000
    342          0.930154        2.617621   0.818389  -0.000000
    343          0.949426        2.622483   0.730013  -0.000000
    344          0.961524        2.628917   0.668293  -0.000000
    345          1.002862        2.638741   0.439136  -0.000000
    346          1.011555        2.648517   0.390943  -0.000000
    347          1.032122        2.655147   0.282584  -0.000000
    348          1.068290        2.660547   0.125371  -0.000000
    349          1.078323        2.664451   0.091425  -0.000000
    350          1.131760        2.676312  -0.016472  -0.000000
    351          1.157151        2.686196  -0.032669  -0.000000
    352          1.184412        2.700516  -0.034984  -0.000000
    353          1.189852        2.702962  -0.034264  -0.000000
    354          1.223214        2.711390  -0.025786  -0.000000
    355          1.272746        2.722963  -0.011843  -0.000000
    356          1.301492        2.739468  -0.006488  -0.000000
    357          1.325124        2.748332  -0.003679  -0.000000
    358          1.352504        2.764528  -0.001766  -0.000000
    359          1.377509        2.773342  -0.000843  -0.000000
    360          1.399905        2.788078  -0.000412  -0.000000
    361          1.453887        2.792436  -0.000060  -0.000000
    362          1.492481        2.813961  -0.000013  -0.000000
    363          1.507610        2.833910  -0.000007  -0.000000
    364          1.547687        2.849776  -0.000001  -0.000000
    365          1.566138        2.857606  -0.000000  -0.000000
    366          1.588287        2.885727  -0.000000  -0.000000
    367          1.627578        2.907515  -0.000000  -0.000000
    368          1.658563        2.939091  -0.000000  -0.000000
    369          1.684977        2.962785  -0.000000  -0.000000
    370          1.704284        3.001357  -0.000000  -0.000000
    371          1.753050        3.025530  -0.000000  -0.000000
    372          1.771561        3.048396  -0.000000  -0.000000
    373          1.797315        3.086916  -0.000000  -0.000000
    374          1.839427        3.100278  -0.000000  -0.000000
    375          1.902613        3.120107  -0.000000  -0.000000
    376          1.925853        3.142559  -0.000000  -0.000000
 
 -0.3750000E+00  0.3750000E+00  0.0000000E+00  0.1250000E+00
      1        -42.904955      -43.153326   1.000000   1.000000
      2        -42.804699      -43.146260   1.000000   1.000000
      3        -42.780011      -43.114456   1.000000   1.000000
      4        -42.770011      -43.094736   1.000000   1.000000
      5        -42.739455      -43.089193   1.000000   1.000000
      6        -42.728138      -43.063982   1.000000   1.000000
      7        -42.678228      -43.009439   1.000000   1.000000
      8        -42.649634      -42.991691   1.000000   1.000000
      9        -42.620018      -42.972650   1.000000   1.000000
     10        -42.341285      -42.793140   1.000000   1.000000
     11        -42.340220      -42.785864   1.000000   1.000000
     12        -42.276074      -42.774671   1.000000   1.000000
     13        -42.197929      -42.759846   1.000000   1.000000
     14        -42.175726      -42.756380   1.000000   1.000000
     15        -42.167229      -42.722393   1.000000   1.000000
     16        -42.151231      -42.700479   1.000000   1.000000
     17        -42.107014      -42.662974   1.000000   1.000000
     18        -42.083863      -42.653642   1.000000   1.000000
     19        -41.998133      -42.637291   1.000000   1.000000
     20        -41.975391      -42.618183   1.000000   1.000000
     21        -41.961857      -42.523052   1.000000   1.000000
     22        -41.930660      -42.361713   1.000000   1.000000
     23        -41.908187      -42.134211   1.000000   1.000000
     24        -41.837362      -42.069483   1.000000   1.000000
     25        -41.813045      -42.021077   1.000000   1.000000
     26        -41.799325      -41.906739   1.000000   1.000000
     27        -41.766290      -41.884490   1.000000   1.000000
     28        -41.758667      -41.789281   1.000000   1.000000
     29        -41.756765      -41.757090   1.000000   1.000000
     30        -41.724475      -41.635474   1.000000   1.000000
     31        -41.680125      -41.516108   1.000000   1.000000
     32        -41.675714      -41.439645   1.000000   1.000000
     33        -41.670712      -41.360063   1.000000   1.000000
     34        -41.654644      -40.096173   1.000000   1.000000
     35        -41.649299      -39.987052   1.000000   1.000000
     36        -41.638286      -39.904929   1.000000   1.000000
     37        -41.637511      -39.879859   1.000000   1.000000
     38        -41.630286      -39.809653   1.000000   1.000000
     39        -41.604397      -39.678005   1.000000   1.000000
     40        -41.478645      -39.595110   1.000000   1.000000
     41        -41.472527      -39.536430   1.000000   1.000000
     42        -41.384240      -39.309486   1.000000   1.000000
     43        -15.424773      -15.466895   1.000000   1.000000
     44        -15.422762      -15.457583   1.000000   1.000000
     45        -15.412455      -15.454870   1.000000   1.000000
     46        -15.382553      -15.421649   1.000000   1.000000
     47        -15.364423      -15.413510   1.000000   1.000000
     48         -7.487487       -7.592972   1.000000   1.000000
     49         -6.514583       -6.387433   1.000000   1.000000
     50         -6.055746       -5.882716   1.000000   1.000000
     51         -5.961218       -5.848527   1.000000   1.000000
     52         -5.568583       -5.408992   1.000000   1.000000
     53         -5.516016       -5.354027   1.000000   1.000000
     54         -5.196512       -4.954393   1.000000   1.000000
     55         -5.040456       -4.896995   1.000000   1.000000
     56         -4.673477       -4.448823   1.000000   1.000000
     57         -4.364369       -4.045497   1.000000   1.000000
     58         -4.100862       -3.718580   1.000000   1.000000
     59         -4.004928       -3.633299   1.000000   1.000000
     60         -3.846828       -3.398058   1.000000   1.000000
     61         -3.817749       -3.343985   1.000000   1.000000
     62         -3.776339       -3.273158   1.000000   1.000000
     63         -3.752308       -3.131572   1.000000   1.000000
     64         -3.747296       -3.083241   1.000000   1.000000
     65         -3.726012       -3.006058   1.000000   1.000000
     66         -3.716013       -2.928331   1.000000   1.000000
     67         -3.701809       -2.860033   1.000000   1.000000
     68         -3.684660       -2.813645   1.000000   1.000000
     69         -3.662046       -2.792082   1.000000   1.000000
     70         -3.573296       -2.740757   1.000000   1.000000
     71         -3.523322       -2.726369   1.000000   1.000000
     72         -3.507374       -2.672597   1.000000   1.000000
     73         -3.498245       -2.643627   1.000000   1.000000
     74         -3.474652       -2.626616   1.000000   1.000000
     75         -3.420668       -2.601330   1.000000   1.000000
     76         -3.388075       -2.570937   1.000000   1.000000
     77         -3.385209       -2.550431   1.000000   1.000000
     78         -3.371674       -2.525248   1.000000   1.000000
     79         -3.368392       -2.476366   1.000000   1.000000
     80         -3.355835       -2.465273   1.000000   1.000000
     81         -3.348633       -2.449268   1.000000   1.000000
     82         -3.325727       -2.362657   1.000000   1.000000
     83         -3.311851       -2.316334   1.000000   1.000000
     84         -3.293352       -2.303083   1.000000   1.000000
     85         -3.283960       -2.266401   1.000000   1.000000
     86         -3.274009       -2.236408   1.000000   1.000000
     87         -3.240017       -2.206365   1.000000   1.000000
     88         -3.229858       -2.155712   1.000000   1.000000
     89         -3.215415       -2.135714   1.000000   1.000000
     90         -3.208640       -2.074667   1.000000   1.000000
     91         -3.196853       -2.036019   1.000000   1.000000
     92         -3.168926       -2.018970   1.000000   1.000000
     93         -3.132688       -1.987858   1.000000   1.000000
     94         -3.117123       -1.945847   1.000000   1.000000
     95         -3.105851       -1.925839   1.000000   1.000000
     96         -3.074625       -1.910272   1.000000   1.000000
     97         -3.039084       -1.869996   1.000000   1.000000
     98         -3.029637       -1.829832   1.000000   1.000000
     99         -3.010615       -1.803113   1.000000   1.000000
    100         -2.979014       -1.774494   1.000000   1.000000
    101         -2.952497       -1.755941   1.000000   1.000000
    102         -2.926145       -1.731951   1.000000   1.000000
    103         -2.882693       -1.693830   1.000000   1.000000
    104         -2.877084       -1.688961   1.000000   1.000000
    105         -2.863360       -1.665978   1.000000   1.000000
    106         -2.841047       -1.632076   1.000000   1.000000
    107         -2.826447       -1.611518   1.000000   1.000000
    108         -2.791029       -1.560870   1.000000   1.000000
    109         -2.775519       -1.530155   1.000000   1.000000
    110         -2.750969       -1.499260   1.000000   1.000000
    111         -2.741100       -1.478771   1.000000   1.000000
    112         -2.706876       -1.427843   1.000000   1.000000
    113         -2.675711       -1.398873   1.000000   1.000000
    114         -2.659205       -1.380664   1.000000   1.000000
    115         -2.644605       -1.357879   1.000000   1.000000
    116         -2.635928       -1.322509   1.000000   1.000000
    117         -2.597529       -1.294200   1.000000   1.000000
    118         -2.579691       -1.284757   1.000000   1.000000
    119         -2.566255       -1.256211   1.000000   1.000000
    120         -2.545273       -1.210203   1.000000   1.000000
    121         -2.533760       -1.187856   1.000000   1.000000
    122         -2.522223       -1.163090   1.000000   1.000000
    123         -2.504540       -1.144239   1.000000   1.000000
    124         -2.491463       -1.126434   1.000000   1.000000
    125         -2.488198       -1.115538   1.000000   1.000000
    126         -2.476152       -1.102611   1.000000   1.000000
    127         -2.469965       -1.087298   1.000000   1.000000
    128         -2.448530       -1.057631   1.000000   1.000000
    129         -2.434686       -1.030201   1.000000   1.000000
    130         -2.423454       -1.013735   1.000000   1.000000
    131         -2.420654       -0.984562   1.000000   1.000000
    132         -2.408455       -0.971857   1.000000   1.000000
    133         -2.404641       -0.951159   1.000000   1.000000
    134         -2.394921       -0.935529   1.000000   1.000000
    135         -2.382275       -0.903600   1.000000   1.000000
    136         -2.372553       -0.893985   1.000000   1.000000
    137         -2.357074       -0.872893   1.000000   1.000000
    138         -2.341994       -0.855148   1.000000   1.000000
    139         -2.324993       -0.819879   1.000000   1.000000
    140         -2.305078       -0.794205   1.000000   1.000000
    141         -2.292836       -0.786003   1.000000   1.000000
    142         -2.284233       -0.764856   1.000000   1.000000
    143         -2.263676       -0.742769   1.000000   1.000000
    144         -2.260137       -0.732434   1.000000   1.000000
    145         -2.227421       -0.711528   1.000000   1.000000
    146         -2.208779       -0.688109   1.000000   1.000000
    147         -2.192345       -0.678409   1.000000   1.000000
    148         -2.176078       -0.670398   1.000000   1.000000
    149         -2.167433       -0.640334   1.000000   1.000000
    150         -2.152979       -0.627759   1.000000   1.000000
    151         -2.141340       -0.617667   1.000000   1.000000
    152         -2.127890       -0.601016   1.000000   1.000000
    153         -2.110617       -0.581895   1.000000   1.000000
    154         -2.092347       -0.563752   1.000000   1.000000
    155         -2.058496       -0.554355   1.000000   1.000000
    156         -2.043816       -0.541526   1.000000   1.000000
    157         -2.023401       -0.518069   1.000000   1.000000
    158         -2.012302       -0.507681   1.000000   1.000000
    159         -2.004361       -0.462872   1.000000   1.000000
    160         -1.985199       -0.451612   1.000000   1.000000
    161         -1.971064       -0.439038   1.000000   1.000000
    162         -1.962255       -0.412220   1.000000   1.000000
    163         -1.947233       -0.407340   1.000000   1.000000
    164         -1.932223       -0.384458   1.000000   1.000000
    165         -1.914674       -0.366258   1.000000   1.000000
    166         -1.901751       -0.354523   1.000000   1.000000
    167         -1.891663       -0.342100   1.000000   1.000000
    168         -1.883970       -0.333212   1.000000   1.000000
    169         -1.855173       -0.316284   1.000000   1.000000
    170         -1.852383       -0.305463   1.000000   1.000000
    171         -1.833597       -0.288295   1.000000   1.000000
    172         -1.828704       -0.280693   1.000000   1.000000
    173         -1.815677       -0.261292   1.000000   1.000000
    174         -1.802927       -0.250016   1.000000   1.000000
    175         -1.797822       -0.236419   1.000000   1.000000
    176         -1.784337       -0.219637   1.000000   1.000000
    177         -1.764702       -0.201967   1.000000   1.000000
    178         -1.754827       -0.189087   1.000000   1.000000
    179         -1.745144       -0.172413   1.000000   1.000000
    180         -1.723867       -0.167406   1.000000   1.000000
    181         -1.715783       -0.153450   1.000000   1.000000
    182         -1.703888       -0.134415   1.000000   1.000000
    183         -1.691179       -0.127791   1.000000   1.000000
    184         -1.672844       -0.116256   1.000000   1.000000
    185         -1.660067       -0.104319   1.000000   1.000000
    186         -1.640838       -0.087229   1.000000   1.000000
    187         -1.637282       -0.076383   1.000000   1.000000
    188         -1.621421       -0.068165   1.000000   1.000000
    189         -1.589907       -0.024634   1.000000   1.000000
    190         -1.583718       -0.003829   1.000000   1.000000
    191         -1.569777        0.007960   1.000000   1.000000
    192         -1.551938        0.014054   1.000000   1.000000
    193         -1.518861        0.024091   1.000000   1.000000
    194         -1.505052        0.043303   1.000000   1.000000
    195         -1.490774        0.060975   1.000000   1.000000
    196         -1.482096        0.081941   1.000000   1.000000
    197         -1.470865        0.103362   1.000000   1.000000
    198         -1.448319        0.125181   1.000000   1.000000
    199         -1.420149        0.139851   1.000000   1.000000
    200         -1.408358        0.159035   1.000000   1.000000
    201         -1.386561        0.169657   1.000000   1.000000
    202         -1.375091        0.203576   1.000000   1.000000
    203         -1.361882        0.230900   1.000000   1.000000
    204         -1.342153        0.260055   1.000000   1.000000
    205         -1.331279        0.294800   1.000000   1.000000
    206         -1.317921        0.308316   1.000000   1.000000
    207         -1.301327        0.347591   1.000000   1.000000
    208         -1.289430        0.365662   1.000000   1.000000
    209         -1.260755        0.404217   1.000000   1.000000
    210         -1.245496        0.419093   1.000000   1.000000
    211         -1.226916        0.460873   1.000000   1.000003
    212         -1.217916        0.494975   1.000000   1.000015
    213         -1.210057        0.549756   1.000000   1.000124
    214         -1.193921        0.579745   1.000000   1.000355
    215         -1.170086        0.604504   1.000000   1.000791
    216         -1.150477        0.657821   1.000000   1.003574
    217         -1.138265        0.689986   1.000000   1.007646
    218         -1.113228        0.724031   1.000000   1.014946
    219         -1.086938        0.743988   1.000000   1.020606
    220         -1.052498        0.762133   1.000000   1.026171
    221         -1.041322        0.779836   1.000000   1.031222
    222         -1.023038        0.803236   1.000000   1.035288
    223         -0.987420        0.826349   1.000000   1.032855
    224         -0.972350        0.856333   1.000000   1.012207
    225         -0.959272        0.881788   1.000000   0.971511
    226         -0.927359        0.887567   1.000000   0.958648
    227         -0.895628        0.924298   1.000000   0.842387
    228         -0.867481        0.943800   1.000000   0.757200
    229         -0.851385        0.958845   1.000000   0.682305
    230         -0.832486        1.036831   1.000000   0.259368
    231         -0.814175        1.049745   1.000000   0.199621
    232         -0.803294        1.064722   1.000000   0.138520
    233         -0.781801        1.078869   1.000000   0.089705
    234         -0.772299        1.084134   1.000000   0.073826
    235         -0.761678        1.111961   1.000000   0.010091
    236         -0.731885        1.119542   1.000000  -0.001755
    237         -0.706388        1.153730   1.000000  -0.031438
    238         -0.685922        1.173461   1.000000  -0.035421
    239         -0.670366        1.203558   1.000000  -0.031397
    240         -0.652543        1.236242   1.000000  -0.021776
    241         -0.620363        1.254835   1.000000  -0.016345
    242         -0.605215        1.271899   1.000000  -0.012037
    243         -0.593234        1.288320   1.000000  -0.008655
    244         -0.574501        1.312340   1.000000  -0.005040
    245         -0.555006        1.352884   1.000000  -0.001747
    246         -0.545991        1.362286   1.000000  -0.001333
    247         -0.525272        1.384523   1.000000  -0.000677
    248         -0.521939        1.396545   1.000000  -0.000460
    249         -0.500478        1.418855   1.000000  -0.000216
    250         -0.489429        1.437463   1.000000  -0.000111
    251         -0.478493        1.456498   1.000000  -0.000054
    252         -0.466226        1.500805   1.000000  -0.000009
    253         -0.457803        1.524658   1.000000  -0.000003
    254         -0.447381        1.553319   1.000000  -0.000001
    255         -0.440162        1.564725   1.000000  -0.000000
    256         -0.416009        1.577949   1.000000  -0.000000
    257         -0.411309        1.600242   1.000000  -0.000000
    258         -0.401199        1.620994   1.000000  -0.000000
    259         -0.388099        1.637368   1.000000  -0.000000
    260         -0.378745        1.664076   1.000000  -0.000000
    261         -0.362754        1.678582   1.000000  -0.000000
    262         -0.353217        1.707808   1.000000  -0.000000
    263         -0.344025        1.719519   1.000000  -0.000000
    264         -0.335341        1.730840   1.000000  -0.000000
    265         -0.330848        1.739844   1.000000  -0.000000
    266         -0.320151        1.760164   1.000000  -0.000000
    267         -0.310442        1.766670   1.000000  -0.000000
    268         -0.300719        1.774214   1.000000  -0.000000
    269         -0.292301        1.796313   1.000000  -0.000000
    270         -0.276712        1.800333   1.000000  -0.000000
    271         -0.266951        1.819336   1.000000  -0.000000
    272         -0.257316        1.832837   1.000000  -0.000000
    273         -0.252451        1.855468   1.000000  -0.000000
    274         -0.236219        1.869916   1.000000  -0.000000
    275         -0.233200        1.874440   1.000000  -0.000000
    276         -0.223827        1.891618   1.000000  -0.000000
    277         -0.213843        1.903577   1.000000  -0.000000
    278         -0.198505        1.923545   1.000000  -0.000000
    279         -0.193682        1.939850   1.000000  -0.000000
    280         -0.181891        1.956624   1.000000  -0.000000
    281         -0.175533        1.973994   1.000000  -0.000000
    282         -0.165855        1.985464   1.000000  -0.000000
    283         -0.155436        1.992770   1.000000  -0.000000
    284         -0.147419        2.002702   1.000000  -0.000000
    285         -0.135163        2.011969   1.000000  -0.000000
    286         -0.120025        2.030777   1.000000  -0.000000
    287         -0.103014        2.047492   1.000000  -0.000000
    288         -0.084549        2.061353   1.000000  -0.000000
    289         -0.076039        2.069682   1.000000  -0.000000
    290         -0.058309        2.078101   1.000000  -0.000000
    291         -0.055658        2.087798   1.000000  -0.000000
    292         -0.042427        2.103025   1.000000  -0.000000
    293         -0.019075        2.114704   1.000000  -0.000000
    294         -0.011892        2.123735   1.000000  -0.000000
    295         -0.002430        2.130560   1.000000  -0.000000
    296          0.015685        2.139164   1.000000  -0.000000
    297          0.033055        2.149166   1.000000  -0.000000
    298          0.053419        2.170565   1.000000  -0.000000
    299          0.060299        2.177729   1.000000  -0.000000
    300          0.071802        2.190846   1.000000  -0.000000
    301          0.091054        2.205789   1.000000  -0.000000
    302          0.098606        2.215000   1.000000  -0.000000
    303          0.120110        2.219283   1.000000  -0.000000
    304          0.134144        2.237316   1.000000  -0.000000
    305          0.160026        2.248058   1.000000  -0.000000
    306          0.169875        2.252964   1.000000  -0.000000
    307          0.194256        2.262639   1.000000  -0.000000
    308          0.212192        2.267673   1.000000  -0.000000
    309          0.238706        2.290282   1.000000  -0.000000
    310          0.258101        2.293998   1.000000  -0.000000
    311          0.274141        2.299661   1.000000  -0.000000
    312          0.297941        2.318338   1.000000  -0.000000
    313          0.305303        2.329528   1.000000  -0.000000
    314          0.324112        2.343432   1.000000  -0.000000
    315          0.334875        2.353337   1.000000  -0.000000
    316          0.360063        2.357471   1.000000  -0.000000
    317          0.375336        2.369542   1.000000  -0.000000
    318          0.395351        2.377012   1.000000  -0.000000
    319          0.409312        2.396366   1.000000  -0.000000
    320          0.428791        2.402224   1.000001  -0.000000
    321          0.453267        2.419685   1.000002  -0.000000
    322          0.466745        2.426372   1.000004  -0.000000
    323          0.492226        2.441040   1.000013  -0.000000
    324          0.506395        2.452061   1.000023  -0.000000
    325          0.534664        2.456660   1.000071  -0.000000
    326          0.544375        2.473445   1.000102  -0.000000
    327          0.554490        2.476866   1.000147  -0.000000
    328          0.582302        2.486567   1.000387  -0.000000
    329          0.616568        2.499602   1.001142  -0.000000
    330          0.647717        2.504095   1.002748  -0.000000
    331          0.658068        2.512193   1.003597  -0.000000
    332          0.691616        2.521824   1.007921  -0.000000
    333          0.704749        2.534486   1.010410  -0.000000
    334          0.725154        2.540563   1.015241  -0.000000
    335          0.749744        2.543758   1.022359  -0.000000
    336          0.777578        2.554942   1.030634  -0.000000
    337          0.787952        2.566144   1.033110  -0.000000
    338          0.794804        2.575104   1.034353  -0.000000
    339          0.834248        2.587568   1.029713  -0.000000
    340          0.854456        2.598050   1.014271  -0.000000
    341          0.880586        2.600093   0.974008  -0.000000
    342          0.902509        2.611631   0.918616  -0.000000
    343          0.937012        2.617270   0.788523  -0.000000
    344          0.958246        2.630648   0.685414  -0.000000
    345          0.978343        2.634837   0.576936  -0.000000
    346          1.011987        2.649186   0.388575  -0.000000
    347          1.058147        2.651665   0.164193  -0.000000
    348          1.064396        2.655479   0.139746  -0.000000
    349          1.092590        2.670117   0.050920  -0.000000
    350          1.105288        2.685233   0.022388  -0.000000
    351          1.155943        2.689999  -0.032264  -0.000000
    352          1.173390        2.697088  -0.035419  -0.000000
    353          1.203066        2.708814  -0.031520  -0.000000
    354          1.212375        2.721316  -0.029014  -0.000000
    355          1.254359        2.729965  -0.016476  -0.000000
    356          1.277408        2.746414  -0.010816  -0.000000
    357          1.342622        2.762300  -0.002323  -0.000000
    358          1.363946        2.767160  -0.001269  -0.000000
    359          1.390965        2.784445  -0.000551  -0.000000
    360          1.426268        2.788652  -0.000166  -0.000000
    361          1.443596        2.800229  -0.000088  -0.000000
    362          1.473076        2.812921  -0.000028  -0.000000
    363          1.500332        2.822049  -0.000009  -0.000000
    364          1.538454        2.830941  -0.000002  -0.000000
    365          1.578125        2.847555  -0.000000  -0.000000
    366          1.612360        2.902516  -0.000000  -0.000000
    367          1.624312        2.910407  -0.000000  -0.000000
    368          1.654694        2.925912  -0.000000  -0.000000
    369          1.683626        2.960573  -0.000000  -0.000000
    370          1.720578        3.016560  -0.000000  -0.000000
    371          1.728391        3.043609  -0.000000  -0.000000
    372          1.788314        3.057671  -0.000000  -0.000000
    373          1.808764        3.086424  -0.000000  -0.000000
    374          1.822665        3.110546  -0.000000  -0.000000
    375          1.908914        3.134879  -0.000000  -0.000000
    376          1.923702        3.159414  -0.000000  -0.000000
 
 -0.1250000E+00  0.3750000E+00  0.0000000E+00  0.1250000E+00
      1        -42.904969      -43.153330   1.000000   1.000000
      2        -42.804717      -43.146265   1.000000   1.000000
      3        -42.780058      -43.114467   1.000000   1.000000
      4        -42.770010      -43.094761   1.000000   1.000000
      5        -42.739458      -43.089194   1.000000   1.000000
      6        -42.728146      -43.063983   1.000000   1.000000
      7        -42.678177      -43.009437   1.000000   1.000000
      8        -42.649643      -42.991708   1.000000   1.000000
      9        -42.620017      -42.972654   1.000000   1.000000
     10        -42.341427      -42.793155   1.000000   1.000000
     11        -42.340449      -42.785918   1.000000   1.000000
     12        -42.275685      -42.774718   1.000000   1.000000
     13        -42.197940      -42.759838   1.000000   1.000000
     14        -42.175735      -42.756386   1.000000   1.000000
     15        -42.167238      -42.722317   1.000000   1.000000
     16        -42.151131      -42.700486   1.000000   1.000000
     17        -42.107023      -42.662974   1.000000   1.000000
     18        -42.083991      -42.653651   1.000000   1.000000
     19        -41.998046      -42.637713   1.000000   1.000000
     20        -41.975404      -42.617740   1.000000   1.000000
     21        -41.961831      -42.523052   1.000000   1.000000
     22        -41.930669      -42.361715   1.000000   1.000000
     23        -41.908187      -42.134211   1.000000   1.000000
     24        -41.837371      -42.069487   1.000000   1.000000
     25        -41.813050      -42.021092   1.000000   1.000000
     26        -41.799468      -41.906750   1.000000   1.000000
     27        -41.765934      -41.884503   1.000000   1.000000
     28        -41.759055      -41.789253   1.000000   1.000000
     29        -41.756767      -41.757092   1.000000   1.000000
     30        -41.724490      -41.635495   1.000000   1.000000
     31        -41.680169      -41.516236   1.000000   1.000000
     32        -41.675716      -41.439648   1.000000   1.000000
     33        -41.670789      -41.359976   1.000000   1.000000
     34        -41.654629      -40.096198   1.000000   1.000000
     35        -41.650973      -39.987065   1.000000   1.000000
     36        -41.638273      -39.904940   1.000000   1.000000
     37        -41.635756      -39.879869   1.000000   1.000000
     38        -41.630284      -39.809656   1.000000   1.000000
     39        -41.604395      -39.678003   1.000000   1.000000
     40        -41.478655      -39.595097   1.000000   1.000000
     41        -41.472535      -39.536438   1.000000   1.000000
     42        -41.384242      -39.309485   1.000000   1.000000
     43        -15.424774      -15.466894   1.000000   1.000000
     44        -15.422759      -15.457583   1.000000   1.000000
     45        -15.412454      -15.454868   1.000000   1.000000
     46        -15.382554      -15.421649   1.000000   1.000000
     47        -15.364423      -15.413510   1.000000   1.000000
     48         -7.504694       -7.603047   1.000000   1.000000
     49         -6.774452       -6.654269   1.000000   1.000000
     50         -6.258208       -6.121797   1.000000   1.000000
     51         -5.802352       -5.647939   1.000000   1.000000
     52         -5.369436       -5.174064   1.000000   1.000000
     53         -5.303698       -5.128657   1.000000   1.000000
     54         -4.890063       -4.678697   1.000000   1.000000
     55         -4.573234       -4.299662   1.000000   1.000000
     56         -4.550194       -4.265387   1.000000   1.000000
     57         -4.501941       -4.232991   1.000000   1.000000
     58         -4.269295       -3.908412   1.000000   1.000000
     59         -4.219592       -3.870572   1.000000   1.000000
     60         -4.130122       -3.823808   1.000000   1.000000
     61         -4.000607       -3.565608   1.000000   1.000000
     62         -3.947653       -3.510360   1.000000   1.000000
     63         -3.902200       -3.263550   1.000000   1.000000
     64         -3.882925       -3.188589   1.000000   1.000000
     65         -3.791516       -3.129034   1.000000   1.000000
     66         -3.743293       -2.996884   1.000000   1.000000
     67         -3.708606       -2.969635   1.000000   1.000000
     68         -3.676474       -2.924757   1.000000   1.000000
     69         -3.657819       -2.888580   1.000000   1.000000
     70         -3.641917       -2.838723   1.000000   1.000000
     71         -3.625867       -2.816235   1.000000   1.000000
     72         -3.618084       -2.769841   1.000000   1.000000
     73         -3.589929       -2.741836   1.000000   1.000000
     74         -3.554079       -2.692998   1.000000   1.000000
     75         -3.487087       -2.637118   1.000000   1.000000
     76         -3.454290       -2.535671   1.000000   1.000000
     77         -3.441493       -2.480374   1.000000   1.000000
     78         -3.410554       -2.444920   1.000000   1.000000
     79         -3.387266       -2.431122   1.000000   1.000000
     80         -3.373420       -2.355778   1.000000   1.000000
     81         -3.361813       -2.312994   1.000000   1.000000
     82         -3.319128       -2.279238   1.000000   1.000000
     83         -3.292389       -2.219917   1.000000   1.000000
     84         -3.274994       -2.172862   1.000000   1.000000
     85         -3.204663       -2.148659   1.000000   1.000000
     86         -3.182840       -2.134710   1.000000   1.000000
     87         -3.150106       -2.105470   1.000000   1.000000
     88         -3.136650       -2.078031   1.000000   1.000000
     89         -3.124089       -2.053605   1.000000   1.000000
     90         -3.107477       -2.036700   1.000000   1.000000
     91         -3.104312       -1.996951   1.000000   1.000000
     92         -3.088526       -1.962504   1.000000   1.000000
     93         -3.079631       -1.941571   1.000000   1.000000
     94         -3.070331       -1.916679   1.000000   1.000000
     95         -3.052140       -1.890879   1.000000   1.000000
     96         -3.044249       -1.883141   1.000000   1.000000
     97         -3.025997       -1.870210   1.000000   1.000000
     98         -2.987439       -1.820043   1.000000   1.000000
     99         -2.981769       -1.790050   1.000000   1.000000
    100         -2.966663       -1.766387   1.000000   1.000000
    101         -2.940950       -1.742284   1.000000   1.000000
    102         -2.917747       -1.710839   1.000000   1.000000
    103         -2.906708       -1.677551   1.000000   1.000000
    104         -2.877025       -1.666827   1.000000   1.000000
    105         -2.857228       -1.640646   1.000000   1.000000
    106         -2.835609       -1.576627   1.000000   1.000000
    107         -2.796994       -1.560034   1.000000   1.000000
    108         -2.762850       -1.520690   1.000000   1.000000
    109         -2.740373       -1.497868   1.000000   1.000000
    110         -2.714491       -1.479886   1.000000   1.000000
    111         -2.706668       -1.448398   1.000000   1.000000
    112         -2.698742       -1.424580   1.000000   1.000000
    113         -2.648587       -1.384020   1.000000   1.000000
    114         -2.641412       -1.363811   1.000000   1.000000
    115         -2.613915       -1.332588   1.000000   1.000000
    116         -2.609441       -1.318783   1.000000   1.000000
    117         -2.595574       -1.261878   1.000000   1.000000
    118         -2.567817       -1.210646   1.000000   1.000000
    119         -2.564200       -1.194601   1.000000   1.000000
    120         -2.544869       -1.161320   1.000000   1.000000
    121         -2.522910       -1.153362   1.000000   1.000000
    122         -2.512674       -1.130302   1.000000   1.000000
    123         -2.493141       -1.113786   1.000000   1.000000
    124         -2.472770       -1.086483   1.000000   1.000000
    125         -2.458171       -1.069536   1.000000   1.000000
    126         -2.451330       -1.050662   1.000000   1.000000
    127         -2.435383       -1.040374   1.000000   1.000000
    128         -2.419215       -1.018551   1.000000   1.000000
    129         -2.409319       -1.007470   1.000000   1.000000
    130         -2.403077       -0.992994   1.000000   1.000000
    131         -2.391452       -0.978553   1.000000   1.000000
    132         -2.368779       -0.952862   1.000000   1.000000
    133         -2.351971       -0.945254   1.000000   1.000000
    134         -2.346116       -0.932247   1.000000   1.000000
    135         -2.339206       -0.919677   1.000000   1.000000
    136         -2.326010       -0.886159   1.000000   1.000000
    137         -2.313351       -0.844024   1.000000   1.000000
    138         -2.297235       -0.836768   1.000000   1.000000
    139         -2.283806       -0.829378   1.000000   1.000000
    140         -2.271385       -0.802032   1.000000   1.000000
    141         -2.261321       -0.775564   1.000000   1.000000
    142         -2.248539       -0.754101   1.000000   1.000000
    143         -2.236716       -0.747297   1.000000   1.000000
    144         -2.212128       -0.728309   1.000000   1.000000
    145         -2.192383       -0.717976   1.000000   1.000000
    146         -2.163503       -0.701568   1.000000   1.000000
    147         -2.155679       -0.688272   1.000000   1.000000
    148         -2.144265       -0.672051   1.000000   1.000000
    149         -2.129035       -0.657228   1.000000   1.000000
    150         -2.121483       -0.640570   1.000000   1.000000
    151         -2.106766       -0.617622   1.000000   1.000000
    152         -2.086869       -0.594588   1.000000   1.000000
    153         -2.078870       -0.575506   1.000000   1.000000
    154         -2.069778       -0.564302   1.000000   1.000000
    155         -2.052934       -0.555985   1.000000   1.000000
    156         -2.035805       -0.530627   1.000000   1.000000
    157         -2.014781       -0.517697   1.000000   1.000000
    158         -2.008870       -0.498920   1.000000   1.000000
    159         -1.988258       -0.486972   1.000000   1.000000
    160         -1.983794       -0.475233   1.000000   1.000000
    161         -1.968078       -0.460246   1.000000   1.000000
    162         -1.949692       -0.449385   1.000000   1.000000
    163         -1.936073       -0.420252   1.000000   1.000000
    164         -1.925412       -0.412579   1.000000   1.000000
    165         -1.913303       -0.393456   1.000000   1.000000
    166         -1.900925       -0.381395   1.000000   1.000000
    167         -1.892015       -0.374763   1.000000   1.000000
    168         -1.878791       -0.358587   1.000000   1.000000
    169         -1.866138       -0.345578   1.000000   1.000000
    170         -1.850724       -0.327355   1.000000   1.000000
    171         -1.831779       -0.321963   1.000000   1.000000
    172         -1.825696       -0.305908   1.000000   1.000000
    173         -1.803450       -0.285624   1.000000   1.000000
    174         -1.786013       -0.265714   1.000000   1.000000
    175         -1.775318       -0.245861   1.000000   1.000000
    176         -1.759713       -0.226067   1.000000   1.000000
    177         -1.749120       -0.210746   1.000000   1.000000
    178         -1.736551       -0.203463   1.000000   1.000000
    179         -1.712132       -0.183054   1.000000   1.000000
    180         -1.706979       -0.172435   1.000000   1.000000
    181         -1.693896       -0.162602   1.000000   1.000000
    182         -1.672611       -0.139245   1.000000   1.000000
    183         -1.665724       -0.129248   1.000000   1.000000
    184         -1.642591       -0.118659   1.000000   1.000000
    185         -1.639168       -0.101482   1.000000   1.000000
    186         -1.624444       -0.092969   1.000000   1.000000
    187         -1.611230       -0.068754   1.000000   1.000000
    188         -1.586915       -0.058346   1.000000   1.000000
    189         -1.574550       -0.036018   1.000000   1.000000
    190         -1.558512       -0.021192   1.000000   1.000000
    191         -1.550880       -0.005538   1.000000   1.000000
    192         -1.541906        0.007337   1.000000   1.000000
    193         -1.514344        0.014269   1.000000   1.000000
    194         -1.508842        0.039953   1.000000   1.000000
    195         -1.487838        0.054128   1.000000   1.000000
    196         -1.485147        0.067279   1.000000   1.000000
    197         -1.470622        0.093950   1.000000   1.000000
    198         -1.454653        0.117496   1.000000   1.000000
    199         -1.433758        0.131284   1.000000   1.000000
    200         -1.423617        0.140088   1.000000   1.000000
    201         -1.402543        0.163856   1.000000   1.000000
    202         -1.389886        0.178923   1.000000   1.000000
    203         -1.382837        0.185325   1.000000   1.000000
    204         -1.367639        0.208539   1.000000   1.000000
    205         -1.354181        0.246019   1.000000   1.000000
    206         -1.345743        0.265133   1.000000   1.000000
    207         -1.332694        0.297247   1.000000   1.000000
    208         -1.308866        0.312842   1.000000   1.000000
    209         -1.294774        0.352751   1.000000   1.000000
    210         -1.285478        0.386560   1.000000   1.000000
    211         -1.272645        0.409098   1.000000   1.000000
    212         -1.260960        0.431088   1.000000   1.000001
    213         -1.242338        0.474938   1.000000   1.000006
    214         -1.215742        0.516482   1.000000   1.000035
    215         -1.174316        0.597219   1.000000   1.000629
    216         -1.153940        0.607833   1.000000   1.000876
    217         -1.141572        0.642569   1.000000   1.002394
    218         -1.131145        0.694960   1.000000   1.008509
    219         -1.126044        0.700087   1.000000   1.009470
    220         -1.094322        0.738248   1.000000   1.018899
    221         -1.071255        0.765361   1.000000   1.027149
    222         -1.055857        0.790507   1.000000   1.033616
    223         -1.048354        0.816202   1.000000   1.035002
    224         -1.019551        0.835985   1.000000   1.028826
    225         -0.991202        0.866809   1.000000   0.998444
    226         -0.969424        0.921307   1.000000   0.854088
    227         -0.955301        0.962632   1.000000   0.662448
    228         -0.915142        0.978697   1.000000   0.574965
    229         -0.902985        1.001324   1.000000   0.447750
    230         -0.887582        1.013817   1.000000   0.378579
    231         -0.860098        1.046039   1.000000   0.216142
    232         -0.847482        1.056408   1.000000   0.171288
    233         -0.823052        1.077644   1.000000   0.093580
    234         -0.794792        1.122706   1.000000  -0.006066
    235         -0.772651        1.133830   1.000000  -0.018472
    236         -0.759051        1.143256   1.000000  -0.025947
    237         -0.736380        1.152294   1.000000  -0.030843
    238         -0.716644        1.197262   1.000000  -0.032871
    239         -0.710107        1.209400   1.000000  -0.029851
    240         -0.689473        1.241345   1.000000  -0.020231
    241         -0.663212        1.250896   1.000000  -0.017442
    242         -0.648227        1.264815   1.000000  -0.013731
    243         -0.625297        1.295208   1.000000  -0.007463
    244         -0.605325        1.322485   1.000000  -0.003932
    245         -0.591386        1.356745   1.000000  -0.001565
    246         -0.587125        1.369745   1.000000  -0.001068
    247         -0.570872        1.396375   1.000000  -0.000463
    248         -0.554584        1.427155   1.000000  -0.000161
    249         -0.529250        1.441082   1.000000  -0.000097
    250         -0.522189        1.462170   1.000000  -0.000043
    251         -0.515465        1.489279   1.000000  -0.000014
    252         -0.498930        1.512411   1.000000  -0.000005
    253         -0.487238        1.543926   1.000000  -0.000001
    254         -0.477635        1.549748   1.000000  -0.000001
    255         -0.469388        1.585976   1.000000  -0.000000
    256         -0.456082        1.601589   1.000000  -0.000000
    257         -0.441538        1.609912   1.000000  -0.000000
    258         -0.435031        1.636903   1.000000  -0.000000
    259         -0.418189        1.642848   1.000000  -0.000000
    260         -0.405671        1.655255   1.000000  -0.000000
    261         -0.397705        1.687701   1.000000  -0.000000
    262         -0.383771        1.692414   1.000000  -0.000000
    263         -0.361790        1.712158   1.000000  -0.000000
    264         -0.354575        1.715665   1.000000  -0.000000
    265         -0.341788        1.740670   1.000000  -0.000000
    266         -0.338556        1.747041   1.000000  -0.000000
    267         -0.325581        1.770698   1.000000  -0.000000
    268         -0.316520        1.776405   1.000000  -0.000000
    269         -0.305974        1.783530   1.000000  -0.000000
    270         -0.294729        1.802617   1.000000  -0.000000
    271         -0.285871        1.817130   1.000000  -0.000000
    272         -0.271952        1.840326   1.000000  -0.000000
    273         -0.260643        1.845692   1.000000  -0.000000
    274         -0.255538        1.861839   1.000000  -0.000000
    275         -0.245186        1.870770   1.000000  -0.000000
    276         -0.231459        1.876059   1.000000  -0.000000
    277         -0.225295        1.891164   1.000000  -0.000000
    278         -0.217394        1.901908   1.000000  -0.000000
    279         -0.206525        1.918069   1.000000  -0.000000
    280         -0.195190        1.932934   1.000000  -0.000000
    281         -0.178315        1.940808   1.000000  -0.000000
    282         -0.175465        1.955774   1.000000  -0.000000
    283         -0.167860        1.967913   1.000000  -0.000000
    284         -0.151573        1.981982   1.000000  -0.000000
    285         -0.138880        1.991525   1.000000  -0.000000
    286         -0.128718        1.996620   1.000000  -0.000000
    287         -0.114384        2.013979   1.000000  -0.000000
    288         -0.095786        2.023760   1.000000  -0.000000
    289         -0.087886        2.030413   1.000000  -0.000000
    290         -0.078451        2.040607   1.000000  -0.000000
    291         -0.063931        2.063665   1.000000  -0.000000
    292         -0.051774        2.068997   1.000000  -0.000000
    293         -0.041940        2.083048   1.000000  -0.000000
    294         -0.022834        2.098980   1.000000  -0.000000
    295         -0.007360        2.106997   1.000000  -0.000000
    296          0.001832        2.112829   1.000000  -0.000000
    297          0.017590        2.124236   1.000000  -0.000000
    298          0.037851        2.138915   1.000000  -0.000000
    299          0.043188        2.147899   1.000000  -0.000000
    300          0.055562        2.159599   1.000000  -0.000000
    301          0.072986        2.168411   1.000000  -0.000000
    302          0.094637        2.173545   1.000000  -0.000000
    303          0.111542        2.191248   1.000000  -0.000000
    304          0.133544        2.201103   1.000000  -0.000000
    305          0.142449        2.218493   1.000000  -0.000000
    306          0.161684        2.230418   1.000000  -0.000000
    307          0.185640        2.236940   1.000000  -0.000000
    308          0.199599        2.241450   1.000000  -0.000000
    309          0.221366        2.250324   1.000000  -0.000000
    310          0.235370        2.260080   1.000000  -0.000000
    311          0.254579        2.288910   1.000000  -0.000000
    312          0.273593        2.299771   1.000000  -0.000000
    313          0.309859        2.310483   1.000000  -0.000000
    314          0.330110        2.327619   1.000000  -0.000000
    315          0.345155        2.341089   1.000000  -0.000000
    316          0.351397        2.355652   1.000000  -0.000000
    317          0.377097        2.358958   1.000000  -0.000000
    318          0.389170        2.374985   1.000000  -0.000000
    319          0.406483        2.379325   1.000000  -0.000000
    320          0.445884        2.403959   1.000002  -0.000000
    321          0.455694        2.412570   1.000003  -0.000000
    322          0.464358        2.419845   1.000004  -0.000000
    323          0.486541        2.442536   1.000010  -0.000000
    324          0.511634        2.452716   1.000029  -0.000000
    325          0.533519        2.459609   1.000068  -0.000000
    326          0.550810        2.460877   1.000129  -0.000000
    327          0.567175        2.478274   1.000231  -0.000000
    328          0.596929        2.484525   1.000623  -0.000000
    329          0.623517        2.492168   1.001401  -0.000000
    330          0.654584        2.512031   1.003290  -0.000000
    331          0.669456        2.516642   1.004770  -0.000000
    332          0.680022        2.529121   1.006118  -0.000000
    333          0.703819        2.538005   1.010217  -0.000000
    334          0.719848        2.544192   1.013875  -0.000000
    335          0.741291        2.556791   1.019798  -0.000000
    336          0.765265        2.574107   1.027120  -0.000000
    337          0.782420        2.577404   1.031864  -0.000000
    338          0.810403        2.583624   1.035428  -0.000000
    339          0.838192        2.594566   1.027590  -0.000000
    340          0.853191        2.602908   1.015596  -0.000000
    341          0.863267        2.607775   1.003537  -0.000000
    342          0.884865        2.616544   0.964840  -0.000000
    343          0.914635        2.625204   0.878785  -0.000000
    344          0.947397        2.630073   0.739941  -0.000000
    345          0.968283        2.639442   0.632202  -0.000000
    346          0.999113        2.652837   0.460159  -0.000000
    347          1.014709        2.660148   0.373728  -0.000000
    348          1.066188        2.670310   0.133047  -0.000000
    349          1.084411        2.684619   0.073027  -0.000000
    350          1.111943        2.694238   0.010122  -0.000000
    351          1.153485        2.711591  -0.031340  -0.000000
    352          1.161583        2.719510  -0.033899  -0.000000
    353          1.195548        2.730641  -0.033230  -0.000000
    354          1.208353        2.742159  -0.030139  -0.000000
    355          1.280741        2.757726  -0.010120  -0.000000
    356          1.313102        2.767280  -0.004949  -0.000000
    357          1.321393        2.779709  -0.004041  -0.000000
    358          1.352234        2.786625  -0.001779  -0.000000
    359          1.392624        2.798763  -0.000523  -0.000000
    360          1.437372        2.820489  -0.000111  -0.000000
    361          1.449774        2.834171  -0.000070  -0.000000
    362          1.481977        2.843535  -0.000020  -0.000000
    363          1.514086        2.852597  -0.000005  -0.000000
    364          1.552867        2.867377  -0.000001  -0.000000
    365          1.575228        2.893495  -0.000000  -0.000000
    366          1.607073        2.906598  -0.000000  -0.000000
    367          1.621379        2.922042  -0.000000  -0.000000
    368          1.655804        2.948574  -0.000000  -0.000000
    369          1.682640        2.968043  -0.000000  -0.000000
    370          1.692820        2.982013  -0.000000  -0.000000
    371          1.720069        3.009928  -0.000000  -0.000000
    372          1.778780        3.030080  -0.000000  -0.000000
    373          1.806046        3.046043  -0.000000  -0.000000
    374          1.833192        3.064382  -0.000000  -0.000000
    375          1.871791        3.091109  -0.000000  -0.000000
    376          1.906357        3.117077  -0.000000  -0.000000
