ni3al                                   
           1
     8.539300    0.000000    0.000000
     0.013525    8.505890    0.000000
     0.000000    0.000000   23.533899
   Cr   Fe   Pb
    14    49     1
Direct configuration=     1
   0.00218000  0.99867000  0.24166000
   0.00302000  0.33361000  0.00057000
   0.99110308  0.32778328  0.36966880
   0.16217000  0.49431000  0.05981000
   0.16492000  0.83554000  0.06027000
   0.50316338  0.49496483  0.30313815
   0.50447000  0.49654000  0.06032000
   0.50514000  0.16237000  0.18167000
   0.66136000  0.00065000  0.24022000
   0.66603000  0.99799000  0.00047000
   0.66951109  0.00455301  0.36645936
   0.65989000  0.33950000  0.00031000
   0.65833908  0.33728267  0.36484404
   0.66352000  0.99935000  0.12162000
   0.16673121  0.16375856  0.30247548
   0.99997000  0.33205000  0.24166000
   0.16592402  0.49758262  0.30363381
   0.00013000  0.66493000  0.24143000
   0.16843050  0.83006488  0.30451941
   0.99854000  0.00048000  0.00000000
   0.98771846  0.00688162  0.35874087
   0.16550000  0.16500000  0.06050000
   0.00106000  0.66662000  0.00057000
   0.98895034  0.65639998  0.36131786
   0.99930000  0.99936000  0.12074000
   0.16685000  0.16538000  0.18105000
   0.99936000  0.33161000  0.12083000
   0.16544000  0.49812000  0.18093000
   0.00040000  0.66536000  0.12057000
   0.16627000  0.83203000  0.18103000
   0.33360000  0.99731000  0.24116000
   0.49860155  0.16532664  0.30051346
   0.33251000  0.33244000  0.24115000
   0.33243000  0.66411000  0.24135000
   0.50004692  0.83142024  0.30282782
   0.33406000  0.99850000  0.00062000
   0.34639537  0.00531525  0.36057476
   0.50112000  0.16466000  0.06049000
   0.33306000  0.33260000  0.00065000
   0.32639915  0.32707934  0.36171789
   0.33279000  0.66191000  0.00103000
   0.33831650  0.65776853  0.36164687
   0.50000000  0.83116000  0.06060000
   0.33336000  0.99854000  0.12089000
   0.33259000  0.33282000  0.12015000
   0.49958000  0.49779000  0.18076000
   0.33192000  0.66330000  0.12025000
   0.49972000  0.83017000  0.18081000
   0.83042195  0.16510852  0.29884760
   0.66532000  0.33232000  0.24137000
   0.83262354  0.49941529  0.30094942
   0.66623000  0.66534000  0.24124000
   0.83313211  0.83245008  0.30110674
   0.83178000  0.16609000  0.06006000
   0.83424000  0.49924000  0.06020000
   0.66675000  0.66697000  0.00034000
   0.67135432  0.67061822  0.36088603
   0.83291000  0.83387000  0.06067000
   0.83469000  0.16589000  0.18162000
   0.66681000  0.33159000  0.12072000
   0.83279000  0.49851000  0.18135000
   0.66709000  0.66502000  0.12081000
   0.83337000  0.83396000  0.18143000
   0.16166766  0.83771733  0.43625909
Direct configuration=     2
   0.00218000  0.99867000  0.24166000
   0.00302000  0.33361000  0.00057000
   0.98894275  0.32728470  0.36650777
   0.16217000  0.49431000  0.05981000
   0.16492000  0.83554000  0.06027000
   0.50491579  0.49308048  0.30390963
   0.50447000  0.49654000  0.06032000
   0.50514000  0.16237000  0.18167000
   0.66136000  0.00065000  0.24022000
   0.66603000  0.99799000  0.00047000
   0.66980550  0.00682689  0.36366066
   0.65989000  0.33950000  0.00031000
   0.65929696  0.33644756  0.36209646
   0.66352000  0.99935000  0.12162000
   0.16565214  0.16509239  0.30290809
   0.99997000  0.33205000  0.24166000
   0.16439715  0.49621298  0.30430474
   0.00013000  0.66493000  0.24143000
   0.16791741  0.83038468  0.30453582
   0.99854000  0.00048000  0.00000000
   0.98602156  0.00920263  0.35934562
   0.16550000  0.16500000  0.06050000
   0.00106000  0.66662000  0.00057000
   0.98845254  0.65397008  0.36153748
   0.99930000  0.99936000  0.12074000
   0.16685000  0.16538000  0.18105000
   0.99936000  0.33161000  0.12083000
   0.16544000  0.49812000  0.18093000
   0.00040000  0.66536000  0.12057000
   0.16627000  0.83203000  0.18103000
   0.33360000  0.99731000  0.24116000
   0.50171753  0.16608887  0.30192310
   0.33251000  0.33244000  0.24115000
   0.33243000  0.66411000  0.24135000
   0.50160623  0.83298150  0.30338695
   0.33406000  0.99850000  0.00062000
   0.34829216  0.00607288  0.36085653
   0.50112000  0.16466000  0.06049000
   0.33306000  0.33260000  0.00065000
   0.32682621  0.32630135  0.36175721
   0.33279000  0.66191000  0.00103000
   0.33897574  0.65707877  0.36150224
   0.50000000  0.83116000  0.06060000
   0.33336000  0.99854000  0.12089000
   0.33259000  0.33282000  0.12015000
   0.49958000  0.49779000  0.18076000
   0.33192000  0.66330000  0.12025000
   0.49972000  0.83017000  0.18081000
   0.82882858  0.16645187  0.30075474
   0.66532000  0.33232000  0.24137000
   0.83223204  0.49630032  0.30239705
   0.66623000  0.66534000  0.24124000
   0.83170038  0.83373275  0.30152479
   0.83178000  0.16609000  0.06006000
   0.83424000  0.49924000  0.06020000
   0.66675000  0.66697000  0.00034000
   0.67201896  0.67035437  0.36098562
   0.83291000  0.83387000  0.06067000
   0.83469000  0.16589000  0.18162000
   0.66681000  0.33159000  0.12072000
   0.83279000  0.49851000  0.18135000
   0.66709000  0.66502000  0.12081000
   0.83337000  0.83396000  0.18143000
   0.16140650  0.83808585  0.43624687
Direct configuration=     3
   0.00218000  0.99867000  0.24166000
   0.00302000  0.33361000  0.00057000
   0.98639047  0.32669565  0.36277325
   0.16217000  0.49431000  0.05981000
   0.16492000  0.83554000  0.06027000
   0.50698614  0.49085426  0.30482107
   0.50447000  0.49654000  0.06032000
   0.50514000  0.16237000  0.18167000
   0.66136000  0.00065000  0.24022000
   0.66603000  0.99799000  0.00047000
   0.67015331  0.00951332  0.36035420
   0.65989000  0.33950000  0.00031000
   0.66042862  0.33546095  0.35885038
   0.66352000  0.99935000  0.12162000
   0.16437729  0.16666822  0.30341918
   0.99997000  0.33205000  0.24166000
   0.16259327  0.49459484  0.30509739
   0.00013000  0.66493000  0.24143000
   0.16731122  0.83076251  0.30455520
   0.99854000  0.00048000  0.00000000
   0.98401680  0.01194474  0.36006009
   0.16550000  0.16500000  0.06050000
   0.00106000  0.66662000  0.00057000
   0.98786444  0.65109933  0.36179695
   0.99930000  0.99936000  0.12074000
   0.16685000  0.16538000  0.18105000
   0.99936000  0.33161000  0.12083000
   0.16544000  0.49812000  0.18093000
   0.00040000  0.66536000  0.12057000
   0.16627000  0.83203000  0.18103000
   0.33360000  0.99731000  0.24116000
   0.50539884  0.16698940  0.30358849
   0.33251000  0.33244000  0.24115000
   0.33243000  0.66411000  0.24135000
   0.50344843  0.83482601  0.30404752
   0.33406000  0.99850000  0.00062000
   0.35053308  0.00696796  0.36118942
   0.50112000  0.16466000  0.06049000
   0.33306000  0.33260000  0.00065000
   0.32733074  0.32538221  0.36180367
   0.33279000  0.66191000  0.00103000
   0.33975459  0.65626387  0.36133138
   0.50000000  0.83116000  0.06060000
   0.33336000  0.99854000  0.12089000
   0.33259000  0.33282000  0.12015000
   0.49958000  0.49779000  0.18076000
   0.33192000  0.66330000  0.12025000
   0.49972000  0.83017000  0.18081000
   0.82694613  0.16803894  0.30300790
   0.66532000  0.33232000  0.24137000
   0.83176952  0.49262019  0.30410733
   0.66623000  0.66534000  0.24124000
   0.83000889  0.83524814  0.30201869
   0.83178000  0.16609000  0.06006000
   0.83424000  0.49924000  0.06020000
   0.66675000  0.66697000  0.00034000
   0.67280418  0.67004264  0.36110329
   0.83291000  0.83387000  0.06067000
   0.83469000  0.16589000  0.18162000
   0.66681000  0.33159000  0.12072000
   0.83279000  0.49851000  0.18135000
   0.66709000  0.66502000  0.12081000
   0.83337000  0.83396000  0.18143000
   0.16109796  0.83852122  0.43623245
Direct configuration=     4
   0.00218000  0.99867000  0.24166000
   0.00302000  0.33361000  0.00057000
   0.98684467  0.32680048  0.36343783
   0.16217000  0.49431000  0.05981000
   0.16492000  0.83554000  0.06027000
   0.50661771  0.49125043  0.30465887
   0.50447000  0.49654000  0.06032000
   0.50514000  0.16237000  0.18167000
   0.66136000  0.00065000  0.24022000
   0.66603000  0.99799000  0.00047000
   0.67009142  0.00903525  0.36094261
   0.65989000  0.33950000  0.00031000
   0.66022723  0.33563653  0.35942805
   0.66352000  0.99935000  0.12162000
   0.16460416  0.16638779  0.30332823
   0.99997000  0.33205000  0.24166000
   0.16291428  0.49488280  0.30495633
   0.00013000  0.66493000  0.24143000
   0.16741909  0.83069527  0.30455175
   0.99854000  0.00048000  0.00000000
   0.98437356  0.01145676  0.35993294
   0.16550000  0.16500000  0.06050000
   0.00106000  0.66662000  0.00057000
   0.98796910  0.65161020  0.36175078
   0.99930000  0.99936000  0.12074000
   0.16685000  0.16538000  0.18105000
   0.99936000  0.33161000  0.12083000
   0.16544000  0.49812000  0.18093000
   0.00040000  0.66536000  0.12057000
   0.16627000  0.83203000  0.18103000
   0.33360000  0.99731000  0.24116000
   0.50474373  0.16682915  0.30329212
   0.33251000  0.33244000  0.24115000
   0.33243000  0.66411000  0.24135000
   0.50312060  0.83449776  0.30392997
   0.33406000  0.99850000  0.00062000
   0.35013430  0.00680867  0.36113018
   0.50112000  0.16466000  0.06049000
   0.33306000  0.33260000  0.00065000
   0.32724096  0.32554578  0.36179540
   0.33279000  0.66191000  0.00103000
   0.33961599  0.65640889  0.36136178
   0.50000000  0.83116000  0.06060000
   0.33336000  0.99854000  0.12089000
   0.33259000  0.33282000  0.12015000
   0.49958000  0.49779000  0.18076000
   0.33192000  0.66330000  0.12025000
   0.49972000  0.83017000  0.18081000
   0.82728113  0.16775651  0.30260694
   0.66532000  0.33232000  0.24137000
   0.83185182  0.49327510  0.30380297
   0.66623000  0.66534000  0.24124000
   0.83030990  0.83497846  0.30193080
   0.83178000  0.16609000  0.06006000
   0.83424000  0.49924000  0.06020000
   0.66675000  0.66697000  0.00034000
   0.67266445  0.67009812  0.36108235
   0.83291000  0.83387000  0.06067000
   0.83469000  0.16589000  0.18162000
   0.66681000  0.33159000  0.12072000
   0.83279000  0.49851000  0.18135000
   0.66709000  0.66502000  0.12081000
   0.83337000  0.83396000  0.18143000
   0.16115287  0.83844374  0.43623501
Direct configuration=     5
   0.00218000  0.99867000  0.24166000
   0.00302000  0.33361000  0.00057000
   0.98701918  0.32684075  0.36369317
   0.16217000  0.49431000  0.05981000
   0.16492000  0.83554000  0.06027000
   0.50647615  0.49140264  0.30459655
   0.50447000  0.49654000  0.06032000
   0.50514000  0.16237000  0.18167000
   0.66136000  0.00065000  0.24022000
   0.66603000  0.99799000  0.00047000
   0.67006764  0.00885157  0.36116868
   0.65989000  0.33950000  0.00031000
   0.66014986  0.33570398  0.35964999
   0.66352000  0.99935000  0.12162000
   0.16469133  0.16628005  0.30329329
   0.99997000  0.33205000  0.24166000
   0.16303762  0.49499344  0.30490213
   0.00013000  0.66493000  0.24143000
   0.16746054  0.83066944  0.30455043
   0.99854000  0.00048000  0.00000000
   0.98451063  0.01126927  0.35988409
   0.16550000  0.16500000  0.06050000
   0.00106000  0.66662000  0.00057000
   0.98800931  0.65180648  0.36173304
   0.99930000  0.99936000  0.12074000
   0.16685000  0.16538000  0.18105000
   0.99936000  0.33161000  0.12083000
   0.16544000  0.49812000  0.18093000
   0.00040000  0.66536000  0.12057000
   0.16627000  0.83203000  0.18103000
   0.33360000  0.99731000  0.24116000
   0.50449202  0.16676757  0.30317826
   0.33251000  0.33244000  0.24115000
   0.33243000  0.66411000  0.24135000
   0.50299464  0.83437165  0.30388480
   0.33406000  0.99850000  0.00062000
   0.34998108  0.00674747  0.36110742
   0.50112000  0.16466000  0.06049000
   0.33306000  0.33260000  0.00065000
   0.32720646  0.32560863  0.36179222
   0.33279000  0.66191000  0.00103000
   0.33956273  0.65646460  0.36137347
   0.50000000  0.83116000  0.06060000
   0.33336000  0.99854000  0.12089000
   0.33259000  0.33282000  0.12015000
   0.49958000  0.49779000  0.18076000
   0.33192000  0.66330000  0.12025000
   0.49972000  0.83017000  0.18081000
   0.82740983  0.16764800  0.30245288
   0.66532000  0.33232000  0.24137000
   0.83188345  0.49352672  0.30368604
   0.66623000  0.66534000  0.24124000
   0.83042556  0.83487485  0.30189703
   0.83178000  0.16609000  0.06006000
   0.83424000  0.49924000  0.06020000
   0.66675000  0.66697000  0.00034000
   0.67261076  0.67011943  0.36107431
   0.83291000  0.83387000  0.06067000
   0.83469000  0.16589000  0.18162000
   0.66681000  0.33159000  0.12072000
   0.83279000  0.49851000  0.18135000
   0.66709000  0.66502000  0.12081000
   0.83337000  0.83396000  0.18143000
   0.16117396  0.83841397  0.43623600
Direct configuration=     6
   0.00218000  0.99867000  0.24166000
   0.00302000  0.33361000  0.00057000
   0.98605229  0.32636953  0.36154975
   0.16217000  0.49431000  0.05981000
   0.16492000  0.83554000  0.06027000
   0.50689926  0.49113307  0.30494012
   0.50447000  0.49654000  0.06032000
   0.50514000  0.16237000  0.18167000
   0.66136000  0.00065000  0.24022000
   0.66603000  0.99799000  0.00047000
   0.67059711  0.00856058  0.36152923
   0.65989000  0.33950000  0.00031000
   0.65971688  0.33634878  0.35825257
   0.66352000  0.99935000  0.12162000
   0.16482124  0.16577556  0.30340421
   0.99997000  0.33205000  0.24166000
   0.16291455  0.49484015  0.30495296
   0.00013000  0.66493000  0.24143000
   0.16722812  0.83097651  0.30489957
   0.99854000  0.00048000  0.00000000
   0.98522502  0.01214488  0.36021381
   0.16550000  0.16500000  0.06050000
   0.00106000  0.66662000  0.00057000
   0.98839224  0.65089840  0.36205700
   0.99930000  0.99936000  0.12074000
   0.16685000  0.16538000  0.18105000
   0.99936000  0.33161000  0.12083000
   0.16544000  0.49812000  0.18093000
   0.00040000  0.66536000  0.12057000
   0.16627000  0.83203000  0.18103000
   0.33360000  0.99731000  0.24116000
   0.50348848  0.16868814  0.30247820
   0.33251000  0.33244000  0.24115000
   0.33243000  0.66411000  0.24135000
   0.50184823  0.83348865  0.30346228
   0.33406000  0.99850000  0.00062000
   0.34945046  0.00695950  0.36119345
   0.50112000  0.16466000  0.06049000
   0.33306000  0.33260000  0.00065000
   0.32725889  0.32521933  0.36221703
   0.33279000  0.66191000  0.00103000
   0.33970117  0.65619557  0.36124773
   0.50000000  0.83116000  0.06060000
   0.33336000  0.99854000  0.12089000
   0.33259000  0.33282000  0.12015000
   0.49958000  0.49779000  0.18076000
   0.33192000  0.66330000  0.12025000
   0.49972000  0.83017000  0.18081000
   0.82832651  0.17031217  0.30216929
   0.66532000  0.33232000  0.24137000
   0.83163185  0.49285178  0.30358832
   0.66623000  0.66534000  0.24124000
   0.83195941  0.83416031  0.30162940
   0.83178000  0.16609000  0.06006000
   0.83424000  0.49924000  0.06020000
   0.66675000  0.66697000  0.00034000
   0.67315765  0.67021893  0.36126829
   0.83291000  0.83387000  0.06067000
   0.83469000  0.16589000  0.18162000
   0.66681000  0.33159000  0.12072000
   0.83279000  0.49851000  0.18135000
   0.66709000  0.66502000  0.12081000
   0.83337000  0.83396000  0.18143000
   0.16093382  0.83853202  0.43593409
Direct configuration=     7
   0.00218000  0.99867000  0.24166000
   0.00302000  0.33361000  0.00057000
   0.98536095  0.32603260  0.36001716
   0.16217000  0.49431000  0.05981000
   0.16492000  0.83554000  0.06027000
   0.50720179  0.49094032  0.30518577
   0.50447000  0.49654000  0.06032000
   0.50514000  0.16237000  0.18167000
   0.66136000  0.00065000  0.24022000
   0.66603000  0.99799000  0.00047000
   0.67097568  0.00835251  0.36178703
   0.65989000  0.33950000  0.00031000
   0.65940730  0.33680982  0.35725340
   0.66352000  0.99935000  0.12162000
   0.16491414  0.16541485  0.30348352
   0.99997000  0.33205000  0.24166000
   0.16282655  0.49473054  0.30498930
   0.00013000  0.66493000  0.24143000
   0.16706194  0.83119608  0.30514921
   0.99854000  0.00048000  0.00000000
   0.98573582  0.01277094  0.36044956
   0.16550000  0.16500000  0.06050000
   0.00106000  0.66662000  0.00057000
   0.98866605  0.65024911  0.36228863
   0.99930000  0.99936000  0.12074000
   0.16685000  0.16538000  0.18105000
   0.99936000  0.33161000  0.12083000
   0.16544000  0.49812000  0.18093000
   0.00040000  0.66536000  0.12057000
   0.16627000  0.83203000  0.18103000
   0.33360000  0.99731000  0.24116000
   0.50277093  0.17006137  0.30197765
   0.33251000  0.33244000  0.24115000
   0.33243000  0.66411000  0.24135000
   0.50102853  0.83285729  0.30316018
   0.33406000  0.99850000  0.00062000
   0.34907106  0.00711111  0.36125496
   0.50112000  0.16466000  0.06049000
   0.33306000  0.33260000  0.00065000
   0.32729637  0.32494097  0.36252077
   0.33279000  0.66191000  0.00103000
   0.33980016  0.65600320  0.36115782
   0.50000000  0.83116000  0.06060000
   0.33336000  0.99854000  0.12089000
   0.33259000  0.33282000  0.12015000
   0.49958000  0.49779000  0.18076000
   0.33192000  0.66330000  0.12025000
   0.49972000  0.83017000  0.18081000
   0.82898195  0.17221710  0.30196652
   0.66532000  0.33232000  0.24137000
   0.83145196  0.49236920  0.30351845
   0.66623000  0.66534000  0.24124000
   0.83305613  0.83364940  0.30143805
   0.83178000  0.16609000  0.06006000
   0.83424000  0.49924000  0.06020000
   0.66675000  0.66697000  0.00034000
   0.67354868  0.67029007  0.36140699
   0.83291000  0.83387000  0.06067000
   0.83469000  0.16589000  0.18162000
   0.66681000  0.33159000  0.12072000
   0.83279000  0.49851000  0.18135000
   0.66709000  0.66502000  0.12081000
   0.83337000  0.83396000  0.18143000
   0.16076211  0.83861642  0.43571821
Direct configuration=     8
   0.00218000  0.99867000  0.24166000
   0.00302000  0.33361000  0.00057000
   0.98592179  0.32551158  0.35945825
   0.16217000  0.49431000  0.05981000
   0.16492000  0.83554000  0.06027000
   0.50657616  0.49212753  0.30509898
   0.50447000  0.49654000  0.06032000
   0.50514000  0.16237000  0.18167000
   0.66136000  0.00065000  0.24022000
   0.66603000  0.99799000  0.00047000
   0.67113428  0.00719124  0.36330143
   0.65989000  0.33950000  0.00031000
   0.65762710  0.33829224  0.35660620
   0.66352000  0.99935000  0.12162000
   0.16612730  0.16399572  0.30315758
   0.99997000  0.33205000  0.24166000
   0.16406907  0.49557511  0.30454746
   0.00013000  0.66493000  0.24143000
   0.16680283  0.83122401  0.30552123
   0.99854000  0.00048000  0.00000000
   0.98723126  0.01295227  0.36024329
   0.16550000  0.16500000  0.06050000
   0.00106000  0.66662000  0.00057000
   0.98913058  0.65005393  0.36242633
   0.99930000  0.99936000  0.12074000
   0.16685000  0.16538000  0.18105000
   0.99936000  0.33161000  0.12083000
   0.16544000  0.49812000  0.18093000
   0.00040000  0.66536000  0.12057000
   0.16627000  0.83203000  0.18103000
   0.33360000  0.99731000  0.24116000
   0.49999017  0.17039948  0.30084989
   0.33251000  0.33244000  0.24115000
   0.33243000  0.66411000  0.24135000
   0.49984588  0.83166317  0.30256868
   0.33406000  0.99850000  0.00062000
   0.34814889  0.00739377  0.36109550
   0.50112000  0.16466000  0.06049000
   0.33306000  0.33260000  0.00065000
   0.32708558  0.32451319  0.36306048
   0.33279000  0.66191000  0.00103000
   0.33976839  0.65580511  0.36118186
   0.50000000  0.83116000  0.06060000
   0.33336000  0.99854000  0.12089000
   0.33259000  0.33282000  0.12015000
   0.49958000  0.49779000  0.18076000
   0.33192000  0.66330000  0.12025000
   0.49972000  0.83017000  0.18081000
   0.83043450  0.17245196  0.30061629
   0.66532000  0.33232000  0.24137000
   0.83090935  0.49497212  0.30243979
   0.66623000  0.66534000  0.24124000
   0.83520667  0.83246992  0.30109312
   0.83178000  0.16609000  0.06006000
   0.83424000  0.49924000  0.06020000
   0.66675000  0.66697000  0.00034000
   0.67389681  0.67091624  0.36155975
   0.83291000  0.83387000  0.06067000
   0.83469000  0.16589000  0.18162000
   0.66681000  0.33159000  0.12072000
   0.83279000  0.49851000  0.18135000
   0.66709000  0.66502000  0.12081000
   0.83337000  0.83396000  0.18143000
   0.16072869  0.83852983  0.43543756
Direct configuration=     9
   0.00218000  0.99867000  0.24166000
   0.00302000  0.33361000  0.00057000
   0.98620825  0.32524546  0.35917278
   0.16217000  0.49431000  0.05981000
   0.16492000  0.83554000  0.06027000
   0.50625660  0.49273392  0.30505466
   0.50447000  0.49654000  0.06032000
   0.50514000  0.16237000  0.18167000
   0.66136000  0.00065000  0.24022000
   0.66603000  0.99799000  0.00047000
   0.67121529  0.00659809  0.36407495
   0.65989000  0.33950000  0.00031000
   0.65671782  0.33904942  0.35627562
   0.66352000  0.99935000  0.12162000
   0.16674696  0.16327087  0.30299110
   0.99997000  0.33205000  0.24166000
   0.16470372  0.49600649  0.30432178
   0.00013000  0.66493000  0.24143000
   0.16667048  0.83123828  0.30571125
   0.99854000  0.00048000  0.00000000
   0.98799509  0.01304488  0.36013793
   0.16550000  0.16500000  0.06050000
   0.00106000  0.66662000  0.00057000
   0.98936786  0.64995424  0.36249666
   0.99930000  0.99936000  0.12074000
   0.16685000  0.16538000  0.18105000
   0.99936000  0.33161000  0.12083000
   0.16544000  0.49812000  0.18093000
   0.00040000  0.66536000  0.12057000
   0.16627000  0.83203000  0.18103000
   0.33360000  0.99731000  0.24116000
   0.49856983  0.17057218  0.30027386
   0.33251000  0.33244000  0.24115000
   0.33243000  0.66411000  0.24135000
   0.49924182  0.83105325  0.30226656
   0.33406000  0.99850000  0.00062000
   0.34767786  0.00753815  0.36101406
   0.50112000  0.16466000  0.06049000
   0.33306000  0.33260000  0.00065000
   0.32697792  0.32429469  0.36333615
   0.33279000  0.66191000  0.00103000
   0.33975217  0.65570394  0.36119414
   0.50000000  0.83116000  0.06060000
   0.33336000  0.99854000  0.12089000
   0.33259000  0.33282000  0.12015000
   0.49958000  0.49779000  0.18076000
   0.33192000  0.66330000  0.12025000
   0.49972000  0.83017000  0.18081000
   0.83117643  0.17257192  0.29992663
   0.66532000  0.33232000  0.24137000
   0.83063220  0.49630163  0.30188884
   0.66623000  0.66534000  0.24124000
   0.83630510  0.83186747  0.30091695
   0.83178000  0.16609000  0.06006000
   0.83424000  0.49924000  0.06020000
   0.66675000  0.66697000  0.00034000
   0.67407462  0.67123607  0.36163778
   0.83291000  0.83387000  0.06067000
   0.83469000  0.16589000  0.18162000
   0.66681000  0.33159000  0.12072000
   0.83279000  0.49851000  0.18135000
   0.66709000  0.66502000  0.12081000
   0.83337000  0.83396000  0.18143000
   0.16071163  0.83848561  0.43529421
Direct configuration=    10
   0.00218000  0.99867000  0.24166000
   0.00302000  0.33361000  0.00057000
   0.98733514  0.32542822  0.36003524
   0.16217000  0.49431000  0.05981000
   0.16492000  0.83554000  0.06027000
   0.50555371  0.49322682  0.30473615
   0.50447000  0.49654000  0.06032000
   0.50514000  0.16237000  0.18167000
   0.66136000  0.00065000  0.24022000
   0.66603000  0.99799000  0.00047000
   0.67076694  0.00683984  0.36477836
   0.65989000  0.33950000  0.00031000
   0.65536986  0.34039367  0.35589620
   0.66352000  0.99935000  0.12162000
   0.16712364  0.16363175  0.30261322
   0.99997000  0.33205000  0.24166000
   0.16523972  0.49611730  0.30412117
   0.00013000  0.66493000  0.24143000
   0.16681903  0.83078562  0.30557575
   0.99854000  0.00048000  0.00000000
   0.98901040  0.01320621  0.35958247
   0.16550000  0.16500000  0.06050000
   0.00106000  0.66662000  0.00057000
   0.98935953  0.64968253  0.36222421
   0.99930000  0.99936000  0.12074000
   0.16685000  0.16538000  0.18105000
   0.99936000  0.33161000  0.12083000
   0.16544000  0.49812000  0.18093000
   0.00040000  0.66536000  0.12057000
   0.16627000  0.83203000  0.18103000
   0.33360000  0.99731000  0.24116000
   0.49907036  0.16889416  0.30062457
   0.33251000  0.33244000  0.24115000
   0.33243000  0.66411000  0.24135000
   0.49998888  0.83148489  0.30237407
   0.33406000  0.99850000  0.00062000
   0.34713749  0.00771664  0.36080567
   0.50112000  0.16466000  0.06049000
   0.33306000  0.33260000  0.00065000
   0.32683801  0.32392373  0.36341364
   0.33279000  0.66191000  0.00103000
   0.33962974  0.65545255  0.36141751
   0.50000000  0.83116000  0.06060000
   0.33336000  0.99854000  0.12089000
   0.33259000  0.33282000  0.12015000
   0.49958000  0.49779000  0.18076000
   0.33192000  0.66330000  0.12025000
   0.49972000  0.83017000  0.18081000
   0.83107743  0.17011833  0.29943619
   0.66532000  0.33232000  0.24137000
   0.83070830  0.49766222  0.30163073
   0.66623000  0.66534000  0.24124000
   0.83572449  0.83227905  0.30102933
   0.83178000  0.16609000  0.06006000
   0.83424000  0.49924000  0.06020000
   0.66675000  0.66697000  0.00034000
   0.67418397  0.67127528  0.36151551
   0.83291000  0.83387000  0.06067000
   0.83469000  0.16589000  0.18162000
   0.66681000  0.33159000  0.12072000
   0.83279000  0.49851000  0.18135000
   0.66709000  0.66502000  0.12081000
   0.83337000  0.83396000  0.18143000
   0.16089084  0.83836349  0.43539762
Direct configuration=    11
   0.00218000  0.99867000  0.24166000
   0.00302000  0.33361000  0.00057000
   0.99071582  0.32597652  0.36262264
   0.16217000  0.49431000  0.05981000
   0.16492000  0.83554000  0.06027000
   0.50344505  0.49470551  0.30378064
   0.50447000  0.49654000  0.06032000
   0.50514000  0.16237000  0.18167000
   0.66136000  0.00065000  0.24022000
   0.66603000  0.99799000  0.00047000
   0.66942189  0.00756512  0.36688859
   0.65989000  0.33950000  0.00031000
   0.65132600  0.34442641  0.35475794
   0.66352000  0.99935000  0.12162000
   0.16825368  0.16471438  0.30147960
   0.99997000  0.33205000  0.24166000
   0.16684772  0.49644973  0.30351933
   0.00013000  0.66493000  0.24143000
   0.16726466  0.82942766  0.30516925
   0.99854000  0.00048000  0.00000000
   0.99205631  0.01369018  0.35791609
   0.16550000  0.16500000  0.06050000
   0.00106000  0.66662000  0.00057000
   0.98933455  0.64886739  0.36140686
   0.99930000  0.99936000  0.12074000
   0.16685000  0.16538000  0.18105000
   0.99936000  0.33161000  0.12083000
   0.16544000  0.49812000  0.18093000
   0.00040000  0.66536000  0.12057000
   0.16627000  0.83203000  0.18103000
   0.33360000  0.99731000  0.24116000
   0.50057194  0.16386012  0.30167671
   0.33251000  0.33244000  0.24115000
   0.33243000  0.66411000  0.24135000
   0.50223008  0.83277980  0.30269661
   0.33406000  0.99850000  0.00062000
   0.34551638  0.00825212  0.36018049
   0.50112000  0.16466000  0.06049000
   0.33306000  0.33260000  0.00065000
   0.32641828  0.32281087  0.36364610
   0.33279000  0.66191000  0.00103000
   0.33926245  0.65469839  0.36208763
   0.50000000  0.83116000  0.06060000
   0.33336000  0.99854000  0.12089000
   0.33259000  0.33282000  0.12015000
   0.49958000  0.49779000  0.18076000
   0.33192000  0.66330000  0.12025000
   0.49972000  0.83017000  0.18081000
   0.83078042  0.16275757  0.29796488
   0.66532000  0.33232000  0.24137000
   0.83093661  0.50174398  0.30085641
   0.66623000  0.66534000  0.24124000
   0.83398264  0.83351380  0.30136646
   0.83178000  0.16609000  0.06006000
   0.83424000  0.49924000  0.06020000
   0.66675000  0.66697000  0.00034000
   0.67451201  0.67139292  0.36114868
   0.83291000  0.83387000  0.06067000
   0.83469000  0.16589000  0.18162000
   0.66681000  0.33159000  0.12072000
   0.83279000  0.49851000  0.18135000
   0.66709000  0.66502000  0.12081000
   0.83337000  0.83396000  0.18143000
   0.16142846  0.83799712  0.43570784
Direct configuration=    12
   0.00218000  0.99867000  0.24166000
   0.00302000  0.33361000  0.00057000
   0.99108780  0.32621213  0.36343071
   0.16217000  0.49431000  0.05981000
   0.16492000  0.83554000  0.06027000
   0.50313427  0.49480293  0.30364556
   0.50447000  0.49654000  0.06032000
   0.50514000  0.16237000  0.18167000
   0.66136000  0.00065000  0.24022000
   0.66603000  0.99799000  0.00047000
   0.66940810  0.00773762  0.36734999
   0.65989000  0.33950000  0.00031000
   0.65064262  0.34515053  0.35441772
   0.66352000  0.99935000  0.12162000
   0.16854503  0.16477974  0.30121862
   0.99997000  0.33205000  0.24166000
   0.16722845  0.49665917  0.30339750
   0.00013000  0.66493000  0.24143000
   0.16742448  0.82923219  0.30508266
   0.99854000  0.00048000  0.00000000
   0.99260095  0.01322039  0.35769082
   0.16550000  0.16500000  0.06050000
   0.00106000  0.66662000  0.00057000
   0.98952745  0.64917652  0.36128701
   0.99930000  0.99936000  0.12074000
   0.16685000  0.16538000  0.18105000
   0.99936000  0.33161000  0.12083000
   0.16544000  0.49812000  0.18093000
   0.00040000  0.66536000  0.12057000
   0.16627000  0.83203000  0.18103000
   0.33360000  0.99731000  0.24116000
   0.50084678  0.16372837  0.30172385
   0.33251000  0.33244000  0.24115000
   0.33243000  0.66411000  0.24135000
   0.50233406  0.83282002  0.30276314
   0.33406000  0.99850000  0.00062000
   0.34502899  0.00809146  0.36015350
   0.50112000  0.16466000  0.06049000
   0.33306000  0.33260000  0.00065000
   0.32653627  0.32264422  0.36363708
   0.33279000  0.66191000  0.00103000
   0.33922401  0.65457168  0.36218620
   0.50000000  0.83116000  0.06060000
   0.33336000  0.99854000  0.12089000
   0.33259000  0.33282000  0.12015000
   0.49958000  0.49779000  0.18076000
   0.33192000  0.66330000  0.12025000
   0.49972000  0.83017000  0.18081000
   0.83052752  0.16182601  0.29773232
   0.66532000  0.33232000  0.24137000
   0.83071220  0.50181114  0.30070171
   0.66623000  0.66534000  0.24124000
   0.83376896  0.83362673  0.30140697
   0.83178000  0.16609000  0.06006000
   0.83424000  0.49924000  0.06020000
   0.66675000  0.66697000  0.00034000
   0.67453245  0.67136202  0.36111699
   0.83291000  0.83387000  0.06067000
   0.83469000  0.16589000  0.18162000
   0.66681000  0.33159000  0.12072000
   0.83279000  0.49851000  0.18135000
   0.66709000  0.66502000  0.12081000
   0.83337000  0.83396000  0.18143000
   0.16147224  0.83795529  0.43572469
Direct configuration=    13
   0.00218000  0.99867000  0.24166000
   0.00302000  0.33361000  0.00057000
   0.99170108  0.32660057  0.36476297
   0.16217000  0.49431000  0.05981000
   0.16492000  0.83554000  0.06027000
   0.50262189  0.49496356  0.30342285
   0.50447000  0.49654000  0.06032000
   0.50514000  0.16237000  0.18167000
   0.66136000  0.00065000  0.24022000
   0.66603000  0.99799000  0.00047000
   0.66938536  0.00802203  0.36811069
   0.65989000  0.33950000  0.00031000
   0.64951594  0.34634437  0.35385680
   0.66352000  0.99935000  0.12162000
   0.16902537  0.16488749  0.30078835
   0.99997000  0.33205000  0.24166000
   0.16785616  0.49700446  0.30319665
   0.00013000  0.66493000  0.24143000
   0.16768798  0.82890992  0.30493989
   0.99854000  0.00048000  0.00000000
   0.99349888  0.01244586  0.35731942
   0.16550000  0.16500000  0.06050000
   0.00106000  0.66662000  0.00057000
   0.98984547  0.64968616  0.36108943
   0.99930000  0.99936000  0.12074000
   0.16685000  0.16538000  0.18105000
   0.99936000  0.33161000  0.12083000
   0.16544000  0.49812000  0.18093000
   0.00040000  0.66536000  0.12057000
   0.16627000  0.83203000  0.18103000
   0.33360000  0.99731000  0.24116000
   0.50129989  0.16351114  0.30180156
   0.33251000  0.33244000  0.24115000
   0.33243000  0.66411000  0.24135000
   0.50250550  0.83288633  0.30287283
   0.33406000  0.99850000  0.00062000
   0.34422545  0.00782658  0.36010899
   0.50112000  0.16466000  0.06049000
   0.33306000  0.33260000  0.00065000
   0.32673080  0.32236948  0.36362223
   0.33279000  0.66191000  0.00103000
   0.33916064  0.65436279  0.36234870
   0.50000000  0.83116000  0.06060000
   0.33336000  0.99854000  0.12089000
   0.33259000  0.33282000  0.12015000
   0.49958000  0.49779000  0.18076000
   0.33192000  0.66330000  0.12025000
   0.49972000  0.83017000  0.18081000
   0.83011057  0.16029017  0.29734891
   0.66532000  0.33232000  0.24137000
   0.83034223  0.50192186  0.30044664
   0.66623000  0.66534000  0.24124000
   0.83341665  0.83381290  0.30147376
   0.83178000  0.16609000  0.06006000
   0.83424000  0.49924000  0.06020000
   0.66675000  0.66697000  0.00034000
   0.67456616  0.67131108  0.36106473
   0.83291000  0.83387000  0.06067000
   0.83469000  0.16589000  0.18162000
   0.66681000  0.33159000  0.12072000
   0.83279000  0.49851000  0.18135000
   0.66709000  0.66502000  0.12081000
   0.83337000  0.83396000  0.18143000
   0.16154441  0.83788633  0.43575248
Direct configuration=    14
   0.00218000  0.99867000  0.24166000
   0.00302000  0.33361000  0.00057000
   0.99129901  0.32665315  0.36508649
   0.16217000  0.49431000  0.05981000
   0.16492000  0.83554000  0.06027000
   0.50263464  0.49488586  0.30343146
   0.50447000  0.49654000  0.06032000
   0.50514000  0.16237000  0.18167000
   0.66136000  0.00065000  0.24022000
   0.66603000  0.99799000  0.00047000
   0.66967645  0.00809037  0.36822188
   0.65989000  0.33950000  0.00031000
   0.64972524  0.34622687  0.35384486
   0.66352000  0.99935000  0.12162000
   0.16898082  0.16483242  0.30082248
   0.99997000  0.33205000  0.24166000
   0.16779759  0.49706288  0.30324002
   0.00013000  0.66493000  0.24143000
   0.16781397  0.82897931  0.30492316
   0.99854000  0.00048000  0.00000000
   0.99348608  0.01175673  0.35742283
   0.16550000  0.16500000  0.06050000
   0.00106000  0.66662000  0.00057000
   0.99007646  0.65028539  0.36110771
   0.99930000  0.99936000  0.12074000
   0.16685000  0.16538000  0.18105000
   0.99936000  0.33161000  0.12083000
   0.16544000  0.49812000  0.18093000
   0.00040000  0.66536000  0.12057000
   0.16627000  0.83203000  0.18103000
   0.33360000  0.99731000  0.24116000
   0.50112060  0.16435553  0.30158291
   0.33251000  0.33244000  0.24115000
   0.33243000  0.66411000  0.24135000
   0.50208410  0.83263352  0.30289698
   0.33406000  0.99850000  0.00062000
   0.34400933  0.00755531  0.36020101
   0.50112000  0.16466000  0.06049000
   0.33306000  0.33260000  0.00065000
   0.32696808  0.32239132  0.36354038
   0.33279000  0.66191000  0.00103000
   0.33919795  0.65437305  0.36230850
   0.50000000  0.83116000  0.06060000
   0.33336000  0.99854000  0.12089000
   0.33259000  0.33282000  0.12015000
   0.49958000  0.49779000  0.18076000
   0.33192000  0.66330000  0.12025000
   0.49972000  0.83017000  0.18081000
   0.83011056  0.16106720  0.29750265
   0.66532000  0.33232000  0.24137000
   0.83028326  0.50108743  0.30047637
   0.66623000  0.66534000  0.24124000
   0.83354170  0.83358719  0.30144299
   0.83178000  0.16609000  0.06006000
   0.83424000  0.49924000  0.06020000
   0.66675000  0.66697000  0.00034000
   0.67453089  0.67129272  0.36110436
   0.83291000  0.83387000  0.06067000
   0.83469000  0.16589000  0.18162000
   0.66681000  0.33159000  0.12072000
   0.83279000  0.49851000  0.18135000
   0.66709000  0.66502000  0.12081000
   0.83337000  0.83396000  0.18143000
   0.16146364  0.83790179  0.43571511
Direct configuration=    15
   0.00218000  0.99867000  0.24166000
   0.00302000  0.33361000  0.00057000
   0.99009278  0.32681087  0.36605703
   0.16217000  0.49431000  0.05981000
   0.16492000  0.83554000  0.06027000
   0.50267292  0.49465278  0.30345726
   0.50447000  0.49654000  0.06032000
   0.50514000  0.16237000  0.18167000
   0.66136000  0.00065000  0.24022000
   0.66603000  0.99799000  0.00047000
   0.67054970  0.00829539  0.36855546
   0.65989000  0.33950000  0.00031000
   0.65035314  0.34587437  0.35380904
   0.66352000  0.99935000  0.12162000
   0.16884717  0.16466721  0.30092486
   0.99997000  0.33205000  0.24166000
   0.16762189  0.49723817  0.30337015
   0.00013000  0.66493000  0.24143000
   0.16819196  0.82918750  0.30487297
   0.99854000  0.00048000  0.00000000
   0.99344766  0.00968932  0.35773306
   0.16550000  0.16500000  0.06050000
   0.00106000  0.66662000  0.00057000
   0.99076945  0.65208307  0.36116254
   0.99930000  0.99936000  0.12074000
   0.16685000  0.16538000  0.18105000
   0.99936000  0.33161000  0.12083000
   0.16544000  0.49812000  0.18093000
   0.00040000  0.66536000  0.12057000
   0.16627000  0.83203000  0.18103000
   0.33360000  0.99731000  0.24116000
   0.50058273  0.16688871  0.30092698
   0.33251000  0.33244000  0.24115000
   0.33243000  0.66411000  0.24135000
   0.50081990  0.83187507  0.30296943
   0.33406000  0.99850000  0.00062000
   0.34336098  0.00674152  0.36047705
   0.50112000  0.16466000  0.06049000
   0.33306000  0.33260000  0.00065000
   0.32767993  0.32245685  0.36329485
   0.33279000  0.66191000  0.00103000
   0.33930988  0.65440385  0.36218790
   0.50000000  0.83116000  0.06060000
   0.33336000  0.99854000  0.12089000
   0.33259000  0.33282000  0.12015000
   0.49958000  0.49779000  0.18076000
   0.33192000  0.66330000  0.12025000
   0.49972000  0.83017000  0.18081000
   0.83011054  0.16339828  0.29796384
   0.66532000  0.33232000  0.24137000
   0.83010636  0.49858414  0.30056555
   0.66623000  0.66534000  0.24124000
   0.83391683  0.83291005  0.30135067
   0.83178000  0.16609000  0.06006000
   0.83424000  0.49924000  0.06020000
   0.66675000  0.66697000  0.00034000
   0.67442507  0.67123765  0.36122324
   0.83291000  0.83387000  0.06067000
   0.83469000  0.16589000  0.18162000
   0.66681000  0.33159000  0.12072000
   0.83279000  0.49851000  0.18135000
   0.66709000  0.66502000  0.12081000
   0.83337000  0.83396000  0.18143000
   0.16122134  0.83794815  0.43560302
Direct configuration=    16
   0.00218000  0.99867000  0.24166000
   0.00302000  0.33361000  0.00057000
   0.98768031  0.32712632  0.36799812
   0.16217000  0.49431000  0.05981000
   0.16492000  0.83554000  0.06027000
   0.50274946  0.49418662  0.30350888
   0.50447000  0.49654000  0.06032000
   0.50514000  0.16237000  0.18167000
   0.66136000  0.00065000  0.24022000
   0.66603000  0.99799000  0.00047000
   0.67229622  0.00870543  0.36922260
   0.65989000  0.33950000  0.00031000
   0.65160894  0.34516937  0.35373740
   0.66352000  0.99935000  0.12162000
   0.16857987  0.16433678  0.30112963
   0.99997000  0.33205000  0.24166000
   0.16727050  0.49758874  0.30363039
   0.00013000  0.66493000  0.24143000
   0.16894792  0.82960387  0.30477260
   0.99854000  0.00048000  0.00000000
   0.99337082  0.00555452  0.35835353
   0.16550000  0.16500000  0.06050000
   0.00106000  0.66662000  0.00057000
   0.99215544  0.65567844  0.36127221
   0.99930000  0.99936000  0.12074000
   0.16685000  0.16538000  0.18105000
   0.99936000  0.33161000  0.12083000
   0.16544000  0.49812000  0.18093000
   0.00040000  0.66536000  0.12057000
   0.16627000  0.83203000  0.18103000
   0.33360000  0.99731000  0.24116000
   0.49950700  0.17195506  0.29961512
   0.33251000  0.33244000  0.24115000
   0.33243000  0.66411000  0.24135000
   0.49829149  0.83035818  0.30311433
   0.33406000  0.99850000  0.00062000
   0.34206427  0.00511392  0.36102915
   0.50112000  0.16466000  0.06049000
   0.33306000  0.33260000  0.00065000
   0.32910362  0.32258790  0.36280377
   0.33279000  0.66191000  0.00103000
   0.33953373  0.65446543  0.36194669
   0.50000000  0.83116000  0.06060000
   0.33336000  0.99854000  0.12089000
   0.33259000  0.33282000  0.12015000
   0.49958000  0.49779000  0.18076000
   0.33192000  0.66330000  0.12025000
   0.49972000  0.83017000  0.18081000
   0.83011048  0.16806046  0.29888623
   0.66532000  0.33232000  0.24137000
   0.82975255  0.49357757  0.30074391
   0.66623000  0.66534000  0.24124000
   0.83466710  0.83155579  0.30116603
   0.83178000  0.16609000  0.06006000
   0.83424000  0.49924000  0.06020000
   0.66675000  0.66697000  0.00034000
   0.67421343  0.67112752  0.36146099
   0.83291000  0.83387000  0.06067000
   0.83469000  0.16589000  0.18162000
   0.66681000  0.33159000  0.12072000
   0.83279000  0.49851000  0.18135000
   0.66709000  0.66502000  0.12081000
   0.83337000  0.83396000  0.18143000
   0.16073674  0.83804089  0.43537884
Direct configuration=    17
   0.00218000  0.99867000  0.24166000
   0.00302000  0.33361000  0.00057000
   0.98940049  0.32690139  0.36661405
   0.16217000  0.49431000  0.05981000
   0.16492000  0.83554000  0.06027000
   0.50269488  0.49451901  0.30347208
   0.50447000  0.49654000  0.06032000
   0.50514000  0.16237000  0.18167000
   0.66136000  0.00065000  0.24022000
   0.66603000  0.99799000  0.00047000
   0.67105089  0.00841306  0.36874690
   0.65989000  0.33950000  0.00031000
   0.65071351  0.34567206  0.35378848
   0.66352000  0.99935000  0.12162000
   0.16877046  0.16457238  0.30098362
   0.99997000  0.33205000  0.24166000
   0.16752106  0.49733877  0.30344483
   0.00013000  0.66493000  0.24143000
   0.16840889  0.82930698  0.30484417
   0.99854000  0.00048000  0.00000000
   0.99342561  0.00850279  0.35791111
   0.16550000  0.16500000  0.06050000
   0.00106000  0.66662000  0.00057000
   0.99116718  0.65311481  0.36119401
   0.99930000  0.99936000  0.12074000
   0.16685000  0.16538000  0.18105000
   0.99936000  0.33161000  0.12083000
   0.16544000  0.49812000  0.18093000
   0.00040000  0.66536000  0.12057000
   0.16627000  0.83203000  0.18103000
   0.33360000  0.99731000  0.24116000
   0.50027404  0.16834256  0.30055053
   0.33251000  0.33244000  0.24115000
   0.33243000  0.66411000  0.24135000
   0.50009434  0.83143978  0.30301101
   0.33406000  0.99850000  0.00062000
   0.34298887  0.00627446  0.36063548
   0.50112000  0.16466000  0.06049000
   0.33306000  0.33260000  0.00065000
   0.32808848  0.32249446  0.36315393
   0.33279000  0.66191000  0.00103000
   0.33937412  0.65442152  0.36211868
   0.50000000  0.83116000  0.06060000
   0.33336000  0.99854000  0.12089000
   0.33259000  0.33282000  0.12015000
   0.49958000  0.49779000  0.18076000
   0.33192000  0.66330000  0.12025000
   0.49972000  0.83017000  0.18081000
   0.83011052  0.16473615  0.29822853
   0.66532000  0.33232000  0.24137000
   0.83000483  0.49714744  0.30061673
   0.66623000  0.66534000  0.24124000
   0.83413213  0.83252143  0.30129768
   0.83178000  0.16609000  0.06006000
   0.83424000  0.49924000  0.06020000
   0.66675000  0.66697000  0.00034000
   0.67436434  0.67120605  0.36129146
   0.83291000  0.83387000  0.06067000
   0.83469000  0.16589000  0.18162000
   0.66681000  0.33159000  0.12072000
   0.83279000  0.49851000  0.18135000
   0.66709000  0.66502000  0.12081000
   0.83337000  0.83396000  0.18143000
   0.16108228  0.83797477  0.43553869
Direct configuration=    18
   0.00218000  0.99867000  0.24166000
   0.00302000  0.33361000  0.00057000
   0.98954529  0.32688246  0.36649754
   0.16217000  0.49431000  0.05981000
   0.16492000  0.83554000  0.06027000
   0.50269029  0.49454699  0.30346898
   0.50447000  0.49654000  0.06032000
   0.50514000  0.16237000  0.18167000
   0.66136000  0.00065000  0.24022000
   0.66603000  0.99799000  0.00047000
   0.67094606  0.00838844  0.36870686
   0.65989000  0.33950000  0.00031000
   0.65063813  0.34571438  0.35379278
   0.66352000  0.99935000  0.12162000
   0.16878651  0.16459222  0.30097133
   0.99997000  0.33205000  0.24166000
   0.16754215  0.49731773  0.30342921
   0.00013000  0.66493000  0.24143000
   0.16836351  0.82928199  0.30485020
   0.99854000  0.00048000  0.00000000
   0.99343022  0.00875097  0.35787387
   0.16550000  0.16500000  0.06050000
   0.00106000  0.66662000  0.00057000
   0.99108399  0.65289900  0.36118743
   0.99930000  0.99936000  0.12074000
   0.16685000  0.16538000  0.18105000
   0.99936000  0.33161000  0.12083000
   0.16544000  0.49812000  0.18093000
   0.00040000  0.66536000  0.12057000
   0.16627000  0.83203000  0.18103000
   0.33360000  0.99731000  0.24116000
   0.50033860  0.16803846  0.30062927
   0.33251000  0.33244000  0.24115000
   0.33243000  0.66411000  0.24135000
   0.50024610  0.83153083  0.30300231
   0.33406000  0.99850000  0.00062000
   0.34306670  0.00637215  0.36060235
   0.50112000  0.16466000  0.06049000
   0.33306000  0.33260000  0.00065000
   0.32800302  0.32248659  0.36318340
   0.33279000  0.66191000  0.00103000
   0.33936068  0.65441782  0.36213316
   0.50000000  0.83116000  0.06060000
   0.33336000  0.99854000  0.12089000
   0.33259000  0.33282000  0.12015000
   0.49958000  0.49779000  0.18076000
   0.33192000  0.66330000  0.12025000
   0.49972000  0.83017000  0.18081000
   0.83011052  0.16445632  0.29817317
   0.66532000  0.33232000  0.24137000
   0.83002607  0.49744795  0.30060603
   0.66623000  0.66534000  0.24124000
   0.83408710  0.83260272  0.30130877
   0.83178000  0.16609000  0.06006000
   0.83424000  0.49924000  0.06020000
   0.66675000  0.66697000  0.00034000
   0.67437704  0.67121266  0.36127719
   0.83291000  0.83387000  0.06067000
   0.83469000  0.16589000  0.18162000
   0.66681000  0.33159000  0.12072000
   0.83279000  0.49851000  0.18135000
   0.66709000  0.66502000  0.12081000
   0.83337000  0.83396000  0.18143000
   0.16111137  0.83796920  0.43555215
Direct configuration=    19
   0.00218000  0.99867000  0.24166000
   0.00302000  0.33361000  0.00057000
   0.98919569  0.32689574  0.36710940
   0.16217000  0.49431000  0.05981000
   0.16492000  0.83554000  0.06027000
   0.50269991  0.49489426  0.30343500
   0.50447000  0.49654000  0.06032000
   0.50514000  0.16237000  0.18167000
   0.66136000  0.00065000  0.24022000
   0.66603000  0.99799000  0.00047000
   0.67099515  0.00859130  0.36870490
   0.65989000  0.33950000  0.00031000
   0.65126183  0.34529025  0.35413550
   0.66352000  0.99935000  0.12162000
   0.16844583  0.16453530  0.30120708
   0.99997000  0.33205000  0.24166000
   0.16728069  0.49724445  0.30355210
   0.00013000  0.66493000  0.24143000
   0.16849450  0.82938374  0.30480191
   0.99854000  0.00048000  0.00000000
   0.99317034  0.00797589  0.35789643
   0.16550000  0.16500000  0.06050000
   0.00106000  0.66662000  0.00057000
   0.99105236  0.65354416  0.36108711
   0.99930000  0.99936000  0.12074000
   0.16685000  0.16538000  0.18105000
   0.99936000  0.33161000  0.12083000
   0.16544000  0.49812000  0.18093000
   0.00040000  0.66536000  0.12057000
   0.16627000  0.83203000  0.18103000
   0.33360000  0.99731000  0.24116000
   0.49981073  0.16773516  0.30058266
   0.33251000  0.33244000  0.24115000
   0.33243000  0.66411000  0.24135000
   0.50013669  0.83162005  0.30308363
   0.33406000  0.99850000  0.00062000
   0.34317375  0.00644352  0.36058124
   0.50112000  0.16466000  0.06049000
   0.33306000  0.33260000  0.00065000
   0.32817307  0.32249372  0.36301445
   0.33279000  0.66191000  0.00103000
   0.33940252  0.65437009  0.36207993
   0.50000000  0.83116000  0.06060000
   0.33336000  0.99854000  0.12089000
   0.33259000  0.33282000  0.12015000
   0.49958000  0.49779000  0.18076000
   0.33192000  0.66330000  0.12025000
   0.49972000  0.83017000  0.18081000
   0.83037512  0.16479575  0.29839344
   0.66532000  0.33232000  0.24137000
   0.83036689  0.49755854  0.30070950
   0.66623000  0.66534000  0.24124000
   0.83391511  0.83245552  0.30127963
   0.83178000  0.16609000  0.06006000
   0.83424000  0.49924000  0.06020000
   0.66675000  0.66697000  0.00034000
   0.67433028  0.67113014  0.36128441
   0.83291000  0.83387000  0.06067000
   0.83469000  0.16589000  0.18162000
   0.66681000  0.33159000  0.12072000
   0.83279000  0.49851000  0.18135000
   0.66709000  0.66502000  0.12081000
   0.83337000  0.83396000  0.18143000
   0.16111293  0.83785108  0.43566125
Direct configuration=    20
   0.00218000  0.99867000  0.24166000
   0.00302000  0.33361000  0.00057000
   0.98814690  0.32693559  0.36894499
   0.16217000  0.49431000  0.05981000
   0.16492000  0.83554000  0.06027000
   0.50272878  0.49593606  0.30333306
   0.50447000  0.49654000  0.06032000
   0.50514000  0.16237000  0.18167000
   0.66136000  0.00065000  0.24022000
   0.66603000  0.99799000  0.00047000
   0.67114244  0.00919986  0.36869902
   0.65989000  0.33950000  0.00031000
   0.65313293  0.34401786  0.35516364
   0.66352000  0.99935000  0.12162000
   0.16742379  0.16436455  0.30191431
   0.99997000  0.33205000  0.24166000
   0.16649630  0.49702462  0.30392078
   0.00013000  0.66493000  0.24143000
   0.16888745  0.82968901  0.30465706
   0.99854000  0.00048000  0.00000000
   0.99239069  0.00565065  0.35796413
   0.16550000  0.16500000  0.06050000
   0.00106000  0.66662000  0.00057000
   0.99095747  0.65547964  0.36078615
   0.99930000  0.99936000  0.12074000
   0.16685000  0.16538000  0.18105000
   0.99936000  0.33161000  0.12083000
   0.16544000  0.49812000  0.18093000
   0.00040000  0.66536000  0.12057000
   0.16627000  0.83203000  0.18103000
   0.33360000  0.99731000  0.24116000
   0.49822709  0.16682526  0.30044283
   0.33251000  0.33244000  0.24115000
   0.33243000  0.66411000  0.24135000
   0.49980845  0.83188772  0.30332757
   0.33406000  0.99850000  0.00062000
   0.34349490  0.00665763  0.36051792
   0.50112000  0.16466000  0.06049000
   0.33306000  0.33260000  0.00065000
   0.32868320  0.32251510  0.36250760
   0.33279000  0.66191000  0.00103000
   0.33952804  0.65422691  0.36192022
   0.50000000  0.83116000  0.06060000
   0.33336000  0.99854000  0.12089000
   0.33259000  0.33282000  0.12015000
   0.49958000  0.49779000  0.18076000
   0.33192000  0.66330000  0.12025000
   0.49972000  0.83017000  0.18081000
   0.83116890  0.16581403  0.29905426
   0.66532000  0.33232000  0.24137000
   0.83138934  0.49789029  0.30101993
   0.66623000  0.66534000  0.24124000
   0.83339916  0.83201394  0.30119223
   0.83178000  0.16609000  0.06006000
   0.83424000  0.49924000  0.06020000
   0.66675000  0.66697000  0.00034000
   0.67419001  0.67088258  0.36130608
   0.83291000  0.83387000  0.06067000
   0.83469000  0.16589000  0.18162000
   0.66681000  0.33159000  0.12072000
   0.83279000  0.49851000  0.18135000
   0.66709000  0.66502000  0.12081000
   0.83337000  0.83396000  0.18143000
   0.16111761  0.83749670  0.43598856
Direct configuration=    21
   0.00218000  0.99867000  0.24166000
   0.00302000  0.33361000  0.00057000
   0.98604931  0.32701530  0.37261617
   0.16217000  0.49431000  0.05981000
   0.16492000  0.83554000  0.06027000
   0.50278653  0.49801967  0.30312919
   0.50447000  0.49654000  0.06032000
   0.50514000  0.16237000  0.18167000
   0.66136000  0.00065000  0.24022000
   0.66603000  0.99799000  0.00047000
   0.67143702  0.01041700  0.36868725
   0.65989000  0.33950000  0.00031000
   0.65687514  0.34147309  0.35721992
   0.66352000  0.99935000  0.12162000
   0.16537972  0.16402305  0.30332877
   0.99997000  0.33205000  0.24166000
   0.16492753  0.49658497  0.30465815
   0.00013000  0.66493000  0.24143000
   0.16967335  0.83029955  0.30436736
   0.99854000  0.00048000  0.00000000
   0.99083139  0.00100015  0.35809951
   0.16550000  0.16500000  0.06050000
   0.00106000  0.66662000  0.00057000
   0.99076770  0.65935059  0.36018424
   0.99930000  0.99936000  0.12074000
   0.16685000  0.16538000  0.18105000
   0.99936000  0.33161000  0.12083000
   0.16544000  0.49812000  0.18093000
   0.00040000  0.66536000  0.12057000
   0.16627000  0.83203000  0.18103000
   0.33360000  0.99731000  0.24116000
   0.49505982  0.16500547  0.30016316
   0.33251000  0.33244000  0.24115000
   0.33243000  0.66411000  0.24135000
   0.49915197  0.83242305  0.30381546
   0.33406000  0.99850000  0.00062000
   0.34413720  0.00708586  0.36039129
   0.50112000  0.16466000  0.06049000
   0.33306000  0.33260000  0.00065000
   0.32970347  0.32255785  0.36149389
   0.33279000  0.66191000  0.00103000
   0.33977907  0.65394053  0.36160082
   0.50000000  0.83116000  0.06060000
   0.33336000  0.99854000  0.12089000
   0.33259000  0.33282000  0.12015000
   0.49958000  0.49779000  0.18076000
   0.33192000  0.66330000  0.12025000
   0.49972000  0.83017000  0.18081000
   0.83275646  0.16785061  0.30037590
   0.66532000  0.33232000  0.24137000
   0.83343426  0.49855379  0.30164079
   0.66623000  0.66534000  0.24124000
   0.83236727  0.83113077  0.30101742
   0.83178000  0.16609000  0.06006000
   0.83424000  0.49924000  0.06020000
   0.66675000  0.66697000  0.00034000
   0.67390948  0.67038747  0.36134941
   0.83291000  0.83387000  0.06067000
   0.83469000  0.16589000  0.18162000
   0.66681000  0.33159000  0.12072000
   0.83279000  0.49851000  0.18135000
   0.66709000  0.66502000  0.12081000
   0.83337000  0.83396000  0.18143000
   0.16112697  0.83678796  0.43664317
Direct configuration=    22
   0.00218000  0.99867000  0.24166000
   0.00302000  0.33361000  0.00057000
   0.98696838  0.32698037  0.37100763
   0.16217000  0.49431000  0.05981000
   0.16492000  0.83554000  0.06027000
   0.50276123  0.49710672  0.30321852
   0.50447000  0.49654000  0.06032000
   0.50514000  0.16237000  0.18167000
   0.66136000  0.00065000  0.24022000
   0.66603000  0.99799000  0.00047000
   0.67130795  0.00988370  0.36869241
   0.65989000  0.33950000  0.00031000
   0.65523547  0.34258809  0.35631895
   0.66352000  0.99935000  0.12162000
   0.16627534  0.16417268  0.30270901
   0.99997000  0.33205000  0.24166000
   0.16561489  0.49677761  0.30433507
   0.00013000  0.66493000  0.24143000
   0.16932900  0.83003204  0.30449429
   0.99854000  0.00048000  0.00000000
   0.99151461  0.00303779  0.35804019
   0.16550000  0.16500000  0.06050000
   0.00106000  0.66662000  0.00057000
   0.99085085  0.65765451  0.36044797
   0.99930000  0.99936000  0.12074000
   0.16685000  0.16538000  0.18105000
   0.99936000  0.33161000  0.12083000
   0.16544000  0.49812000  0.18093000
   0.00040000  0.66536000  0.12057000
   0.16627000  0.83203000  0.18103000
   0.33360000  0.99731000  0.24116000
   0.49644758  0.16580282  0.30028570
   0.33251000  0.33244000  0.24115000
   0.33243000  0.66411000  0.24135000
   0.49943961  0.83218849  0.30360169
   0.33406000  0.99850000  0.00062000
   0.34385577  0.00689823  0.36044678
   0.50112000  0.16466000  0.06049000
   0.33306000  0.33260000  0.00065000
   0.32925643  0.32253912  0.36193805
   0.33279000  0.66191000  0.00103000
   0.33966908  0.65406601  0.36174077
   0.50000000  0.83116000  0.06060000
   0.33336000  0.99854000  0.12089000
   0.33259000  0.33282000  0.12015000
   0.49958000  0.49779000  0.18076000
   0.33192000  0.66330000  0.12025000
   0.49972000  0.83017000  0.18081000
   0.83206086  0.16695827  0.29979682
   0.66532000  0.33232000  0.24137000
   0.83253827  0.49826307  0.30136876
   0.66623000  0.66534000  0.24124000
   0.83281940  0.83151773  0.30109401
   0.83178000  0.16609000  0.06006000
   0.83424000  0.49924000  0.06020000
   0.66675000  0.66697000  0.00034000
   0.67403239  0.67060440  0.36133043
   0.83291000  0.83387000  0.06067000
   0.83469000  0.16589000  0.18162000
   0.66681000  0.33159000  0.12072000
   0.83279000  0.49851000  0.18135000
   0.66709000  0.66502000  0.12081000
   0.83337000  0.83396000  0.18143000
   0.16112286  0.83709850  0.43635635
Direct configuration=    23
   0.00218000  0.99867000  0.24166000
   0.00302000  0.33361000  0.00057000
   0.98682800  0.32703016  0.37151188
   0.16217000  0.49431000  0.05981000
   0.16492000  0.83554000  0.06027000
   0.50273623  0.49727875  0.30310684
   0.50447000  0.49654000  0.06032000
   0.50514000  0.16237000  0.18167000
   0.66136000  0.00065000  0.24022000
   0.66603000  0.99799000  0.00047000
   0.67124617  0.00995344  0.36862091
   0.65989000  0.33950000  0.00031000
   0.65576797  0.34203739  0.35693887
   0.66352000  0.99935000  0.12162000
   0.16595598  0.16419147  0.30283726
   0.99997000  0.33205000  0.24166000
   0.16549408  0.49666759  0.30440318
   0.00013000  0.66493000  0.24143000
   0.16942996  0.83001606  0.30444037
   0.99854000  0.00048000  0.00000000
   0.99120155  0.00256951  0.35809469
   0.16550000  0.16500000  0.06050000
   0.00106000  0.66662000  0.00057000
   0.99083689  0.65808180  0.36043984
   0.99930000  0.99936000  0.12074000
   0.16685000  0.16538000  0.18105000
   0.99936000  0.33161000  0.12083000
   0.16544000  0.49812000  0.18093000
   0.00040000  0.66536000  0.12057000
   0.16627000  0.83203000  0.18103000
   0.33360000  0.99731000  0.24116000
   0.49632931  0.16544782  0.30019983
   0.33251000  0.33244000  0.24115000
   0.33243000  0.66411000  0.24135000
   0.49957274  0.83225896  0.30363507
   0.33406000  0.99850000  0.00062000
   0.34390864  0.00685577  0.36050704
   0.50112000  0.16466000  0.06049000
   0.33306000  0.33260000  0.00065000
   0.32922905  0.32269030  0.36184191
   0.33279000  0.66191000  0.00103000
   0.33956941  0.65415772  0.36173061
   0.50000000  0.83116000  0.06060000
   0.33336000  0.99854000  0.12089000
   0.33259000  0.33282000  0.12015000
   0.49958000  0.49779000  0.18076000
   0.33192000  0.66330000  0.12025000
   0.49972000  0.83017000  0.18081000
   0.83220313  0.16688157  0.29982742
   0.66532000  0.33232000  0.24137000
   0.83293315  0.49866586  0.30132062
   0.66623000  0.66534000  0.24124000
   0.83252508  0.83163708  0.30105116
   0.83178000  0.16609000  0.06006000
   0.83424000  0.49924000  0.06020000
   0.66675000  0.66697000  0.00034000
   0.67392971  0.67064242  0.36133490
   0.83291000  0.83387000  0.06067000
   0.83469000  0.16589000  0.18162000
   0.66681000  0.33159000  0.12072000
   0.83279000  0.49851000  0.18135000
   0.66709000  0.66502000  0.12081000
   0.83337000  0.83396000  0.18143000
   0.16124641  0.83695536  0.43645456
Direct configuration=    24
   0.00218000  0.99867000  0.24166000
   0.00302000  0.33361000  0.00057000
   0.98640687  0.32717953  0.37302463
   0.16217000  0.49431000  0.05981000
   0.16492000  0.83554000  0.06027000
   0.50266122  0.49779483  0.30277179
   0.50447000  0.49654000  0.06032000
   0.50514000  0.16237000  0.18167000
   0.66136000  0.00065000  0.24022000
   0.66603000  0.99799000  0.00047000
   0.67106081  0.01016264  0.36840643
   0.65989000  0.33950000  0.00031000
   0.65736548  0.34038528  0.35879863
   0.66352000  0.99935000  0.12162000
   0.16499790  0.16424784  0.30322201
   0.99997000  0.33205000  0.24166000
   0.16513165  0.49633755  0.30460752
   0.00013000  0.66493000  0.24143000
   0.16973283  0.82996812  0.30427860
   0.99854000  0.00048000  0.00000000
   0.99026237  0.00116465  0.35825818
   0.16550000  0.16500000  0.06050000
   0.00106000  0.66662000  0.00057000
   0.99079500  0.65936366  0.36041544
   0.99930000  0.99936000  0.12074000
   0.16685000  0.16538000  0.18105000
   0.99936000  0.33161000  0.12083000
   0.16544000  0.49812000  0.18093000
   0.00040000  0.66536000  0.12057000
   0.16627000  0.83203000  0.18103000
   0.33360000  0.99731000  0.24116000
   0.49597450  0.16438284  0.29994221
   0.33251000  0.33244000  0.24115000
   0.33243000  0.66411000  0.24135000
   0.49997215  0.83247037  0.30373521
   0.33406000  0.99850000  0.00062000
   0.34406723  0.00672839  0.36068782
   0.50112000  0.16466000  0.06049000
   0.33306000  0.33260000  0.00065000
   0.32914690  0.32314385  0.36155349
   0.33279000  0.66191000  0.00103000
   0.33927039  0.65443287  0.36170014
   0.50000000  0.83116000  0.06060000
   0.33336000  0.99854000  0.12089000
   0.33259000  0.33282000  0.12015000
   0.49958000  0.49779000  0.18076000
   0.33192000  0.66330000  0.12025000
   0.49972000  0.83017000  0.18081000
   0.83262994  0.16665147  0.29991921
   0.66532000  0.33232000  0.24137000
   0.83411779  0.49987423  0.30117621
   0.66623000  0.66534000  0.24124000
   0.83164214  0.83199512  0.30092259
   0.83178000  0.16609000  0.06006000
   0.83424000  0.49924000  0.06020000
   0.66675000  0.66697000  0.00034000
   0.67362167  0.67075647  0.36134832
   0.83291000  0.83387000  0.06067000
   0.83469000  0.16589000  0.18162000
   0.66681000  0.33159000  0.12072000
   0.83279000  0.49851000  0.18135000
   0.66709000  0.66502000  0.12081000
   0.83337000  0.83396000  0.18143000
   0.16161705  0.83652594  0.43674919
Direct configuration=    25
   0.00218000  0.99867000  0.24166000
   0.00302000  0.33361000  0.00057000
   0.98629945  0.32721763  0.37341047
   0.16217000  0.49431000  0.05981000
   0.16492000  0.83554000  0.06027000
   0.50264209  0.49792646  0.30268633
   0.50447000  0.49654000  0.06032000
   0.50514000  0.16237000  0.18167000
   0.66136000  0.00065000  0.24022000
   0.66603000  0.99799000  0.00047000
   0.67101354  0.01021599  0.36835173
   0.65989000  0.33950000  0.00031000
   0.65777293  0.33996390  0.35927297
   0.66352000  0.99935000  0.12162000
   0.16475353  0.16426221  0.30332014
   0.99997000  0.33205000  0.24166000
   0.16503921  0.49625337  0.30465964
   0.00013000  0.66493000  0.24143000
   0.16981008  0.82995589  0.30423734
   0.99854000  0.00048000  0.00000000
   0.99002282  0.00080633  0.35829988
   0.16550000  0.16500000  0.06050000
   0.00106000  0.66662000  0.00057000
   0.99078432  0.65969061  0.36040922
   0.99930000  0.99936000  0.12074000
   0.16685000  0.16538000  0.18105000
   0.99936000  0.33161000  0.12083000
   0.16544000  0.49812000  0.18093000
   0.00040000  0.66536000  0.12057000
   0.16627000  0.83203000  0.18103000
   0.33360000  0.99731000  0.24116000
   0.49588400  0.16411120  0.29987651
   0.33251000  0.33244000  0.24115000
   0.33243000  0.66411000  0.24135000
   0.50007402  0.83252429  0.30376076
   0.33406000  0.99850000  0.00062000
   0.34410768  0.00669590  0.36073393
   0.50112000  0.16466000  0.06049000
   0.33306000  0.33260000  0.00065000
   0.32912595  0.32325953  0.36147992
   0.33279000  0.66191000  0.00103000
   0.33919412  0.65450305  0.36169236
   0.50000000  0.83116000  0.06060000
   0.33336000  0.99854000  0.12089000
   0.33259000  0.33282000  0.12015000
   0.49958000  0.49779000  0.18076000
   0.33192000  0.66330000  0.12025000
   0.49972000  0.83017000  0.18081000
   0.83273881  0.16659277  0.29994262
   0.66532000  0.33232000  0.24137000
   0.83441994  0.50018244  0.30113938
   0.66623000  0.66534000  0.24124000
   0.83141694  0.83208645  0.30088980
   0.83178000  0.16609000  0.06006000
   0.83424000  0.49924000  0.06020000
   0.66675000  0.66697000  0.00034000
   0.67354310  0.67078556  0.36135174
   0.83291000  0.83387000  0.06067000
   0.83469000  0.16589000  0.18162000
   0.66681000  0.33159000  0.12072000
   0.83279000  0.49851000  0.18135000
   0.66709000  0.66502000  0.12081000
   0.83337000  0.83396000  0.18143000
   0.16171158  0.83641641  0.43682434
Direct configuration=    26
   0.00218000  0.99867000  0.24166000
   0.00302000  0.33361000  0.00057000
   0.98662215  0.32728677  0.37324659
   0.16217000  0.49431000  0.05981000
   0.16492000  0.83554000  0.06027000
   0.50277419  0.49741941  0.30268324
   0.50447000  0.49654000  0.06032000
   0.50514000  0.16237000  0.18167000
   0.66136000  0.00065000  0.24022000
   0.66603000  0.99799000  0.00047000
   0.67084392  0.00990825  0.36823401
   0.65989000  0.33950000  0.00031000
   0.65750745  0.33993110  0.35960864
   0.66352000  0.99935000  0.12162000
   0.16484051  0.16429248  0.30318192
   0.99997000  0.33205000  0.24166000
   0.16518922  0.49622307  0.30457998
   0.00013000  0.66493000  0.24143000
   0.16972026  0.82984833  0.30425580
   0.99854000  0.00048000  0.00000000
   0.98987290  0.00123929  0.35836895
   0.16550000  0.16500000  0.06050000
   0.00106000  0.66662000  0.00057000
   0.99081796  0.65944128  0.36054854
   0.99930000  0.99936000  0.12074000
   0.16685000  0.16538000  0.18105000
   0.99936000  0.33161000  0.12083000
   0.16544000  0.49812000  0.18093000
   0.00040000  0.66536000  0.12057000
   0.16627000  0.83203000  0.18103000
   0.33360000  0.99731000  0.24116000
   0.49653504  0.16437725  0.29991222
   0.33251000  0.33244000  0.24115000
   0.33243000  0.66411000  0.24135000
   0.50026104  0.83244755  0.30367722
   0.33406000  0.99850000  0.00062000
   0.34403376  0.00652249  0.36082772
   0.50112000  0.16466000  0.06049000
   0.33306000  0.33260000  0.00065000
   0.32895947  0.32353136  0.36157174
   0.33279000  0.66191000  0.00103000
   0.33903414  0.65469626  0.36172971
   0.50000000  0.83116000  0.06060000
   0.33336000  0.99854000  0.12089000
   0.33259000  0.33282000  0.12015000
   0.49958000  0.49779000  0.18076000
   0.33192000  0.66330000  0.12025000
   0.49972000  0.83017000  0.18081000
   0.83255509  0.16617812  0.29973102
   0.66532000  0.33232000  0.24137000
   0.83427617  0.50019021  0.30103752
   0.66623000  0.66534000  0.24124000
   0.83137022  0.83243196  0.30086911
   0.83178000  0.16609000  0.06006000
   0.83424000  0.49924000  0.06020000
   0.66675000  0.66697000  0.00034000
   0.67341515  0.67090318  0.36133718
   0.83291000  0.83387000  0.06067000
   0.83469000  0.16589000  0.18162000
   0.66681000  0.33159000  0.12072000
   0.83279000  0.49851000  0.18135000
   0.66709000  0.66502000  0.12081000
   0.83337000  0.83396000  0.18143000
   0.16191591  0.83636824  0.43682448
Direct configuration=    27
   0.00218000  0.99867000  0.24166000
   0.00302000  0.33361000  0.00057000
   0.98759024  0.32749418  0.37275494
   0.16217000  0.49431000  0.05981000
   0.16492000  0.83554000  0.06027000
   0.50317048  0.49589825  0.30267396
   0.50447000  0.49654000  0.06032000
   0.50514000  0.16237000  0.18167000
   0.66136000  0.00065000  0.24022000
   0.66603000  0.99799000  0.00047000
   0.67033505  0.00898502  0.36788086
   0.65989000  0.33950000  0.00031000
   0.65671100  0.33983270  0.36061562
   0.66352000  0.99935000  0.12162000
   0.16510142  0.16438329  0.30276725
   0.99997000  0.33205000  0.24166000
   0.16563924  0.49613219  0.30434100
   0.00013000  0.66493000  0.24143000
   0.16945078  0.82952567  0.30431116
   0.99854000  0.00048000  0.00000000
   0.98942313  0.00253815  0.35857615
   0.16550000  0.16500000  0.06050000
   0.00106000  0.66662000  0.00057000
   0.99091887  0.65869332  0.36096649
   0.99930000  0.99936000  0.12074000
   0.16685000  0.16538000  0.18105000
   0.99936000  0.33161000  0.12083000
   0.16544000  0.49812000  0.18093000
   0.00040000  0.66536000  0.12057000
   0.16627000  0.83203000  0.18103000
   0.33360000  0.99731000  0.24116000
   0.49848815  0.16517541  0.30001934
   0.33251000  0.33244000  0.24115000
   0.33243000  0.66411000  0.24135000
   0.50082211  0.83221733  0.30342662
   0.33406000  0.99850000  0.00062000
   0.34381201  0.00600227  0.36110909
   0.50112000  0.16466000  0.06049000
   0.33306000  0.33260000  0.00065000
   0.32846003  0.32434687  0.36184718
   0.33279000  0.66191000  0.00103000
   0.33855421  0.65527591  0.36184174
   0.50000000  0.83116000  0.06060000
   0.33336000  0.99854000  0.12089000
   0.33259000  0.33282000  0.12015000
   0.49958000  0.49779000  0.18076000
   0.33192000  0.66330000  0.12025000
   0.49972000  0.83017000  0.18081000
   0.83200394  0.16493417  0.29909620
   0.66532000  0.33232000  0.24137000
   0.83384488  0.50021354  0.30073193
   0.66623000  0.66534000  0.24124000
   0.83123007  0.83346849  0.30080706
   0.83178000  0.16609000  0.06006000
   0.83424000  0.49924000  0.06020000
   0.66675000  0.66697000  0.00034000
   0.67303128  0.67125603  0.36129350
   0.83291000  0.83387000  0.06067000
   0.83469000  0.16589000  0.18162000
   0.66681000  0.33159000  0.12072000
   0.83279000  0.49851000  0.18135000
   0.66709000  0.66502000  0.12081000
   0.83337000  0.83396000  0.18143000
   0.16252890  0.83622374  0.43682491
Direct configuration=    28
   0.00218000  0.99867000  0.24166000
   0.00302000  0.33361000  0.00057000
   0.98797178  0.32757592  0.37256118
   0.16217000  0.49431000  0.05981000
   0.16492000  0.83554000  0.06027000
   0.50332666  0.49529875  0.30267031
   0.50447000  0.49654000  0.06032000
   0.50514000  0.16237000  0.18167000
   0.66136000  0.00065000  0.24022000
   0.66603000  0.99799000  0.00047000
   0.67013450  0.00862117  0.36774168
   0.65989000  0.33950000  0.00031000
   0.65639710  0.33979392  0.36101248
   0.66352000  0.99935000  0.12162000
   0.16520425  0.16441908  0.30260382
   0.99997000  0.33205000  0.24166000
   0.16581660  0.49609637  0.30424682
   0.00013000  0.66493000  0.24143000
   0.16934457  0.82939850  0.30433298
   0.99854000  0.00048000  0.00000000
   0.98924587  0.00305005  0.35865781
   0.16550000  0.16500000  0.06050000
   0.00106000  0.66662000  0.00057000
   0.99095864  0.65839854  0.36113121
   0.99930000  0.99936000  0.12074000
   0.16685000  0.16538000  0.18105000
   0.99936000  0.33161000  0.12083000
   0.16544000  0.49812000  0.18093000
   0.00040000  0.66536000  0.12057000
   0.16627000  0.83203000  0.18103000
   0.33360000  0.99731000  0.24116000
   0.49925789  0.16548997  0.30006156
   0.33251000  0.33244000  0.24115000
   0.33243000  0.66411000  0.24135000
   0.50104323  0.83212660  0.30332785
   0.33406000  0.99850000  0.00062000
   0.34372462  0.00579725  0.36121998
   0.50112000  0.16466000  0.06049000
   0.33306000  0.33260000  0.00065000
   0.32826319  0.32466826  0.36195573
   0.33279000  0.66191000  0.00103000
   0.33836507  0.65550436  0.36188590
   0.50000000  0.83116000  0.06060000
   0.33336000  0.99854000  0.12089000
   0.33259000  0.33282000  0.12015000
   0.49958000  0.49779000  0.18076000
   0.33192000  0.66330000  0.12025000
   0.49972000  0.83017000  0.18081000
   0.83178673  0.16444392  0.29884601
   0.66532000  0.33232000  0.24137000
   0.83367490  0.50022274  0.30061149
   0.66623000  0.66534000  0.24124000
   0.83117483  0.83387700  0.30078261
   0.83178000  0.16609000  0.06006000
   0.83424000  0.49924000  0.06020000
   0.66675000  0.66697000  0.00034000
   0.67288000  0.67139510  0.36127628
   0.83291000  0.83387000  0.06067000
   0.83469000  0.16589000  0.18162000
   0.66681000  0.33159000  0.12072000
   0.83279000  0.49851000  0.18135000
   0.66709000  0.66502000  0.12081000
   0.83337000  0.83396000  0.18143000
   0.16277049  0.83616679  0.43682508
Direct configuration=    29
   0.00218000  0.99867000  0.24166000
   0.00302000  0.33361000  0.00057000
   0.98837153  0.32759772  0.37207552
   0.16217000  0.49431000  0.05981000
   0.16492000  0.83554000  0.06027000
   0.50325773  0.49512630  0.30277659
   0.50447000  0.49654000  0.06032000
   0.50514000  0.16237000  0.18167000
   0.66136000  0.00065000  0.24022000
   0.66603000  0.99799000  0.00047000
   0.66982488  0.00811755  0.36755564
   0.65989000  0.33950000  0.00031000
   0.65654767  0.33967959  0.36160335
   0.66352000  0.99935000  0.12162000
   0.16558703  0.16428956  0.30259224
   0.99997000  0.33205000  0.24166000
   0.16587902  0.49622459  0.30419678
   0.00013000  0.66493000  0.24143000
   0.16911188  0.82944893  0.30444258
   0.99854000  0.00048000  0.00000000
   0.98905671  0.00379364  0.35869476
   0.16550000  0.16500000  0.06050000
   0.00106000  0.66662000  0.00057000
   0.99074721  0.65788785  0.36115617
   0.99930000  0.99936000  0.12074000
   0.16685000  0.16538000  0.18105000
   0.99936000  0.33161000  0.12083000
   0.16544000  0.49812000  0.18093000
   0.00040000  0.66536000  0.12057000
   0.16627000  0.83203000  0.18103000
   0.33360000  0.99731000  0.24116000
   0.49897893  0.16521767  0.30021468
   0.33251000  0.33244000  0.24115000
   0.33243000  0.66411000  0.24135000
   0.50079734  0.83201952  0.30324642
   0.33406000  0.99850000  0.00062000
   0.34399252  0.00592077  0.36106434
   0.50112000  0.16466000  0.06049000
   0.33306000  0.33260000  0.00065000
   0.32792451  0.32495425  0.36200381
   0.33279000  0.66191000  0.00103000
   0.33833749  0.65564165  0.36182784
   0.50000000  0.83116000  0.06060000
   0.33336000  0.99854000  0.12089000
   0.33259000  0.33282000  0.12015000
   0.49958000  0.49779000  0.18076000
   0.33192000  0.66330000  0.12025000
   0.49972000  0.83017000  0.18081000
   0.83168604  0.16437430  0.29879103
   0.66532000  0.33232000  0.24137000
   0.83360322  0.50024299  0.30069944
   0.66623000  0.66534000  0.24124000
   0.83162244  0.83371372  0.30087150
   0.83178000  0.16609000  0.06006000
   0.83424000  0.49924000  0.06020000
   0.66675000  0.66697000  0.00034000
   0.67277015  0.67158075  0.36115868
   0.83291000  0.83387000  0.06067000
   0.83469000  0.16589000  0.18162000
   0.66681000  0.33159000  0.12072000
   0.83279000  0.49851000  0.18135000
   0.66709000  0.66502000  0.12081000
   0.83337000  0.83396000  0.18143000
   0.16299967  0.83614456  0.43688175
Direct configuration=    30
   0.00218000  0.99867000  0.24166000
   0.00302000  0.33361000  0.00057000
   0.98957078  0.32766311  0.37061856
   0.16217000  0.49431000  0.05981000
   0.16492000  0.83554000  0.06027000
   0.50305093  0.49460895  0.30309543
   0.50447000  0.49654000  0.06032000
   0.50514000  0.16237000  0.18167000
   0.66136000  0.00065000  0.24022000
   0.66603000  0.99799000  0.00047000
   0.66889604  0.00660668  0.36699752
   0.65989000  0.33950000  0.00031000
   0.65699935  0.33933658  0.36337598
   0.66352000  0.99935000  0.12162000
   0.16673535  0.16390097  0.30255749
   0.99997000  0.33205000  0.24166000
   0.16606628  0.49660926  0.30404667
   0.00013000  0.66493000  0.24143000
   0.16841382  0.82960022  0.30477139
   0.99854000  0.00048000  0.00000000
   0.98848924  0.00602441  0.35880561
   0.16550000  0.16500000  0.06050000
   0.00106000  0.66662000  0.00057000
   0.99011291  0.65635576  0.36123105
   0.99930000  0.99936000  0.12074000
   0.16685000  0.16538000  0.18105000
   0.99936000  0.33161000  0.12083000
   0.16544000  0.49812000  0.18093000
   0.00040000  0.66536000  0.12057000
   0.16627000  0.83203000  0.18103000
   0.33360000  0.99731000  0.24116000
   0.49814202  0.16440079  0.30067407
   0.33251000  0.33244000  0.24115000
   0.33243000  0.66411000  0.24135000
   0.50005965  0.83169829  0.30300214
   0.33406000  0.99850000  0.00062000
   0.34479623  0.00629132  0.36059743
   0.50112000  0.16466000  0.06049000
   0.33306000  0.33260000  0.00065000
   0.32690847  0.32581221  0.36214805
   0.33279000  0.66191000  0.00103000
   0.33825474  0.65605351  0.36165368
   0.50000000  0.83116000  0.06060000
   0.33336000  0.99854000  0.12089000
   0.33259000  0.33282000  0.12015000
   0.49958000  0.49779000  0.18076000
   0.33192000  0.66330000  0.12025000
   0.49972000  0.83017000  0.18081000
   0.83138398  0.16416546  0.29862608
   0.66532000  0.33232000  0.24137000
   0.83338817  0.50030377  0.30096328
   0.66623000  0.66534000  0.24124000
   0.83296525  0.83322387  0.30113818
   0.83178000  0.16609000  0.06006000
   0.83424000  0.49924000  0.06020000
   0.66675000  0.66697000  0.00034000
   0.67244060  0.67213773  0.36080589
   0.83291000  0.83387000  0.06067000
   0.83469000  0.16589000  0.18162000
   0.66681000  0.33159000  0.12072000
   0.83279000  0.49851000  0.18135000
   0.66709000  0.66502000  0.12081000
   0.83337000  0.83396000  0.18143000
   0.16368723  0.83607787  0.43705174
Direct configuration=    31
   0.00218000  0.99867000  0.24166000
   0.00302000  0.33361000  0.00057000
   0.99000836  0.32768697  0.37008695
   0.16217000  0.49431000  0.05981000
   0.16492000  0.83554000  0.06027000
   0.50297548  0.49442019  0.30321177
   0.50447000  0.49654000  0.06032000
   0.50514000  0.16237000  0.18167000
   0.66136000  0.00065000  0.24022000
   0.66603000  0.99799000  0.00047000
   0.66855713  0.00605540  0.36679388
   0.65989000  0.33950000  0.00031000
   0.65716416  0.33921143  0.36402278
   0.66352000  0.99935000  0.12162000
   0.16715434  0.16375918  0.30254481
   0.99997000  0.33205000  0.24166000
   0.16613460  0.49674962  0.30399190
   0.00013000  0.66493000  0.24143000
   0.16815911  0.82965542  0.30489136
   0.99854000  0.00048000  0.00000000
   0.98828218  0.00683837  0.35884606
   0.16550000  0.16500000  0.06050000
   0.00106000  0.66662000  0.00057000
   0.98988147  0.65579674  0.36125837
   0.99930000  0.99936000  0.12074000
   0.16685000  0.16538000  0.18105000
   0.99936000  0.33161000  0.12083000
   0.16544000  0.49812000  0.18093000
   0.00040000  0.66536000  0.12057000
   0.16627000  0.83203000  0.18103000
   0.33360000  0.99731000  0.24116000
   0.49783665  0.16410273  0.30084169
   0.33251000  0.33244000  0.24115000
   0.33243000  0.66411000  0.24135000
   0.49979049  0.83158108  0.30291300
   0.33406000  0.99850000  0.00062000
   0.34508948  0.00642653  0.36042707
   0.50112000  0.16466000  0.06049000
   0.33306000  0.33260000  0.00065000
   0.32653774  0.32612526  0.36220068
   0.33279000  0.66191000  0.00103000
   0.33822455  0.65620379  0.36159014
   0.50000000  0.83116000  0.06060000
   0.33336000  0.99854000  0.12089000
   0.33259000  0.33282000  0.12015000
   0.49958000  0.49779000  0.18076000
   0.33192000  0.66330000  0.12025000
   0.49972000  0.83017000  0.18081000
   0.83127376  0.16408926  0.29856590
   0.66532000  0.33232000  0.24137000
   0.83330971  0.50032595  0.30105955
   0.66623000  0.66534000  0.24124000
   0.83345521  0.83304513  0.30123548
   0.83178000  0.16609000  0.06006000
   0.83424000  0.49924000  0.06020000
   0.66675000  0.66697000  0.00034000
   0.67232035  0.67234095  0.36067716
   0.83291000  0.83387000  0.06067000
   0.83469000  0.16589000  0.18162000
   0.66681000  0.33159000  0.12072000
   0.83279000  0.49851000  0.18135000
   0.66709000  0.66502000  0.12081000
   0.83337000  0.83396000  0.18143000
   0.16393810  0.83605353  0.43711377
Direct configuration=    32
   0.00218000  0.99867000  0.24166000
   0.00302000  0.33361000  0.00057000
   0.98976406  0.32767365  0.37038375
   0.16217000  0.49431000  0.05981000
   0.16492000  0.83554000  0.06027000
   0.50301761  0.49452558  0.30314682
   0.50447000  0.49654000  0.06032000
   0.50514000  0.16237000  0.18167000
   0.66136000  0.00065000  0.24022000
   0.66603000  0.99799000  0.00047000
   0.66874634  0.00636317  0.36690757
   0.65989000  0.33950000  0.00031000
   0.65707214  0.33928130  0.36366167
   0.66352000  0.99935000  0.12162000
   0.16692042  0.16383834  0.30255189
   0.99997000  0.33205000  0.24166000
   0.16609646  0.49667126  0.30402248
   0.00013000  0.66493000  0.24143000
   0.16830131  0.82962460  0.30482438
   0.99854000  0.00048000  0.00000000
   0.98839778  0.00638394  0.35882348
   0.16550000  0.16500000  0.06050000
   0.00106000  0.66662000  0.00057000
   0.99001069  0.65610884  0.36124312
   0.99930000  0.99936000  0.12074000
   0.16685000  0.16538000  0.18105000
   0.99936000  0.33161000  0.12083000
   0.16544000  0.49812000  0.18093000
   0.00040000  0.66536000  0.12057000
   0.16627000  0.83203000  0.18103000
   0.33360000  0.99731000  0.24116000
   0.49800714  0.16426914  0.30074811
   0.33251000  0.33244000  0.24115000
   0.33243000  0.66411000  0.24135000
   0.49994076  0.83164652  0.30296276
   0.33406000  0.99850000  0.00062000
   0.34492576  0.00635104  0.36052218
   0.50112000  0.16466000  0.06049000
   0.33306000  0.33260000  0.00065000
   0.32674472  0.32595049  0.36217129
   0.33279000  0.66191000  0.00103000
   0.33824140  0.65611989  0.36162562
   0.50000000  0.83116000  0.06060000
   0.33336000  0.99854000  0.12089000
   0.33259000  0.33282000  0.12015000
   0.49958000  0.49779000  0.18076000
   0.33192000  0.66330000  0.12025000
   0.49972000  0.83017000  0.18081000
   0.83133530  0.16413180  0.29859950
   0.66532000  0.33232000  0.24137000
   0.83335352  0.50031357  0.30100580
   0.66623000  0.66534000  0.24124000
   0.83318167  0.83314492  0.30118116
   0.83178000  0.16609000  0.06006000
   0.83424000  0.49924000  0.06020000
   0.66675000  0.66697000  0.00034000
   0.67238749  0.67222749  0.36074903
   0.83291000  0.83387000  0.06067000
   0.83469000  0.16589000  0.18162000
   0.66681000  0.33159000  0.12072000
   0.83279000  0.49851000  0.18135000
   0.66709000  0.66502000  0.12081000
   0.83337000  0.83396000  0.18143000
   0.16379804  0.83606712  0.43707914
Direct configuration=    33
   0.00218000  0.99867000  0.24166000
   0.00302000  0.33361000  0.00057000
   0.98968460  0.32766932  0.37048028
   0.16217000  0.49431000  0.05981000
   0.16492000  0.83554000  0.06027000
   0.50303131  0.49455985  0.30312570
   0.50447000  0.49654000  0.06032000
   0.50514000  0.16237000  0.18167000
   0.66136000  0.00065000  0.24022000
   0.66603000  0.99799000  0.00047000
   0.66880789  0.00646328  0.36694455
   0.65989000  0.33950000  0.00031000
   0.65704222  0.33930403  0.36354423
   0.66352000  0.99935000  0.12162000
   0.16684433  0.16386409  0.30255419
   0.99997000  0.33205000  0.24166000
   0.16608405  0.49664577  0.30403242
   0.00013000  0.66493000  0.24143000
   0.16834756  0.82961458  0.30480259
   0.99854000  0.00048000  0.00000000
   0.98843538  0.00623613  0.35881613
   0.16550000  0.16500000  0.06050000
   0.00106000  0.66662000  0.00057000
   0.99005271  0.65621035  0.36123816
   0.99930000  0.99936000  0.12074000
   0.16685000  0.16538000  0.18105000
   0.99936000  0.33161000  0.12083000
   0.16544000  0.49812000  0.18093000
   0.00040000  0.66536000  0.12057000
   0.16627000  0.83203000  0.18103000
   0.33360000  0.99731000  0.24116000
   0.49806259  0.16432326  0.30071767
   0.33251000  0.33244000  0.24115000
   0.33243000  0.66411000  0.24135000
   0.49998964  0.83166780  0.30297895
   0.33406000  0.99850000  0.00062000
   0.34487251  0.00632649  0.36055312
   0.50112000  0.16466000  0.06049000
   0.33306000  0.33260000  0.00065000
   0.32681203  0.32589364  0.36216174
   0.33279000  0.66191000  0.00103000
   0.33824688  0.65609260  0.36163715
   0.50000000  0.83116000  0.06060000
   0.33336000  0.99854000  0.12089000
   0.33259000  0.33282000  0.12015000
   0.49958000  0.49779000  0.18076000
   0.33192000  0.66330000  0.12025000
   0.49972000  0.83017000  0.18081000
   0.83135531  0.16414564  0.29861043
   0.66532000  0.33232000  0.24137000
   0.83336776  0.50030954  0.30098832
   0.66623000  0.66534000  0.24124000
   0.83309270  0.83317738  0.30116349
   0.83178000  0.16609000  0.06006000
   0.83424000  0.49924000  0.06020000
   0.66675000  0.66697000  0.00034000
   0.67240932  0.67219059  0.36077240
   0.83291000  0.83387000  0.06067000
   0.83469000  0.16589000  0.18162000
   0.66681000  0.33159000  0.12072000
   0.83279000  0.49851000  0.18135000
   0.66709000  0.66502000  0.12081000
   0.83337000  0.83396000  0.18143000
   0.16375248  0.83607154  0.43706788
Direct configuration=    34
   0.00218000  0.99867000  0.24166000
   0.00302000  0.33361000  0.00057000
   0.99015104  0.32761683  0.36984704
   0.16217000  0.49431000  0.05981000
   0.16492000  0.83554000  0.06027000
   0.50292593  0.49471414  0.30320024
   0.50447000  0.49654000  0.06032000
   0.50514000  0.16237000  0.18167000
   0.66136000  0.00065000  0.24022000
   0.66603000  0.99799000  0.00047000
   0.66892635  0.00585726  0.36666714
   0.65989000  0.33950000  0.00031000
   0.65766331  0.33877924  0.36413652
   0.66352000  0.99935000  0.12162000
   0.16661713  0.16386460  0.30256020
   0.99997000  0.33205000  0.24166000
   0.16599454  0.49690154  0.30394939
   0.00013000  0.66493000  0.24143000
   0.16819216  0.82980388  0.30482507
   0.99854000  0.00048000  0.00000000
   0.98857906  0.00659631  0.35896979
   0.16550000  0.16500000  0.06050000
   0.00106000  0.66662000  0.00057000
   0.99025975  0.65595063  0.36135866
   0.99930000  0.99936000  0.12074000
   0.16685000  0.16538000  0.18105000
   0.99936000  0.33161000  0.12083000
   0.16544000  0.49812000  0.18093000
   0.00040000  0.66536000  0.12057000
   0.16627000  0.83203000  0.18103000
   0.33360000  0.99731000  0.24116000
   0.49800697  0.16499605  0.30054002
   0.33251000  0.33244000  0.24115000
   0.33243000  0.66411000  0.24135000
   0.49980928  0.83143479  0.30281965
   0.33406000  0.99850000  0.00062000
   0.34471142  0.00590236  0.36063353
   0.50112000  0.16466000  0.06049000
   0.33306000  0.33260000  0.00065000
   0.32645492  0.32621771  0.36213367
   0.33279000  0.66191000  0.00103000
   0.33819262  0.65630687  0.36162234
   0.50000000  0.83116000  0.06060000
   0.33336000  0.99854000  0.12089000
   0.33259000  0.33282000  0.12015000
   0.49958000  0.49779000  0.18076000
   0.33192000  0.66330000  0.12025000
   0.49972000  0.83017000  0.18081000
   0.83086633  0.16468388  0.29881726
   0.66532000  0.33232000  0.24137000
   0.83293573  0.49979550  0.30097108
   0.66623000  0.66534000  0.24124000
   0.83337044  0.83291982  0.30119747
   0.83178000  0.16609000  0.06006000
   0.83424000  0.49924000  0.06020000
   0.66675000  0.66697000  0.00034000
   0.67217480  0.67221570  0.36067806
   0.83291000  0.83387000  0.06067000
   0.83469000  0.16589000  0.18162000
   0.66681000  0.33159000  0.12072000
   0.83279000  0.49851000  0.18135000
   0.66709000  0.66502000  0.12081000
   0.83337000  0.83396000  0.18143000
   0.16378198  0.83628658  0.43684511
Direct configuration=    35
   0.00218000  0.99867000  0.24166000
   0.00302000  0.33361000  0.00057000
   0.99050023  0.32757754  0.36937297
   0.16217000  0.49431000  0.05981000
   0.16492000  0.83554000  0.06027000
   0.50284704  0.49482965  0.30325604
   0.50447000  0.49654000  0.06032000
   0.50514000  0.16237000  0.18167000
   0.66136000  0.00065000  0.24022000
   0.66603000  0.99799000  0.00047000
   0.66901504  0.00540357  0.36645946
   0.65989000  0.33950000  0.00031000
   0.65812828  0.33838637  0.36457994
   0.66352000  0.99935000  0.12162000
   0.16644703  0.16386498  0.30256470
   0.99997000  0.33205000  0.24166000
   0.16592753  0.49709302  0.30388723
   0.00013000  0.66493000  0.24143000
   0.16807581  0.82994559  0.30484189
   0.99854000  0.00048000  0.00000000
   0.98868662  0.00686595  0.35908483
   0.16550000  0.16500000  0.06050000
   0.00106000  0.66662000  0.00057000
   0.99041474  0.65575620  0.36144888
   0.99930000  0.99936000  0.12074000
   0.16685000  0.16538000  0.18105000
   0.99936000  0.33161000  0.12083000
   0.16544000  0.49812000  0.18093000
   0.00040000  0.66536000  0.12057000
   0.16627000  0.83203000  0.18103000
   0.33360000  0.99731000  0.24116000
   0.49796534  0.16549973  0.30040702
   0.33251000  0.33244000  0.24115000
   0.33243000  0.66411000  0.24135000
   0.49967425  0.83126035  0.30270040
   0.33406000  0.99850000  0.00062000
   0.34459083  0.00558484  0.36069373
   0.50112000  0.16466000  0.06049000
   0.33306000  0.33260000  0.00065000
   0.32618757  0.32646032  0.36211266
   0.33279000  0.66191000  0.00103000
   0.33815200  0.65646728  0.36161126
   0.50000000  0.83116000  0.06060000
   0.33336000  0.99854000  0.12089000
   0.33259000  0.33282000  0.12015000
   0.49958000  0.49779000  0.18076000
   0.33192000  0.66330000  0.12025000
   0.49972000  0.83017000  0.18081000
   0.83050026  0.16508682  0.29897209
   0.66532000  0.33232000  0.24137000
   0.83261229  0.49941067  0.30095817
   0.66623000  0.66534000  0.24124000
   0.83357837  0.83272700  0.30122292
   0.83178000  0.16609000  0.06006000
   0.83424000  0.49924000  0.06020000
   0.66675000  0.66697000  0.00034000
   0.67199923  0.67223450  0.36060744
   0.83291000  0.83387000  0.06067000
   0.83469000  0.16589000  0.18162000
   0.66681000  0.33159000  0.12072000
   0.83279000  0.49851000  0.18135000
   0.66709000  0.66502000  0.12081000
   0.83337000  0.83396000  0.18143000
   0.16380406  0.83644757  0.43667834
Direct configuration=    36
   0.00218000  0.99867000  0.24166000
   0.00302000  0.33361000  0.00057000
   0.99042226  0.32758632  0.36947882
   0.16217000  0.49431000  0.05981000
   0.16492000  0.83554000  0.06027000
   0.50286465  0.49480386  0.30324358
   0.50447000  0.49654000  0.06032000
   0.50514000  0.16237000  0.18167000
   0.66136000  0.00065000  0.24022000
   0.66603000  0.99799000  0.00047000
   0.66899524  0.00550488  0.36650583
   0.65989000  0.33950000  0.00031000
   0.65802446  0.33847410  0.36448093
   0.66352000  0.99935000  0.12162000
   0.16648501  0.16386489  0.30256369
   0.99997000  0.33205000  0.24166000
   0.16594249  0.49705027  0.30390111
   0.00013000  0.66493000  0.24143000
   0.16810179  0.82991395  0.30483814
   0.99854000  0.00048000  0.00000000
   0.98866260  0.00680574  0.35905915
   0.16550000  0.16500000  0.06050000
   0.00106000  0.66662000  0.00057000
   0.99038013  0.65579961  0.36142873
   0.99930000  0.99936000  0.12074000
   0.16685000  0.16538000  0.18105000
   0.99936000  0.33161000  0.12083000
   0.16544000  0.49812000  0.18093000
   0.00040000  0.66536000  0.12057000
   0.16627000  0.83203000  0.18103000
   0.33360000  0.99731000  0.24116000
   0.49797463  0.16538727  0.30043671
   0.33251000  0.33244000  0.24115000
   0.33243000  0.66411000  0.24135000
   0.49970440  0.83129930  0.30272703
   0.33406000  0.99850000  0.00062000
   0.34461775  0.00565574  0.36068029
   0.50112000  0.16466000  0.06049000
   0.33306000  0.33260000  0.00065000
   0.32624726  0.32640615  0.36211735
   0.33279000  0.66191000  0.00103000
   0.33816107  0.65643146  0.36161373
   0.50000000  0.83116000  0.06060000
   0.33336000  0.99854000  0.12089000
   0.33259000  0.33282000  0.12015000
   0.49958000  0.49779000  0.18076000
   0.33192000  0.66330000  0.12025000
   0.49972000  0.83017000  0.18081000
   0.83058200  0.16499685  0.29893752
   0.66532000  0.33232000  0.24137000
   0.83268451  0.49949660  0.30096106
   0.66623000  0.66534000  0.24124000
   0.83353194  0.83277006  0.30121723
   0.83178000  0.16609000  0.06006000
   0.83424000  0.49924000  0.06020000
   0.66675000  0.66697000  0.00034000
   0.67203844  0.67223030  0.36062321
   0.83291000  0.83387000  0.06067000
   0.83469000  0.16589000  0.18162000
   0.66681000  0.33159000  0.12072000
   0.83279000  0.49851000  0.18135000
   0.66709000  0.66502000  0.12081000
   0.83337000  0.83396000  0.18143000
   0.16379913  0.83641162  0.43671558
Direct configuration=    37
   0.00218000  0.99867000  0.24166000
   0.00302000  0.33361000  0.00057000
   0.99028665  0.32760157  0.36966293
   0.16217000  0.49431000  0.05981000
   0.16492000  0.83554000  0.06027000
   0.50289529  0.49475900  0.30322191
   0.50447000  0.49654000  0.06032000
   0.50514000  0.16237000  0.18167000
   0.66136000  0.00065000  0.24022000
   0.66603000  0.99799000  0.00047000
   0.66896079  0.00568107  0.36658649
   0.65989000  0.33950000  0.00031000
   0.65784388  0.33862667  0.36430872
   0.66352000  0.99935000  0.12162000
   0.16655107  0.16386474  0.30256194
   0.99997000  0.33205000  0.24166000
   0.16596852  0.49697591  0.30392525
   0.00013000  0.66493000  0.24143000
   0.16814697  0.82985891  0.30483160
   0.99854000  0.00048000  0.00000000
   0.98862083  0.00670103  0.35901447
   0.16550000  0.16500000  0.06050000
   0.00106000  0.66662000  0.00057000
   0.99031994  0.65587512  0.36139370
   0.99930000  0.99936000  0.12074000
   0.16685000  0.16538000  0.18105000
   0.99936000  0.33161000  0.12083000
   0.16544000  0.49812000  0.18093000
   0.00040000  0.66536000  0.12057000
   0.16627000  0.83203000  0.18103000
   0.33360000  0.99731000  0.24116000
   0.49799080  0.16519166  0.30048837
   0.33251000  0.33244000  0.24115000
   0.33243000  0.66411000  0.24135000
   0.49975684  0.83136704  0.30277334
   0.33406000  0.99850000  0.00062000
   0.34466459  0.00577905  0.36065691
   0.50112000  0.16466000  0.06049000
   0.33306000  0.33260000  0.00065000
   0.32635109  0.32631193  0.36212551
   0.33279000  0.66191000  0.00103000
   0.33817685  0.65636916  0.36161804
   0.50000000  0.83116000  0.06060000
   0.33336000  0.99854000  0.12089000
   0.33259000  0.33282000  0.12015000
   0.49958000  0.49779000  0.18076000
   0.33192000  0.66330000  0.12025000
   0.49972000  0.83017000  0.18081000
   0.83072416  0.16484036  0.29887739
   0.66532000  0.33232000  0.24137000
   0.83281012  0.49964605  0.30096607
   0.66623000  0.66534000  0.24124000
   0.83345119  0.83284494  0.30120735
   0.83178000  0.16609000  0.06006000
   0.83424000  0.49924000  0.06020000
   0.66675000  0.66697000  0.00034000
   0.67210662  0.67222300  0.36065064
   0.83291000  0.83387000  0.06067000
   0.83469000  0.16589000  0.18162000
   0.66681000  0.33159000  0.12072000
   0.83279000  0.49851000  0.18135000
   0.66709000  0.66502000  0.12081000
   0.83337000  0.83396000  0.18143000
   0.16379055  0.83634910  0.43678035
Direct configuration=    38
   0.00218000  0.99867000  0.24166000
   0.00302000  0.33361000  0.00057000
   0.99035542  0.32759384  0.36956956
   0.16217000  0.49431000  0.05981000
   0.16492000  0.83554000  0.06027000
   0.50287975  0.49478175  0.30323290
   0.50447000  0.49654000  0.06032000
   0.50514000  0.16237000  0.18167000
   0.66136000  0.00065000  0.24022000
   0.66603000  0.99799000  0.00047000
   0.66897826  0.00559171  0.36654558
   0.65989000  0.33950000  0.00031000
   0.65793547  0.33854929  0.36439606
   0.66352000  0.99935000  0.12162000
   0.16651757  0.16386482  0.30256283
   0.99997000  0.33205000  0.24166000
   0.16595532  0.49701362  0.30391301
   0.00013000  0.66493000  0.24143000
   0.16812406  0.82988683  0.30483492
   0.99854000  0.00048000  0.00000000
   0.98864202  0.00675414  0.35903713
   0.16550000  0.16500000  0.06050000
   0.00106000  0.66662000  0.00057000
   0.99035047  0.65583683  0.36141147
   0.99930000  0.99936000  0.12074000
   0.16685000  0.16538000  0.18105000
   0.99936000  0.33161000  0.12083000
   0.16544000  0.49812000  0.18093000
   0.00040000  0.66536000  0.12057000
   0.16627000  0.83203000  0.18103000
   0.33360000  0.99731000  0.24116000
   0.49798260  0.16529086  0.30046217
   0.33251000  0.33244000  0.24115000
   0.33243000  0.66411000  0.24135000
   0.49973025  0.83133268  0.30274985
   0.33406000  0.99850000  0.00062000
   0.34464083  0.00571651  0.36066877
   0.50112000  0.16466000  0.06049000
   0.33306000  0.33260000  0.00065000
   0.32629843  0.32635971  0.36212137
   0.33279000  0.66191000  0.00103000
   0.33816885  0.65640076  0.36161586
   0.50000000  0.83116000  0.06060000
   0.33336000  0.99854000  0.12089000
   0.33259000  0.33282000  0.12015000
   0.49958000  0.49779000  0.18076000
   0.33192000  0.66330000  0.12025000
   0.49972000  0.83017000  0.18081000
   0.83065206  0.16491972  0.29890788
   0.66532000  0.33232000  0.24137000
   0.83274641  0.49957025  0.30096353
   0.66623000  0.66534000  0.24124000
   0.83349214  0.83280696  0.30121236
   0.83178000  0.16609000  0.06006000
   0.83424000  0.49924000  0.06020000
   0.66675000  0.66697000  0.00034000
   0.67207204  0.67222670  0.36063673
   0.83291000  0.83387000  0.06067000
   0.83469000  0.16589000  0.18162000
   0.66681000  0.33159000  0.12072000
   0.83279000  0.49851000  0.18135000
   0.66709000  0.66502000  0.12081000
   0.83337000  0.83396000  0.18143000
   0.16379490  0.83638081  0.43674750
Direct configuration=    39
   0.00218000  0.99867000  0.24166000
   0.00302000  0.33361000  0.00057000
   0.99036497  0.32769944  0.36958988
   0.16217000  0.49431000  0.05981000
   0.16492000  0.83554000  0.06027000
   0.50295440  0.49484489  0.30323015
   0.50447000  0.49654000  0.06032000
   0.50514000  0.16237000  0.18167000
   0.66136000  0.00065000  0.24022000
   0.66603000  0.99799000  0.00047000
   0.66905295  0.00561116  0.36643174
   0.65989000  0.33950000  0.00031000
   0.65804947  0.33828125  0.36435237
   0.66352000  0.99935000  0.12162000
   0.16633857  0.16378724  0.30253568
   0.99997000  0.33205000  0.24166000
   0.16595299  0.49713502  0.30387818
   0.00013000  0.66493000  0.24143000
   0.16819764  0.82994910  0.30473580
   0.99854000  0.00048000  0.00000000
   0.98868276  0.00657750  0.35900386
   0.16550000  0.16500000  0.06050000
   0.00106000  0.66662000  0.00057000
   0.99043273  0.65582302  0.36136965
   0.99930000  0.99936000  0.12074000
   0.16685000  0.16538000  0.18105000
   0.99936000  0.33161000  0.12083000
   0.16544000  0.49812000  0.18093000
   0.00040000  0.66536000  0.12057000
   0.16627000  0.83203000  0.18103000
   0.33360000  0.99731000  0.24116000
   0.49797823  0.16540879  0.30049725
   0.33251000  0.33244000  0.24115000
   0.33243000  0.66411000  0.24135000
   0.49983250  0.83156122  0.30275864
   0.33406000  0.99850000  0.00062000
   0.34467770  0.00568464  0.36066303
   0.50112000  0.16466000  0.06049000
   0.33306000  0.33260000  0.00065000
   0.32645206  0.32636318  0.36200352
   0.33279000  0.66191000  0.00103000
   0.33818403  0.65638636  0.36166009
   0.50000000  0.83116000  0.06060000
   0.33336000  0.99854000  0.12089000
   0.33259000  0.33282000  0.12015000
   0.49958000  0.49779000  0.18076000
   0.33192000  0.66330000  0.12025000
   0.49972000  0.83017000  0.18081000
   0.83055131  0.16488436  0.29894740
   0.66532000  0.33232000  0.24137000
   0.83274034  0.49966436  0.30093014
   0.66623000  0.66534000  0.24124000
   0.83341247  0.83288922  0.30116420
   0.83178000  0.16609000  0.06006000
   0.83424000  0.49924000  0.06020000
   0.66675000  0.66697000  0.00034000
   0.67196063  0.67187747  0.36066963
   0.83291000  0.83387000  0.06067000
   0.83469000  0.16589000  0.18162000
   0.66681000  0.33159000  0.12072000
   0.83279000  0.49851000  0.18135000
   0.66709000  0.66502000  0.12081000
   0.83337000  0.83396000  0.18143000
   0.16357125  0.83652040  0.43666189
Direct configuration=    40
   0.00218000  0.99867000  0.24166000
   0.00302000  0.33361000  0.00057000
   0.99036810  0.32773400  0.36959654
   0.16217000  0.49431000  0.05981000
   0.16492000  0.83554000  0.06027000
   0.50297883  0.49486555  0.30322925
   0.50447000  0.49654000  0.06032000
   0.50514000  0.16237000  0.18167000
   0.66136000  0.00065000  0.24022000
   0.66603000  0.99799000  0.00047000
   0.66907740  0.00561753  0.36639448
   0.65989000  0.33950000  0.00031000
   0.65808679  0.33819352  0.36433806
   0.66352000  0.99935000  0.12162000
   0.16627998  0.16376185  0.30252679
   0.99997000  0.33205000  0.24166000
   0.16595223  0.49717476  0.30386678
   0.00013000  0.66493000  0.24143000
   0.16822173  0.82996948  0.30470335
   0.99854000  0.00048000  0.00000000
   0.98869609  0.00651969  0.35899297
   0.16550000  0.16500000  0.06050000
   0.00106000  0.66662000  0.00057000
   0.99045966  0.65581850  0.36135596
   0.99930000  0.99936000  0.12074000
   0.16685000  0.16538000  0.18105000
   0.99936000  0.33161000  0.12083000
   0.16544000  0.49812000  0.18093000
   0.00040000  0.66536000  0.12057000
   0.16627000  0.83203000  0.18103000
   0.33360000  0.99731000  0.24116000
   0.49797680  0.16544739  0.30050874
   0.33251000  0.33244000  0.24115000
   0.33243000  0.66411000  0.24135000
   0.49986597  0.83163602  0.30276151
   0.33406000  0.99850000  0.00062000
   0.34468977  0.00567420  0.36066116
   0.50112000  0.16466000  0.06049000
   0.33306000  0.33260000  0.00065000
   0.32650235  0.32636432  0.36196495
   0.33279000  0.66191000  0.00103000
   0.33818900  0.65638165  0.36167456
   0.50000000  0.83116000  0.06060000
   0.33336000  0.99854000  0.12089000
   0.33259000  0.33282000  0.12015000
   0.49958000  0.49779000  0.18076000
   0.33192000  0.66330000  0.12025000
   0.49972000  0.83017000  0.18081000
   0.83051833  0.16487278  0.29896034
   0.66532000  0.33232000  0.24137000
   0.83273836  0.49969516  0.30091922
   0.66623000  0.66534000  0.24124000
   0.83338639  0.83291614  0.30114844
   0.83178000  0.16609000  0.06006000
   0.83424000  0.49924000  0.06020000
   0.66675000  0.66697000  0.00034000
   0.67192416  0.67176316  0.36068040
   0.83291000  0.83387000  0.06067000
   0.83469000  0.16589000  0.18162000
   0.66681000  0.33159000  0.12072000
   0.83279000  0.49851000  0.18135000
   0.66709000  0.66502000  0.12081000
   0.83337000  0.83396000  0.18143000
   0.16349805  0.83656609  0.43663387
Direct configuration=    41
   0.00218000  0.99867000  0.24166000
   0.00302000  0.33361000  0.00057000
   0.99037435  0.32780313  0.36960984
   0.16217000  0.49431000  0.05981000
   0.16492000  0.83554000  0.06027000
   0.50302769  0.49490688  0.30322745
   0.50447000  0.49654000  0.06032000
   0.50514000  0.16237000  0.18167000
   0.66136000  0.00065000  0.24022000
   0.66603000  0.99799000  0.00047000
   0.66912630  0.00563026  0.36631995
   0.65989000  0.33950000  0.00031000
   0.65816143  0.33801805  0.36430946
   0.66352000  0.99935000  0.12162000
   0.16616279  0.16371106  0.30250902
   0.99997000  0.33205000  0.24166000
   0.16595070  0.49725423  0.30384398
   0.00013000  0.66493000  0.24143000
   0.16826990  0.83001024  0.30463847
   0.99854000  0.00048000  0.00000000
   0.98872277  0.00640406  0.35897118
   0.16550000  0.16500000  0.06050000
   0.00106000  0.66662000  0.00057000
   0.99051352  0.65580947  0.36132858
   0.99930000  0.99936000  0.12074000
   0.16685000  0.16538000  0.18105000
   0.99936000  0.33161000  0.12083000
   0.16544000  0.49812000  0.18093000
   0.00040000  0.66536000  0.12057000
   0.16627000  0.83203000  0.18103000
   0.33360000  0.99731000  0.24116000
   0.49797394  0.16552460  0.30053170
   0.33251000  0.33244000  0.24115000
   0.33243000  0.66411000  0.24135000
   0.49993290  0.83178563  0.30276726
   0.33406000  0.99850000  0.00062000
   0.34471390  0.00565334  0.36065740
   0.50112000  0.16466000  0.06049000
   0.33306000  0.33260000  0.00065000
   0.32660292  0.32636659  0.36188780
   0.33279000  0.66191000  0.00103000
   0.33819894  0.65637222  0.36170352
   0.50000000  0.83116000  0.06060000
   0.33336000  0.99854000  0.12089000
   0.33259000  0.33282000  0.12015000
   0.49958000  0.49779000  0.18076000
   0.33192000  0.66330000  0.12025000
   0.49972000  0.83017000  0.18081000
   0.83045238  0.16484963  0.29898621
   0.66532000  0.33232000  0.24137000
   0.83273438  0.49975677  0.30089736
   0.66623000  0.66534000  0.24124000
   0.83333424  0.83296999  0.30111691
   0.83178000  0.16609000  0.06006000
   0.83424000  0.49924000  0.06020000
   0.66675000  0.66697000  0.00034000
   0.67185123  0.67153453  0.36070194
   0.83291000  0.83387000  0.06067000
   0.83469000  0.16589000  0.18162000
   0.66681000  0.33159000  0.12072000
   0.83279000  0.49851000  0.18135000
   0.66709000  0.66502000  0.12081000
   0.83337000  0.83396000  0.18143000
   0.16335164  0.83665748  0.43657782
Direct configuration=    42
   0.00218000  0.99867000  0.24166000
   0.00302000  0.33361000  0.00057000
   0.99037687  0.32783100  0.36961521
   0.16217000  0.49431000  0.05981000
   0.16492000  0.83554000  0.06027000
   0.50304739  0.49492354  0.30322673
   0.50447000  0.49654000  0.06032000
   0.50514000  0.16237000  0.18167000
   0.66136000  0.00065000  0.24022000
   0.66603000  0.99799000  0.00047000
   0.66914601  0.00563539  0.36628991
   0.65989000  0.33950000  0.00031000
   0.65819151  0.33794732  0.36429793
   0.66352000  0.99935000  0.12162000
   0.16611556  0.16369059  0.30250185
   0.99997000  0.33205000  0.24166000
   0.16595009  0.49728627  0.30383478
   0.00013000  0.66493000  0.24143000
   0.16828931  0.83002667  0.30461231
   0.99854000  0.00048000  0.00000000
   0.98873352  0.00635745  0.35896240
   0.16550000  0.16500000  0.06050000
   0.00106000  0.66662000  0.00057000
   0.99053522  0.65580583  0.36131754
   0.99930000  0.99936000  0.12074000
   0.16685000  0.16538000  0.18105000
   0.99936000  0.33161000  0.12083000
   0.16544000  0.49812000  0.18093000
   0.00040000  0.66536000  0.12057000
   0.16627000  0.83203000  0.18103000
   0.33360000  0.99731000  0.24116000
   0.49797278  0.16555571  0.30054096
   0.33251000  0.33244000  0.24115000
   0.33243000  0.66411000  0.24135000
   0.49995988  0.83184593  0.30276958
   0.33406000  0.99850000  0.00062000
   0.34472363  0.00564493  0.36065589
   0.50112000  0.16466000  0.06049000
   0.33306000  0.33260000  0.00065000
   0.32664345  0.32636750  0.36185670
   0.33279000  0.66191000  0.00103000
   0.33820294  0.65636842  0.36171519
   0.50000000  0.83116000  0.06060000
   0.33336000  0.99854000  0.12089000
   0.33259000  0.33282000  0.12015000
   0.49958000  0.49779000  0.18076000
   0.33192000  0.66330000  0.12025000
   0.49972000  0.83017000  0.18081000
   0.83042579  0.16484030  0.29899664
   0.66532000  0.33232000  0.24137000
   0.83273278  0.49978160  0.30088855
   0.66623000  0.66534000  0.24124000
   0.83331322  0.83299170  0.30110420
   0.83178000  0.16609000  0.06006000
   0.83424000  0.49924000  0.06020000
   0.66675000  0.66697000  0.00034000
   0.67182183  0.67144238  0.36071062
   0.83291000  0.83387000  0.06067000
   0.83469000  0.16589000  0.18162000
   0.66681000  0.33159000  0.12072000
   0.83279000  0.49851000  0.18135000
   0.66709000  0.66502000  0.12081000
   0.83337000  0.83396000  0.18143000
   0.16329263  0.83669431  0.43655523
Direct configuration=    43
   0.00218000  0.99867000  0.24166000
   0.00302000  0.33361000  0.00057000
   0.99046003  0.32791092  0.36962666
   0.16217000  0.49431000  0.05981000
   0.16492000  0.83554000  0.06027000
   0.50312223  0.49503216  0.30322212
   0.50447000  0.49654000  0.06032000
   0.50514000  0.16237000  0.18167000
   0.66136000  0.00065000  0.24022000
   0.66603000  0.99799000  0.00047000
   0.66921020  0.00555654  0.36620306
   0.65989000  0.33950000  0.00031000
   0.65840836  0.33773815  0.36426218
   0.66352000  0.99935000  0.12162000
   0.16610005  0.16371166  0.30248028
   0.99997000  0.33205000  0.24166000
   0.16599409  0.49727770  0.30381683
   0.00013000  0.66493000  0.24143000
   0.16836002  0.82998540  0.30458499
   0.99854000  0.00048000  0.00000000
   0.98859582  0.00626069  0.35886751
   0.16550000  0.16500000  0.06050000
   0.00106000  0.66662000  0.00057000
   0.99052117  0.65596401  0.36121541
   0.99930000  0.99936000  0.12074000
   0.16685000  0.16538000  0.18105000
   0.99936000  0.33161000  0.12083000
   0.16544000  0.49812000  0.18093000
   0.00040000  0.66536000  0.12057000
   0.16627000  0.83203000  0.18103000
   0.33360000  0.99731000  0.24116000
   0.49789238  0.16554495  0.30047838
   0.33251000  0.33244000  0.24115000
   0.33243000  0.66411000  0.24135000
   0.49996396  0.83168066  0.30278751
   0.33406000  0.99850000  0.00062000
   0.34477447  0.00566846  0.36062570
   0.50112000  0.16466000  0.06049000
   0.33306000  0.33260000  0.00065000
   0.32674371  0.32642925  0.36172494
   0.33279000  0.66191000  0.00103000
   0.33824964  0.65646518  0.36171260
   0.50000000  0.83116000  0.06060000
   0.33336000  0.99854000  0.12089000
   0.33259000  0.33282000  0.12015000
   0.49958000  0.49779000  0.18076000
   0.33192000  0.66330000  0.12025000
   0.49972000  0.83017000  0.18081000
   0.83055200  0.16490005  0.29895519
   0.66532000  0.33232000  0.24137000
   0.83273156  0.49972382  0.30090537
   0.66623000  0.66534000  0.24124000
   0.83327603  0.83277034  0.30109938
   0.83178000  0.16609000  0.06006000
   0.83424000  0.49924000  0.06020000
   0.66675000  0.66697000  0.00034000
   0.67171928  0.67119207  0.36068605
   0.83291000  0.83387000  0.06067000
   0.83469000  0.16589000  0.18162000
   0.66681000  0.33159000  0.12072000
   0.83279000  0.49851000  0.18135000
   0.66709000  0.66502000  0.12081000
   0.83337000  0.83396000  0.18143000
   0.16303655  0.83682732  0.43649415
