 
:: initializing oneAPI environment ...
   slurm_script: BASH_VERSION = 4.4.20(1)-release
   args: Using "$@" for setvars.sh arguments: --force
:: advisor -- latest
:: ccl -- latest
:: compiler -- latest
:: dal -- latest
:: debugger -- latest
:: dev-utilities -- latest
:: dnnl -- latest
:: dpcpp-ct -- latest
:: dpl -- latest
:: ipp -- latest
:: ippcp -- latest
:: mkl -- latest
:: mpi -- latest
:: pti -- latest
:: tbb -- latest
:: umf -- latest
:: vtune -- latest
:: oneAPI environment initialized ::
 
 running   96 mpi-ranks, on    1 nodes
 distrk:  each k-point on   12 cores,    8 groups
 distr:  one band on    4 cores,    3 groups
 vasp.6.5.1 10Mar25 (build Oct 09 2025 23:55:08) complex                        
  
 POSCAR found type information on POSCAR FeCr
 POSCAR found :  2 types and      62 ions
 -----------------------------------------------------------------------------
|                                                                             |
|           W    W    AA    RRRRR   N    N  II  N    N   GGGG   !!!           |
|           W    W   A  A   R    R  NN   N  II  NN   N  G    G  !!!           |
|           W    W  A    A  R    R  N N  N  II  N N  N  G       !!!           |
|           W WW W  AAAAAA  RRRRR   N  N N  II  N  N N  G  GGG   !            |
|           WW  WW  A    A  R   R   N   NN  II  N   NN  G    G                |
|           W    W  A    A  R    R  N    N  II  N    N   GGGG   !!!           |
|                                                                             |
|     You requested a magnetic or noncollinear calculation, but did not       |
|     specify the initial magnetic moment with the MAGMOM tag. Note that      |
|     a default of 1 will be used for all atoms. This ferromagnetic setup     |
|     may break the symmetry of the crystal, in particular it may rule        |
|     out finding an antiferromagnetic solution. Thence, we recommend         |
|     setting the initial magnetic moment manually or verifying carefully     |
|     that this magnetic setup is desired.                                    |
|                                                                             |
 -----------------------------------------------------------------------------

 scaLAPACK will be used
 -----------------------------------------------------------------------------
|                                                                             |
|           W    W    AA    RRRRR   N    N  II  N    N   GGGG   !!!           |
|           W    W   A  A   R    R  NN   N  II  NN   N  G    G  !!!           |
|           W    W  A    A  R    R  N N  N  II  N N  N  G       !!!           |
|           W WW W  AAAAAA  RRRRR   N  N N  II  N  N N  G  GGG   !            |
|           WW  WW  A    A  R   R   N   NN  II  N   NN  G    G                |
|           W    W  A    A  R    R  N    N  II  N    N   GGGG   !!!           |
|                                                                             |
|     For optimal performance we recommend to set                             |
|       NCORE = 2 up to number-of-cores-per-socket                            |
|     NCORE specifies how many cores store one orbital (NPAR=cpu/NCORE).      |
|     This setting can greatly improve the performance of VASP for DFT.       |
|     The default, NCORE=1 might be grossly inefficient on modern             |
|     multi-core architectures or massively parallel machines. Do your        |
|     own testing! More info at https://www.vasp.at/wiki/index.php/NCORE      |
|     Unfortunately you need to use the default for GW and RPA                |
|     calculations (for HF NCORE is supported but not extensively tested      |
|     yet).                                                                   |
|                                                                             |
 -----------------------------------------------------------------------------

 LDA part: xc-table for (Slater+PW92), standard interpolation
 POSCAR, INCAR and KPOINTS ok, starting setup
 FFT: planning ... GRIDC
 FFT: planning ... GRID_SOFT
 FFT: planning ... GRID
 WAVECAR not read
 WARNING: chargedensity file is incomplete
 WARNING: random wavefunctions but no delay for mixing, default for NELMDL
 entering main loop
       N       E                     dE             d eps       ncg     rms          rms(c)
DAV:   1     0.526789522852E+04    0.52679E+04   -0.23216E+05 15228   0.142E+03
DAV:   2    -0.102180814959E+03   -0.53701E+04   -0.51790E+04 14400   0.417E+02
DAV:   3    -0.519607413341E+03   -0.41743E+03   -0.36907E+03 14958   0.157E+02
DAV:   4    -0.575186356754E+03   -0.55579E+02   -0.51939E+02 25686   0.440E+01
DAV:   5    -0.578242474134E+03   -0.30561E+01   -0.28911E+01 23715   0.977E+00    0.939E+01
DAV:   6    -0.684070103248E+03   -0.10583E+03   -0.34958E+02 26325   0.842E+01    0.149E+02
DAV:   7    -0.604166672349E+03    0.79903E+02   -0.23350E+02 26901   0.929E+01    0.128E+02
DAV:   8    -0.553621593045E+03    0.50545E+02   -0.12333E+02 26442   0.667E+01    0.962E+01
DAV:   9    -0.522024048006E+03    0.31598E+02   -0.65218E+01 24525   0.399E+01    0.698E+01
DAV:  10    -0.502893445944E+03    0.19131E+02   -0.52253E+01 23535   0.290E+01    0.544E+01
DAV:  11    -0.490344887606E+03    0.12549E+02   -0.60076E+01 21186   0.304E+01    0.472E+01
DAV:  12    -0.486665135987E+03    0.36798E+01   -0.22163E+01 20574   0.209E+01    0.381E+01
DAV:  13    -0.487961663390E+03   -0.12965E+01   -0.62387E+00 22419   0.976E+00    0.403E+01
DAV:  14    -0.488074570441E+03   -0.11291E+00   -0.97521E-01 16974   0.350E+00    0.398E+01
DAV:  15    -0.488258475770E+03   -0.18391E+00   -0.26689E-01 26631   0.168E+00    0.416E+01
DAV:  16    -0.488630104129E+03   -0.37163E+00   -0.22352E-01 26091   0.197E+00    0.401E+01
DAV:  17    -0.491566230743E+03   -0.29361E+01   -0.22259E+00 24849   0.560E+00    0.372E+01
DAV:  18    -0.496740750688E+03   -0.51745E+01   -0.58309E+00 24561   0.864E+00    0.340E+01
DAV:  19    -0.496845729294E+03   -0.10498E+00   -0.41178E+00 25299   0.792E+00    0.256E+01
DAV:  20    -0.497602087595E+03   -0.75636E+00   -0.19904E+00 24561   0.566E+00    0.254E+01
DAV:  21    -0.497583593956E+03    0.18494E-01   -0.96785E-01 23598   0.341E+00    0.222E+01
DAV:  22    -0.497840540985E+03   -0.25695E+00   -0.96759E-01 25326   0.341E+00    0.199E+01
DAV:  23    -0.497893350797E+03   -0.52810E-01   -0.83859E-01 25281   0.322E+00    0.167E+01
DAV:  24    -0.498017076125E+03   -0.12373E+00   -0.11048E+00 26100   0.431E+00    0.143E+01
DAV:  25    -0.498236662786E+03   -0.21959E+00   -0.49815E-01 24876   0.224E+00    0.130E+01
DAV:  26    -0.498428663518E+03   -0.19200E+00   -0.20510E-01 23994   0.136E+00    0.125E+01
DAV:  27    -0.498765722103E+03   -0.33706E+00   -0.37932E-01 25866   0.203E+00    0.116E+01
DAV:  28    -0.499129252739E+03   -0.36353E+00   -0.37088E-01 24885   0.161E+00    0.106E+01
DAV:  29    -0.499861941507E+03   -0.73269E+00   -0.21701E+00 25146   0.367E+00    0.699E+00
DAV:  30    -0.499935930833E+03   -0.73989E-01   -0.53645E-01 23004   0.204E+00    0.559E+00
DAV:  31    -0.499973275513E+03   -0.37345E-01   -0.10268E-01 24183   0.137E+00    0.509E+00
DAV:  32    -0.499979474488E+03   -0.61990E-02   -0.16183E-01 24876   0.135E+00    0.391E+00
DAV:  33    -0.499979743049E+03   -0.26856E-03   -0.12373E-01 24291   0.117E+00    0.306E+00
DAV:  34    -0.499992133540E+03   -0.12390E-01   -0.50656E-02 24291   0.901E-01    0.245E+00
DAV:  35    -0.499992011168E+03    0.12237E-03   -0.94759E-02 25497   0.101E+00    0.208E+00
DAV:  36    -0.500011916886E+03   -0.19906E-01   -0.56618E-02 24885   0.727E-01    0.171E+00
DAV:  37    -0.500018185288E+03   -0.62684E-02   -0.26199E-02 24462   0.533E-01    0.141E+00
DAV:  38    -0.500019460646E+03   -0.12754E-02   -0.83126E-03 23634   0.396E-01    0.119E+00
DAV:  39    -0.500023081607E+03   -0.36210E-02   -0.97044E-03 24885   0.359E-01    0.109E+00
DAV:  40    -0.500028444836E+03   -0.53632E-02   -0.15720E-02 25110   0.378E-01    0.774E-01
DAV:  41    -0.500029158631E+03   -0.71379E-03   -0.10695E-02 24651   0.297E-01    0.583E-01
DAV:  42    -0.500029621748E+03   -0.46312E-03   -0.29190E-03 22347   0.181E-01    0.488E-01
DAV:  43    -0.500030483247E+03   -0.86150E-03   -0.26477E-03 25812   0.184E-01    0.383E-01
DAV:  44    -0.500031190666E+03   -0.70742E-03   -0.31814E-03 25182   0.151E-01    0.323E-01
DAV:  45    -0.500031587129E+03   -0.39646E-03   -0.18143E-03 23967   0.137E-01    0.277E-01
DAV:  46    -0.500031542534E+03    0.44595E-04   -0.47187E-04 24543   0.105E-01    0.226E-01
DAV:  47    -0.500031751804E+03   -0.20927E-03   -0.10236E-03 25587   0.105E-01    0.151E-01
DAV:  48    -0.500031778373E+03   -0.26569E-04   -0.26658E-04 22896   0.637E-02    0.117E-01
DAV:  49    -0.500031818989E+03   -0.40615E-04   -0.17362E-04 23310   0.445E-02    0.975E-02
DAV:  50    -0.500031837157E+03   -0.18168E-04   -0.14147E-04 20673   0.410E-02    0.851E-02
DAV:  51    -0.500031851719E+03   -0.14562E-04   -0.88882E-05 18873   0.439E-02    0.561E-02
DAV:  52    -0.500031854072E+03   -0.23533E-05   -0.45305E-05 13770   0.254E-02
   1 F= -.50003185E+03 E0= -.50004235E+03  d E =-.500032E+03  mag=   101.7921
 curvature:   0.00 expect dE= 0.000E+00 dE for cont linesearch  0.000E+00
 trial: gam= 0.00000 g(F)=  0.108E+00 g(S)=  0.000E+00 ort = 0.000E+00 (trialstep = 0.100E+01)
 search vector abs. value=  0.108E+00
 bond charge predicted
       N       E                     dE             d eps       ncg     rms          rms(c)
DAV:   1    -0.499685700474E+03    0.34615E+00   -0.33413E+01 15570   0.134E+01    0.347E+00
DAV:   2    -0.500133235457E+03   -0.44753E+00   -0.35956E+00 20412   0.454E+00    0.457E+00
DAV:   3    -0.500174290754E+03   -0.41055E-01   -0.88809E-01 23688   0.535E+00    0.445E+00
DAV:   4    -0.500095169778E+03    0.79121E-01   -0.39421E-01 24381   0.365E+00    0.250E+00
DAV:   5    -0.500095980921E+03   -0.81114E-03   -0.32156E-02 20583   0.113E+00    0.188E+00
DAV:   6    -0.500109976788E+03   -0.13996E-01   -0.23277E-02 21726   0.749E-01    0.102E+00
DAV:   7    -0.500118839037E+03   -0.88622E-02   -0.11369E-02 22158   0.428E-01    0.564E-01
DAV:   8    -0.500119597585E+03   -0.75855E-03   -0.26772E-03 22815   0.236E-01    0.531E-01
DAV:   9    -0.500120022359E+03   -0.42477E-03   -0.70296E-04 22491   0.115E-01    0.578E-01
DAV:  10    -0.500119063979E+03    0.95838E-03   -0.19362E-03 23193   0.201E-01    0.327E-01
DAV:  11    -0.500118742253E+03    0.32173E-03   -0.13538E-03 24219   0.151E-01    0.217E-01
DAV:  12    -0.500118770042E+03   -0.27788E-04   -0.27760E-04 18243   0.600E-02    0.206E-01
DAV:  13    -0.500118737198E+03    0.32844E-04   -0.16493E-04 20700   0.567E-02    0.152E-01
DAV:  14    -0.500118720711E+03    0.16487E-04   -0.15313E-04 20457   0.582E-02    0.961E-02
DAV:  15    -0.500118742598E+03   -0.21887E-04   -0.51102E-05 16020   0.260E-02    0.833E-02
DAV:  16    -0.500118756894E+03   -0.14296E-04   -0.31196E-05 14067   0.228E-02    0.610E-02
DAV:  17    -0.500118766315E+03   -0.94217E-05   -0.28440E-05 12240   0.245E-02
   2 F= -.50011877E+03 E0= -.50012971E+03  d E =-.869122E-01  mag=   102.2438
 trial-energy change:   -0.086912  1 .order   -0.086828   -0.107851   -0.065805
 step:   2.5651(harm=  2.5651)  dis= 0.08575  next Energy=  -500.170179 (dE=-0.138E+00)
 bond charge predicted
       N       E                     dE             d eps       ncg     rms          rms(c)
DAV:   1    -0.499107522736E+03    0.10112E+01   -0.82927E+01 15561   0.208E+01    0.592E+00
DAV:   2    -0.500215910918E+03   -0.11084E+01   -0.87554E+00 20556   0.747E+00    0.734E+00
DAV:   3    -0.500433720736E+03   -0.21781E+00   -0.25798E+00 24660   0.944E+00    0.813E+00
DAV:   4    -0.500112792541E+03    0.32093E+00   -0.12630E+00 25164   0.656E+00    0.404E+00
DAV:   5    -0.500105916360E+03    0.68762E-02   -0.77890E-02 20214   0.169E+00    0.300E+00
DAV:   6    -0.500130593931E+03   -0.24678E-01   -0.45377E-02 20961   0.103E+00    0.211E+00
DAV:   7    -0.500164851129E+03   -0.34257E-01   -0.30643E-02 24507   0.792E-01    0.107E+00
DAV:   8    -0.500170202831E+03   -0.53517E-02   -0.11944E-02 22347   0.477E-01    0.694E-01
DAV:   9    -0.500170685581E+03   -0.48275E-03   -0.36667E-03 23148   0.332E-01    0.746E-01
DAV:  10    -0.500170161890E+03    0.52369E-03   -0.12253E-03 18234   0.123E-01    0.655E-01
DAV:  11    -0.500168391098E+03    0.17708E-02   -0.28811E-03 24336   0.227E-01    0.357E-01
DAV:  12    -0.500168242294E+03    0.14880E-03   -0.17008E-03 23787   0.160E-01    0.311E-01
DAV:  13    -0.500168285572E+03   -0.43277E-04   -0.48807E-04 19215   0.936E-02    0.292E-01
DAV:  14    -0.500168181620E+03    0.10395E-03   -0.32609E-04 23049   0.779E-02    0.172E-01
DAV:  15    -0.500168164599E+03    0.17021E-04   -0.19714E-04 19161   0.725E-02    0.119E-01
DAV:  16    -0.500168213042E+03   -0.48444E-04   -0.11888E-04 20484   0.336E-02    0.107E-01
DAV:  17    -0.500168223048E+03   -0.10006E-04   -0.53810E-05 16299   0.381E-02    0.645E-02
DAV:  18    -0.500168229471E+03   -0.64232E-05   -0.31036E-05 10980   0.302E-02
   3 F= -.50016823E+03 E0= -.50017951E+03  d E =-.136375E+00  mag=   102.7844
 curvature:  -1.28 expect dE=-0.354E-01 dE for cont linesearch -0.115E-03
 trial: gam= 0.28467 g(F)=  0.276E-01 g(S)=  0.000E+00 ort =-0.311E-02 (trialstep = 0.131E+01)
 search vector abs. value=  0.346E-01
 bond charge predicted
       N       E                     dE             d eps       ncg     rms          rms(c)
DAV:   1    -0.499946772860E+03    0.22145E+00   -0.19266E+01 15813   0.993E+00    0.265E+00
DAV:   2    -0.500155260294E+03   -0.20849E+00   -0.19080E+00 14517   0.229E+00    0.188E+00
DAV:   3    -0.500273492504E+03   -0.11823E+00   -0.29959E-01 26433   0.291E+00    0.404E+00
DAV:   4    -0.500175727320E+03    0.97765E-01   -0.27846E-01 27072   0.282E+00    0.145E+00
DAV:   5    -0.500191237554E+03   -0.15510E-01   -0.23207E-02 25389   0.833E-01    0.114E+00
DAV:   6    -0.500196921327E+03   -0.56838E-02   -0.12159E-02 24759   0.719E-01    0.826E-01
DAV:   7    -0.500198013410E+03   -0.10921E-02   -0.62047E-03 23346   0.410E-01    0.274E-01
DAV:   8    -0.500198037452E+03   -0.24042E-04   -0.11598E-03 17082   0.106E-01    0.242E-01
DAV:   9    -0.500197934342E+03    0.10311E-03   -0.24561E-04 22608   0.595E-02    0.207E-01
DAV:  10    -0.500197681553E+03    0.25279E-03   -0.55366E-04 21609   0.867E-02    0.137E-01
DAV:  11    -0.500197631718E+03    0.49835E-04   -0.16710E-04 20502   0.477E-02    0.121E-01
DAV:  12    -0.500197612691E+03    0.19027E-04   -0.39900E-05 12609   0.274E-02    0.105E-01
DAV:  13    -0.500197609416E+03    0.32752E-05   -0.82997E-05 18657   0.260E-02
   4 F= -.50019761E+03 E0= -.50020900E+03  d E =-.293799E-01  mag=   102.8604
 trial-energy change:   -0.029380  1 .order   -0.029468   -0.035071   -0.023866
 step:   4.6763(harm=  4.1095)  dis= 0.10187  next Energy=  -500.226690 (dE=-0.585E-01)
 bond charge predicted
       N       E                     dE             d eps       ncg     rms          rms(c)
DAV:   1    -0.498575583068E+03    0.16220E+01   -0.12746E+02 15921   0.252E+01    0.777E+00
DAV:   2    -0.499893332679E+03   -0.13177E+01   -0.12043E+01 14589   0.626E+00    0.528E+00
DAV:   3    -0.500199630914E+03   -0.30630E+00   -0.10121E+00 26928   0.345E+00    0.556E+00
DAV:   4    -0.500525632724E+03   -0.32600E+00   -0.18045E+00 26892   0.792E+00    0.842E+00
DAV:   5    -0.500117999812E+03    0.40763E+00   -0.84182E-01 26856   0.502E+00    0.309E+00
DAV:   6    -0.500172462674E+03   -0.54463E-01   -0.50489E-02 22770   0.816E-01    0.226E+00
DAV:   7    -0.500226098251E+03   -0.53636E-01   -0.58570E-02 25551   0.148E+00    0.171E+00
DAV:   8    -0.500220080682E+03    0.60176E-02   -0.26476E-02 25065   0.104E+00    0.755E-01
DAV:   9    -0.500219702513E+03    0.37817E-03   -0.47539E-03 21591   0.279E-01    0.640E-01
DAV:  10    -0.500219167307E+03    0.53521E-03   -0.17394E-03 23454   0.177E-01    0.563E-01
DAV:  11    -0.500218235610E+03    0.93170E-03   -0.17206E-03 22167   0.166E-01    0.468E-01
DAV:  12    -0.500217369588E+03    0.86602E-03   -0.17037E-03 22122   0.146E-01    0.333E-01
DAV:  13    -0.500217069748E+03    0.29984E-03   -0.10094E-03 22311   0.997E-02    0.258E-01
DAV:  14    -0.500217041335E+03    0.28413E-04   -0.35935E-04 22077   0.821E-02    0.198E-01
DAV:  15    -0.500217121396E+03   -0.80060E-04   -0.19293E-04 21501   0.577E-02    0.149E-01
DAV:  16    -0.500217110148E+03    0.11248E-04   -0.91516E-05 17271   0.527E-02    0.114E-01
DAV:  17    -0.500217119688E+03   -0.95401E-05   -0.40639E-05 14463   0.225E-02
   5 F= -.50021712E+03 E0= -.50022899E+03  d E =-.488902E-01  mag=   102.9887
 curvature:  -2.55 expect dE=-0.338E-01 dE for cont linesearch -0.295E-02
 ZBRENT: interpolating
 opt :   3.8078  next Energy=  -500.219867 (dE=-0.516E-01)
 bond charge predicted
       N       E                     dE             d eps       ncg     rms          rms(c)
DAV:   1    -0.500109944142E+03    0.10717E+00   -0.85106E+00 15651   0.653E+00    0.173E+00
DAV:   2    -0.500204396321E+03   -0.94452E-01   -0.84106E-01 15003   0.162E+00    0.141E+00
DAV:   3    -0.500274803548E+03   -0.70407E-01   -0.21239E-01 26208   0.267E+00    0.324E+00
DAV:   4    -0.500209136793E+03    0.65667E-01   -0.14708E-01 27252   0.222E+00    0.960E-01
DAV:   5    -0.500217693986E+03   -0.85572E-02   -0.10778E-02 26379   0.620E-01    0.808E-01
DAV:   6    -0.500220707851E+03   -0.30139E-02   -0.66862E-03 23814   0.475E-01    0.525E-01
DAV:   7    -0.500220115806E+03    0.59204E-03   -0.30171E-03 22005   0.305E-01    0.186E-01
DAV:   8    -0.500220155808E+03   -0.40002E-04   -0.55934E-04 16407   0.736E-02    0.160E-01
DAV:   9    -0.500220077145E+03    0.78663E-04   -0.10835E-04 19098   0.380E-02    0.125E-01
DAV:  10    -0.500219973143E+03    0.10400E-03   -0.16723E-04 21141   0.404E-02    0.856E-02
DAV:  11    -0.500219934287E+03    0.38857E-04   -0.87199E-05 15561   0.362E-02    0.666E-02
DAV:  12    -0.500219926358E+03    0.79287E-05   -0.21267E-05  9279   0.204E-02
   6 F= -.50021993E+03 E0= -.50023164E+03  d E =-.516969E-01  mag=   102.9581
 curvature:  -2.37 expect dE=-0.194E-01 dE for cont linesearch -0.270E-04
 trial: gam= 0.26297 g(F)=  0.818E-02 g(S)=  0.000E+00 ort =-0.627E-03 (trialstep = 0.181E+01)
 search vector abs. value=  0.102E-01
 bond charge predicted
       N       E                     dE             d eps       ncg     rms          rms(c)
DAV:   1    -0.500141551340E+03    0.78383E-01   -0.84012E+00 15003   0.605E+00    0.175E+00
DAV:   2    -0.500208216878E+03   -0.66666E-01   -0.58271E-01 14481   0.154E+00    0.130E+00
DAV:   3    -0.500236540946E+03   -0.28324E-01   -0.56113E-02 26415   0.130E+00    0.188E+00
DAV:   4    -0.500223539899E+03    0.13001E-01   -0.81594E-02 26919   0.163E+00    0.125E+00
DAV:   5    -0.500228738372E+03   -0.51985E-02   -0.20261E-02 26496   0.775E-01    0.756E-01
DAV:   6    -0.500229433353E+03   -0.69498E-03   -0.68001E-03 24435   0.487E-01    0.323E-01
DAV:   7    -0.500229575766E+03   -0.14241E-03   -0.16056E-03 20241   0.167E-01    0.215E-01
DAV:   8    -0.500229508980E+03    0.66785E-04   -0.21753E-04 20925   0.637E-02    0.190E-01
DAV:   9    -0.500229333611E+03    0.17537E-03   -0.20405E-04 20502   0.551E-02    0.143E-01
DAV:  10    -0.500229231388E+03    0.10222E-03   -0.26535E-04 20304   0.519E-02    0.954E-02
DAV:  11    -0.500229216179E+03    0.15209E-04   -0.71111E-05 17073   0.334E-02    0.786E-02
DAV:  12    -0.500229216086E+03    0.92768E-07   -0.29498E-05 11322   0.260E-02
   7 F= -.50022922E+03 E0= -.50024112E+03  d E =-.928973E-02  mag=   103.0012
 trial-energy change:   -0.009290  1 .order   -0.009507   -0.014518   -0.004495
 step:   2.8313(harm=  2.6246)  dis= 0.02137  next Energy=  -500.230442 (dE=-0.105E-01)
 bond charge predicted
       N       E                     dE             d eps       ncg     rms          rms(c)
DAV:   1    -0.500202051997E+03    0.27164E-01   -0.26597E+00 15012   0.341E+00    0.990E-01
DAV:   2    -0.500223209108E+03   -0.21157E-01   -0.18361E-01 14499   0.848E-01    0.764E-01
DAV:   3    -0.500243476560E+03   -0.20267E-01   -0.50926E-02 26307   0.125E+00    0.165E+00
DAV:   4    -0.500226483367E+03    0.16993E-01   -0.52480E-02 26955   0.125E+00    0.611E-01
DAV:   5    -0.500229619841E+03   -0.31365E-02   -0.49713E-03 26055   0.407E-01    0.448E-01
DAV:   6    -0.500229795691E+03   -0.17585E-03   -0.21776E-03 24120   0.277E-01    0.205E-01
DAV:   7    -0.500229760997E+03    0.34693E-04   -0.65286E-04 21636   0.129E-01    0.123E-01
DAV:   8    -0.500229774433E+03   -0.13436E-04   -0.11870E-04 16047   0.372E-02    0.114E-01
DAV:   9    -0.500229745291E+03    0.29142E-04   -0.28536E-05 12510   0.257E-02    0.904E-02
DAV:  10    -0.500229728230E+03    0.17061E-04   -0.15325E-04 19809   0.339E-02    0.585E-02
DAV:  11    -0.500229715117E+03    0.13113E-04   -0.24361E-05 10368   0.225E-02    0.467E-02
DAV:  12    -0.500229718636E+03   -0.35190E-05   -0.14369E-05  9009   0.153E-02
   8 F= -.50022972E+03 E0= -.50024173E+03  d E =-.979228E-02  mag=   103.0184
 curvature:  -1.57 expect dE=-0.297E-02 dE for cont linesearch -0.143E-03
 ZBRENT: interpolating
 opt :   2.5455  next Energy=  -500.229857 (dE=-0.993E-02)
 bond charge predicted
       N       E                     dE             d eps       ncg     rms          rms(c)
DAV:   1    -0.500227758603E+03    0.19565E-02   -0.20962E-01 14850   0.956E-01    0.274E-01
DAV:   2    -0.500229420697E+03   -0.16621E-02   -0.14476E-02 14517   0.240E-01    0.217E-01
DAV:   3    -0.500230902121E+03   -0.14814E-02   -0.37022E-03 26010   0.348E-01    0.452E-01
DAV:   4    -0.500229685198E+03    0.12169E-02   -0.37811E-03 22482   0.349E-01    0.182E-01
DAV:   5    -0.500229917806E+03   -0.23261E-03   -0.35975E-04 21825   0.112E-01    0.129E-01
DAV:   6    -0.500229945416E+03   -0.27610E-04   -0.20826E-04 22914   0.806E-02    0.506E-02
DAV:   7    -0.500229945156E+03    0.26010E-06   -0.44666E-05 13923   0.311E-02
   9 F= -.50022995E+03 E0= -.50024193E+03  d E =-.100188E-01  mag=   103.0123
 curvature:  -1.51 expect dE=-0.226E-02 dE for cont linesearch -0.225E-04
 ZBRENT: interpolating
 opt :   2.3782  next Energy=  -500.229982 (dE=-0.101E-01)
 bond charge predicted
       N       E                     dE             d eps       ncg     rms          rms(c)
DAV:   1    -0.500229200119E+03    0.74530E-03   -0.71627E-02 14310   0.560E-01    0.163E-01
DAV:   2    -0.500229764739E+03   -0.56462E-03   -0.50053E-03 14499   0.141E-01    0.134E-01
DAV:   3    -0.500230243768E+03   -0.47903E-03   -0.12425E-03 22698   0.204E-01    0.264E-01
DAV:   4    -0.500229828596E+03    0.41517E-03   -0.11236E-03 14859   0.195E-01    0.110E-01
DAV:   5    -0.500229924058E+03   -0.95462E-04   -0.11625E-04 18045   0.592E-02    0.866E-02
DAV:   6    -0.500229937637E+03   -0.13579E-04   -0.89333E-05 19035   0.509E-02    0.400E-02
DAV:   7    -0.500229939003E+03   -0.13662E-05   -0.23491E-05  9936   0.152E-02
  10 F= -.50022994E+03 E0= -.50024191E+03  d E =-.100126E-01  mag=   103.0082
 curvature:  -2.49 expect dE=-0.320E-02 dE for cont linesearch -0.266E-05
 trial: gam= 0.14649 g(F)=  0.128E-02 g(S)=  0.000E+00 ort = 0.105E-03 (trialstep = 0.193E+01)
 search vector abs. value=  0.153E-02
 bond charge predicted
       N       E                     dE             d eps       ncg     rms          rms(c)
DAV:   1    -0.500213163033E+03    0.16775E-01   -0.15576E+00 15282   0.272E+00    0.782E-01
DAV:   2    -0.500227939386E+03   -0.14776E-01   -0.13243E-01 14472   0.698E-01    0.562E-01
DAV:   3    -0.500232328768E+03   -0.43894E-02   -0.91411E-03 25434   0.529E-01    0.742E-01
DAV:   4    -0.500231184888E+03    0.11439E-02   -0.15321E-02 26145   0.711E-01    0.603E-01
DAV:   5    -0.500231485538E+03   -0.30065E-03   -0.46929E-03 26244   0.378E-01    0.353E-01
DAV:   6    -0.500231893343E+03   -0.40780E-03   -0.14890E-03 23382   0.218E-01    0.126E-01
DAV:   7    -0.500231943305E+03   -0.49962E-04   -0.33273E-04 17478   0.726E-02    0.866E-02
DAV:   8    -0.500231934825E+03    0.84798E-05   -0.29307E-05 11754   0.277E-02
  11 F= -.50023193E+03 E0= -.50024403E+03  d E =-.199582E-02  mag=   103.0424
 trial-energy change:   -0.001996  1 .order   -0.002109   -0.002499   -0.001718
 step:   6.1559(harm=  6.1559)  dis= 0.01828  next Energy=  -500.233935 (dE=-0.400E-02)
 bond charge predicted
       N       E                     dE             d eps       ncg     rms          rms(c)
DAV:   1    -0.500141800196E+03    0.90143E-01   -0.75282E+00 15264   0.597E+00    0.172E+00
DAV:   2    -0.500213530516E+03   -0.71730E-01   -0.64107E-01 14535   0.151E+00    0.125E+00
DAV:   3    -0.500239503911E+03   -0.25973E-01   -0.60689E-02 24975   0.129E+00    0.186E+00
DAV:   4    -0.500226945374E+03    0.12559E-01   -0.85511E-02 26298   0.162E+00    0.121E+00
DAV:   5    -0.500230976388E+03   -0.40310E-02   -0.19624E-02 26568   0.843E-01    0.799E-01
DAV:   6    -0.500232713093E+03   -0.17367E-02   -0.69890E-03 24165   0.493E-01    0.376E-01
DAV:   7    -0.500232726551E+03   -0.13458E-04   -0.21360E-03 21438   0.221E-01    0.220E-01
DAV:   8    -0.500232723688E+03    0.28631E-05   -0.39048E-04 16668   0.651E-02    0.202E-01
DAV:   9    -0.500232601003E+03    0.12268E-03   -0.13313E-04 20349   0.430E-02    0.159E-01
DAV:  10    -0.500232456416E+03    0.14459E-03   -0.24705E-04 21375   0.569E-02    0.109E-01
DAV:  11    -0.500232408725E+03    0.47691E-04   -0.10048E-04 18621   0.377E-02    0.899E-02
DAV:  12    -0.500232387930E+03    0.20795E-04   -0.54171E-05 14805   0.312E-02    0.651E-02
DAV:  13    -0.500232401859E+03   -0.13929E-04   -0.48370E-05 13356   0.198E-02    0.397E-02
DAV:  14    -0.500232408801E+03   -0.69416E-05   -0.10858E-05  8370   0.144E-02
  12 F= -.50023241E+03 E0= -.50024481E+03  d E =-.246980E-02  mag=   103.1283
 curvature:  -3.64 expect dE=-0.535E-02 dE for cont linesearch -0.475E-03
 ZBRENT: interpolating
 opt :   4.7423  next Energy=  -500.232725 (dE=-0.279E-02)
 bond charge predicted
       N       E                     dE             d eps       ncg     rms          rms(c)
DAV:   1    -0.500222746111E+03    0.96557E-02   -0.84223E-01 15201   0.199E+00    0.570E-01
DAV:   2    -0.500230722716E+03   -0.79766E-02   -0.71415E-02 14463   0.508E-01    0.419E-01
DAV:   3    -0.500234270545E+03   -0.35478E-02   -0.81938E-03 25470   0.496E-01    0.698E-01
DAV:   4    -0.500232055829E+03    0.22147E-02   -0.10168E-02 26406   0.582E-01    0.391E-01
DAV:   5    -0.500232611880E+03   -0.55605E-03   -0.19584E-03 25839   0.268E-01    0.272E-01
DAV:   6    -0.500232865328E+03   -0.25345E-03   -0.83219E-04 23184   0.163E-01    0.115E-01
DAV:   7    -0.500232842269E+03    0.23060E-04   -0.23575E-04 21051   0.772E-02    0.655E-02
DAV:   8    -0.500232843314E+03   -0.10452E-05   -0.43387E-05 14094   0.216E-02
  13 F= -.50023284E+03 E0= -.50024513E+03  d E =-.290431E-02  mag=   103.1010
 curvature:  -2.42 expect dE=-0.202E-02 dE for cont linesearch -0.592E-04
 ZBRENT: interpolating
 opt :   3.8567  next Energy=  -500.232944 (dE=-0.301E-02)
 bond charge predicted
       N       E                     dE             d eps       ncg     rms          rms(c)
DAV:   1    -0.500228834248E+03    0.40080E-02   -0.33027E-01 14922   0.125E+00    0.357E-01
DAV:   2    -0.500231950251E+03   -0.31160E-02   -0.28096E-02 14202   0.314E-01    0.265E-01
DAV:   3    -0.500232673331E+03   -0.72308E-03   -0.15641E-03 23967   0.197E-01    0.318E-01
DAV:   4    -0.500232680848E+03   -0.75171E-05   -0.28107E-03 25020   0.306E-01    0.289E-01
DAV:   5    -0.500232737705E+03   -0.56857E-04   -0.12547E-03 19530   0.216E-01    0.184E-01
DAV:   6    -0.500232804050E+03   -0.66345E-04   -0.38122E-04 23031   0.104E-01    0.870E-02
DAV:   7    -0.500232787530E+03    0.16519E-04   -0.10912E-04 17289   0.528E-02    0.602E-02
DAV:   8    -0.500232787174E+03    0.35678E-06   -0.22574E-05 10332   0.158E-02
  14 F= -.50023279E+03 E0= -.50024501E+03  d E =-.284817E-02  mag=   103.0822
 curvature:  -4.13 expect dE=-0.220E-02 dE for cont linesearch -0.863E-05
 trial: gam= 0.40263 g(F)=  0.534E-03 g(S)=  0.000E+00 ort = 0.566E-04 (trialstep = 0.231E+01)
 search vector abs. value=  0.828E-03
 bond charge predicted
       N       E                     dE             d eps       ncg     rms          rms(c)
DAV:   1    -0.500221130326E+03    0.11657E-01   -0.11138E+00 15048   0.221E+00    0.698E-01
DAV:   2    -0.500231100307E+03   -0.99700E-02   -0.80031E-02 16056   0.621E-01    0.626E-01
DAV:   3    -0.500239753102E+03   -0.86528E-02   -0.31357E-02 23994   0.104E+00    0.116E+00
DAV:   4    -0.500231996101E+03    0.77570E-02   -0.24438E-02 25947   0.882E-01    0.439E-01
DAV:   5    -0.500233152719E+03   -0.11566E-02   -0.19450E-03 25722   0.266E-01    0.312E-01
DAV:   6    -0.500233729959E+03   -0.57724E-03   -0.12791E-03 23022   0.199E-01    0.175E-01
DAV:   7    -0.500233675191E+03    0.54768E-04   -0.42942E-04 20412   0.113E-01    0.782E-02
DAV:   8    -0.500233677586E+03   -0.23957E-05   -0.66833E-05 15975   0.285E-02
  15 F= -.50023368E+03 E0= -.50024602E+03  d E =-.890413E-03  mag=   103.1046
 trial-energy change:   -0.000890  1 .order   -0.000930   -0.001286   -0.000573
 step:   4.1676(harm=  4.1676)  dis= 0.00910  next Energy=  -500.233947 (dE=-0.116E-02)
 bond charge predicted
       N       E                     dE             d eps       ncg     rms          rms(c)
DAV:   1    -0.500225586860E+03    0.80883E-02   -0.71853E-01 15021   0.178E+00    0.554E-01
DAV:   2    -0.500231603465E+03   -0.60166E-02   -0.51271E-02 14274   0.452E-01    0.428E-01
DAV:   3    -0.500235729822E+03   -0.41264E-02   -0.97824E-03 24354   0.558E-01    0.758E-01
DAV:   4    -0.500232882018E+03    0.28478E-02   -0.11945E-02 25947   0.618E-01    0.387E-01
DAV:   5    -0.500233422156E+03   -0.54014E-03   -0.17496E-03 25632   0.252E-01    0.265E-01
DAV:   6    -0.500233703309E+03   -0.28115E-03   -0.78144E-04 23013   0.155E-01    0.134E-01
DAV:   7    -0.500233697089E+03    0.62199E-05   -0.23116E-04 20376   0.763E-02    0.878E-02
DAV:   8    -0.500233693858E+03    0.32312E-05   -0.35023E-05 12402   0.217E-02
  16 F= -.50023369E+03 E0= -.50024613E+03  d E =-.906684E-03  mag=   103.1270
 curvature:  -3.10 expect dE=-0.982E-03 dE for cont linesearch -0.956E-05
 trial: gam= 0.90632 g(F)=  0.317E-03 g(S)=  0.000E+00 ort =-0.505E-04 (trialstep = 0.245E+01)
 search vector abs. value=  0.905E-03
 bond charge predicted
       N       E                     dE             d eps       ncg     rms          rms(c)
DAV:   1    -0.500217776127E+03    0.15921E-01   -0.13853E+00 15255   0.249E+00    0.763E-01
DAV:   2    -0.500229781638E+03   -0.12006E-01   -0.10324E-01 14562   0.625E-01    0.567E-01
DAV:   3    -0.500233255398E+03   -0.34738E-02   -0.61469E-03 25137   0.426E-01    0.648E-01
DAV:   4    -0.500233817549E+03   -0.56215E-03   -0.14063E-02 26343   0.684E-01    0.656E-01
DAV:   5    -0.500233633707E+03    0.18384E-03   -0.63445E-03 26289   0.439E-01    0.349E-01
DAV:   6    -0.500233789961E+03   -0.15625E-03   -0.15067E-03 23787   0.217E-01    0.132E-01
DAV:   7    -0.500233813650E+03   -0.23689E-04   -0.31639E-04 17064   0.700E-02    0.104E-01
DAV:   8    -0.500233794475E+03    0.19175E-04   -0.30088E-05 11754   0.291E-02    0.914E-02
DAV:   9    -0.500233750032E+03    0.44444E-04   -0.94311E-05 17550   0.242E-02    0.639E-02
DAV:  10    -0.500233729878E+03    0.20153E-04   -0.45355E-05 12573   0.296E-02    0.477E-02
DAV:  11    -0.500233729670E+03    0.20811E-06   -0.29945E-05 11862   0.161E-02
  17 F= -.50023373E+03 E0= -.50024626E+03  d E =-.358126E-04  mag=   103.1566
 trial-energy change:   -0.000036  1 .order   -0.000285   -0.000665    0.000094
 step:   2.1489(harm=  2.1489)  dis= 0.00456  next Energy=  -500.233985 (dE=-0.291E-03)
 bond charge predicted
       N       E                     dE             d eps       ncg     rms          rms(c)
DAV:   1    -0.500233509874E+03    0.22000E-03   -0.21395E-02 14526   0.309E-01    0.968E-02
DAV:   2    -0.500233711529E+03   -0.20166E-03   -0.16436E-03 15417   0.888E-02    0.830E-02
DAV:   3    -0.500233880548E+03   -0.16902E-03   -0.49477E-04 13797   0.133E-01    0.160E-01
DAV:   4    -0.500233723184E+03    0.15736E-03   -0.40521E-04 11835   0.122E-01    0.636E-02
DAV:   5    -0.500233757917E+03   -0.34733E-04   -0.26205E-05 12339   0.328E-02    0.464E-02
DAV:   6    -0.500233766375E+03   -0.84575E-05   -0.24006E-05 10584   0.306E-02
  18 F= -.50023377E+03 E0= -.50024628E+03  d E =-.725170E-04  mag=   103.1522
 curvature:  -3.59 expect dE=-0.832E-03 dE for cont linesearch -0.928E-06
 trial: gam= 0.12699 g(F)=  0.232E-03 g(S)=  0.000E+00 ort =-0.153E-04 (trialstep = 0.239E+01)
 search vector abs. value=  0.243E-03
 bond charge predicted
       N       E                     dE             d eps       ncg     rms          rms(c)
DAV:   1    -0.500231526604E+03    0.22313E-02   -0.29305E-01 14553   0.102E+00    0.347E-01
DAV:   2    -0.500233211977E+03   -0.16854E-02   -0.12129E-02 17280   0.291E-01    0.311E-01
DAV:   3    -0.500235161872E+03   -0.19499E-02   -0.63045E-03 24426   0.477E-01    0.553E-01
DAV:   4    -0.500233603299E+03    0.15586E-02   -0.53065E-03 25434   0.420E-01    0.218E-01
DAV:   5    -0.500233965727E+03   -0.36243E-03   -0.57601E-04 24327   0.143E-01    0.144E-01
DAV:   6    -0.500233985829E+03   -0.20103E-04   -0.26696E-04 23373   0.971E-02    0.747E-02
DAV:   7    -0.500233981809E+03    0.40199E-05   -0.73835E-05 15993   0.449E-02
  19 F= -.50023398E+03 E0= -.50024649E+03  d E =-.215435E-03  mag=   103.1539
 trial-energy change:   -0.000215  1 .order   -0.000257   -0.000550    0.000035
 step:   2.1568(harm=  2.2484)  dis= 0.00284  next Energy=  -500.233984 (dE=-0.217E-03)
 reached required accuracy - stopping structural energy minimisation
