Generated by VASPKIT code               
   1.00000000000000     
     8.4969999999999999    0.0000000000000000    0.0000000000000000
    -0.0079997200000000    8.5191962399999994    0.0000000000000000
     0.0000000000000000    0.0000000000000000   23.5736999999999988
   Fe   Cr
    49    13
Selective dynamics
Direct
     0.8346599999999995    0.8346000000000018    0.0607600000000019   F   F   F
     0.6733572392438419    0.6669075886867949    0.3621047893646922   T   T   T
     0.6661599999999979    0.6669899999999984    0.0009099999999975   F   F   F
     0.8337473467757839    0.8322454514787248    0.3033218952059585   T   T   T
     0.6670400000000001    0.6674599999999984    0.2422899999999970   F   F   F
     0.5018000000000029    0.8345600000000033    0.1807900000000018   F   F   F
     0.3330600000000032    0.6670900000000017    0.1214299999999966   F   F   F
     0.5000900000000001    0.8356799999999964    0.0616500000000002   F   F   F
     0.8333000000000013    0.8348599999999990    0.1820700000000031   F   F   F
     0.6675100000000000    0.6677999999999997    0.1212700000000027   F   F   F
     0.0005870561880018    0.6670826017442479    0.3610995948773816   T   T   T
     0.1664400000000015    0.8342000000000027    0.0614899999999992   F   F   F
     0.1709174776154168    0.8299274258233408    0.3025572839311025   T   T   T
     0.0013999999999967    0.6661300000000026    0.0009999999999977   F   F   F
     0.8347899999999981    0.5008899999999983    0.1813000000000002   F   F   F
     0.0000700000000009    0.6666900000000027    0.2422499999999985   F   F   F
     0.8346000000000018    0.5005700000000033    0.0613499999999974   F   F   F
     0.6658499999999989    0.3331299999999970    0.1214000000000013   F   F   F
     0.1656499999999994    0.8345600000000033    0.1818299999999979   F   F   F
     0.4962029931327485    0.8276564715363295    0.3043978185355571   T   T   T
     0.0017899999999997    0.3355000000000032    0.0009000000000015   F   F   F
     0.0013723170747547    0.3349662366209935    0.3594878663291993   T   T   T
     0.4979500000000030    0.1668999999999983    0.0615000000000023   F   F   F
     0.5007400000000004    0.1649400000000014    0.1814400000000020   F   F   F
     0.8323542772157929    0.1671193219824375    0.3025366835714826   T   T   T
     0.6649999999999991    0.0003999999999991    0.0005999999999986   F   F   F
     0.6597343008185461    0.9979528183903589    0.3610332279311043   T   T   T
     0.8324500000000015    0.1654699999999991    0.1817100000000025   F   F   F
     0.9999699999999976    0.3336100000000002    0.2419799999999981   F   F   F
     0.1696254120827415    0.5054991495749561    0.3021357817477445   T   T   T
     0.3343800000000030    0.9994500000000031    0.2420299999999997   F   F   F
     0.4990151472102105    0.1663756801495744    0.3024174690079683   T   T   T
     0.0005000000000024    0.0005299999999977    0.1217800000000011   F   F   F
     0.1680899999999994    0.1673600000000022    0.1813799999999972   F   F   F
     0.1683124375207928    0.1670081142551646    0.3017867430042588   T   T   T
     0.1676399999999987    0.1683299999999974    0.0617900000000020   F   F   F
     0.9993399999999966    0.0003000000000029    0.2421900000000008   F   F   F
     0.3325000000000031    0.0005700000000033    0.0010600000000025   F   F   F
     0.3321143680372025    0.0019150170297363    0.3602666115770680   T   T   T
     0.1656400000000033    0.4997100000000003    0.1812299999999993   F   F   F
     0.1674599999999984    0.4978699999999989    0.0624699999999976   F   F   F
     0.4991889630751996    0.5047708207642279    0.3026518458489196   T   T   T
     0.3334499999999991    0.3340000000000032    0.2417599999999993   F   F   F
     0.5012800000000013    0.5008699999999990    0.1816699999999969   F   F   F
     0.4979299999999967    0.5002500000000012    0.0611600000000010   F   F   F
     0.8341209388236783    0.5010798676865936    0.3029136989866940   T   T   T
     0.6666299999999978    0.3332899999999981    0.2421799999999976   F   F   F
     0.6671510085068019    0.3342964555334242    0.3603697278739968   T   T   T
     0.6654699999999991    0.3346999999999980    0.0008100000000013   F   F   F
     0.9955900000000000    0.3282799999999995    0.1209199999999981   F   F   F
     0.3323240276001466    0.3336852910175977    0.3724553895764810   T   T   T
     0.3355400000000017    0.3371700000000004    0.1224399999999974   F   F   F
     0.9980800000000016    0.0029400000000024    0.0013799999999975   F   F   F
     0.0012287499685024    0.0020059422026016    0.3716857294475950   T   T   T
     0.3320500000000024    0.9993399999999966    0.1217100000000002   F   F   F
     0.6668000000000021    0.9988000000000028    0.2434999999999974   F   F   F
     0.8345199999999977    0.1661300000000026    0.0611999999999995   F   F   F
     0.6729399999999970    0.0020400000000009    0.1206900000000033   F   F   F
     0.3340499999999977    0.6669499999999999    0.2411099999999990   F   F   F
     0.9990999999999985    0.6674300000000031    0.1213800000000020   F   F   F
     0.3315100000000015    0.6680399999999977    0.0017399999999981   F   F   F
     0.3326800000000034    0.3322000000000003    0.0000000000000000   F   F   F
 
  0.00000000E+00  0.00000000E+00  0.00000000E+00
  0.00000000E+00  0.00000000E+00  0.00000000E+00
  0.00000000E+00  0.00000000E+00  0.00000000E+00
  0.00000000E+00  0.00000000E+00  0.00000000E+00
  0.00000000E+00  0.00000000E+00  0.00000000E+00
  0.00000000E+00  0.00000000E+00  0.00000000E+00
  0.00000000E+00  0.00000000E+00  0.00000000E+00
  0.00000000E+00  0.00000000E+00  0.00000000E+00
  0.00000000E+00  0.00000000E+00  0.00000000E+00
  0.00000000E+00  0.00000000E+00  0.00000000E+00
  0.00000000E+00  0.00000000E+00  0.00000000E+00
  0.00000000E+00  0.00000000E+00  0.00000000E+00
  0.00000000E+00  0.00000000E+00  0.00000000E+00
  0.00000000E+00  0.00000000E+00  0.00000000E+00
  0.00000000E+00  0.00000000E+00  0.00000000E+00
  0.00000000E+00  0.00000000E+00  0.00000000E+00
  0.00000000E+00  0.00000000E+00  0.00000000E+00
  0.00000000E+00  0.00000000E+00  0.00000000E+00
  0.00000000E+00  0.00000000E+00  0.00000000E+00
  0.00000000E+00  0.00000000E+00  0.00000000E+00
  0.00000000E+00  0.00000000E+00  0.00000000E+00
  0.00000000E+00  0.00000000E+00  0.00000000E+00
  0.00000000E+00  0.00000000E+00  0.00000000E+00
  0.00000000E+00  0.00000000E+00  0.00000000E+00
  0.00000000E+00  0.00000000E+00  0.00000000E+00
  0.00000000E+00  0.00000000E+00  0.00000000E+00
  0.00000000E+00  0.00000000E+00  0.00000000E+00
  0.00000000E+00  0.00000000E+00  0.00000000E+00
  0.00000000E+00  0.00000000E+00  0.00000000E+00
  0.00000000E+00  0.00000000E+00  0.00000000E+00
  0.00000000E+00  0.00000000E+00  0.00000000E+00
  0.00000000E+00  0.00000000E+00  0.00000000E+00
  0.00000000E+00  0.00000000E+00  0.00000000E+00
  0.00000000E+00  0.00000000E+00  0.00000000E+00
  0.00000000E+00  0.00000000E+00  0.00000000E+00
  0.00000000E+00  0.00000000E+00  0.00000000E+00
  0.00000000E+00  0.00000000E+00  0.00000000E+00
  0.00000000E+00  0.00000000E+00  0.00000000E+00
  0.00000000E+00  0.00000000E+00  0.00000000E+00
  0.00000000E+00  0.00000000E+00  0.00000000E+00
  0.00000000E+00  0.00000000E+00  0.00000000E+00
  0.00000000E+00  0.00000000E+00  0.00000000E+00
  0.00000000E+00  0.00000000E+00  0.00000000E+00
  0.00000000E+00  0.00000000E+00  0.00000000E+00
  0.00000000E+00  0.00000000E+00  0.00000000E+00
  0.00000000E+00  0.00000000E+00  0.00000000E+00
  0.00000000E+00  0.00000000E+00  0.00000000E+00
  0.00000000E+00  0.00000000E+00  0.00000000E+00
  0.00000000E+00  0.00000000E+00  0.00000000E+00
  0.00000000E+00  0.00000000E+00  0.00000000E+00
  0.00000000E+00  0.00000000E+00  0.00000000E+00
  0.00000000E+00  0.00000000E+00  0.00000000E+00
  0.00000000E+00  0.00000000E+00  0.00000000E+00
  0.00000000E+00  0.00000000E+00  0.00000000E+00
  0.00000000E+00  0.00000000E+00  0.00000000E+00
  0.00000000E+00  0.00000000E+00  0.00000000E+00
  0.00000000E+00  0.00000000E+00  0.00000000E+00
  0.00000000E+00  0.00000000E+00  0.00000000E+00
  0.00000000E+00  0.00000000E+00  0.00000000E+00
  0.00000000E+00  0.00000000E+00  0.00000000E+00
  0.00000000E+00  0.00000000E+00  0.00000000E+00
  0.00000000E+00  0.00000000E+00  0.00000000E+00
