INCAR-For-OPT                           
           1
     8.497000    0.000000    0.000000
    -0.008000    8.519196    0.000000
     0.000000    0.000000   23.573700
   Fe   Cr
    49    13
Direct configuration=     1
   0.83466000  0.83460000  0.06076000
   0.66723100  0.66600100  0.36044700
   0.66616000  0.66699000  0.00091000
   0.83303000  0.83213500  0.30404400
   0.66704000  0.66746000  0.24229000
   0.50180000  0.83456000  0.18079000
   0.33306000  0.66709000  0.12143000
   0.50009000  0.83568000  0.06165000
   0.83330000  0.83486000  0.18207000
   0.66751000  0.66780000  0.12127000
   0.00129300  0.66629900  0.36053600
   0.16644000  0.83420000  0.06149000
   0.16906500  0.83213500  0.30266100
   0.00140000  0.66613000  0.00100000
   0.83479000  0.50089000  0.18130000
   0.00007000  0.66669000  0.24225000
   0.83460000  0.50057000  0.06135000
   0.66585000  0.33313000  0.12140000
   0.16565000  0.83456000  0.18183000
   0.49917500  0.83473600  0.30335900
   0.00179000  0.33550000  0.00090000
   0.00588500  0.33359200  0.36099000
   0.49795000  0.16690000  0.06150000
   0.50074000  0.16494000  0.18144000
   0.83220700  0.16907700  0.30412700
   0.66500000  0.00040000  0.00060000
   0.66969400  0.00161400  0.36224500
   0.83245000  0.16547000  0.18171000
   0.99997000  0.33361000  0.24198000
   0.16349000  0.50215600  0.30191400
   0.33438000  0.99945000  0.24203000
   0.50014600  0.16497300  0.30356600
   0.00050000  0.00053000  0.12178000
   0.16809000  0.16736000  0.18138000
   0.16838100  0.16743800  0.30204300
   0.16764000  0.16833000  0.06179000
   0.99934000  0.00030000  0.24219000
   0.33250000  0.00057000  0.00106000
   0.32950900  0.00054100  0.35996100
   0.16564000  0.49971000  0.18123000
   0.16746000  0.49787000  0.06247000
   0.50316800  0.50201900  0.30218200
   0.33345000  0.33400000  0.24176000
   0.50128000  0.50087000  0.18167000
   0.49793000  0.50025000  0.06116000
   0.83385500  0.49874000  0.30365200
   0.66663000  0.33329000  0.24218000
   0.65956000  0.33276000  0.36172800
   0.66547000  0.33470000  0.00081000
   0.99559000  0.32828000  0.12092000
   0.33225100  0.34081600  0.36352900
   0.33554000  0.33717000  0.12244000
   0.99808000  0.00294000  0.00138000
   0.00162400  0.99998900  0.36485800
   0.33205000  0.99934000  0.12171000
   0.66680000  0.99880000  0.24350000
   0.83452000  0.16613000  0.06120000
   0.67294000  0.00204000  0.12069000
   0.33405000  0.66695000  0.24111000
   0.99910000  0.66743000  0.12138000
   0.33151000  0.66804000  0.00174000
   0.33268000  0.33220000  0.00000000
Direct configuration=     2
   0.83466000  0.83460000  0.06076000
   0.66758338  0.66601899  0.36074929
   0.66616000  0.66699000  0.00091000
   0.83250654  0.83145890  0.30349657
   0.66704000  0.66746000  0.24229000
   0.50180000  0.83456000  0.18079000
   0.33306000  0.66709000  0.12143000
   0.50009000  0.83568000  0.06165000
   0.83330000  0.83486000  0.18207000
   0.66751000  0.66780000  0.12127000
   0.00104258  0.66642979  0.36063784
   0.16644000  0.83420000  0.06149000
   0.17050928  0.83017871  0.30210999
   0.00140000  0.66613000  0.00100000
   0.83479000  0.50089000  0.18130000
   0.00007000  0.66669000  0.24225000
   0.83460000  0.50057000  0.06135000
   0.66585000  0.33313000  0.12140000
   0.16565000  0.83456000  0.18183000
   0.49861278  0.83296220  0.30358686
   0.00179000  0.33550000  0.00090000
   0.00499469  0.33351261  0.36082548
   0.49795000  0.16690000  0.06150000
   0.50074000  0.16494000  0.18144000
   0.83178587  0.16943770  0.30339521
   0.66500000  0.00040000  0.00060000
   0.66893047  0.00121950  0.36211297
   0.83245000  0.16547000  0.18171000
   0.99997000  0.33361000  0.24198000
   0.16460318  0.50409554  0.30136067
   0.33438000  0.99945000  0.24203000
   0.50038777  0.16475170  0.30295195
   0.00050000  0.00053000  0.12178000
   0.16809000  0.16736000  0.18138000
   0.16843508  0.16724321  0.30153253
   0.16764000  0.16833000  0.06179000
   0.99934000  0.00030000  0.24219000
   0.33250000  0.00057000  0.00106000
   0.33017884  0.00114589  0.36006926
   0.16564000  0.49971000  0.18123000
   0.16746000  0.49787000  0.06247000
   0.50223844  0.50368797  0.30165723
   0.33345000  0.33400000  0.24176000
   0.50128000  0.50087000  0.18167000
   0.49793000  0.50025000  0.06116000
   0.83352206  0.49911359  0.30361530
   0.66663000  0.33329000  0.24218000
   0.66043167  0.33310340  0.36160094
   0.66547000  0.33470000  0.00081000
   0.99559000  0.32828000  0.12092000
   0.33206733  0.33993734  0.36494714
   0.33554000  0.33717000  0.12244000
   0.99808000  0.00294000  0.00138000
   0.00192747  0.00042856  0.36613813
   0.33205000  0.99934000  0.12171000
   0.66680000  0.99880000  0.24350000
   0.83452000  0.16613000  0.06120000
   0.67294000  0.00204000  0.12069000
   0.33405000  0.66695000  0.24111000
   0.99910000  0.66743000  0.12138000
   0.33151000  0.66804000  0.00174000
   0.33268000  0.33220000  0.00000000
Direct configuration=     3
   0.83466000  0.83460000  0.06076000
   0.66813489  0.66604715  0.36122240
   0.66616000  0.66699000  0.00091000
   0.83168726  0.83040072  0.30263978
   0.66704000  0.66746000  0.24229000
   0.50180000  0.83456000  0.18079000
   0.33306000  0.66709000  0.12143000
   0.50009000  0.83568000  0.06165000
   0.83330000  0.83486000  0.18207000
   0.66751000  0.66780000  0.12127000
   0.00065066  0.66663449  0.36079723
   0.16644000  0.83420000  0.06149000
   0.17276975  0.82711690  0.30124760
   0.00140000  0.66613000  0.00100000
   0.83479000  0.50089000  0.18130000
   0.00007000  0.66669000  0.24225000
   0.83460000  0.50057000  0.06135000
   0.66585000  0.33313000  0.12140000
   0.16565000  0.83456000  0.18183000
   0.49773283  0.83018600  0.30394350
   0.00179000  0.33550000  0.00090000
   0.00360126  0.33338835  0.36056800
   0.49795000  0.16690000  0.06150000
   0.50074000  0.16494000  0.18144000
   0.83112675  0.17000225  0.30224987
   0.66500000  0.00040000  0.00060000
   0.66773547  0.00060206  0.36190634
   0.83245000  0.16547000  0.18171000
   0.99997000  0.33361000  0.24198000
   0.16634543  0.50713115  0.30049465
   0.33438000  0.99945000  0.24203000
   0.50076616  0.16440534  0.30199089
   0.00050000  0.00053000  0.12178000
   0.16809000  0.16736000  0.18138000
   0.16851972  0.16693833  0.30073359
   0.16764000  0.16833000  0.06179000
   0.99934000  0.00030000  0.24219000
   0.33250000  0.00057000  0.00106000
   0.33122721  0.00209262  0.36023871
   0.16564000  0.49971000  0.18123000
   0.16746000  0.49787000  0.06247000
   0.50078356  0.50630010  0.30083590
   0.33345000  0.33400000  0.24176000
   0.50128000  0.50087000  0.18167000
   0.49793000  0.50025000  0.06116000
   0.83300098  0.49969830  0.30355787
   0.66663000  0.33329000  0.24218000
   0.66179594  0.33364086  0.36140207
   0.66547000  0.33470000  0.00081000
   0.99559000  0.32828000  0.12092000
   0.33177986  0.33856213  0.36716668
   0.33554000  0.33717000  0.12244000
   0.99808000  0.00294000  0.00138000
   0.00240243  0.00111651  0.36814169
   0.33205000  0.99934000  0.12171000
   0.66680000  0.99880000  0.24350000
   0.83452000  0.16613000  0.06120000
   0.67294000  0.00204000  0.12069000
   0.33405000  0.66695000  0.24111000
   0.99910000  0.66743000  0.12138000
   0.33151000  0.66804000  0.00174000
   0.33268000  0.33220000  0.00000000
Direct configuration=     4
   0.83466000  0.83460000  0.06076000
   0.66867709  0.66587849  0.36151603
   0.66616000  0.66699000  0.00091000
   0.83233348  0.83100763  0.30281526
   0.66704000  0.66746000  0.24229000
   0.50180000  0.83456000  0.18079000
   0.33306000  0.66709000  0.12143000
   0.50009000  0.83568000  0.06165000
   0.83330000  0.83486000  0.18207000
   0.66751000  0.66780000  0.12127000
   0.00045814  0.66665072  0.36066785
   0.16644000  0.83420000  0.06149000
   0.17276882  0.82772700  0.30162785
   0.00140000  0.66613000  0.00100000
   0.83479000  0.50089000  0.18130000
   0.00007000  0.66669000  0.24225000
   0.83460000  0.50057000  0.06135000
   0.66585000  0.33313000  0.12140000
   0.16565000  0.83456000  0.18183000
   0.49729144  0.82959233  0.30421792
   0.00179000  0.33550000  0.00090000
   0.00258709  0.33387402  0.35993428
   0.49795000  0.16690000  0.06150000
   0.50074000  0.16494000  0.18144000
   0.83167409  0.16909473  0.30226439
   0.66500000  0.00040000  0.00060000
   0.66625174  0.99999748  0.36143858
   0.83245000  0.16547000  0.18171000
   0.99997000  0.33361000  0.24198000
   0.16716329  0.50681859  0.30071166
   0.33438000  0.99945000  0.24203000
   0.50033497  0.16478737  0.30200657
   0.00050000  0.00053000  0.12178000
   0.16809000  0.16736000  0.18138000
   0.16844724  0.16679208  0.30087219
   0.16764000  0.16833000  0.06179000
   0.99934000  0.00030000  0.24219000
   0.33250000  0.00057000  0.00106000
   0.33209416  0.00242029  0.35995719
   0.16564000  0.49971000  0.18123000
   0.16746000  0.49787000  0.06247000
   0.49985887  0.50641061  0.30107006
   0.33345000  0.33400000  0.24176000
   0.50128000  0.50087000  0.18167000
   0.49793000  0.50025000  0.06116000
   0.83308397  0.50001224  0.30353806
   0.66663000  0.33329000  0.24218000
   0.66297823  0.33408834  0.36090163
   0.66547000  0.33470000  0.00081000
   0.99559000  0.32828000  0.12092000
   0.33179008  0.33784094  0.36838003
   0.33554000  0.33717000  0.12244000
   0.99808000  0.00294000  0.00138000
   0.00265471  0.00089927  0.36897065
   0.33205000  0.99934000  0.12171000
   0.66680000  0.99880000  0.24350000
   0.83452000  0.16613000  0.06120000
   0.67294000  0.00204000  0.12069000
   0.33405000  0.66695000  0.24111000
   0.99910000  0.66743000  0.12138000
   0.33151000  0.66804000  0.00174000
   0.33268000  0.33220000  0.00000000
Direct configuration=     5
   0.83466000  0.83460000  0.06076000
   0.67006593  0.66544648  0.36226814
   0.66616000  0.66699000  0.00091000
   0.83398874  0.83256219  0.30326474
   0.66704000  0.66746000  0.24229000
   0.50180000  0.83456000  0.18079000
   0.33306000  0.66709000  0.12143000
   0.50009000  0.83568000  0.06165000
   0.83330000  0.83486000  0.18207000
   0.66751000  0.66780000  0.12127000
   0.99996501  0.66669229  0.36033647
   0.16644000  0.83420000  0.06149000
   0.17276645  0.82928975  0.30260186
   0.00140000  0.66613000  0.00100000
   0.83479000  0.50089000  0.18130000
   0.00007000  0.66669000  0.24225000
   0.83460000  0.50057000  0.06135000
   0.66585000  0.33313000  0.12140000
   0.16565000  0.83456000  0.18183000
   0.49616085  0.82807166  0.30492082
   0.00179000  0.33550000  0.00090000
   0.99998933  0.33511806  0.35831105
   0.49795000  0.16690000  0.06150000
   0.50074000  0.16494000  0.18144000
   0.83307606  0.16677016  0.30230157
   0.66500000  0.00040000  0.00060000
   0.66245124  0.99844887  0.36024044
   0.83245000  0.16547000  0.18171000
   0.99997000  0.33361000  0.24198000
   0.16925820  0.50601798  0.30126750
   0.33438000  0.99945000  0.24203000
   0.49923047  0.16576594  0.30204672
   0.00050000  0.00053000  0.12178000
   0.16809000  0.16736000  0.18138000
   0.16826159  0.16641747  0.30122721
   0.16764000  0.16833000  0.06179000
   0.99934000  0.00030000  0.24219000
   0.33250000  0.00057000  0.00106000
   0.33431482  0.00325960  0.35923609
   0.16564000  0.49971000  0.18123000
   0.16746000  0.49787000  0.06247000
   0.49749032  0.50669367  0.30166986
   0.33345000  0.33400000  0.24176000
   0.50128000  0.50087000  0.18167000
   0.49793000  0.50025000  0.06116000
   0.83329656  0.50081637  0.30348733
   0.66663000  0.33329000  0.24218000
   0.66600659  0.33523454  0.35961978
   0.66547000  0.33470000  0.00081000
   0.99559000  0.32828000  0.12092000
   0.33181625  0.33599364  0.37148797
   0.33554000  0.33717000  0.12244000
   0.99808000  0.00294000  0.00138000
   0.00330093  0.00034283  0.37109398
   0.33205000  0.99934000  0.12171000
   0.66680000  0.99880000  0.24350000
   0.83452000  0.16613000  0.06120000
   0.67294000  0.00204000  0.12069000
   0.33405000  0.66695000  0.24111000
   0.99910000  0.66743000  0.12138000
   0.33151000  0.66804000  0.00174000
   0.33268000  0.33220000  0.00000000
Direct configuration=     6
   0.83466000  0.83460000  0.06076000
   0.66970730  0.66555803  0.36207393
   0.66616000  0.66699000  0.00091000
   0.83356132  0.83216078  0.30314868
   0.66704000  0.66746000  0.24229000
   0.50180000  0.83456000  0.18079000
   0.33306000  0.66709000  0.12143000
   0.50009000  0.83568000  0.06165000
   0.83330000  0.83486000  0.18207000
   0.66751000  0.66780000  0.12127000
   0.00009235  0.66668155  0.36042204
   0.16644000  0.83420000  0.06149000
   0.17276706  0.82888622  0.30235035
   0.00140000  0.66613000  0.00100000
   0.83479000  0.50089000  0.18130000
   0.00007000  0.66669000  0.24225000
   0.83460000  0.50057000  0.06135000
   0.66585000  0.33313000  0.12140000
   0.16565000  0.83456000  0.18183000
   0.49645279  0.82846432  0.30473932
   0.00179000  0.33550000  0.00090000
   0.00066012  0.33479683  0.35873019
   0.49795000  0.16690000  0.06150000
   0.50074000  0.16494000  0.18144000
   0.83271405  0.16737040  0.30229197
   0.66500000  0.00040000  0.00060000
   0.66343260  0.99884875  0.36054982
   0.83245000  0.16547000  0.18171000
   0.99997000  0.33361000  0.24198000
   0.16871725  0.50622471  0.30112397
   0.33438000  0.99945000  0.24203000
   0.49951567  0.16551325  0.30203635
   0.00050000  0.00053000  0.12178000
   0.16809000  0.16736000  0.18138000
   0.16830953  0.16651420  0.30113554
   0.16764000  0.16833000  0.06179000
   0.99934000  0.00030000  0.24219000
   0.33250000  0.00057000  0.00106000
   0.33374141  0.00304287  0.35942229
   0.16564000  0.49971000  0.18123000
   0.16746000  0.49787000  0.06247000
   0.49810192  0.50662058  0.30151498
   0.33345000  0.33400000  0.24176000
   0.50128000  0.50087000  0.18167000
   0.49793000  0.50025000  0.06116000
   0.83324167  0.50060873  0.30350043
   0.66663000  0.33329000  0.24218000
   0.66522461  0.33493857  0.35995078
   0.66547000  0.33470000  0.00081000
   0.99559000  0.32828000  0.12092000
   0.33180949  0.33647065  0.37068544
   0.33554000  0.33717000  0.12244000
   0.99808000  0.00294000  0.00138000
   0.00313407  0.00048652  0.37054570
   0.33205000  0.99934000  0.12171000
   0.66680000  0.99880000  0.24350000
   0.83452000  0.16613000  0.06120000
   0.67294000  0.00204000  0.12069000
   0.33405000  0.66695000  0.24111000
   0.99910000  0.66743000  0.12138000
   0.33151000  0.66804000  0.00174000
   0.33268000  0.33220000  0.00000000
Direct configuration=     7
   0.83466000  0.83460000  0.06076000
   0.67045653  0.66572081  0.36212946
   0.66616000  0.66699000  0.00091000
   0.83350569  0.83176166  0.30331963
   0.66704000  0.66746000  0.24229000
   0.50180000  0.83456000  0.18079000
   0.33306000  0.66709000  0.12143000
   0.50009000  0.83568000  0.06165000
   0.83330000  0.83486000  0.18207000
   0.66751000  0.66780000  0.12127000
   0.00026630  0.66677231  0.36061412
   0.16644000  0.83420000  0.06149000
   0.17202074  0.82956569  0.30244928
   0.00140000  0.66613000  0.00100000
   0.83479000  0.50089000  0.18130000
   0.00007000  0.66669000  0.24225000
   0.83460000  0.50057000  0.06135000
   0.66585000  0.33313000  0.12140000
   0.16565000  0.83456000  0.18183000
   0.49682729  0.82788286  0.30444929
   0.00179000  0.33550000  0.00090000
   0.00100379  0.33464022  0.35879914
   0.49795000  0.16690000  0.06150000
   0.50074000  0.16494000  0.18144000
   0.83274392  0.16682496  0.30234812
   0.66500000  0.00040000  0.00060000
   0.66247916  0.99835617  0.36056962
   0.83245000  0.16547000  0.18171000
   0.99997000  0.33361000  0.24198000
   0.16900000  0.50553094  0.30149861
   0.33438000  0.99945000  0.24203000
   0.49941195  0.16678830  0.30202203
   0.00050000  0.00053000  0.12178000
   0.16809000  0.16736000  0.18138000
   0.16843791  0.16688959  0.30142585
   0.16764000  0.16833000  0.06179000
   0.99934000  0.00030000  0.24219000
   0.33250000  0.00057000  0.00106000
   0.33342750  0.00314927  0.35975671
   0.16564000  0.49971000  0.18123000
   0.16746000  0.49787000  0.06247000
   0.49834735  0.50578441  0.30206600
   0.33345000  0.33400000  0.24176000
   0.50128000  0.50087000  0.18167000
   0.49793000  0.50025000  0.06116000
   0.83284723  0.50142141  0.30284421
   0.66663000  0.33329000  0.24218000
   0.66566545  0.33502876  0.35980223
   0.66547000  0.33470000  0.00081000
   0.99559000  0.32828000  0.12092000
   0.33179073  0.33577167  0.37126551
   0.33554000  0.33717000  0.12244000
   0.99808000  0.00294000  0.00138000
   0.00315353  0.00086349  0.37096501
   0.33205000  0.99934000  0.12171000
   0.66680000  0.99880000  0.24350000
   0.83452000  0.16613000  0.06120000
   0.67294000  0.00204000  0.12069000
   0.33405000  0.66695000  0.24111000
   0.99910000  0.66743000  0.12138000
   0.33151000  0.66804000  0.00174000
   0.33268000  0.33220000  0.00000000
Direct configuration=     8
   0.83466000  0.83460000  0.06076000
   0.67087802  0.66581238  0.36216070
   0.66616000  0.66699000  0.00091000
   0.83347440  0.83153713  0.30341580
   0.66704000  0.66746000  0.24229000
   0.50180000  0.83456000  0.18079000
   0.33306000  0.66709000  0.12143000
   0.50009000  0.83568000  0.06165000
   0.83330000  0.83486000  0.18207000
   0.66751000  0.66780000  0.12127000
   0.00036416  0.66682337  0.36072218
   0.16644000  0.83420000  0.06149000
   0.17160089  0.82994794  0.30250493
   0.00140000  0.66613000  0.00100000
   0.83479000  0.50089000  0.18130000
   0.00007000  0.66669000  0.24225000
   0.83460000  0.50057000  0.06135000
   0.66585000  0.33313000  0.12140000
   0.16565000  0.83456000  0.18183000
   0.49703797  0.82755575  0.30428613
   0.00179000  0.33550000  0.00090000
   0.00119713  0.33455213  0.35883792
   0.49795000  0.16690000  0.06150000
   0.50074000  0.16494000  0.18144000
   0.83276072  0.16651812  0.30237971
   0.66500000  0.00040000  0.00060000
   0.66194280  0.99807907  0.36058076
   0.83245000  0.16547000  0.18171000
   0.99997000  0.33361000  0.24198000
   0.16915906  0.50514066  0.30170936
   0.33438000  0.99945000  0.24203000
   0.49935361  0.16750558  0.30201398
   0.00050000  0.00053000  0.12178000
   0.16809000  0.16736000  0.18138000
   0.16851013  0.16710077  0.30158917
   0.16764000  0.16833000  0.06179000
   0.99934000  0.00030000  0.24219000
   0.33250000  0.00057000  0.00106000
   0.33325092  0.00320913  0.35994483
   0.16564000  0.49971000  0.18123000
   0.16746000  0.49787000  0.06247000
   0.49848542  0.50531402  0.30237598
   0.33345000  0.33400000  0.24176000
   0.50128000  0.50087000  0.18167000
   0.49793000  0.50025000  0.06116000
   0.83262534  0.50187859  0.30247505
   0.66663000  0.33329000  0.24218000
   0.66591344  0.33507950  0.35971867
   0.66547000  0.33470000  0.00081000
   0.99559000  0.32828000  0.12092000
   0.33178018  0.33537845  0.37159183
   0.33554000  0.33717000  0.12244000
   0.99808000  0.00294000  0.00138000
   0.00316448  0.00107556  0.37120089
   0.33205000  0.99934000  0.12171000
   0.66680000  0.99880000  0.24350000
   0.83452000  0.16613000  0.06120000
   0.67294000  0.00204000  0.12069000
   0.33405000  0.66695000  0.24111000
   0.99910000  0.66743000  0.12138000
   0.33151000  0.66804000  0.00174000
   0.33268000  0.33220000  0.00000000
Direct configuration=     9
   0.83466000  0.83460000  0.06076000
   0.67075982  0.66578670  0.36215194
   0.66616000  0.66699000  0.00091000
   0.83348318  0.83160009  0.30338883
   0.66704000  0.66746000  0.24229000
   0.50180000  0.83456000  0.18079000
   0.33306000  0.66709000  0.12143000
   0.50009000  0.83568000  0.06165000
   0.83330000  0.83486000  0.18207000
   0.66751000  0.66780000  0.12127000
   0.00033671  0.66680906  0.36069187
   0.16644000  0.83420000  0.06149000
   0.17171863  0.82984074  0.30248932
   0.00140000  0.66613000  0.00100000
   0.83479000  0.50089000  0.18130000
   0.00007000  0.66669000  0.24225000
   0.83460000  0.50057000  0.06135000
   0.66585000  0.33313000  0.12140000
   0.16565000  0.83456000  0.18183000
   0.49697889  0.82764748  0.30433189
   0.00179000  0.33550000  0.00090000
   0.00114291  0.33457683  0.35882705
   0.49795000  0.16690000  0.06150000
   0.50074000  0.16494000  0.18144000
   0.83275601  0.16660417  0.30237086
   0.66500000  0.00040000  0.00060000
   0.66209321  0.99815678  0.36057763
   0.83245000  0.16547000  0.18171000
   0.99997000  0.33361000  0.24198000
   0.16911445  0.50525011  0.30165026
   0.33438000  0.99945000  0.24203000
   0.49936997  0.16730443  0.30201624
   0.00050000  0.00053000  0.12178000
   0.16809000  0.16736000  0.18138000
   0.16848988  0.16704155  0.30154337
   0.16764000  0.16833000  0.06179000
   0.99934000  0.00030000  0.24219000
   0.33250000  0.00057000  0.00106000
   0.33330044  0.00319234  0.35989207
   0.16564000  0.49971000  0.18123000
   0.16746000  0.49787000  0.06247000
   0.49844670  0.50544594  0.30228905
   0.33345000  0.33400000  0.24176000
   0.50128000  0.50087000  0.18167000
   0.49793000  0.50025000  0.06116000
   0.83268756  0.50175038  0.30257858
   0.66663000  0.33329000  0.24218000
   0.66584390  0.33506527  0.35974210
   0.66547000  0.33470000  0.00081000
   0.99559000  0.32828000  0.12092000
   0.33178314  0.33548872  0.37150032
   0.33554000  0.33717000  0.12244000
   0.99808000  0.00294000  0.00138000
   0.00316141  0.00101609  0.37113474
   0.33205000  0.99934000  0.12171000
   0.66680000  0.99880000  0.24350000
   0.83452000  0.16613000  0.06120000
   0.67294000  0.00204000  0.12069000
   0.33405000  0.66695000  0.24111000
   0.99910000  0.66743000  0.12138000
   0.33151000  0.66804000  0.00174000
   0.33268000  0.33220000  0.00000000
Direct configuration=    10
   0.83466000  0.83460000  0.06076000
   0.67069064  0.66577168  0.36214681
   0.66616000  0.66699000  0.00091000
   0.83348831  0.83163694  0.30337305
   0.66704000  0.66746000  0.24229000
   0.50180000  0.83456000  0.18079000
   0.33306000  0.66709000  0.12143000
   0.50009000  0.83568000  0.06165000
   0.83330000  0.83486000  0.18207000
   0.66751000  0.66780000  0.12127000
   0.00032065  0.66680068  0.36067414
   0.16644000  0.83420000  0.06149000
   0.17178754  0.82977801  0.30248019
   0.00140000  0.66613000  0.00100000
   0.83479000  0.50089000  0.18130000
   0.00007000  0.66669000  0.24225000
   0.83460000  0.50057000  0.06135000
   0.66585000  0.33313000  0.12140000
   0.16565000  0.83456000  0.18183000
   0.49694431  0.82770117  0.30435866
   0.00179000  0.33550000  0.00090000
   0.00111118  0.33459129  0.35882068
   0.49795000  0.16690000  0.06150000
   0.50074000  0.16494000  0.18144000
   0.83275325  0.16665453  0.30236567
   0.66500000  0.00040000  0.00060000
   0.66218124  0.99820226  0.36057580
   0.83245000  0.16547000  0.18171000
   0.99997000  0.33361000  0.24198000
   0.16908835  0.50531416  0.30161567
   0.33438000  0.99945000  0.24203000
   0.49937955  0.16718671  0.30201756
   0.00050000  0.00053000  0.12178000
   0.16809000  0.16736000  0.18138000
   0.16847802  0.16700689  0.30151657
   0.16764000  0.16833000  0.06179000
   0.99934000  0.00030000  0.24219000
   0.33250000  0.00057000  0.00106000
   0.33332942  0.00318252  0.35986120
   0.16564000  0.49971000  0.18123000
   0.16746000  0.49787000  0.06247000
   0.49842404  0.50552314  0.30223818
   0.33345000  0.33400000  0.24176000
   0.50128000  0.50087000  0.18167000
   0.49793000  0.50025000  0.06116000
   0.83272398  0.50167535  0.30263916
   0.66663000  0.33329000  0.24218000
   0.66580319  0.33505695  0.35975582
   0.66547000  0.33470000  0.00081000
   0.99559000  0.32828000  0.12092000
   0.33178487  0.33555326  0.37144676
   0.33554000  0.33717000  0.12244000
   0.99808000  0.00294000  0.00138000
   0.00315961  0.00098129  0.37109603
   0.33205000  0.99934000  0.12171000
   0.66680000  0.99880000  0.24350000
   0.83452000  0.16613000  0.06120000
   0.67294000  0.00204000  0.12069000
   0.33405000  0.66695000  0.24111000
   0.99910000  0.66743000  0.12138000
   0.33151000  0.66804000  0.00174000
   0.33268000  0.33220000  0.00000000
Direct configuration=    11
   0.83466000  0.83460000  0.06076000
   0.67120606  0.66601233  0.36212739
   0.66616000  0.66699000  0.00091000
   0.83356468  0.83168924  0.30338293
   0.66704000  0.66746000  0.24229000
   0.50180000  0.83456000  0.18079000
   0.33306000  0.66709000  0.12143000
   0.50009000  0.83568000  0.06165000
   0.83330000  0.83486000  0.18207000
   0.66751000  0.66780000  0.12127000
   0.00038615  0.66666306  0.36079149
   0.16644000  0.83420000  0.06149000
   0.17158436  0.82979448  0.30243751
   0.00140000  0.66613000  0.00100000
   0.83479000  0.50089000  0.18130000
   0.00007000  0.66669000  0.24225000
   0.83460000  0.50057000  0.06135000
   0.66585000  0.33313000  0.12140000
   0.16565000  0.83456000  0.18183000
   0.49670464  0.82790282  0.30428737
   0.00179000  0.33550000  0.00090000
   0.00114699  0.33471231  0.35898679
   0.49795000  0.16690000  0.06150000
   0.50074000  0.16494000  0.18144000
   0.83259547  0.16679342  0.30239043
   0.66500000  0.00040000  0.00060000
   0.66168809  0.99808956  0.36068852
   0.83245000  0.16547000  0.18171000
   0.99997000  0.33361000  0.24198000
   0.16906888  0.50544743  0.30176148
   0.33438000  0.99945000  0.24203000
   0.49923015  0.16691909  0.30214474
   0.00050000  0.00053000  0.12178000
   0.16809000  0.16736000  0.18138000
   0.16853306  0.16701784  0.30158305
   0.16764000  0.16833000  0.06179000
   0.99934000  0.00030000  0.24219000
   0.33250000  0.00057000  0.00106000
   0.33326800  0.00301333  0.35998074
   0.16564000  0.49971000  0.18123000
   0.16746000  0.49787000  0.06247000
   0.49862793  0.50528181  0.30236898
   0.33345000  0.33400000  0.24176000
   0.50128000  0.50087000  0.18167000
   0.49793000  0.50025000  0.06116000
   0.83330850  0.50136119  0.30267613
   0.66663000  0.33329000  0.24218000
   0.66605532  0.33498804  0.35987398
   0.66547000  0.33470000  0.00081000
   0.99559000  0.32828000  0.12092000
   0.33182779  0.33512203  0.37168932
   0.33554000  0.33717000  0.12244000
   0.99808000  0.00294000  0.00138000
   0.00278919  0.00134667  0.37123779
   0.33205000  0.99934000  0.12171000
   0.66680000  0.99880000  0.24350000
   0.83452000  0.16613000  0.06120000
   0.67294000  0.00204000  0.12069000
   0.33405000  0.66695000  0.24111000
   0.99910000  0.66743000  0.12138000
   0.33151000  0.66804000  0.00174000
   0.33268000  0.33220000  0.00000000
Direct configuration=    12
   0.83466000  0.83460000  0.06076000
   0.67233868  0.66654116  0.36208471
   0.66616000  0.66699000  0.00091000
   0.83373250  0.83180417  0.30340465
   0.66704000  0.66746000  0.24229000
   0.50180000  0.83456000  0.18079000
   0.33306000  0.66709000  0.12143000
   0.50009000  0.83568000  0.06165000
   0.83330000  0.83486000  0.18207000
   0.66751000  0.66780000  0.12127000
   0.00053006  0.66636066  0.36104938
   0.16644000  0.83420000  0.06149000
   0.17113787  0.82983066  0.30234372
   0.00140000  0.66613000  0.00100000
   0.83479000  0.50089000  0.18130000
   0.00007000  0.66669000  0.24225000
   0.83460000  0.50057000  0.06135000
   0.66585000  0.33313000  0.12140000
   0.16565000  0.83456000  0.18183000
   0.49617796  0.82834595  0.30413070
   0.00179000  0.33550000  0.00090000
   0.00122569  0.33497826  0.35935181
   0.49795000  0.16690000  0.06150000
   0.50074000  0.16494000  0.18144000
   0.83224875  0.16709864  0.30244482
   0.66500000  0.00040000  0.00060000
   0.66060441  0.99784192  0.36093621
   0.83245000  0.16547000  0.18171000
   0.99997000  0.33361000  0.24198000
   0.16902611  0.50574027  0.30208190
   0.33438000  0.99945000  0.24203000
   0.49890186  0.16633099  0.30242423
   0.00050000  0.00053000  0.12178000
   0.16809000  0.16736000  0.18138000
   0.16865400  0.16704189  0.30172916
   0.16764000  0.16833000  0.06179000
   0.99934000  0.00030000  0.24219000
   0.33250000  0.00057000  0.00106000
   0.33313303  0.00264153  0.36024344
   0.16564000  0.49971000  0.18123000
   0.16746000  0.49787000  0.06247000
   0.49907598  0.50475149  0.30265642
   0.33345000  0.33400000  0.24176000
   0.50128000  0.50087000  0.18167000
   0.49793000  0.50025000  0.06116000
   0.83459298  0.50067083  0.30275737
   0.66663000  0.33329000  0.24218000
   0.66660937  0.33483663  0.36013363
   0.66547000  0.33470000  0.00081000
   0.99559000  0.32828000  0.12092000
   0.33192209  0.33417443  0.37222235
   0.33554000  0.33717000  0.12244000
   0.99808000  0.00294000  0.00138000
   0.00197520  0.00214960  0.37154931
   0.33205000  0.99934000  0.12171000
   0.66680000  0.99880000  0.24350000
   0.83452000  0.16613000  0.06120000
   0.67294000  0.00204000  0.12069000
   0.33405000  0.66695000  0.24111000
   0.99910000  0.66743000  0.12138000
   0.33151000  0.66804000  0.00174000
   0.33268000  0.33220000  0.00000000
Direct configuration=    13
   0.83466000  0.83460000  0.06076000
   0.67196024  0.66636446  0.36209897
   0.66616000  0.66699000  0.00091000
   0.83367643  0.83176577  0.30339740
   0.66704000  0.66746000  0.24229000
   0.50180000  0.83456000  0.18079000
   0.33306000  0.66709000  0.12143000
   0.50009000  0.83568000  0.06165000
   0.83330000  0.83486000  0.18207000
   0.66751000  0.66780000  0.12127000
   0.00048198  0.66646170  0.36096321
   0.16644000  0.83420000  0.06149000
   0.17128705  0.82981857  0.30237506
   0.00140000  0.66613000  0.00100000
   0.83479000  0.50089000  0.18130000
   0.00007000  0.66669000  0.24225000
   0.83460000  0.50057000  0.06135000
   0.66585000  0.33313000  0.12140000
   0.16565000  0.83456000  0.18183000
   0.49635394  0.82819788  0.30418304
   0.00179000  0.33550000  0.00090000
   0.00119940  0.33488940  0.35922984
   0.49795000  0.16690000  0.06150000
   0.50074000  0.16494000  0.18144000
   0.83236460  0.16699666  0.30242665
   0.66500000  0.00040000  0.00060000
   0.66096650  0.99792467  0.36085345
   0.83245000  0.16547000  0.18171000
   0.99997000  0.33361000  0.24198000
   0.16904040  0.50564242  0.30197484
   0.33438000  0.99945000  0.24203000
   0.49901155  0.16652749  0.30233085
   0.00050000  0.00053000  0.12178000
   0.16809000  0.16736000  0.18138000
   0.16861359  0.16703386  0.30168034
   0.16764000  0.16833000  0.06179000
   0.99934000  0.00030000  0.24219000
   0.33250000  0.00057000  0.00106000
   0.33317812  0.00276576  0.36015567
   0.16564000  0.49971000  0.18123000
   0.16746000  0.49787000  0.06247000
   0.49892627  0.50492868  0.30256038
   0.33345000  0.33400000  0.24176000
   0.50128000  0.50087000  0.18167000
   0.49793000  0.50025000  0.06116000
   0.83416380  0.50090150  0.30273023
   0.66663000  0.33329000  0.24218000
   0.66642425  0.33488722  0.36004687
   0.66547000  0.33470000  0.00081000
   0.99559000  0.32828000  0.12092000
   0.33189058  0.33449105  0.37204425
   0.33554000  0.33717000  0.12244000
   0.99808000  0.00294000  0.00138000
   0.00224717  0.00188132  0.37144522
   0.33205000  0.99934000  0.12171000
   0.66680000  0.99880000  0.24350000
   0.83452000  0.16613000  0.06120000
   0.67294000  0.00204000  0.12069000
   0.33405000  0.66695000  0.24111000
   0.99910000  0.66743000  0.12138000
   0.33151000  0.66804000  0.00174000
   0.33268000  0.33220000  0.00000000
Direct configuration=    14
   0.83466000  0.83460000  0.06076000
   0.67172314  0.66625376  0.36210790
   0.66616000  0.66699000  0.00091000
   0.83364130  0.83174171  0.30339285
   0.66704000  0.66746000  0.24229000
   0.50180000  0.83456000  0.18079000
   0.33306000  0.66709000  0.12143000
   0.50009000  0.83568000  0.06165000
   0.83330000  0.83486000  0.18207000
   0.66751000  0.66780000  0.12127000
   0.00045185  0.66652501  0.36090923
   0.16644000  0.83420000  0.06149000
   0.17138052  0.82981100  0.30239469
   0.00140000  0.66613000  0.00100000
   0.83479000  0.50089000  0.18130000
   0.00007000  0.66669000  0.24225000
   0.83460000  0.50057000  0.06135000
   0.66585000  0.33313000  0.12140000
   0.16565000  0.83456000  0.18183000
   0.49646419  0.82810512  0.30421584
   0.00179000  0.33550000  0.00090000
   0.00118292  0.33483373  0.35915343
   0.49795000  0.16690000  0.06150000
   0.50074000  0.16494000  0.18144000
   0.83243718  0.16693276  0.30241526
   0.66500000  0.00040000  0.00060000
   0.66119335  0.99797651  0.36080160
   0.83245000  0.16547000  0.18171000
   0.99997000  0.33361000  0.24198000
   0.16904936  0.50558112  0.30190776
   0.33438000  0.99945000  0.24203000
   0.49908028  0.16665060  0.30227234
   0.00050000  0.00053000  0.12178000
   0.16809000  0.16736000  0.18138000
   0.16858827  0.16702882  0.30164976
   0.16764000  0.16833000  0.06179000
   0.99934000  0.00030000  0.24219000
   0.33250000  0.00057000  0.00106000
   0.33320638  0.00284359  0.36010067
   0.16564000  0.49971000  0.18123000
   0.16746000  0.49787000  0.06247000
   0.49883248  0.50503970  0.30250021
   0.33345000  0.33400000  0.24176000
   0.50128000  0.50087000  0.18167000
   0.49793000  0.50025000  0.06116000
   0.83389491  0.50104602  0.30271322
   0.66663000  0.33329000  0.24218000
   0.66630827  0.33491892  0.35999252
   0.66547000  0.33470000  0.00081000
   0.99559000  0.32828000  0.12092000
   0.33187084  0.33468942  0.37193267
   0.33554000  0.33717000  0.12244000
   0.99808000  0.00294000  0.00138000
   0.00241758  0.00171323  0.37138001
   0.33205000  0.99934000  0.12171000
   0.66680000  0.99880000  0.24350000
   0.83452000  0.16613000  0.06120000
   0.67294000  0.00204000  0.12069000
   0.33405000  0.66695000  0.24111000
   0.99910000  0.66743000  0.12138000
   0.33151000  0.66804000  0.00174000
   0.33268000  0.33220000  0.00000000
Direct configuration=    15
   0.83466000  0.83460000  0.06076000
   0.67231714  0.66646701  0.36201030
   0.66616000  0.66699000  0.00091000
   0.83369688  0.83188342  0.30339944
   0.66704000  0.66746000  0.24229000
   0.50180000  0.83456000  0.18079000
   0.33306000  0.66709000  0.12143000
   0.50009000  0.83568000  0.06165000
   0.83330000  0.83486000  0.18207000
   0.66751000  0.66780000  0.12127000
   0.00048750  0.66672787  0.36100328
   0.16644000  0.83420000  0.06149000
   0.17123701  0.82988242  0.30251201
   0.00140000  0.66613000  0.00100000
   0.83479000  0.50089000  0.18130000
   0.00007000  0.66669000  0.24225000
   0.83460000  0.50057000  0.06135000
   0.66585000  0.33313000  0.12140000
   0.16565000  0.83456000  0.18183000
   0.49646439  0.82796474  0.30430139
   0.00179000  0.33550000  0.00090000
   0.00127672  0.33479261  0.35933139
   0.49795000  0.16690000  0.06150000
   0.50074000  0.16494000  0.18144000
   0.83238554  0.16692966  0.30245901
   0.66500000  0.00040000  0.00060000
   0.66078005  0.99789985  0.36088791
   0.83245000  0.16547000  0.18171000
   0.99997000  0.33361000  0.24198000
   0.16941002  0.50552610  0.30194932
   0.33438000  0.99945000  0.24203000
   0.49919663  0.16657635  0.30231439
   0.00050000  0.00053000  0.12178000
   0.16809000  0.16736000  0.18138000
   0.16844298  0.16701048  0.30168212
   0.16764000  0.16833000  0.06179000
   0.99934000  0.00030000  0.24219000
   0.33250000  0.00057000  0.00106000
   0.33283987  0.00245927  0.36015950
   0.16564000  0.49971000  0.18123000
   0.16746000  0.49787000  0.06247000
   0.49900960  0.50505801  0.30250442
   0.33345000  0.33400000  0.24176000
   0.50128000  0.50087000  0.18167000
   0.49793000  0.50025000  0.06116000
   0.83364685  0.50115282  0.30285895
   0.66663000  0.33329000  0.24218000
   0.66657028  0.33477983  0.36012983
   0.66547000  0.33470000  0.00081000
   0.99559000  0.32828000  0.12092000
   0.33193422  0.33438311  0.37213178
   0.33554000  0.33717000  0.12244000
   0.99808000  0.00294000  0.00138000
   0.00204366  0.00186214  0.37146137
   0.33205000  0.99934000  0.12171000
   0.66680000  0.99880000  0.24350000
   0.83452000  0.16613000  0.06120000
   0.67294000  0.00204000  0.12069000
   0.33405000  0.66695000  0.24111000
   0.99910000  0.66743000  0.12138000
   0.33151000  0.66804000  0.00174000
   0.33268000  0.33220000  0.00000000
Direct configuration=    16
   0.83466000  0.83460000  0.06076000
   0.67279411  0.66663825  0.36193193
   0.66616000  0.66699000  0.00091000
   0.83374152  0.83199720  0.30340474
   0.66704000  0.66746000  0.24229000
   0.50180000  0.83456000  0.18079000
   0.33306000  0.66709000  0.12143000
   0.50009000  0.83568000  0.06165000
   0.83330000  0.83486000  0.18207000
   0.66751000  0.66780000  0.12127000
   0.00051612  0.66689077  0.36107881
   0.16644000  0.83420000  0.06149000
   0.17112178  0.82993978  0.30260622
   0.00140000  0.66613000  0.00100000
   0.83479000  0.50089000  0.18130000
   0.00007000  0.66669000  0.24225000
   0.83460000  0.50057000  0.06135000
   0.66585000  0.33313000  0.12140000
   0.16565000  0.83456000  0.18183000
   0.49646456  0.82785201  0.30437009
   0.00179000  0.33550000  0.00090000
   0.00135204  0.33475959  0.35947429
   0.49795000  0.16690000  0.06150000
   0.50074000  0.16494000  0.18144000
   0.83234407  0.16692717  0.30249413
   0.66500000  0.00040000  0.00060000
   0.66044818  0.99783829  0.36095722
   0.83245000  0.16547000  0.18171000
   0.99997000  0.33361000  0.24198000
   0.16969963  0.50548193  0.30198269
   0.33438000  0.99945000  0.24203000
   0.49929006  0.16651672  0.30234816
   0.00050000  0.00053000  0.12178000
   0.16809000  0.16736000  0.18138000
   0.16832632  0.16699576  0.30170811
   0.16764000  0.16833000  0.06179000
   0.99934000  0.00030000  0.24219000
   0.33250000  0.00057000  0.00106000
   0.33254557  0.00215067  0.36020674
   0.16564000  0.49971000  0.18123000
   0.16746000  0.49787000  0.06247000
   0.49915182  0.50507272  0.30250780
   0.33345000  0.33400000  0.24176000
   0.50128000  0.50087000  0.18167000
   0.49793000  0.50025000  0.06116000
   0.83344767  0.50123858  0.30297597
   0.66663000  0.33329000  0.24218000
   0.66678067  0.33466814  0.36024009
   0.66547000  0.33470000  0.00081000
   0.99559000  0.32828000  0.12092000
   0.33198511  0.33413716  0.37229167
   0.33554000  0.33717000  0.12244000
   0.99808000  0.00294000  0.00138000
   0.00174341  0.00198171  0.37152670
   0.33205000  0.99934000  0.12171000
   0.66680000  0.99880000  0.24350000
   0.83452000  0.16613000  0.06120000
   0.67294000  0.00204000  0.12069000
   0.33405000  0.66695000  0.24111000
   0.99910000  0.66743000  0.12138000
   0.33151000  0.66804000  0.00174000
   0.33268000  0.33220000  0.00000000
Direct configuration=    17
   0.83466000  0.83460000  0.06076000
   0.67340652  0.66693197  0.36200180
   0.66616000  0.66699000  0.00091000
   0.83387231  0.83231455  0.30333236
   0.66704000  0.66746000  0.24229000
   0.50180000  0.83456000  0.18079000
   0.33306000  0.66709000  0.12143000
   0.50009000  0.83568000  0.06165000
   0.83330000  0.83486000  0.18207000
   0.66751000  0.66780000  0.12127000
   0.00059149  0.66712029  0.36114274
   0.16644000  0.83420000  0.06149000
   0.17091697  0.82997610  0.30268262
   0.00140000  0.66613000  0.00100000
   0.83479000  0.50089000  0.18130000
   0.00007000  0.66669000  0.24225000
   0.83460000  0.50057000  0.06135000
   0.66585000  0.33313000  0.12140000
   0.16565000  0.83456000  0.18183000
   0.49631001  0.82765282  0.30443880
   0.00179000  0.33550000  0.00090000
   0.00139247  0.33486208  0.35956631
   0.49795000  0.16690000  0.06150000
   0.50074000  0.16494000  0.18144000
   0.83235373  0.16706221  0.30256131
   0.66500000  0.00040000  0.00060000
   0.65983140  0.99785208  0.36106033
   0.83245000  0.16547000  0.18171000
   0.99997000  0.33361000  0.24198000
   0.16987503  0.50542024  0.30209344
   0.33438000  0.99945000  0.24203000
   0.49920133  0.16640688  0.30241868
   0.00050000  0.00053000  0.12178000
   0.16809000  0.16736000  0.18138000
   0.16820135  0.16700184  0.30178397
   0.16764000  0.16833000  0.06179000
   0.99934000  0.00030000  0.24219000
   0.33250000  0.00057000  0.00106000
   0.33205831  0.00176706  0.36025902
   0.16564000  0.49971000  0.18123000
   0.16746000  0.49787000  0.06247000
   0.49919497  0.50490840  0.30256516
   0.33345000  0.33400000  0.24176000
   0.50128000  0.50087000  0.18167000
   0.49793000  0.50025000  0.06116000
   0.83379296  0.50114560  0.30303851
   0.66663000  0.33329000  0.24218000
   0.66712717  0.33435974  0.36041228
   0.66547000  0.33470000  0.00081000
   0.99559000  0.32828000  0.12092000
   0.33220086  0.33374797  0.37248002
   0.33554000  0.33717000  0.12244000
   0.99808000  0.00294000  0.00138000
   0.00128065  0.00206630  0.37164563
   0.33205000  0.99934000  0.12171000
   0.66680000  0.99880000  0.24350000
   0.83452000  0.16613000  0.06120000
   0.67294000  0.00204000  0.12069000
   0.33405000  0.66695000  0.24111000
   0.99910000  0.66743000  0.12138000
   0.33151000  0.66804000  0.00174000
   0.33268000  0.33220000  0.00000000
Direct configuration=    18
   0.83466000  0.83460000  0.06076000
   0.67333049  0.66689550  0.36199313
   0.66616000  0.66699000  0.00091000
   0.83385607  0.83227515  0.30334134
   0.66704000  0.66746000  0.24229000
   0.50180000  0.83456000  0.18079000
   0.33306000  0.66709000  0.12143000
   0.50009000  0.83568000  0.06165000
   0.83330000  0.83486000  0.18207000
   0.66751000  0.66780000  0.12127000
   0.00058213  0.66709179  0.36113480
   0.16644000  0.83420000  0.06149000
   0.17094240  0.82997159  0.30267314
   0.00140000  0.66613000  0.00100000
   0.83479000  0.50089000  0.18130000
   0.00007000  0.66669000  0.24225000
   0.83460000  0.50057000  0.06135000
   0.66585000  0.33313000  0.12140000
   0.16565000  0.83456000  0.18183000
   0.49632920  0.82767755  0.30443027
   0.00179000  0.33550000  0.00090000
   0.00138745  0.33484935  0.35955488
   0.49795000  0.16690000  0.06150000
   0.50074000  0.16494000  0.18144000
   0.83235253  0.16704544  0.30255297
   0.66500000  0.00040000  0.00060000
   0.65990798  0.99785037  0.36104753
   0.83245000  0.16547000  0.18171000
   0.99997000  0.33361000  0.24198000
   0.16985326  0.50542790  0.30207969
   0.33438000  0.99945000  0.24203000
   0.49921235  0.16642052  0.30240993
   0.00050000  0.00053000  0.12178000
   0.16809000  0.16736000  0.18138000
   0.16821686  0.16700108  0.30177455
   0.16764000  0.16833000  0.06179000
   0.99934000  0.00030000  0.24219000
   0.33250000  0.00057000  0.00106000
   0.33211881  0.00181469  0.36025253
   0.16564000  0.49971000  0.18123000
   0.16746000  0.49787000  0.06247000
   0.49918961  0.50492880  0.30255804
   0.33345000  0.33400000  0.24176000
   0.50128000  0.50087000  0.18167000
   0.49793000  0.50025000  0.06116000
   0.83375009  0.50115714  0.30303074
   0.66663000  0.33329000  0.24218000
   0.66708415  0.33439803  0.36039090
   0.66547000  0.33470000  0.00081000
   0.99559000  0.32828000  0.12092000
   0.33217407  0.33379629  0.37245663
   0.33554000  0.33717000  0.12244000
   0.99808000  0.00294000  0.00138000
   0.00133811  0.00205580  0.37163086
   0.33205000  0.99934000  0.12171000
   0.66680000  0.99880000  0.24350000
   0.83452000  0.16613000  0.06120000
   0.67294000  0.00204000  0.12069000
   0.33405000  0.66695000  0.24111000
   0.99910000  0.66743000  0.12138000
   0.33151000  0.66804000  0.00174000
   0.33268000  0.33220000  0.00000000
Direct configuration=    19
   0.83466000  0.83460000  0.06076000
   0.67335724  0.66690759  0.36210479
   0.66616000  0.66699000  0.00091000
   0.83374735  0.83224545  0.30332190
   0.66704000  0.66746000  0.24229000
   0.50180000  0.83456000  0.18079000
   0.33306000  0.66709000  0.12143000
   0.50009000  0.83568000  0.06165000
   0.83330000  0.83486000  0.18207000
   0.66751000  0.66780000  0.12127000
   0.00058706  0.66708260  0.36109959
   0.16644000  0.83420000  0.06149000
   0.17091748  0.82992743  0.30255728
   0.00140000  0.66613000  0.00100000
   0.83479000  0.50089000  0.18130000
   0.00007000  0.66669000  0.24225000
   0.83460000  0.50057000  0.06135000
   0.66585000  0.33313000  0.12140000
   0.16565000  0.83456000  0.18183000
   0.49620299  0.82765647  0.30439782
   0.00179000  0.33550000  0.00090000
   0.00137232  0.33496624  0.35948787
   0.49795000  0.16690000  0.06150000
   0.50074000  0.16494000  0.18144000
   0.83235428  0.16711932  0.30253668
   0.66500000  0.00040000  0.00060000
   0.65973430  0.99795282  0.36103323
   0.83245000  0.16547000  0.18171000
   0.99997000  0.33361000  0.24198000
   0.16962541  0.50549915  0.30213578
   0.33438000  0.99945000  0.24203000
   0.49901515  0.16637568  0.30241747
   0.00050000  0.00053000  0.12178000
   0.16809000  0.16736000  0.18138000
   0.16831244  0.16700811  0.30178674
   0.16764000  0.16833000  0.06179000
   0.99934000  0.00030000  0.24219000
   0.33250000  0.00057000  0.00106000
   0.33211437  0.00191502  0.36026661
   0.16564000  0.49971000  0.18123000
   0.16746000  0.49787000  0.06247000
   0.49918896  0.50477082  0.30265185
   0.33345000  0.33400000  0.24176000
   0.50128000  0.50087000  0.18167000
   0.49793000  0.50025000  0.06116000
   0.83412094  0.50107987  0.30291370
   0.66663000  0.33329000  0.24218000
   0.66715101  0.33429646  0.36036973
   0.66547000  0.33470000  0.00081000
   0.99559000  0.32828000  0.12092000
   0.33232403  0.33368529  0.37245539
   0.33554000  0.33717000  0.12244000
   0.99808000  0.00294000  0.00138000
   0.00122875  0.00200594  0.37168573
   0.33205000  0.99934000  0.12171000
   0.66680000  0.99880000  0.24350000
   0.83452000  0.16613000  0.06120000
   0.67294000  0.00204000  0.12069000
   0.33405000  0.66695000  0.24111000
   0.99910000  0.66743000  0.12138000
   0.33151000  0.66804000  0.00174000
   0.33268000  0.33220000  0.00000000
