Generated by VASPKIT code               
   1.00000000000000     
     8.5097000000000005    0.0000000000000000    0.0000000000000000
    -0.0037259700000000    8.5392991899999995    0.0000000000000000
     0.0000000000000000    0.0000000000000000   23.5714000000000006
   Fe   Pb   Cr
    49     1    13
Selective dynamics
Direct
     0.8331000000000017    0.4987100000000027    0.0600099999999983   F   F   F
     0.8347199999999972    0.8319199999999967    0.0602700000000027   F   F   F
     0.0008100000000013    0.6642500000000027    0.0003400000000013   F   F   F
     0.1567447351458463    0.8285414265537421    0.2996509524693820   T   T   T
     0.6647293457823663    0.3307294649284287    0.3590986422682230   T   T   T
     0.6655900000000017    0.3313800000000029    0.0004399999999976   F   F   F
     0.4996799999999979    0.8332199999999972    0.0604599999999991   F   F   F
     0.6672099999999972    0.3332100000000011    0.2406700000000015   F   F   F
     0.5005799999999994    0.4994999999999976    0.1802399999999977   F   F   F
     0.3359499999999969    0.3319600000000023    0.1191200000000023   F   F   F
     0.3346200000000010    0.3337599999999981    0.2405899999999974   F   F   F
     0.5017372288992792    0.4998804793286896    0.3011765918984584   T   T   T
     0.0005499999999969    0.3318999999999974    0.1200600000000023   F   F   F
     0.1675200000000032    0.4994500000000031    0.1806500000000000   F   F   F
     0.0002100000000027    0.3314499999999967    0.0003799999999998   F   F   F
     0.3350999999999971    0.3316999999999979    0.0002899999999997   F   F   F
     0.0093123895939502    0.3301388134507197    0.3602750537142958   T   T   T
     0.0007700000000028    0.9995899999999978    0.1203599999999980   F   F   F
     0.1681400000000011    0.1663399999999982    0.1804800000000029   F   F   F
     0.3340499999999977    0.6659300000000030    0.1209500000000006   F   F   F
     0.5007799999999989    0.8324199999999990    0.1812100000000001   F   F   F
     0.9966346314704708    0.6665999485467969    0.3587829806657313   T   T   T
     0.9998199999999997    0.3335900000000009    0.2402999999999977   F   F   F
     0.0002500000000012    0.6656899999999979    0.1205100000000030   F   F   F
     0.1658100000000005    0.8321699999999979    0.1811399999999992   F   F   F
     0.6656600000000026    0.3312299999999979    0.1197000000000017   F   F   F
     0.8316146226647262    0.8353152888090223    0.3022679250401716   T   T   T
     0.1672967455300873    0.4995007226906983    0.3013389583063631   T   T   T
     0.1670632814186958    0.1684553229301206    0.3017763960526805   T   T   T
     0.0016099999999994    0.9989100000000022    0.0002399999999980   F   F   F
     0.0095356539502641    0.9992277291063347    0.3604034028987325   T   T   T
     0.1680700000000002    0.1653900000000021    0.0600400000000008   F   F   F
     0.5063693422258013    0.8317209626115862    0.2995145703824260   T   T   T
     0.8347600000000028    0.8330300000000008    0.1813199999999995   F   F   F
     0.6671499999999995    0.6655900000000017    0.0000000000000000   F   F   F
     0.6671899999999980    0.6664000000000030    0.1203199999999995   F   F   F
     0.8330199999999977    0.4993699999999990    0.1799499999999981   F   F   F
     0.1676900000000003    0.8338899999999967    0.0602900000000020   F   F   F
     0.5012627249705932    0.1665532290544392    0.3024801986661821   T   T   T
     0.3328899999999990    0.9982400000000027    0.2413000000000025   F   F   F
     0.6667899999999989    0.9991399999999970    0.2409699999999972   F   F   F
     0.3346599999999995    0.0002300000000020    0.1208200000000019   F   F   F
     0.6674599999999984    0.9981500000000025    0.0000100000000032   F   F   F
     0.8350174095386527    0.1666177306517108    0.3023986366467741   T   T   T
     0.8335799999999978    0.1645600000000016    0.0601300000000009   F   F   F
     0.6636314535372125    0.0028075477157589    0.3600376974865556   T   T   T
     0.8336400000000026    0.1659300000000030    0.1806199999999976   F   F   F
     0.6665300000000016    0.9997200000000035    0.1204400000000021   F   F   F
     0.3347130555225567    0.3305588191635700    0.3596745524840922   T   T   T
     0.6642284799775675    0.6661363144187528    0.3920720263076037   T   T   T
     0.3348700000000022    0.0016699999999972    0.0006600000000034   F   F   F
     0.3303115635741689    0.9948080397275847    0.3605013436875674   T   T   T
     0.0012200000000036    0.0021699999999996    0.2408000000000001   F   F   F
     0.1672200000000004    0.5017899999999997    0.0590299999999999   F   F   F
     0.5000000000000000    0.5034399999999977    0.0594899999999967   F   F   F
     0.4986099999999993    0.1611499999999992    0.0586800000000025   F   F   F
     0.4996799999999979    0.1644399999999990    0.1818200000000019   F   F   F
     0.8361914777962958    0.5054598201216416    0.2992513683709428   T   T   T
     0.9972199999999987    0.6613499999999988    0.2415099999999981   F   F   F
     0.3341899999999995    0.6657300000000035    0.2404000000000011   F   F   F
     0.3341399999999979    0.6585499999999982    0.0027800000000013   F   F   F
     0.3282662229796218    0.6745323102129758    0.3672644613409053   T   T   T
     0.6692299999999989    0.6633700000000005    0.2409699999999972   F   F   F
 
  0.00000000E+00  0.00000000E+00  0.00000000E+00
  0.00000000E+00  0.00000000E+00  0.00000000E+00
  0.00000000E+00  0.00000000E+00  0.00000000E+00
  0.00000000E+00  0.00000000E+00  0.00000000E+00
  0.00000000E+00  0.00000000E+00  0.00000000E+00
  0.00000000E+00  0.00000000E+00  0.00000000E+00
  0.00000000E+00  0.00000000E+00  0.00000000E+00
  0.00000000E+00  0.00000000E+00  0.00000000E+00
  0.00000000E+00  0.00000000E+00  0.00000000E+00
  0.00000000E+00  0.00000000E+00  0.00000000E+00
  0.00000000E+00  0.00000000E+00  0.00000000E+00
  0.00000000E+00  0.00000000E+00  0.00000000E+00
  0.00000000E+00  0.00000000E+00  0.00000000E+00
  0.00000000E+00  0.00000000E+00  0.00000000E+00
  0.00000000E+00  0.00000000E+00  0.00000000E+00
  0.00000000E+00  0.00000000E+00  0.00000000E+00
  0.00000000E+00  0.00000000E+00  0.00000000E+00
  0.00000000E+00  0.00000000E+00  0.00000000E+00
  0.00000000E+00  0.00000000E+00  0.00000000E+00
  0.00000000E+00  0.00000000E+00  0.00000000E+00
  0.00000000E+00  0.00000000E+00  0.00000000E+00
  0.00000000E+00  0.00000000E+00  0.00000000E+00
  0.00000000E+00  0.00000000E+00  0.00000000E+00
  0.00000000E+00  0.00000000E+00  0.00000000E+00
  0.00000000E+00  0.00000000E+00  0.00000000E+00
  0.00000000E+00  0.00000000E+00  0.00000000E+00
  0.00000000E+00  0.00000000E+00  0.00000000E+00
  0.00000000E+00  0.00000000E+00  0.00000000E+00
  0.00000000E+00  0.00000000E+00  0.00000000E+00
  0.00000000E+00  0.00000000E+00  0.00000000E+00
  0.00000000E+00  0.00000000E+00  0.00000000E+00
  0.00000000E+00  0.00000000E+00  0.00000000E+00
  0.00000000E+00  0.00000000E+00  0.00000000E+00
  0.00000000E+00  0.00000000E+00  0.00000000E+00
  0.00000000E+00  0.00000000E+00  0.00000000E+00
  0.00000000E+00  0.00000000E+00  0.00000000E+00
  0.00000000E+00  0.00000000E+00  0.00000000E+00
  0.00000000E+00  0.00000000E+00  0.00000000E+00
  0.00000000E+00  0.00000000E+00  0.00000000E+00
  0.00000000E+00  0.00000000E+00  0.00000000E+00
  0.00000000E+00  0.00000000E+00  0.00000000E+00
  0.00000000E+00  0.00000000E+00  0.00000000E+00
  0.00000000E+00  0.00000000E+00  0.00000000E+00
  0.00000000E+00  0.00000000E+00  0.00000000E+00
  0.00000000E+00  0.00000000E+00  0.00000000E+00
  0.00000000E+00  0.00000000E+00  0.00000000E+00
  0.00000000E+00  0.00000000E+00  0.00000000E+00
  0.00000000E+00  0.00000000E+00  0.00000000E+00
  0.00000000E+00  0.00000000E+00  0.00000000E+00
  0.00000000E+00  0.00000000E+00  0.00000000E+00
  0.00000000E+00  0.00000000E+00  0.00000000E+00
  0.00000000E+00  0.00000000E+00  0.00000000E+00
  0.00000000E+00  0.00000000E+00  0.00000000E+00
  0.00000000E+00  0.00000000E+00  0.00000000E+00
  0.00000000E+00  0.00000000E+00  0.00000000E+00
  0.00000000E+00  0.00000000E+00  0.00000000E+00
  0.00000000E+00  0.00000000E+00  0.00000000E+00
  0.00000000E+00  0.00000000E+00  0.00000000E+00
  0.00000000E+00  0.00000000E+00  0.00000000E+00
  0.00000000E+00  0.00000000E+00  0.00000000E+00
  0.00000000E+00  0.00000000E+00  0.00000000E+00
  0.00000000E+00  0.00000000E+00  0.00000000E+00
  0.00000000E+00  0.00000000E+00  0.00000000E+00
