INCAR-For-OPT                           
           1
     8.509700    0.000000    0.000000
    -0.003726    8.539299    0.000000
     0.000000    0.000000   23.571400
   Fe   Pb   Cr
    49     1    13
Direct configuration=     1
   0.83310000  0.49871000  0.06001000
   0.83472000  0.83192000  0.06027000
   0.00081000  0.66425000  0.00034000
   0.15577000  0.82738000  0.29964000
   0.66480000  0.33156000  0.35849000
   0.66559000  0.33138000  0.00044000
   0.49968000  0.83322000  0.06046000
   0.66721000  0.33321000  0.24067000
   0.50058000  0.49950000  0.18024000
   0.33595000  0.33196000  0.11912000
   0.33462000  0.33376000  0.24059000
   0.50359000  0.50091000  0.30053000
   0.00055000  0.33190000  0.12006000
   0.16752000  0.49945000  0.18065000
   0.00021000  0.33145000  0.00038000
   0.33510000  0.33170000  0.00029000
   0.00621000  0.33116000  0.36019000
   0.00077000  0.99959000  0.12036000
   0.16814000  0.16634000  0.18048000
   0.33405000  0.66593000  0.12095000
   0.50078000  0.83242000  0.18121000
   0.99841000  0.66705000  0.35821000
   0.99982000  0.33359000  0.24030000
   0.00025000  0.66569000  0.12051000
   0.16581000  0.83217000  0.18114000
   0.66566000  0.33123000  0.11970000
   0.82875000  0.83375000  0.30297000
   0.16797000  0.49862000  0.30149000
   0.16657000  0.16855000  0.30193000
   0.00161000  0.99891000  0.00024000
   0.00884000  0.99691000  0.36036000
   0.16807000  0.16539000  0.06004000
   0.51045000  0.82952000  0.29907000
   0.83476000  0.83303000  0.18132000
   0.66715000  0.66559000  0.00000000
   0.66719000  0.66640000  0.12032000
   0.83302000  0.49937000  0.17995000
   0.16769000  0.83389000  0.06029000
   0.50086000  0.16743000  0.30221000
   0.33289000  0.99824000  0.24130000
   0.66679000  0.99914000  0.24097000
   0.33466000  0.00023000  0.12082000
   0.66746000  0.99815000  0.00001000
   0.83475000  0.16569000  0.30224000
   0.83358000  0.16456000  0.06013000
   0.66247000  0.00343000  0.35981000
   0.83364000  0.16593000  0.18062000
   0.66653000  0.99972000  0.12044000
   0.33589000  0.33240000  0.35934000
   0.44844000  0.89284000  0.44273000
   0.33487000  0.00167000  0.00066000
   0.33232000  0.99143000  0.35937000
   0.00122000  0.00217000  0.24080000
   0.16722000  0.50179000  0.05903000
   0.50000000  0.50344000  0.05949000
   0.49861000  0.16115000  0.05868000
   0.49968000  0.16444000  0.18182000
   0.83532000  0.50749000  0.29991000
   0.99722000  0.66135000  0.24151000
   0.33419000  0.66573000  0.24040000
   0.33414000  0.65855000  0.00278000
   0.33467000  0.67546000  0.36753000
   0.66923000  0.66337000  0.24097000
Direct configuration=     2
   0.83310000  0.49871000  0.06001000
   0.83472000  0.83192000  0.06027000
   0.00081000  0.66425000  0.00034000
   0.15631320  0.82830747  0.29943098
   0.66510169  0.33168665  0.35858291
   0.66559000  0.33138000  0.00044000
   0.49968000  0.83322000  0.06046000
   0.66721000  0.33321000  0.24067000
   0.50058000  0.49950000  0.18024000
   0.33595000  0.33196000  0.11912000
   0.33462000  0.33376000  0.24059000
   0.50293791  0.50129386  0.30065464
   0.00055000  0.33190000  0.12006000
   0.16752000  0.49945000  0.18065000
   0.00021000  0.33145000  0.00038000
   0.33510000  0.33170000  0.00029000
   0.00583466  0.33145064  0.36022435
   0.00077000  0.99959000  0.12036000
   0.16814000  0.16634000  0.18048000
   0.33405000  0.66593000  0.12095000
   0.50078000  0.83242000  0.18121000
   0.99844233  0.66673653  0.35831593
   0.99982000  0.33359000  0.24030000
   0.00025000  0.66569000  0.12051000
   0.16581000  0.83217000  0.18114000
   0.66566000  0.33123000  0.11970000
   0.82857632  0.83372364  0.30302883
   0.16830835  0.49890497  0.30162112
   0.16741793  0.16761587  0.30180005
   0.00161000  0.99891000  0.00024000
   0.00869938  0.99692711  0.36042762
   0.16807000  0.16539000  0.06004000
   0.51052113  0.82980011  0.29925888
   0.83476000  0.83303000  0.18132000
   0.66715000  0.66559000  0.00000000
   0.66719000  0.66640000  0.12032000
   0.83302000  0.49937000  0.17995000
   0.16769000  0.83389000  0.06029000
   0.50015606  0.16707953  0.30201877
   0.33289000  0.99824000  0.24130000
   0.66679000  0.99914000  0.24097000
   0.33466000  0.00023000  0.12082000
   0.66746000  0.99815000  0.00001000
   0.83471680  0.16581972  0.30228453
   0.83358000  0.16456000  0.06013000
   0.66380749  0.00399301  0.35980404
   0.83364000  0.16593000  0.18062000
   0.66653000  0.99972000  0.12044000
   0.33574408  0.33209405  0.35936814
   0.45782519  0.88686042  0.44912875
   0.33487000  0.00167000  0.00066000
   0.32353123  0.99854865  0.35340015
   0.00122000  0.00217000  0.24080000
   0.16722000  0.50179000  0.05903000
   0.50000000  0.50344000  0.05949000
   0.49861000  0.16115000  0.05868000
   0.49968000  0.16444000  0.18182000
   0.83551425  0.50751855  0.29966282
   0.99722000  0.66135000  0.24151000
   0.33419000  0.66573000  0.24040000
   0.33414000  0.65855000  0.00278000
   0.33307346  0.67363023  0.36694070
   0.66923000  0.66337000  0.24097000
Direct configuration=     3
   0.83310000  0.49871000  0.06001000
   0.83472000  0.83192000  0.06027000
   0.00081000  0.66425000  0.00034000
   0.15627018  0.82823401  0.29944754
   0.66507779  0.33167661  0.35857556
   0.66559000  0.33138000  0.00044000
   0.49968000  0.83322000  0.06046000
   0.66721000  0.33321000  0.24067000
   0.50058000  0.49950000  0.18024000
   0.33595000  0.33196000  0.11912000
   0.33462000  0.33376000  0.24059000
   0.50298956  0.50126346  0.30064477
   0.00055000  0.33190000  0.12006000
   0.16752000  0.49945000  0.18065000
   0.00021000  0.33145000  0.00038000
   0.33510000  0.33170000  0.00029000
   0.00586439  0.33142762  0.36022163
   0.00077000  0.99959000  0.12036000
   0.16814000  0.16634000  0.18048000
   0.33405000  0.66593000  0.12095000
   0.50078000  0.83242000  0.18121000
   0.99843977  0.66676135  0.35830754
   0.99982000  0.33359000  0.24030000
   0.00025000  0.66569000  0.12051000
   0.16581000  0.83217000  0.18114000
   0.66566000  0.33123000  0.11970000
   0.82859008  0.83372573  0.30302417
   0.16828155  0.49888240  0.30161073
   0.16735076  0.16768986  0.30181034
   0.00161000  0.99891000  0.00024000
   0.00871052  0.99692575  0.36042226
   0.16807000  0.16539000  0.06004000
   0.51051550  0.82977792  0.29924392
   0.83476000  0.83303000  0.18132000
   0.66715000  0.66559000  0.00000000
   0.66719000  0.66640000  0.12032000
   0.83302000  0.49937000  0.17995000
   0.16769000  0.83389000  0.06029000
   0.50021182  0.16710729  0.30203392
   0.33289000  0.99824000  0.24130000
   0.66679000  0.99914000  0.24097000
   0.33466000  0.00023000  0.12082000
   0.66746000  0.99815000  0.00001000
   0.83471943  0.16580944  0.30228101
   0.83358000  0.16456000  0.06013000
   0.66370155  0.00394841  0.35980451
   0.83364000  0.16593000  0.18062000
   0.66653000  0.99972000  0.12044000
   0.33575564  0.33211828  0.35936591
   0.45708182  0.88733404  0.44862193
   0.33487000  0.00167000  0.00066000
   0.32422735  0.99798481  0.35387300
   0.00122000  0.00217000  0.24080000
   0.16722000  0.50179000  0.05903000
   0.50000000  0.50344000  0.05949000
   0.49861000  0.16115000  0.05868000
   0.49968000  0.16444000  0.18182000
   0.83549887  0.50751629  0.29968239
   0.99722000  0.66135000  0.24151000
   0.33419000  0.66573000  0.24040000
   0.33414000  0.65855000  0.00278000
   0.33319991  0.67377516  0.36698737
   0.66923000  0.66337000  0.24097000
Direct configuration=     4
   0.83310000  0.49871000  0.06001000
   0.83472000  0.83192000  0.06027000
   0.00081000  0.66425000  0.00034000
   0.15615981  0.82790518  0.29924959
   0.66516041  0.33177463  0.35862439
   0.66559000  0.33138000  0.00044000
   0.49968000  0.83322000  0.06046000
   0.66721000  0.33321000  0.24067000
   0.50058000  0.49950000  0.18024000
   0.33595000  0.33196000  0.11912000
   0.33462000  0.33376000  0.24059000
   0.50266726  0.50147901  0.30070974
   0.00055000  0.33190000  0.12006000
   0.16752000  0.49945000  0.18065000
   0.00021000  0.33145000  0.00038000
   0.33510000  0.33170000  0.00029000
   0.00565043  0.33158199  0.36021153
   0.00077000  0.99959000  0.12036000
   0.16814000  0.16634000  0.18048000
   0.33405000  0.66593000  0.12095000
   0.50078000  0.83242000  0.18121000
   0.99845901  0.66667727  0.35834312
   0.99982000  0.33359000  0.24030000
   0.00025000  0.66569000  0.12051000
   0.16581000  0.83217000  0.18114000
   0.66566000  0.33123000  0.11970000
   0.82863368  0.83353977  0.30309809
   0.16823396  0.49886248  0.30162618
   0.16643374  0.16894569  0.30130987
   0.00161000  0.99891000  0.00024000
   0.00806955  0.99701297  0.36042009
   0.16807000  0.16539000  0.06004000
   0.51080829  0.82973681  0.29962571
   0.83476000  0.83303000  0.18132000
   0.66715000  0.66559000  0.00000000
   0.66719000  0.66640000  0.12032000
   0.83302000  0.49937000  0.17995000
   0.16769000  0.83389000  0.06029000
   0.50053118  0.16747009  0.30180155
   0.33289000  0.99824000  0.24130000
   0.66679000  0.99914000  0.24097000
   0.33466000  0.00023000  0.12082000
   0.66746000  0.99815000  0.00001000
   0.83498733  0.16615494  0.30222843
   0.83358000  0.16456000  0.06013000
   0.66364635  0.00395328  0.36016948
   0.83364000  0.16593000  0.18062000
   0.66653000  0.99972000  0.12044000
   0.33576012  0.33207560  0.35936281
   0.45973939  0.88620003  0.44886087
   0.33487000  0.00167000  0.00066000
   0.32436791  0.99733910  0.35427858
   0.00122000  0.00217000  0.24080000
   0.16722000  0.50179000  0.05903000
   0.50000000  0.50344000  0.05949000
   0.49861000  0.16115000  0.05868000
   0.49968000  0.16444000  0.18182000
   0.83563110  0.50763253  0.29954080
   0.99722000  0.66135000  0.24151000
   0.33419000  0.66573000  0.24040000
   0.33414000  0.65855000  0.00278000
   0.33250904  0.67394925  0.36701201
   0.66923000  0.66337000  0.24097000
Direct configuration=     5
   0.83310000  0.49871000  0.06001000
   0.83472000  0.83192000  0.06027000
   0.00081000  0.66425000  0.00034000
   0.15585820  0.82700652  0.29870863
   0.66538620  0.33204249  0.35875787
   0.66559000  0.33138000  0.00044000
   0.49968000  0.83322000  0.06046000
   0.66721000  0.33321000  0.24067000
   0.50058000  0.49950000  0.18024000
   0.33595000  0.33196000  0.11912000
   0.33462000  0.33376000  0.24059000
   0.50178647  0.50206808  0.30088728
   0.00055000  0.33190000  0.12006000
   0.16752000  0.49945000  0.18065000
   0.00021000  0.33145000  0.00038000
   0.33510000  0.33170000  0.00029000
   0.00506569  0.33200386  0.36018391
   0.00077000  0.99959000  0.12036000
   0.16814000  0.16634000  0.18048000
   0.33405000  0.66593000  0.12095000
   0.50078000  0.83242000  0.18121000
   0.99851160  0.66644747  0.35844036
   0.99982000  0.33359000  0.24030000
   0.00025000  0.66569000  0.12051000
   0.16581000  0.83217000  0.18114000
   0.66566000  0.33123000  0.11970000
   0.82875285  0.83303156  0.30330009
   0.16810389  0.49880802  0.30166840
   0.16392762  0.17237774  0.29994214
   0.00161000  0.99891000  0.00024000
   0.00631786  0.99725133  0.36041415
   0.16807000  0.16539000  0.06004000
   0.51160844  0.82962447  0.30066908
   0.83476000  0.83303000  0.18132000
   0.66715000  0.66559000  0.00000000
   0.66719000  0.66640000  0.12032000
   0.83302000  0.49937000  0.17995000
   0.16769000  0.83389000  0.06029000
   0.50140395  0.16846157  0.30116651
   0.33289000  0.99824000  0.24130000
   0.66679000  0.99914000  0.24097000
   0.33466000  0.00023000  0.12082000
   0.66746000  0.99815000  0.00001000
   0.83571946  0.16709915  0.30208474
   0.83358000  0.16456000  0.06013000
   0.66349547  0.00396657  0.36116690
   0.83364000  0.16593000  0.18062000
   0.66653000  0.99972000  0.12044000
   0.33577237  0.33195895  0.35935433
   0.46700223  0.88310092  0.44951387
   0.33487000  0.00167000  0.00066000
   0.32475202  0.99557445  0.35538702
   0.00122000  0.00217000  0.24080000
   0.16722000  0.50179000  0.05903000
   0.50000000  0.50344000  0.05949000
   0.49861000  0.16115000  0.05868000
   0.49968000  0.16444000  0.18182000
   0.83599250  0.50795020  0.29915385
   0.99722000  0.66135000  0.24151000
   0.33419000  0.66573000  0.24040000
   0.33414000  0.65855000  0.00278000
   0.33062098  0.67442502  0.36707933
   0.66923000  0.66337000  0.24097000
Direct configuration=     6
   0.83310000  0.49871000  0.06001000
   0.83472000  0.83192000  0.06027000
   0.00081000  0.66425000  0.00034000
   0.15568578  0.82722815  0.29864385
   0.66546165  0.33206033  0.35876814
   0.66559000  0.33138000  0.00044000
   0.49968000  0.83322000  0.06046000
   0.66721000  0.33321000  0.24067000
   0.50058000  0.49950000  0.18024000
   0.33595000  0.33196000  0.11912000
   0.33462000  0.33376000  0.24059000
   0.50156234  0.50231003  0.30097775
   0.00055000  0.33190000  0.12006000
   0.16752000  0.49945000  0.18065000
   0.00021000  0.33145000  0.00038000
   0.33510000  0.33170000  0.00029000
   0.00479573  0.33230935  0.36019528
   0.00077000  0.99959000  0.12036000
   0.16814000  0.16634000  0.18048000
   0.33405000  0.66593000  0.12095000
   0.50078000  0.83242000  0.18121000
   0.99861525  0.66633219  0.35848481
   0.99982000  0.33359000  0.24030000
   0.00025000  0.66569000  0.12051000
   0.16581000  0.83217000  0.18114000
   0.66566000  0.33123000  0.11970000
   0.82854768  0.83320358  0.30345130
   0.16805263  0.49893498  0.30167092
   0.16420529  0.17209943  0.29993513
   0.00161000  0.99891000  0.00024000
   0.00574054  0.99748414  0.36018421
   0.16807000  0.16539000  0.06004000
   0.51216441  0.82974340  0.30100392
   0.83476000  0.83303000  0.18132000
   0.66715000  0.66559000  0.00000000
   0.66719000  0.66640000  0.12032000
   0.83302000  0.49937000  0.17995000
   0.16769000  0.83389000  0.06029000
   0.50135431  0.16827339  0.30126789
   0.33289000  0.99824000  0.24130000
   0.66679000  0.99914000  0.24097000
   0.33466000  0.00023000  0.12082000
   0.66746000  0.99815000  0.00001000
   0.83531621  0.16698696  0.30214679
   0.83358000  0.16456000  0.06013000
   0.66363085  0.00442387  0.36137405
   0.83364000  0.16593000  0.18062000
   0.66653000  0.99972000  0.12044000
   0.33572505  0.33171995  0.35921543
   0.47092584  0.88119284  0.44958313
   0.33487000  0.00167000  0.00066000
   0.32433827  0.99546295  0.35568727
   0.00122000  0.00217000  0.24080000
   0.16722000  0.50179000  0.05903000
   0.50000000  0.50344000  0.05949000
   0.49861000  0.16115000  0.05868000
   0.49968000  0.16444000  0.18182000
   0.83599335  0.50809217  0.29908269
   0.99722000  0.66135000  0.24151000
   0.33419000  0.66573000  0.24040000
   0.33414000  0.65855000  0.00278000
   0.32979697  0.67486095  0.36726346
   0.66923000  0.66337000  0.24097000
Direct configuration=     7
   0.83310000  0.49871000  0.06001000
   0.83472000  0.83192000  0.06027000
   0.00081000  0.66425000  0.00034000
   0.15516854  0.82789306  0.29844951
   0.66568800  0.33211386  0.35879896
   0.66559000  0.33138000  0.00044000
   0.49968000  0.83322000  0.06046000
   0.66721000  0.33321000  0.24067000
   0.50058000  0.49950000  0.18024000
   0.33595000  0.33196000  0.11912000
   0.33462000  0.33376000  0.24059000
   0.50088997  0.50303585  0.30124917
   0.00055000  0.33190000  0.12006000
   0.16752000  0.49945000  0.18065000
   0.00021000  0.33145000  0.00038000
   0.33510000  0.33170000  0.00029000
   0.00398583  0.33322583  0.36022938
   0.00077000  0.99959000  0.12036000
   0.16814000  0.16634000  0.18048000
   0.33405000  0.66593000  0.12095000
   0.50078000  0.83242000  0.18121000
   0.99892620  0.66598634  0.35861813
   0.99982000  0.33359000  0.24030000
   0.00025000  0.66569000  0.12051000
   0.16581000  0.83217000  0.18114000
   0.66566000  0.33123000  0.11970000
   0.82793217  0.83371963  0.30390495
   0.16789886  0.49931584  0.30167849
   0.16503831  0.17126451  0.29991409
   0.00161000  0.99891000  0.00024000
   0.00400859  0.99818257  0.35949441
   0.16807000  0.16539000  0.06004000
   0.51383232  0.83010018  0.30200841
   0.83476000  0.83303000  0.18132000
   0.66715000  0.66559000  0.00000000
   0.66719000  0.66640000  0.12032000
   0.83302000  0.49937000  0.17995000
   0.16769000  0.83389000  0.06029000
   0.50120538  0.16770884  0.30157202
   0.33289000  0.99824000  0.24130000
   0.66679000  0.99914000  0.24097000
   0.33466000  0.00023000  0.12082000
   0.66746000  0.99815000  0.00001000
   0.83410646  0.16665038  0.30233294
   0.83358000  0.16456000  0.06013000
   0.66403700  0.00579580  0.36199551
   0.83364000  0.16593000  0.18062000
   0.66653000  0.99972000  0.12044000
   0.33558310  0.33100294  0.35879872
   0.48269667  0.87546860  0.44979090
   0.33487000  0.00167000  0.00066000
   0.32309701  0.99512845  0.35658802
   0.00122000  0.00217000  0.24080000
   0.16722000  0.50179000  0.05903000
   0.50000000  0.50344000  0.05949000
   0.49861000  0.16115000  0.05868000
   0.49968000  0.16444000  0.18182000
   0.83599591  0.50851809  0.29886920
   0.99722000  0.66135000  0.24151000
   0.33419000  0.66573000  0.24040000
   0.33414000  0.65855000  0.00278000
   0.32732494  0.67616874  0.36781584
   0.66923000  0.66337000  0.24097000
Direct configuration=     8
   0.83310000  0.49871000  0.06001000
   0.83472000  0.83192000  0.06027000
   0.00081000  0.66425000  0.00034000
   0.15413405  0.82922287  0.29806083
   0.66614071  0.33222091  0.35886059
   0.66559000  0.33138000  0.00044000
   0.49968000  0.83322000  0.06046000
   0.66721000  0.33321000  0.24067000
   0.50058000  0.49950000  0.18024000
   0.33595000  0.33196000  0.11912000
   0.33462000  0.33376000  0.24059000
   0.49954524  0.50448751  0.30179201
   0.00055000  0.33190000  0.12006000
   0.16752000  0.49945000  0.18065000
   0.00021000  0.33145000  0.00038000
   0.33510000  0.33170000  0.00029000
   0.00236604  0.33505880  0.36029759
   0.00077000  0.99959000  0.12036000
   0.16814000  0.16634000  0.18048000
   0.33405000  0.66593000  0.12095000
   0.50078000  0.83242000  0.18121000
   0.99954810  0.66529465  0.35888478
   0.99982000  0.33359000  0.24030000
   0.00025000  0.66569000  0.12051000
   0.16581000  0.83217000  0.18114000
   0.66566000  0.33123000  0.11970000
   0.82670114  0.83475173  0.30481223
   0.16759131  0.50007757  0.30169362
   0.16670434  0.16959467  0.29987202
   0.00161000  0.99891000  0.00024000
   0.00054469  0.99957943  0.35811480
   0.16807000  0.16539000  0.06004000
   0.51716815  0.83081374  0.30401740
   0.83476000  0.83303000  0.18132000
   0.66715000  0.66559000  0.00000000
   0.66719000  0.66640000  0.12032000
   0.83302000  0.49937000  0.17995000
   0.16769000  0.83389000  0.06029000
   0.50090753  0.16657974  0.30218027
   0.33289000  0.99824000  0.24130000
   0.66679000  0.99914000  0.24097000
   0.33466000  0.00023000  0.12082000
   0.66746000  0.99815000  0.00001000
   0.83168697  0.16597722  0.30270524
   0.83358000  0.16456000  0.06013000
   0.66484928  0.00853964  0.36323841
   0.83364000  0.16593000  0.18062000
   0.66653000  0.99972000  0.12044000
   0.33529920  0.32956894  0.35796529
   0.50623832  0.86402014  0.45020643
   0.33487000  0.00167000  0.00066000
   0.32061451  0.99445944  0.35838952
   0.00122000  0.00217000  0.24080000
   0.16722000  0.50179000  0.05903000
   0.50000000  0.50344000  0.05949000
   0.49861000  0.16115000  0.05868000
   0.49968000  0.16444000  0.18182000
   0.83600103  0.50936992  0.29844224
   0.99722000  0.66135000  0.24151000
   0.33419000  0.66573000  0.24040000
   0.33414000  0.65855000  0.00278000
   0.32238089  0.67878433  0.36892060
   0.66923000  0.66337000  0.24097000
Direct configuration=     9
   0.83310000  0.49871000  0.06001000
   0.83472000  0.83192000  0.06027000
   0.00081000  0.66425000  0.00034000
   0.15399995  0.82922421  0.29819377
   0.66602334  0.33223860  0.35893271
   0.66559000  0.33138000  0.00044000
   0.49968000  0.83322000  0.06046000
   0.66721000  0.33321000  0.24067000
   0.50058000  0.49950000  0.18024000
   0.33595000  0.33196000  0.11912000
   0.33462000  0.33376000  0.24059000
   0.49952714  0.50470034  0.30186041
   0.00055000  0.33190000  0.12006000
   0.16752000  0.49945000  0.18065000
   0.00021000  0.33145000  0.00038000
   0.33510000  0.33170000  0.00029000
   0.00227905  0.33537622  0.36016659
   0.00077000  0.99959000  0.12036000
   0.16814000  0.16634000  0.18048000
   0.33405000  0.66593000  0.12095000
   0.50078000  0.83242000  0.18121000
   0.99962357  0.66525032  0.35889231
   0.99982000  0.33359000  0.24030000
   0.00025000  0.66569000  0.12051000
   0.16581000  0.83217000  0.18114000
   0.66566000  0.33123000  0.11970000
   0.82639270  0.83467149  0.30489131
   0.16755606  0.49992902  0.30164008
   0.16656011  0.16934284  0.30009619
   0.00161000  0.99891000  0.00024000
   0.99985015  0.99994768  0.35805548
   0.16807000  0.16539000  0.06004000
   0.51725860  0.83081548  0.30428858
   0.83476000  0.83303000  0.18132000
   0.66715000  0.66559000  0.00000000
   0.66719000  0.66640000  0.12032000
   0.83302000  0.49937000  0.17995000
   0.16769000  0.83389000  0.06029000
   0.50083172  0.16627753  0.30231429
   0.33289000  0.99824000  0.24130000
   0.66679000  0.99914000  0.24097000
   0.33466000  0.00023000  0.12082000
   0.66746000  0.99815000  0.00001000
   0.83190009  0.16650796  0.30249486
   0.83358000  0.16456000  0.06013000
   0.66505174  0.00939425  0.36342228
   0.83364000  0.16593000  0.18062000
   0.66653000  0.99972000  0.12044000
   0.33513076  0.32966012  0.35799120
   0.51183489  0.86065315  0.44951594
   0.33487000  0.00167000  0.00066000
   0.32086924  0.99391790  0.35900395
   0.00122000  0.00217000  0.24080000
   0.16722000  0.50179000  0.05903000
   0.50000000  0.50344000  0.05949000
   0.49861000  0.16115000  0.05868000
   0.49968000  0.16444000  0.18182000
   0.83574120  0.50959830  0.29848992
   0.99722000  0.66135000  0.24151000
   0.33419000  0.66573000  0.24040000
   0.33414000  0.65855000  0.00278000
   0.32183424  0.67963779  0.36935061
   0.66923000  0.66337000  0.24097000
Direct configuration=    10
   0.83310000  0.49871000  0.06001000
   0.83472000  0.83192000  0.06027000
   0.00081000  0.66425000  0.00034000
   0.15359763  0.82922824  0.29859258
   0.66567124  0.33229167  0.35914909
   0.66559000  0.33138000  0.00044000
   0.49968000  0.83322000  0.06046000
   0.66721000  0.33321000  0.24067000
   0.50058000  0.49950000  0.18024000
   0.33595000  0.33196000  0.11912000
   0.33462000  0.33376000  0.24059000
   0.49947285  0.50533885  0.30206559
   0.00055000  0.33190000  0.12006000
   0.16752000  0.49945000  0.18065000
   0.00021000  0.33145000  0.00038000
   0.33510000  0.33170000  0.00029000
   0.00201807  0.33632849  0.35977358
   0.00077000  0.99959000  0.12036000
   0.16814000  0.16634000  0.18048000
   0.33405000  0.66593000  0.12095000
   0.50078000  0.83242000  0.18121000
   0.99984999  0.66511736  0.35891490
   0.99982000  0.33359000  0.24030000
   0.00025000  0.66569000  0.12051000
   0.16581000  0.83217000  0.18114000
   0.66566000  0.33123000  0.11970000
   0.82546739  0.83443080  0.30512854
   0.16745031  0.49948336  0.30147945
   0.16612740  0.16858736  0.30076872
   0.00161000  0.99891000  0.00024000
   0.99776655  0.00105242  0.35787752
   0.16807000  0.16539000  0.06004000
   0.51752993  0.83082067  0.30510209
   0.83476000  0.83303000  0.18132000
   0.66715000  0.66559000  0.00000000
   0.66719000  0.66640000  0.12032000
   0.83302000  0.49937000  0.17995000
   0.16769000  0.83389000  0.06029000
   0.50060431  0.16537089  0.30271635
   0.33289000  0.99824000  0.24130000
   0.66679000  0.99914000  0.24097000
   0.33466000  0.00023000  0.12082000
   0.66746000  0.99815000  0.00001000
   0.83253945  0.16810019  0.30186371
   0.83358000  0.16456000  0.06013000
   0.66565912  0.01195808  0.36397388
   0.83364000  0.16593000  0.18062000
   0.66653000  0.99972000  0.12044000
   0.33462547  0.32993365  0.35806895
   0.52862459  0.85055217  0.44744447
   0.33487000  0.00167000  0.00066000
   0.32163343  0.99229326  0.36084725
   0.00122000  0.00217000  0.24080000
   0.16722000  0.50179000  0.05903000
   0.50000000  0.50344000  0.05949000
   0.49861000  0.16115000  0.05868000
   0.49968000  0.16444000  0.18182000
   0.83496171  0.51028343  0.29863297
   0.99722000  0.66135000  0.24151000
   0.33419000  0.66573000  0.24040000
   0.33414000  0.65855000  0.00278000
   0.32019430  0.68219817  0.37064064
   0.66923000  0.66337000  0.24097000
Direct configuration=    11
   0.83310000  0.49871000  0.06001000
   0.83472000  0.83192000  0.06027000
   0.00081000  0.66425000  0.00034000
   0.15279300  0.82923630  0.29939019
   0.66496704  0.33239781  0.35958184
   0.66559000  0.33138000  0.00044000
   0.49968000  0.83322000  0.06046000
   0.66721000  0.33321000  0.24067000
   0.50058000  0.49950000  0.18024000
   0.33595000  0.33196000  0.11912000
   0.33462000  0.33376000  0.24059000
   0.49936427  0.50661587  0.30247597
   0.00055000  0.33190000  0.12006000
   0.16752000  0.49945000  0.18065000
   0.00021000  0.33145000  0.00038000
   0.33510000  0.33170000  0.00029000
   0.00149612  0.33823303  0.35898757
   0.00077000  0.99959000  0.12036000
   0.16814000  0.16634000  0.18048000
   0.33405000  0.66593000  0.12095000
   0.50078000  0.83242000  0.18121000
   0.00030282  0.66485143  0.35896007
   0.99982000  0.33359000  0.24030000
   0.00025000  0.66569000  0.12051000
   0.16581000  0.83217000  0.18114000
   0.66566000  0.33123000  0.11970000
   0.82361676  0.83394941  0.30560301
   0.16723882  0.49859206  0.30115819
   0.16526200  0.16707638  0.30211378
   0.00161000  0.99891000  0.00024000
   0.99359933  0.00326189  0.35752161
   0.16807000  0.16539000  0.06004000
   0.51807260  0.83083106  0.30672913
   0.83476000  0.83303000  0.18132000
   0.66715000  0.66559000  0.00000000
   0.66719000  0.66640000  0.12032000
   0.83302000  0.49937000  0.17995000
   0.16769000  0.83389000  0.06029000
   0.50014947  0.16355762  0.30352047
   0.33289000  0.99824000  0.24130000
   0.66679000  0.99914000  0.24097000
   0.33466000  0.00023000  0.12082000
   0.66746000  0.99815000  0.00001000
   0.83381818  0.17128464  0.30060142
   0.83358000  0.16456000  0.06013000
   0.66687388  0.01708574  0.36507707
   0.83364000  0.16593000  0.18062000
   0.66653000  0.99972000  0.12044000
   0.33361487  0.33048070  0.35822445
   0.56220398  0.83035023  0.44330154
   0.33487000  0.00167000  0.00066000
   0.32316181  0.98904399  0.36453384
   0.00122000  0.00217000  0.24080000
   0.16722000  0.50179000  0.05903000
   0.50000000  0.50344000  0.05949000
   0.49861000  0.16115000  0.05868000
   0.49968000  0.16444000  0.18182000
   0.83340275  0.51165370  0.29891906
   0.99722000  0.66135000  0.24151000
   0.33419000  0.66573000  0.24040000
   0.33414000  0.65855000  0.00278000
   0.31691440  0.68731892  0.37322071
   0.66923000  0.66337000  0.24097000
Direct configuration=    12
   0.83310000  0.49871000  0.06001000
   0.83472000  0.83192000  0.06027000
   0.00081000  0.66425000  0.00034000
   0.15296853  0.82916332  0.29964202
   0.66462709  0.33238216  0.35963884
   0.66559000  0.33138000  0.00044000
   0.49968000  0.83322000  0.06046000
   0.66721000  0.33321000  0.24067000
   0.50058000  0.49950000  0.18024000
   0.33595000  0.33196000  0.11912000
   0.33462000  0.33376000  0.24059000
   0.49924518  0.50677168  0.30266980
   0.00055000  0.33190000  0.12006000
   0.16752000  0.49945000  0.18065000
   0.00021000  0.33145000  0.00038000
   0.33510000  0.33170000  0.00029000
   0.00161779  0.33848737  0.35889133
   0.00077000  0.99959000  0.12036000
   0.16814000  0.16634000  0.18048000
   0.33405000  0.66593000  0.12095000
   0.50078000  0.83242000  0.18121000
   0.00001616  0.66500385  0.35898298
   0.99982000  0.33359000  0.24030000
   0.00025000  0.66569000  0.12051000
   0.16581000  0.83217000  0.18114000
   0.66566000  0.33123000  0.11970000
   0.82324055  0.83396405  0.30559696
   0.16781346  0.49897364  0.30123410
   0.16558812  0.16695299  0.30229365
   0.00161000  0.99891000  0.00024000
   0.99266213  0.00341086  0.35796918
   0.16807000  0.16539000  0.06004000
   0.51755114  0.83091925  0.30678764
   0.83476000  0.83303000  0.18132000
   0.66715000  0.66559000  0.00000000
   0.66719000  0.66640000  0.12032000
   0.83302000  0.49937000  0.17995000
   0.16769000  0.83389000  0.06029000
   0.49984996  0.16403079  0.30355537
   0.33289000  0.99824000  0.24130000
   0.66679000  0.99914000  0.24097000
   0.33466000  0.00023000  0.12082000
   0.66746000  0.99815000  0.00001000
   0.83359585  0.17169306  0.30047613
   0.83358000  0.16456000  0.06013000
   0.66832120  0.01942939  0.36441860
   0.83364000  0.16593000  0.18062000
   0.66653000  0.99972000  0.12044000
   0.33347227  0.33095634  0.35857033
   0.57034029  0.82279756  0.44164308
   0.33487000  0.00167000  0.00066000
   0.32416379  0.98848298  0.36524763
   0.00122000  0.00217000  0.24080000
   0.16722000  0.50179000  0.05903000
   0.50000000  0.50344000  0.05949000
   0.49861000  0.16115000  0.05868000
   0.49968000  0.16444000  0.18182000
   0.83306665  0.51196302  0.29894977
   0.99722000  0.66135000  0.24151000
   0.33419000  0.66573000  0.24040000
   0.33414000  0.65855000  0.00278000
   0.31698990  0.68768648  0.37381218
   0.66923000  0.66337000  0.24097000
Direct configuration=    13
   0.83310000  0.49871000  0.06001000
   0.83472000  0.83192000  0.06027000
   0.00081000  0.66425000  0.00034000
   0.15349510  0.82894439  0.30039749
   0.66360722  0.33233521  0.35980986
   0.66559000  0.33138000  0.00044000
   0.49968000  0.83322000  0.06046000
   0.66721000  0.33321000  0.24067000
   0.50058000  0.49950000  0.18024000
   0.33595000  0.33196000  0.11912000
   0.33462000  0.33376000  0.24059000
   0.49888789  0.50723911  0.30325131
   0.00055000  0.33190000  0.12006000
   0.16752000  0.49945000  0.18065000
   0.00021000  0.33145000  0.00038000
   0.33510000  0.33170000  0.00029000
   0.00198282  0.33925040  0.35860263
   0.00077000  0.99959000  0.12036000
   0.16814000  0.16634000  0.18048000
   0.33405000  0.66593000  0.12095000
   0.50078000  0.83242000  0.18121000
   0.99915619  0.66546110  0.35905173
   0.99982000  0.33359000  0.24030000
   0.00025000  0.66569000  0.12051000
   0.16581000  0.83217000  0.18114000
   0.66566000  0.33123000  0.11970000
   0.82211191  0.83400799  0.30557881
   0.16953738  0.50011839  0.30146181
   0.16656649  0.16658283  0.30283327
   0.00161000  0.99891000  0.00024000
   0.98985052  0.00385774  0.35931189
   0.16807000  0.16539000  0.06004000
   0.51598674  0.83118383  0.30696318
   0.83476000  0.83303000  0.18132000
   0.66715000  0.66559000  0.00000000
   0.66719000  0.66640000  0.12032000
   0.83302000  0.49937000  0.17995000
   0.16769000  0.83389000  0.06029000
   0.49895143  0.16545030  0.30366007
   0.33289000  0.99824000  0.24130000
   0.66679000  0.99914000  0.24097000
   0.33466000  0.00023000  0.12082000
   0.66746000  0.99815000  0.00001000
   0.83292888  0.17291832  0.30010027
   0.83358000  0.16456000  0.06013000
   0.67266319  0.02646034  0.36244319
   0.83364000  0.16593000  0.18062000
   0.66653000  0.99972000  0.12044000
   0.33304446  0.33238326  0.35960799
   0.59474921  0.80013955  0.43666769
   0.33487000  0.00167000  0.00066000
   0.32716975  0.98679994  0.36738899
   0.00122000  0.00217000  0.24080000
   0.16722000  0.50179000  0.05903000
   0.50000000  0.50344000  0.05949000
   0.49861000  0.16115000  0.05868000
   0.49968000  0.16444000  0.18182000
   0.83205834  0.51289100  0.29904188
   0.99722000  0.66135000  0.24151000
   0.33419000  0.66573000  0.24040000
   0.33414000  0.65855000  0.00278000
   0.31721640  0.68878916  0.37558658
   0.66923000  0.66337000  0.24097000
Direct configuration=    14
   0.83310000  0.49871000  0.06001000
   0.83472000  0.83192000  0.06027000
   0.00081000  0.66425000  0.00034000
   0.15454824  0.82850652  0.30190843
   0.66156748  0.33224131  0.36015190
   0.66559000  0.33138000  0.00044000
   0.49968000  0.83322000  0.06046000
   0.66721000  0.33321000  0.24067000
   0.50058000  0.49950000  0.18024000
   0.33595000  0.33196000  0.11912000
   0.33462000  0.33376000  0.24059000
   0.49817331  0.50817397  0.30441434
   0.00055000  0.33190000  0.12006000
   0.16752000  0.49945000  0.18065000
   0.00021000  0.33145000  0.00038000
   0.33510000  0.33170000  0.00029000
   0.00271289  0.34077646  0.35802522
   0.00077000  0.99959000  0.12036000
   0.16814000  0.16634000  0.18048000
   0.33405000  0.66593000  0.12095000
   0.50078000  0.83242000  0.18121000
   0.99743625  0.66637559  0.35918921
   0.99982000  0.33359000  0.24030000
   0.00025000  0.66569000  0.12051000
   0.16581000  0.83217000  0.18114000
   0.66566000  0.33123000  0.11970000
   0.81985464  0.83409586  0.30554252
   0.17298523  0.50240788  0.30191723
   0.16852323  0.16584250  0.30391249
   0.00161000  0.99891000  0.00024000
   0.98422730  0.00475152  0.36199733
   0.16807000  0.16539000  0.06004000
   0.51285794  0.83171298  0.30731427
   0.83476000  0.83303000  0.18132000
   0.66715000  0.66559000  0.00000000
   0.66719000  0.66640000  0.12032000
   0.83302000  0.49937000  0.17995000
   0.16769000  0.83389000  0.06029000
   0.49715435  0.16828932  0.30386949
   0.33289000  0.99824000  0.24130000
   0.66679000  0.99914000  0.24097000
   0.33466000  0.00023000  0.12082000
   0.66746000  0.99815000  0.00001000
   0.83159494  0.17536885  0.29934854
   0.83358000  0.16456000  0.06013000
   0.68134715  0.04052224  0.35849237
   0.83364000  0.16593000  0.18062000
   0.66653000  0.99972000  0.12044000
   0.33218885  0.33523709  0.36168330
   0.64356704  0.75482353  0.42671692
   0.33487000  0.00167000  0.00066000
   0.33318168  0.98343385  0.37167171
   0.00122000  0.00217000  0.24080000
   0.16722000  0.50179000  0.05903000
   0.50000000  0.50344000  0.05949000
   0.49861000  0.16115000  0.05868000
   0.49968000  0.16444000  0.18182000
   0.83004173  0.51474694  0.29922612
   0.99722000  0.66135000  0.24151000
   0.33419000  0.66573000  0.24040000
   0.33414000  0.65855000  0.00278000
   0.31766940  0.69099452  0.37913537
   0.66923000  0.66337000  0.24097000
Direct configuration=    15
   0.83310000  0.49871000  0.06001000
   0.83472000  0.83192000  0.06027000
   0.00081000  0.66425000  0.00034000
   0.15407830  0.82870191  0.30123421
   0.66247766  0.33228321  0.35999928
   0.66559000  0.33138000  0.00044000
   0.49968000  0.83322000  0.06046000
   0.66721000  0.33321000  0.24067000
   0.50058000  0.49950000  0.18024000
   0.33595000  0.33196000  0.11912000
   0.33462000  0.33376000  0.24059000
   0.49849217  0.50775682  0.30389537
   0.00055000  0.33190000  0.12006000
   0.16752000  0.49945000  0.18065000
   0.00021000  0.33145000  0.00038000
   0.33510000  0.33170000  0.00029000
   0.00238712  0.34009550  0.35828287
   0.00077000  0.99959000  0.12036000
   0.16814000  0.16634000  0.18048000
   0.33405000  0.66593000  0.12095000
   0.50078000  0.83242000  0.18121000
   0.99820373  0.66596752  0.35912786
   0.99982000  0.33359000  0.24030000
   0.00025000  0.66569000  0.12051000
   0.16581000  0.83217000  0.18114000
   0.66566000  0.33123000  0.11970000
   0.82086189  0.83405665  0.30555872
   0.17144672  0.50138626  0.30171401
   0.16765009  0.16617285  0.30343091
   0.00161000  0.99891000  0.00024000
   0.98673651  0.00435270  0.36079902
   0.16807000  0.16539000  0.06004000
   0.51425408  0.83147686  0.30715761
   0.83476000  0.83303000  0.18132000
   0.66715000  0.66559000  0.00000000
   0.66719000  0.66640000  0.12032000
   0.83302000  0.49937000  0.17995000
   0.16769000  0.83389000  0.06029000
   0.49795625  0.16702248  0.30377604
   0.33289000  0.99824000  0.24130000
   0.66679000  0.99914000  0.24097000
   0.33466000  0.00023000  0.12082000
   0.66746000  0.99815000  0.00001000
   0.83219018  0.17427537  0.29968398
   0.83358000  0.16456000  0.06013000
   0.67747216  0.03424749  0.36025532
   0.83364000  0.16593000  0.18062000
   0.66653000  0.99972000  0.12044000
   0.33257064  0.33396364  0.36075724
   0.62178339  0.77504459  0.43115718
   0.33487000  0.00167000  0.00066000
   0.33049902  0.98493588  0.36976066
   0.00122000  0.00217000  0.24080000
   0.16722000  0.50179000  0.05903000
   0.50000000  0.50344000  0.05949000
   0.49861000  0.16115000  0.05868000
   0.49968000  0.16444000  0.18182000
   0.83094159  0.51391878  0.29914391
   0.99722000  0.66135000  0.24151000
   0.33419000  0.66573000  0.24040000
   0.33414000  0.65855000  0.00278000
   0.31746726  0.69001043  0.37755182
   0.66923000  0.66337000  0.24097000
Direct configuration=    16
   0.83310000  0.49871000  0.06001000
   0.83472000  0.83192000  0.06027000
   0.00081000  0.66425000  0.00034000
   0.15448242  0.82922429  0.30153118
   0.66202523  0.33314207  0.36010436
   0.66559000  0.33138000  0.00044000
   0.49968000  0.83322000  0.06046000
   0.66721000  0.33321000  0.24067000
   0.50058000  0.49950000  0.18024000
   0.33595000  0.33196000  0.11912000
   0.33462000  0.33376000  0.24059000
   0.49837433  0.50807363  0.30419322
   0.00055000  0.33190000  0.12006000
   0.16752000  0.49945000  0.18065000
   0.00021000  0.33145000  0.00038000
   0.33510000  0.33170000  0.00029000
   0.00289564  0.34015732  0.35825883
   0.00077000  0.99959000  0.12036000
   0.16814000  0.16634000  0.18048000
   0.33405000  0.66593000  0.12095000
   0.50078000  0.83242000  0.18121000
   0.99753276  0.66635429  0.35928864
   0.99982000  0.33359000  0.24030000
   0.00025000  0.66569000  0.12051000
   0.16581000  0.83217000  0.18114000
   0.66566000  0.33123000  0.11970000
   0.82110076  0.83414503  0.30552711
   0.17188695  0.50203007  0.30197681
   0.16798539  0.16605388  0.30365836
   0.00161000  0.99891000  0.00024000
   0.98611933  0.00392819  0.36127181
   0.16807000  0.16539000  0.06004000
   0.51313521  0.83188641  0.30677813
   0.83476000  0.83303000  0.18132000
   0.66715000  0.66559000  0.00000000
   0.66719000  0.66640000  0.12032000
   0.83302000  0.49937000  0.17995000
   0.16769000  0.83389000  0.06029000
   0.49692613  0.16830763  0.30350404
   0.33289000  0.99824000  0.24130000
   0.66679000  0.99914000  0.24097000
   0.33466000  0.00023000  0.12082000
   0.66746000  0.99815000  0.00001000
   0.83302306  0.17475295  0.29953499
   0.83358000  0.16456000  0.06013000
   0.67849508  0.03471008  0.36001889
   0.83364000  0.16593000  0.18062000
   0.66653000  0.99972000  0.12044000
   0.33245473  0.33459082  0.36123106
   0.63154756  0.76537124  0.42810521
   0.33487000  0.00167000  0.00066000
   0.33218173  0.98478758  0.37013563
   0.00122000  0.00217000  0.24080000
   0.16722000  0.50179000  0.05903000
   0.50000000  0.50344000  0.05949000
   0.49861000  0.16115000  0.05868000
   0.49968000  0.16444000  0.18182000
   0.83085042  0.51399108  0.29913820
   0.99722000  0.66135000  0.24151000
   0.33419000  0.66573000  0.24040000
   0.33414000  0.65855000  0.00278000
   0.31819003  0.68929273  0.37798731
   0.66923000  0.66337000  0.24097000
Direct configuration=    17
   0.83310000  0.49871000  0.06001000
   0.83472000  0.83192000  0.06027000
   0.00081000  0.66425000  0.00034000
   0.15569479  0.83079146  0.30242210
   0.66066794  0.33571864  0.36041963
   0.66559000  0.33138000  0.00044000
   0.49968000  0.83322000  0.06046000
   0.66721000  0.33321000  0.24067000
   0.50058000  0.49950000  0.18024000
   0.33595000  0.33196000  0.11912000
   0.33462000  0.33376000  0.24059000
   0.49802081  0.50902406  0.30508679
   0.00055000  0.33190000  0.12006000
   0.16752000  0.49945000  0.18065000
   0.00021000  0.33145000  0.00038000
   0.33510000  0.33170000  0.00029000
   0.00442121  0.34034280  0.35818672
   0.00077000  0.99959000  0.12036000
   0.16814000  0.16634000  0.18048000
   0.33405000  0.66593000  0.12095000
   0.50078000  0.83242000  0.18121000
   0.99551984  0.66751458  0.35977099
   0.99982000  0.33359000  0.24030000
   0.00025000  0.66569000  0.12051000
   0.16581000  0.83217000  0.18114000
   0.66566000  0.33123000  0.11970000
   0.82181738  0.83441017  0.30543229
   0.17320763  0.50396153  0.30276521
   0.16899130  0.16569696  0.30434071
   0.00161000  0.99891000  0.00024000
   0.98426781  0.00265469  0.36269017
   0.16807000  0.16539000  0.06004000
   0.50977857  0.83311505  0.30563969
   0.83476000  0.83303000  0.18132000
   0.66715000  0.66559000  0.00000000
   0.66719000  0.66640000  0.12032000
   0.83302000  0.49937000  0.17995000
   0.16769000  0.83389000  0.06029000
   0.49383575  0.17216306  0.30268805
   0.33289000  0.99824000  0.24130000
   0.66679000  0.99914000  0.24097000
   0.33466000  0.00023000  0.12082000
   0.66746000  0.99815000  0.00001000
   0.83552172  0.17618569  0.29908802
   0.83358000  0.16456000  0.06013000
   0.68156383  0.03609783  0.35930961
   0.83364000  0.16593000  0.18062000
   0.66653000  0.99972000  0.12044000
   0.33210700  0.33647237  0.36265249
   0.66084007  0.73635116  0.41894930
   0.33487000  0.00167000  0.00066000
   0.33722989  0.98434268  0.37126053
   0.00122000  0.00217000  0.24080000
   0.16722000  0.50179000  0.05903000
   0.50000000  0.50344000  0.05949000
   0.49861000  0.16115000  0.05868000
   0.49968000  0.16444000  0.18182000
   0.83057690  0.51420801  0.29912106
   0.99722000  0.66135000  0.24151000
   0.33419000  0.66573000  0.24040000
   0.33414000  0.65855000  0.00278000
   0.32035836  0.68713964  0.37929379
   0.66923000  0.66337000  0.24097000
Direct configuration=    18
   0.83310000  0.49871000  0.06001000
   0.83472000  0.83192000  0.06027000
   0.00081000  0.66425000  0.00034000
   0.15811951  0.83392579  0.30420393
   0.65795336  0.34087179  0.36105017
   0.66559000  0.33138000  0.00044000
   0.49968000  0.83322000  0.06046000
   0.66721000  0.33321000  0.24067000
   0.50058000  0.49950000  0.18024000
   0.33595000  0.33196000  0.11912000
   0.33462000  0.33376000  0.24059000
   0.49731376  0.51092492  0.30687392
   0.00055000  0.33190000  0.12006000
   0.16752000  0.49945000  0.18065000
   0.00021000  0.33145000  0.00038000
   0.33510000  0.33170000  0.00029000
   0.00747234  0.34071375  0.35804250
   0.00077000  0.99959000  0.12036000
   0.16814000  0.16634000  0.18048000
   0.33405000  0.66593000  0.12095000
   0.50078000  0.83242000  0.18121000
   0.99149401  0.66983517  0.36073567
   0.99982000  0.33359000  0.24030000
   0.00025000  0.66569000  0.12051000
   0.16581000  0.83217000  0.18114000
   0.66566000  0.33123000  0.11970000
   0.82325062  0.83494045  0.30524264
   0.17584899  0.50782444  0.30434201
   0.17100313  0.16498312  0.30570541
   0.00161000  0.99891000  0.00024000
   0.98056476  0.00010768  0.36552688
   0.16807000  0.16539000  0.06004000
   0.50306531  0.83557233  0.30336280
   0.83476000  0.83303000  0.18132000
   0.66715000  0.66559000  0.00000000
   0.66719000  0.66640000  0.12032000
   0.83302000  0.49937000  0.17995000
   0.16769000  0.83389000  0.06029000
   0.48765501  0.17987392  0.30105606
   0.33289000  0.99824000  0.24130000
   0.66679000  0.99914000  0.24097000
   0.33466000  0.00023000  0.12082000
   0.66746000  0.99815000  0.00001000
   0.84051904  0.17905116  0.29819408
   0.83358000  0.16456000  0.06013000
   0.68770132  0.03887334  0.35789104
   0.83364000  0.16593000  0.18062000
   0.66653000  0.99972000  0.12044000
   0.33141154  0.34023546  0.36549535
   0.71942509  0.67831101  0.40063748
   0.33487000  0.00167000  0.00066000
   0.34732620  0.98345290  0.37351034
   0.00122000  0.00217000  0.24080000
   0.16722000  0.50179000  0.05903000
   0.50000000  0.50344000  0.05949000
   0.49861000  0.16115000  0.05868000
   0.49968000  0.16444000  0.18182000
   0.83002987  0.51464185  0.29908680
   0.99722000  0.66135000  0.24151000
   0.33419000  0.66573000  0.24040000
   0.33414000  0.65855000  0.00278000
   0.32469500  0.68283344  0.38190675
   0.66923000  0.66337000  0.24097000
Direct configuration=    19
   0.83310000  0.49871000  0.06001000
   0.83472000  0.83192000  0.06027000
   0.00081000  0.66425000  0.00034000
   0.15614855  0.83137801  0.30275555
   0.66015994  0.33668300  0.36053763
   0.66559000  0.33138000  0.00044000
   0.49968000  0.83322000  0.06046000
   0.66721000  0.33321000  0.24067000
   0.50058000  0.49950000  0.18024000
   0.33595000  0.33196000  0.11912000
   0.33462000  0.33376000  0.24059000
   0.49788849  0.50937978  0.30542123
   0.00055000  0.33190000  0.12006000
   0.16752000  0.49945000  0.18065000
   0.00021000  0.33145000  0.00038000
   0.33510000  0.33170000  0.00029000
   0.00499219  0.34041222  0.35815973
   0.00077000  0.99959000  0.12036000
   0.16814000  0.16634000  0.18048000
   0.33405000  0.66593000  0.12095000
   0.50078000  0.83242000  0.18121000
   0.99476646  0.66794885  0.35995152
   0.99982000  0.33359000  0.24030000
   0.00025000  0.66569000  0.12051000
   0.16581000  0.83217000  0.18114000
   0.66566000  0.33123000  0.11970000
   0.82208560  0.83450941  0.30539680
   0.17370193  0.50468443  0.30306029
   0.16936779  0.16556337  0.30459610
   0.00161000  0.99891000  0.00024000
   0.98357482  0.00217805  0.36322102
   0.16807000  0.16539000  0.06004000
   0.50852226  0.83357490  0.30521359
   0.83476000  0.83303000  0.18132000
   0.66715000  0.66559000  0.00000000
   0.66719000  0.66640000  0.12032000
   0.83302000  0.49937000  0.17995000
   0.16769000  0.83389000  0.06029000
   0.49267910  0.17360606  0.30238264
   0.33289000  0.99824000  0.24130000
   0.66679000  0.99914000  0.24097000
   0.33466000  0.00023000  0.12082000
   0.66746000  0.99815000  0.00001000
   0.83645691  0.17672193  0.29892073
   0.83358000  0.16456000  0.06013000
   0.68271239  0.03661724  0.35904414
   0.83364000  0.16593000  0.18062000
   0.66653000  0.99972000  0.12044000
   0.33197685  0.33717659  0.36318450
   0.67180358  0.72548961  0.41552246
   0.33487000  0.00167000  0.00066000
   0.33911930  0.98417617  0.37168156
   0.00122000  0.00217000  0.24080000
   0.16722000  0.50179000  0.05903000
   0.50000000  0.50344000  0.05949000
   0.49861000  0.16115000  0.05868000
   0.49968000  0.16444000  0.18182000
   0.83047453  0.51428919  0.29911465
   0.99722000  0.66135000  0.24151000
   0.33419000  0.66573000  0.24040000
   0.33414000  0.65855000  0.00278000
   0.32116991  0.68633378  0.37978278
   0.66923000  0.66337000  0.24097000
Direct configuration=    20
   0.83310000  0.49871000  0.06001000
   0.83472000  0.83192000  0.06027000
   0.00081000  0.66425000  0.00034000
   0.15714620  0.83266764  0.30348868
   0.65904302  0.33880326  0.36079706
   0.66559000  0.33138000  0.00044000
   0.49968000  0.83322000  0.06046000
   0.66721000  0.33321000  0.24067000
   0.50058000  0.49950000  0.18024000
   0.33595000  0.33196000  0.11912000
   0.33462000  0.33376000  0.24059000
   0.49759758  0.51016189  0.30615654
   0.00055000  0.33190000  0.12006000
   0.16752000  0.49945000  0.18065000
   0.00021000  0.33145000  0.00038000
   0.33510000  0.33170000  0.00029000
   0.00624758  0.34056484  0.35810039
   0.00077000  0.99959000  0.12036000
   0.16814000  0.16634000  0.18048000
   0.33405000  0.66593000  0.12095000
   0.50078000  0.83242000  0.18121000
   0.99311002  0.66890366  0.36034844
   0.99982000  0.33359000  0.24030000
   0.00025000  0.66569000  0.12051000
   0.16581000  0.83217000  0.18114000
   0.66566000  0.33123000  0.11970000
   0.82267530  0.83472759  0.30531877
   0.17478872  0.50627383  0.30370907
   0.17019556  0.16526966  0.30515761
   0.00161000  0.99891000  0.00024000
   0.98205120  0.00113008  0.36438819
   0.16807000  0.16539000  0.06004000
   0.50576009  0.83458595  0.30427677
   0.83476000  0.83303000  0.18132000
   0.66715000  0.66559000  0.00000000
   0.66719000  0.66640000  0.12032000
   0.83302000  0.49937000  0.17995000
   0.16769000  0.83389000  0.06029000
   0.49013602  0.17677870  0.30171115
   0.33289000  0.99824000  0.24130000
   0.66679000  0.99914000  0.24097000
   0.33466000  0.00023000  0.12082000
   0.66746000  0.99815000  0.00001000
   0.83851306  0.17790093  0.29855291
   0.83358000  0.16456000  0.06013000
   0.68523767  0.03775922  0.35846047
   0.83364000  0.16593000  0.18062000
   0.66653000  0.99972000  0.12044000
   0.33169071  0.33872492  0.36435420
   0.69590844  0.70160894  0.40798804
   0.33487000  0.00167000  0.00066000
   0.34327343  0.98381007  0.37260725
   0.00122000  0.00217000  0.24080000
   0.16722000  0.50179000  0.05903000
   0.50000000  0.50344000  0.05949000
   0.49861000  0.16115000  0.05868000
   0.49968000  0.16444000  0.18182000
   0.83024945  0.51446770  0.29910055
   0.99722000  0.66135000  0.24151000
   0.33419000  0.66573000  0.24040000
   0.33414000  0.65855000  0.00278000
   0.32295423  0.68456200  0.38085788
   0.66923000  0.66337000  0.24097000
Direct configuration=    21
   0.83310000  0.49871000  0.06001000
   0.83472000  0.83192000  0.06027000
   0.00081000  0.66425000  0.00034000
   0.15661132  0.83197622  0.30309562
   0.65964184  0.33766651  0.36065797
   0.66559000  0.33138000  0.00044000
   0.49968000  0.83322000  0.06046000
   0.66721000  0.33321000  0.24067000
   0.50058000  0.49950000  0.18024000
   0.33595000  0.33196000  0.11912000
   0.33462000  0.33376000  0.24059000
   0.49775355  0.50974258  0.30576232
   0.00055000  0.33190000  0.12006000
   0.16752000  0.49945000  0.18065000
   0.00021000  0.33145000  0.00038000
   0.33510000  0.33170000  0.00029000
   0.00557452  0.34048301  0.35813221
   0.00077000  0.99959000  0.12036000
   0.16814000  0.16634000  0.18048000
   0.33405000  0.66593000  0.12095000
   0.50078000  0.83242000  0.18121000
   0.99399810  0.66839175  0.36013563
   0.99982000  0.33359000  0.24030000
   0.00025000  0.66569000  0.12051000
   0.16581000  0.83217000  0.18114000
   0.66566000  0.33123000  0.11970000
   0.82235914  0.83461062  0.30536060
   0.17420605  0.50542169  0.30336123
   0.16975176  0.16542713  0.30485656
   0.00161000  0.99891000  0.00024000
   0.98286807  0.00169193  0.36376243
   0.16807000  0.16539000  0.06004000
   0.50724099  0.83404389  0.30477903
   0.83476000  0.83303000  0.18132000
   0.66715000  0.66559000  0.00000000
   0.66719000  0.66640000  0.12032000
   0.83302000  0.49937000  0.17995000
   0.16769000  0.83389000  0.06029000
   0.49149946  0.17507773  0.30207116
   0.33289000  0.99824000  0.24130000
   0.66679000  0.99914000  0.24097000
   0.33466000  0.00023000  0.12082000
   0.66746000  0.99815000  0.00001000
   0.83741068  0.17726882  0.29875011
   0.83358000  0.16456000  0.06013000
   0.68388377  0.03714696  0.35877340
   0.83364000  0.16593000  0.18062000
   0.66653000  0.99972000  0.12044000
   0.33184412  0.33789480  0.36372708
   0.68298495  0.71441224  0.41202752
   0.33487000  0.00167000  0.00066000
   0.34104625  0.98400635  0.37211095
   0.00122000  0.00217000  0.24080000
   0.16722000  0.50179000  0.05903000
   0.50000000  0.50344000  0.05949000
   0.49861000  0.16115000  0.05868000
   0.49968000  0.16444000  0.18182000
   0.83037013  0.51437200  0.29910811
   0.99722000  0.66135000  0.24151000
   0.33419000  0.66573000  0.24040000
   0.33414000  0.65855000  0.00278000
   0.32199759  0.68551192  0.38028148
   0.66923000  0.66337000  0.24097000
Direct configuration=    22
   0.83310000  0.49871000  0.06001000
   0.83472000  0.83192000  0.06027000
   0.00081000  0.66425000  0.00034000
   0.15680361  0.83287086  0.30327130
   0.65952609  0.33902521  0.36054950
   0.66559000  0.33138000  0.00044000
   0.49968000  0.83322000  0.06046000
   0.66721000  0.33321000  0.24067000
   0.50058000  0.49950000  0.18024000
   0.33595000  0.33196000  0.11912000
   0.33462000  0.33376000  0.24059000
   0.49827718  0.51012604  0.30563841
   0.00055000  0.33190000  0.12006000
   0.16752000  0.49945000  0.18065000
   0.00021000  0.33145000  0.00038000
   0.33510000  0.33170000  0.00029000
   0.00654293  0.34008038  0.35842013
   0.00077000  0.99959000  0.12036000
   0.16814000  0.16634000  0.18048000
   0.33405000  0.66593000  0.12095000
   0.50078000  0.83242000  0.18121000
   0.99445262  0.66860075  0.36038476
   0.99982000  0.33359000  0.24030000
   0.00025000  0.66569000  0.12051000
   0.16581000  0.83217000  0.18114000
   0.66566000  0.33123000  0.11970000
   0.82441247  0.83507856  0.30467396
   0.17299547  0.50546002  0.30348398
   0.16914487  0.16531807  0.30516434
   0.00161000  0.99891000  0.00024000
   0.98449345  0.00047924  0.36333425
   0.16807000  0.16539000  0.06004000
   0.50630064  0.83459451  0.30406786
   0.83476000  0.83303000  0.18132000
   0.66715000  0.66559000  0.00000000
   0.66719000  0.66640000  0.12032000
   0.83302000  0.49937000  0.17995000
   0.16769000  0.83389000  0.06029000
   0.49313194  0.17466662  0.30252603
   0.33289000  0.99824000  0.24130000
   0.66679000  0.99914000  0.24097000
   0.33466000  0.00023000  0.12082000
   0.66746000  0.99815000  0.00001000
   0.83796532  0.17652407  0.29927501
   0.83358000  0.16456000  0.06013000
   0.68074278  0.03399902  0.35951431
   0.83364000  0.16593000  0.18062000
   0.66653000  0.99972000  0.12044000
   0.33220950  0.33799027  0.36369162
   0.68818811  0.70609797  0.40810413
   0.33487000  0.00167000  0.00066000
   0.34214160  0.98572340  0.37097562
   0.00122000  0.00217000  0.24080000
   0.16722000  0.50179000  0.05903000
   0.50000000  0.50344000  0.05949000
   0.49861000  0.16115000  0.05868000
   0.49968000  0.16444000  0.18182000
   0.83073484  0.51382688  0.29935540
   0.99722000  0.66135000  0.24151000
   0.33419000  0.66573000  0.24040000
   0.33414000  0.65855000  0.00278000
   0.32405212  0.68359571  0.37977220
   0.66923000  0.66337000  0.24097000
Direct configuration=    23
   0.83310000  0.49871000  0.06001000
   0.83472000  0.83192000  0.06027000
   0.00081000  0.66425000  0.00034000
   0.15723408  0.83487373  0.30366461
   0.65926697  0.34206703  0.36030665
   0.66559000  0.33138000  0.00044000
   0.49968000  0.83322000  0.06046000
   0.66721000  0.33321000  0.24067000
   0.50058000  0.49950000  0.18024000
   0.33595000  0.33196000  0.11912000
   0.33462000  0.33376000  0.24059000
   0.49944947  0.51098452  0.30536100
   0.00055000  0.33190000  0.12006000
   0.16752000  0.49945000  0.18065000
   0.00021000  0.33145000  0.00038000
   0.33510000  0.33170000  0.00029000
   0.00871098  0.33917898  0.35906473
   0.00077000  0.99959000  0.12036000
   0.16814000  0.16634000  0.18048000
   0.33405000  0.66593000  0.12095000
   0.50078000  0.83242000  0.18121000
   0.99547020  0.66906864  0.36094249
   0.99982000  0.33359000  0.24030000
   0.00025000  0.66569000  0.12051000
   0.16581000  0.83217000  0.18114000
   0.66566000  0.33123000  0.11970000
   0.82900939  0.83612617  0.30313674
   0.17028525  0.50554583  0.30375877
   0.16778618  0.16507392  0.30585339
   0.00161000  0.99891000  0.00024000
   0.98813230  0.99776430  0.36237565
   0.16807000  0.16539000  0.06004000
   0.50419541  0.83582722  0.30247571
   0.83476000  0.83303000  0.18132000
   0.66715000  0.66559000  0.00000000
   0.66719000  0.66640000  0.12032000
   0.83302000  0.49937000  0.17995000
   0.16769000  0.83389000  0.06029000
   0.49678667  0.17374625  0.30354436
   0.33289000  0.99824000  0.24130000
   0.66679000  0.99914000  0.24097000
   0.33466000  0.00023000  0.12082000
   0.66746000  0.99815000  0.00001000
   0.83920702  0.17485673  0.30045012
   0.83358000  0.16456000  0.06013000
   0.67371083  0.02695153  0.36117304
   0.83364000  0.16593000  0.18062000
   0.66653000  0.99972000  0.12044000
   0.33302749  0.33820399  0.36361224
   0.69983677  0.68748426  0.39932059
   0.33487000  0.00167000  0.00066000
   0.34459385  0.98956747  0.36843386
   0.00122000  0.00217000  0.24080000
   0.16722000  0.50179000  0.05903000
   0.50000000  0.50344000  0.05949000
   0.49861000  0.16115000  0.05868000
   0.49968000  0.16444000  0.18182000
   0.83155135  0.51260651  0.29990902
   0.99722000  0.66135000  0.24151000
   0.33419000  0.66573000  0.24040000
   0.33414000  0.65855000  0.00278000
   0.32865173  0.67930576  0.37863204
   0.66923000  0.66337000  0.24097000
Direct configuration=    24
   0.83310000  0.49871000  0.06001000
   0.83472000  0.83192000  0.06027000
   0.00081000  0.66425000  0.00034000
   0.15813109  0.83384949  0.30339601
   0.66033818  0.34183675  0.36012661
   0.66559000  0.33138000  0.00044000
   0.49968000  0.83322000  0.06046000
   0.66721000  0.33321000  0.24067000
   0.50058000  0.49950000  0.18024000
   0.33595000  0.33196000  0.11912000
   0.33462000  0.33376000  0.24059000
   0.49973225  0.50961221  0.30426289
   0.00055000  0.33190000  0.12006000
   0.16752000  0.49945000  0.18065000
   0.00021000  0.33145000  0.00038000
   0.33510000  0.33170000  0.00029000
   0.00925717  0.33840863  0.35977891
   0.00077000  0.99959000  0.12036000
   0.16814000  0.16634000  0.18048000
   0.33405000  0.66593000  0.12095000
   0.50078000  0.83242000  0.18121000
   0.00179104  0.66858865  0.36038564
   0.99982000  0.33359000  0.24030000
   0.00025000  0.66569000  0.12051000
   0.16581000  0.83217000  0.18114000
   0.66566000  0.33123000  0.11970000
   0.83060519  0.83800752  0.30183495
   0.16971376  0.50517342  0.30332776
   0.16808450  0.16564309  0.30547696
   0.00161000  0.99891000  0.00024000
   0.99171507  0.99705624  0.36182108
   0.16807000  0.16539000  0.06004000
   0.50507536  0.83544147  0.30196993
   0.83476000  0.83303000  0.18132000
   0.66715000  0.66559000  0.00000000
   0.66719000  0.66640000  0.12032000
   0.83302000  0.49937000  0.17995000
   0.16769000  0.83389000  0.06029000
   0.49884539  0.17270066  0.30390647
   0.33289000  0.99824000  0.24130000
   0.66679000  0.99914000  0.24097000
   0.33466000  0.00023000  0.12082000
   0.66746000  0.99815000  0.00001000
   0.83608209  0.17264789  0.30165814
   0.83358000  0.16456000  0.06013000
   0.67031403  0.02207182  0.36132266
   0.83364000  0.16593000  0.18062000
   0.66653000  0.99972000  0.12044000
   0.33378414  0.33752293  0.36292076
   0.69352465  0.68141114  0.39698682
   0.33487000  0.00167000  0.00066000
   0.34333896  0.99257710  0.36654242
   0.00122000  0.00217000  0.24080000
   0.16722000  0.50179000  0.05903000
   0.50000000  0.50344000  0.05949000
   0.49861000  0.16115000  0.05868000
   0.49968000  0.16444000  0.18182000
   0.83311990  0.51094520  0.29960617
   0.99722000  0.66135000  0.24151000
   0.33419000  0.66573000  0.24040000
   0.33414000  0.65855000  0.00278000
   0.33133479  0.67806606  0.37713969
   0.66923000  0.66337000  0.24097000
Direct configuration=    25
   0.83310000  0.49871000  0.06001000
   0.83472000  0.83192000  0.06027000
   0.00081000  0.66425000  0.00034000
   0.15920047  0.83262842  0.30307579
   0.66161524  0.34156221  0.35991197
   0.66559000  0.33138000  0.00044000
   0.49968000  0.83322000  0.06046000
   0.66721000  0.33321000  0.24067000
   0.50058000  0.49950000  0.18024000
   0.33595000  0.33196000  0.11912000
   0.33462000  0.33376000  0.24059000
   0.50006937  0.50797620  0.30295376
   0.00055000  0.33190000  0.12006000
   0.16752000  0.49945000  0.18065000
   0.00021000  0.33145000  0.00038000
   0.33510000  0.33170000  0.00029000
   0.00990832  0.33749026  0.36063032
   0.00077000  0.99959000  0.12036000
   0.16814000  0.16634000  0.18048000
   0.33405000  0.66593000  0.12095000
   0.50078000  0.83242000  0.18121000
   0.00932650  0.66801643  0.35972179
   0.99982000  0.33359000  0.24030000
   0.00025000  0.66569000  0.12051000
   0.16581000  0.83217000  0.18114000
   0.66566000  0.33123000  0.11970000
   0.83250764  0.84025040  0.30028300
   0.16903245  0.50472945  0.30281393
   0.16844014  0.16632164  0.30502821
   0.00161000  0.99891000  0.00024000
   0.99598630  0.99621212  0.36115996
   0.16807000  0.16539000  0.06004000
   0.50612439  0.83498160  0.30136697
   0.83476000  0.83303000  0.18132000
   0.66715000  0.66559000  0.00000000
   0.66719000  0.66640000  0.12032000
   0.83302000  0.49937000  0.17995000
   0.16769000  0.83389000  0.06029000
   0.50129971  0.17145414  0.30433815
   0.33289000  0.99824000  0.24130000
   0.66679000  0.99914000  0.24097000
   0.33466000  0.00023000  0.12082000
   0.66746000  0.99815000  0.00001000
   0.83235668  0.17001459  0.30309829
   0.83358000  0.16456000  0.06013000
   0.66626451  0.01625443  0.36150103
   0.83364000  0.16593000  0.18062000
   0.66653000  0.99972000  0.12044000
   0.33468620  0.33671100  0.36209641
   0.68599959  0.67417101  0.39420459
   0.33487000  0.00167000  0.00066000
   0.34184293  0.99616506  0.36428752
   0.00122000  0.00217000  0.24080000
   0.16722000  0.50179000  0.05903000
   0.50000000  0.50344000  0.05949000
   0.49861000  0.16115000  0.05868000
   0.49968000  0.16444000  0.18182000
   0.83498985  0.50896467  0.29924514
   0.99722000  0.66135000  0.24151000
   0.33419000  0.66573000  0.24040000
   0.33414000  0.65855000  0.00278000
   0.33453343  0.67658813  0.37536056
   0.66923000  0.66337000  0.24097000
Direct configuration=    26
   0.83310000  0.49871000  0.06001000
   0.83472000  0.83192000  0.06027000
   0.00081000  0.66425000  0.00034000
   0.15948286  0.83230598  0.30299123
   0.66195247  0.34148972  0.35985529
   0.66559000  0.33138000  0.00044000
   0.49968000  0.83322000  0.06046000
   0.66721000  0.33321000  0.24067000
   0.50058000  0.49950000  0.18024000
   0.33595000  0.33196000  0.11912000
   0.33462000  0.33376000  0.24059000
   0.50015840  0.50754420  0.30260807
   0.00055000  0.33190000  0.12006000
   0.16752000  0.49945000  0.18065000
   0.00021000  0.33145000  0.00038000
   0.33510000  0.33170000  0.00029000
   0.01008026  0.33724775  0.36085515
   0.00077000  0.99959000  0.12036000
   0.16814000  0.16634000  0.18048000
   0.33405000  0.66593000  0.12095000
   0.50078000  0.83242000  0.18121000
   0.01131632  0.66786533  0.35954649
   0.99982000  0.33359000  0.24030000
   0.00025000  0.66569000  0.12051000
   0.16581000  0.83217000  0.18114000
   0.66566000  0.33123000  0.11970000
   0.83301001  0.84084266  0.29987319
   0.16885254  0.50461222  0.30267825
   0.16853405  0.16650081  0.30490971
   0.00161000  0.99891000  0.00024000
   0.99711416  0.99598922  0.36098538
   0.16807000  0.16539000  0.06004000
   0.50640140  0.83486016  0.30120776
   0.83476000  0.83303000  0.18132000
   0.66715000  0.66559000  0.00000000
   0.66719000  0.66640000  0.12032000
   0.83302000  0.49937000  0.17995000
   0.16769000  0.83389000  0.06029000
   0.50194780  0.17112499  0.30445214
   0.33289000  0.99824000  0.24130000
   0.66679000  0.99914000  0.24097000
   0.33466000  0.00023000  0.12082000
   0.66746000  0.99815000  0.00001000
   0.83137295  0.16931924  0.30347857
   0.83358000  0.16456000  0.06013000
   0.66519518  0.01471828  0.36154813
   0.83364000  0.16593000  0.18062000
   0.66653000  0.99972000  0.12044000
   0.33492440  0.33649660  0.36187873
   0.68401251  0.67225918  0.39346991
   0.33487000  0.00167000  0.00066000
   0.34144788  0.99711250  0.36369209
   0.00122000  0.00217000  0.24080000
   0.16722000  0.50179000  0.05903000
   0.50000000  0.50344000  0.05949000
   0.49861000  0.16115000  0.05868000
   0.49968000  0.16444000  0.18182000
   0.83548363  0.50844168  0.29914980
   0.99722000  0.66135000  0.24151000
   0.33419000  0.66573000  0.24040000
   0.33414000  0.65855000  0.00278000
   0.33537806  0.67619787  0.37489077
   0.66923000  0.66337000  0.24097000
Direct configuration=    27
   0.83310000  0.49871000  0.06001000
   0.83472000  0.83192000  0.06027000
   0.00081000  0.66425000  0.00034000
   0.16236466  0.83130939  0.30170181
   0.66324485  0.33918628  0.35976117
   0.66559000  0.33138000  0.00044000
   0.49968000  0.83322000  0.06046000
   0.66721000  0.33321000  0.24067000
   0.50058000  0.49950000  0.18024000
   0.33595000  0.33196000  0.11912000
   0.33462000  0.33376000  0.24059000
   0.50039161  0.50467739  0.30146626
   0.00055000  0.33190000  0.12006000
   0.16752000  0.49945000  0.18065000
   0.00021000  0.33145000  0.00038000
   0.33510000  0.33170000  0.00029000
   0.00956684  0.33571618  0.36081639
   0.00077000  0.99959000  0.12036000
   0.16814000  0.16634000  0.18048000
   0.33405000  0.66593000  0.12095000
   0.50078000  0.83242000  0.18121000
   0.01100797  0.66771241  0.35958717
   0.99982000  0.33359000  0.24030000
   0.00025000  0.66569000  0.12051000
   0.16581000  0.83217000  0.18114000
   0.66566000  0.33123000  0.11970000
   0.83332077  0.83804993  0.30084085
   0.17101736  0.50227866  0.30199321
   0.16697125  0.16832935  0.30376683
   0.00161000  0.99891000  0.00024000
   0.99983683  0.99665887  0.36100549
   0.16807000  0.16539000  0.06004000
   0.50767579  0.83364772  0.30067732
   0.83476000  0.83303000  0.18132000
   0.66715000  0.66559000  0.00000000
   0.66719000  0.66640000  0.12032000
   0.83302000  0.49937000  0.17995000
   0.16769000  0.83389000  0.06029000
   0.50114095  0.17129496  0.30344604
   0.33289000  0.99824000  0.24130000
   0.66679000  0.99914000  0.24097000
   0.33466000  0.00023000  0.12082000
   0.66746000  0.99815000  0.00001000
   0.83340624  0.17015667  0.30337153
   0.83358000  0.16456000  0.06013000
   0.66400035  0.00860537  0.36153246
   0.83364000  0.16593000  0.18062000
   0.66653000  0.99972000  0.12044000
   0.33578568  0.33567505  0.36112298
   0.67776650  0.67079761  0.39211062
   0.33487000  0.00167000  0.00066000
   0.33763389  0.99849884  0.36250461
   0.00122000  0.00217000  0.24080000
   0.16722000  0.50179000  0.05903000
   0.50000000  0.50344000  0.05949000
   0.49861000  0.16115000  0.05868000
   0.49968000  0.16444000  0.18182000
   0.83769761  0.50787064  0.29880391
   0.99722000  0.66135000  0.24151000
   0.33419000  0.66573000  0.24040000
   0.33414000  0.65855000  0.00278000
   0.33719679  0.67622846  0.37282281
   0.66923000  0.66337000  0.24097000
Direct configuration=    28
   0.83310000  0.49871000  0.06001000
   0.83472000  0.83192000  0.06027000
   0.00081000  0.66425000  0.00034000
   0.16386527  0.83079045  0.30103039
   0.66391781  0.33798685  0.35971216
   0.66559000  0.33138000  0.00044000
   0.49968000  0.83322000  0.06046000
   0.66721000  0.33321000  0.24067000
   0.50058000  0.49950000  0.18024000
   0.33595000  0.33196000  0.11912000
   0.33462000  0.33376000  0.24059000
   0.50051304  0.50318459  0.30087170
   0.00055000  0.33190000  0.12006000
   0.16752000  0.49945000  0.18065000
   0.00021000  0.33145000  0.00038000
   0.33510000  0.33170000  0.00029000
   0.00929949  0.33491867  0.36079620
   0.00077000  0.99959000  0.12036000
   0.16814000  0.16634000  0.18048000
   0.33405000  0.66593000  0.12095000
   0.50078000  0.83242000  0.18121000
   0.01084741  0.66763277  0.35960835
   0.99982000  0.33359000  0.24030000
   0.00025000  0.66569000  0.12051000
   0.16581000  0.83217000  0.18114000
   0.66566000  0.33123000  0.11970000
   0.83348259  0.83659570  0.30134472
   0.17214462  0.50106354  0.30163650
   0.16615748  0.16928149  0.30317171
   0.00161000  0.99891000  0.00024000
   0.00125457  0.99700757  0.36101597
   0.16807000  0.16539000  0.06004000
   0.50833939  0.83301639  0.30040111
   0.83476000  0.83303000  0.18132000
   0.66715000  0.66559000  0.00000000
   0.66719000  0.66640000  0.12032000
   0.83302000  0.49937000  0.17995000
   0.16769000  0.83389000  0.06029000
   0.50072081  0.17138347  0.30292215
   0.33289000  0.99824000  0.24130000
   0.66679000  0.99914000  0.24097000
   0.33466000  0.00023000  0.12082000
   0.66746000  0.99815000  0.00001000
   0.83446501  0.17059273  0.30331579
   0.83358000  0.16456000  0.06013000
   0.66337818  0.00542227  0.36152431
   0.83364000  0.16593000  0.18062000
   0.66653000  0.99972000  0.12044000
   0.33623417  0.33524726  0.36072945
   0.67451410  0.67003655  0.39140281
   0.33487000  0.00167000  0.00066000
   0.33564788  0.99922073  0.36188627
   0.00122000  0.00217000  0.24080000
   0.16722000  0.50179000  0.05903000
   0.50000000  0.50344000  0.05949000
   0.49861000  0.16115000  0.05868000
   0.49968000  0.16444000  0.18182000
   0.83885046  0.50757328  0.29862379
   0.99722000  0.66135000  0.24151000
   0.33419000  0.66573000  0.24040000
   0.33414000  0.65855000  0.00278000
   0.33814384  0.67624438  0.37174599
   0.66923000  0.66337000  0.24097000
Direct configuration=    29
   0.83310000  0.49871000  0.06001000
   0.83472000  0.83192000  0.06027000
   0.00081000  0.66425000  0.00034000
   0.16279076  0.82951458  0.30072670
   0.66431821  0.33551964  0.35932491
   0.66559000  0.33138000  0.00044000
   0.49968000  0.83322000  0.06046000
   0.66721000  0.33321000  0.24067000
   0.50058000  0.49950000  0.18024000
   0.33595000  0.33196000  0.11912000
   0.33462000  0.33376000  0.24059000
   0.50232353  0.50211284  0.30085584
   0.00055000  0.33190000  0.12006000
   0.16752000  0.49945000  0.18065000
   0.00021000  0.33145000  0.00038000
   0.33510000  0.33170000  0.00029000
   0.00903707  0.33416149  0.36043048
   0.00077000  0.99959000  0.12036000
   0.16814000  0.16634000  0.18048000
   0.33405000  0.66593000  0.12095000
   0.50078000  0.83242000  0.18121000
   0.00851760  0.66775667  0.35921166
   0.99982000  0.33359000  0.24030000
   0.00025000  0.66569000  0.12051000
   0.16581000  0.83217000  0.18114000
   0.66566000  0.33123000  0.11970000
   0.83405185  0.83570694  0.30234385
   0.17142932  0.50135733  0.30183248
   0.16589719  0.16911791  0.30273037
   0.00161000  0.99891000  0.00024000
   0.00320704  0.99787664  0.36051260
   0.16807000  0.16539000  0.06004000
   0.50845713  0.83315149  0.29985441
   0.83476000  0.83303000  0.18132000
   0.66715000  0.66559000  0.00000000
   0.66719000  0.66640000  0.12032000
   0.83302000  0.49937000  0.17995000
   0.16769000  0.83389000  0.06029000
   0.50163467  0.16914349  0.30281518
   0.33289000  0.99824000  0.24130000
   0.66679000  0.99914000  0.24097000
   0.33466000  0.00023000  0.12082000
   0.66746000  0.99815000  0.00001000
   0.83457211  0.16865159  0.30311978
   0.83358000  0.16456000  0.06013000
   0.66333427  0.00458442  0.36043243
   0.83364000  0.16593000  0.18062000
   0.66653000  0.99972000  0.12044000
   0.33645746  0.33413088  0.36030245
   0.67296657  0.66957465  0.39138022
   0.33487000  0.00167000  0.00066000
   0.33281277  0.99911398  0.36152135
   0.00122000  0.00217000  0.24080000
   0.16722000  0.50179000  0.05903000
   0.50000000  0.50344000  0.05949000
   0.49861000  0.16115000  0.05868000
   0.49968000  0.16444000  0.18182000
   0.83923118  0.50782443  0.29888027
   0.99722000  0.66135000  0.24151000
   0.33419000  0.66573000  0.24040000
   0.33414000  0.65855000  0.00278000
   0.33672974  0.67638223  0.37019021
   0.66923000  0.66337000  0.24097000
Direct configuration=    30
   0.83310000  0.49871000  0.06001000
   0.83472000  0.83192000  0.06027000
   0.00081000  0.66425000  0.00034000
   0.16219040  0.82880171  0.30055702
   0.66454193  0.33414113  0.35910853
   0.66559000  0.33138000  0.00044000
   0.49968000  0.83322000  0.06046000
   0.66721000  0.33321000  0.24067000
   0.50058000  0.49950000  0.18024000
   0.33595000  0.33196000  0.11912000
   0.33462000  0.33376000  0.24059000
   0.50333510  0.50151401  0.30084698
   0.00055000  0.33190000  0.12006000
   0.16752000  0.49945000  0.18065000
   0.00021000  0.33145000  0.00038000
   0.33510000  0.33170000  0.00029000
   0.00889045  0.33373844  0.36022614
   0.00077000  0.99959000  0.12036000
   0.16814000  0.16634000  0.18048000
   0.33405000  0.66593000  0.12095000
   0.50078000  0.83242000  0.18121000
   0.00721587  0.66782590  0.35899001
   0.99982000  0.33359000  0.24030000
   0.00025000  0.66569000  0.12051000
   0.16581000  0.83217000  0.18114000
   0.66566000  0.33123000  0.11970000
   0.83436992  0.83521036  0.30290209
   0.17102966  0.50152147  0.30194198
   0.16575176  0.16902652  0.30248378
   0.00161000  0.99891000  0.00024000
   0.00429794  0.99836222  0.36023136
   0.16807000  0.16539000  0.06004000
   0.50852291  0.83322698  0.29954895
   0.83476000  0.83303000  0.18132000
   0.66715000  0.66559000  0.00000000
   0.66719000  0.66640000  0.12032000
   0.83302000  0.49937000  0.17995000
   0.16769000  0.83389000  0.06029000
   0.50214527  0.16789195  0.30275540
   0.33289000  0.99824000  0.24130000
   0.66679000  0.99914000  0.24097000
   0.33466000  0.00023000  0.12082000
   0.66746000  0.99815000  0.00001000
   0.83463195  0.16756702  0.30301026
   0.83358000  0.16456000  0.06013000
   0.66330974  0.00411630  0.35982237
   0.83364000  0.16593000  0.18062000
   0.66653000  0.99972000  0.12044000
   0.33658222  0.33350712  0.36006387
   0.67210192  0.66931657  0.39136760
   0.33487000  0.00167000  0.00066000
   0.33122871  0.99905434  0.36131745
   0.00122000  0.00217000  0.24080000
   0.16722000  0.50179000  0.05903000
   0.50000000  0.50344000  0.05949000
   0.49861000  0.16115000  0.05868000
   0.49968000  0.16444000  0.18182000
   0.83944390  0.50796475  0.29902357
   0.99722000  0.66135000  0.24151000
   0.33419000  0.66573000  0.24040000
   0.33414000  0.65855000  0.00278000
   0.33593964  0.67645925  0.36932095
   0.66923000  0.66337000  0.24097000
Direct configuration=    31
   0.83310000  0.49871000  0.06001000
   0.83472000  0.83192000  0.06027000
   0.00081000  0.66425000  0.00034000
   0.16203500  0.82861719  0.30051310
   0.66459984  0.33378430  0.35905252
   0.66559000  0.33138000  0.00044000
   0.49968000  0.83322000  0.06046000
   0.66721000  0.33321000  0.24067000
   0.50058000  0.49950000  0.18024000
   0.33595000  0.33196000  0.11912000
   0.33462000  0.33376000  0.24059000
   0.50359695  0.50135901  0.30084469
   0.00055000  0.33190000  0.12006000
   0.16752000  0.49945000  0.18065000
   0.00021000  0.33145000  0.00038000
   0.33510000  0.33170000  0.00029000
   0.00885249  0.33362893  0.36017324
   0.00077000  0.99959000  0.12036000
   0.16814000  0.16634000  0.18048000
   0.33405000  0.66593000  0.12095000
   0.50078000  0.83242000  0.18121000
   0.00687891  0.66784382  0.35893264
   0.99982000  0.33359000  0.24030000
   0.00025000  0.66569000  0.12051000
   0.16581000  0.83217000  0.18114000
   0.66566000  0.33123000  0.11970000
   0.83445225  0.83508182  0.30304659
   0.17092621  0.50156396  0.30197033
   0.16571411  0.16900286  0.30241995
   0.00161000  0.99891000  0.00024000
   0.00458032  0.99848792  0.36015856
   0.16807000  0.16539000  0.06004000
   0.50853994  0.83324652  0.29946989
   0.83476000  0.83303000  0.18132000
   0.66715000  0.66559000  0.00000000
   0.66719000  0.66640000  0.12032000
   0.83302000  0.49937000  0.17995000
   0.16769000  0.83389000  0.06029000
   0.50227744  0.16756798  0.30273993
   0.33289000  0.99824000  0.24130000
   0.66679000  0.99914000  0.24097000
   0.33466000  0.00023000  0.12082000
   0.66746000  0.99815000  0.00001000
   0.83464744  0.16728627  0.30298192
   0.83358000  0.16456000  0.06013000
   0.66330339  0.00399512  0.35966445
   0.83364000  0.16593000  0.18062000
   0.66653000  0.99972000  0.12044000
   0.33661451  0.33334566  0.36000212
   0.67187810  0.66924977  0.39136433
   0.33487000  0.00167000  0.00066000
   0.33081867  0.99903890  0.36126467
   0.00122000  0.00217000  0.24080000
   0.16722000  0.50179000  0.05903000
   0.50000000  0.50344000  0.05949000
   0.49861000  0.16115000  0.05868000
   0.49968000  0.16444000  0.18182000
   0.83949897  0.50800107  0.29906067
   0.99722000  0.66135000  0.24151000
   0.33419000  0.66573000  0.24040000
   0.33414000  0.65855000  0.00278000
   0.33573512  0.67647919  0.36909594
   0.66923000  0.66337000  0.24097000
Direct configuration=    32
   0.83310000  0.49871000  0.06001000
   0.83472000  0.83192000  0.06027000
   0.00081000  0.66425000  0.00034000
   0.16001976  0.82875418  0.29994198
   0.66515508  0.33150258  0.35888479
   0.66559000  0.33138000  0.00044000
   0.49968000  0.83322000  0.06046000
   0.66721000  0.33321000  0.24067000
   0.50058000  0.49950000  0.18024000
   0.33595000  0.33196000  0.11912000
   0.33462000  0.33376000  0.24059000
   0.50403548  0.50066692  0.30104182
   0.00055000  0.33190000  0.12006000
   0.16752000  0.49945000  0.18065000
   0.00021000  0.33145000  0.00038000
   0.33510000  0.33170000  0.00029000
   0.00868277  0.33275612  0.35992344
   0.00077000  0.99959000  0.12036000
   0.16814000  0.16634000  0.18048000
   0.33405000  0.66593000  0.12095000
   0.50078000  0.83242000  0.18121000
   0.00369802  0.66729451  0.35916922
   0.99982000  0.33359000  0.24030000
   0.00025000  0.66569000  0.12051000
   0.16581000  0.83217000  0.18114000
   0.66566000  0.33123000  0.11970000
   0.83385339  0.83552880  0.30259680
   0.17035077  0.50060089  0.30175199
   0.16666926  0.16923710  0.30187495
   0.00161000  0.99891000  0.00024000
   0.00697802  0.99953705  0.35999768
   0.16807000  0.16539000  0.06004000
   0.50744544  0.83273771  0.29909753
   0.83476000  0.83303000  0.18132000
   0.66715000  0.66559000  0.00000000
   0.66719000  0.66640000  0.12032000
   0.83302000  0.49937000  0.17995000
   0.16769000  0.83389000  0.06029000
   0.50135609  0.16664372  0.30227727
   0.33289000  0.99824000  0.24130000
   0.66679000  0.99914000  0.24097000
   0.33466000  0.00023000  0.12082000
   0.66746000  0.99815000  0.00001000
   0.83493765  0.16654791  0.30222033
   0.83358000  0.16456000  0.06013000
   0.66346920  0.00335232  0.35956635
   0.83364000  0.16593000  0.18062000
   0.66653000  0.99972000  0.12044000
   0.33665614  0.33190219  0.35946894
   0.67023882  0.66832367  0.39183428
   0.33487000  0.00167000  0.00066000
   0.32886117  0.99797619  0.36092751
   0.00122000  0.00217000  0.24080000
   0.16722000  0.50179000  0.05903000
   0.50000000  0.50344000  0.05949000
   0.49861000  0.16115000  0.05868000
   0.49968000  0.16444000  0.18182000
   0.83896608  0.50674104  0.29920662
   0.99722000  0.66135000  0.24151000
   0.33419000  0.66573000  0.24040000
   0.33414000  0.65855000  0.00278000
   0.33424727  0.67633767  0.36773497
   0.66923000  0.66337000  0.24097000
Direct configuration=    33
   0.83310000  0.49871000  0.06001000
   0.83472000  0.83192000  0.06027000
   0.00081000  0.66425000  0.00034000
   0.15934824  0.82879982  0.29975167
   0.66534010  0.33074227  0.35882890
   0.66559000  0.33138000  0.00044000
   0.49968000  0.83322000  0.06046000
   0.66721000  0.33321000  0.24067000
   0.50058000  0.49950000  0.18024000
   0.33595000  0.33196000  0.11912000
   0.33462000  0.33376000  0.24059000
   0.50418161  0.50043630  0.30110750
   0.00055000  0.33190000  0.12006000
   0.16752000  0.49945000  0.18065000
   0.00021000  0.33145000  0.00038000
   0.33510000  0.33170000  0.00029000
   0.00862621  0.33246528  0.35984020
   0.00077000  0.99959000  0.12036000
   0.16814000  0.16634000  0.18048000
   0.33405000  0.66593000  0.12095000
   0.50078000  0.83242000  0.18121000
   0.00263809  0.66711147  0.35924805
   0.99982000  0.33359000  0.24030000
   0.00025000  0.66569000  0.12051000
   0.16581000  0.83217000  0.18114000
   0.66566000  0.33123000  0.11970000
   0.83365383  0.83567775  0.30244692
   0.17015903  0.50027998  0.30167924
   0.16698754  0.16931516  0.30169335
   0.00161000  0.99891000  0.00024000
   0.00777697  0.99988664  0.35994407
   0.16807000  0.16539000  0.06004000
   0.50708073  0.83256816  0.29897346
   0.83476000  0.83303000  0.18132000
   0.66715000  0.66559000  0.00000000
   0.66719000  0.66640000  0.12032000
   0.83302000  0.49937000  0.17995000
   0.16769000  0.83389000  0.06029000
   0.50104908  0.16633573  0.30212311
   0.33289000  0.99824000  0.24130000
   0.66679000  0.99914000  0.24097000
   0.33466000  0.00023000  0.12082000
   0.66746000  0.99815000  0.00001000
   0.83503436  0.16630187  0.30196656
   0.83358000  0.16456000  0.06013000
   0.66352444  0.00313812  0.35953366
   0.83364000  0.16593000  0.18062000
   0.66653000  0.99972000  0.12044000
   0.33667001  0.33142119  0.35929128
   0.66969258  0.66801508  0.39199087
   0.33487000  0.00167000  0.00066000
   0.32820889  0.99762208  0.36081517
   0.00122000  0.00217000  0.24080000
   0.16722000  0.50179000  0.05903000
   0.50000000  0.50344000  0.05949000
   0.49861000  0.16115000  0.05868000
   0.49968000  0.16444000  0.18182000
   0.83878851  0.50632118  0.29925526
   0.99722000  0.66135000  0.24151000
   0.33419000  0.66573000  0.24040000
   0.33414000  0.65855000  0.00278000
   0.33375149  0.67629052  0.36728147
   0.66923000  0.66337000  0.24097000
Direct configuration=    34
   0.83310000  0.49871000  0.06001000
   0.83472000  0.83192000  0.06027000
   0.00081000  0.66425000  0.00034000
   0.15912259  0.82881516  0.29968772
   0.66540227  0.33048678  0.35881011
   0.66559000  0.33138000  0.00044000
   0.49968000  0.83322000  0.06046000
   0.66721000  0.33321000  0.24067000
   0.50058000  0.49950000  0.18024000
   0.33595000  0.33196000  0.11912000
   0.33462000  0.33376000  0.24059000
   0.50423071  0.50035881  0.30112957
   0.00055000  0.33190000  0.12006000
   0.16752000  0.49945000  0.18065000
   0.00021000  0.33145000  0.00038000
   0.33510000  0.33170000  0.00029000
   0.00860721  0.33236755  0.35981223
   0.00077000  0.99959000  0.12036000
   0.16814000  0.16634000  0.18048000
   0.33405000  0.66593000  0.12095000
   0.50078000  0.83242000  0.18121000
   0.00228192  0.66704997  0.35927454
   0.99982000  0.33359000  0.24030000
   0.00025000  0.66569000  0.12051000
   0.16581000  0.83217000  0.18114000
   0.66566000  0.33123000  0.11970000
   0.83358678  0.83572780  0.30239656
   0.17009460  0.50017214  0.30165479
   0.16709449  0.16934139  0.30163233
   0.00161000  0.99891000  0.00024000
   0.00804544  0.00000411  0.35992606
   0.16807000  0.16539000  0.06004000
   0.50695818  0.83251119  0.29893177
   0.83476000  0.83303000  0.18132000
   0.66715000  0.66559000  0.00000000
   0.66719000  0.66640000  0.12032000
   0.83302000  0.49937000  0.17995000
   0.16769000  0.83389000  0.06029000
   0.50094592  0.16623224  0.30207130
   0.33289000  0.99824000  0.24130000
   0.66679000  0.99914000  0.24097000
   0.33466000  0.00023000  0.12082000
   0.66746000  0.99815000  0.00001000
   0.83506685  0.16621919  0.30188129
   0.83358000  0.16456000  0.06013000
   0.66354301  0.00306615  0.35952267
   0.83364000  0.16593000  0.18062000
   0.66653000  0.99972000  0.12044000
   0.33667467  0.33125957  0.35923158
   0.66950903  0.66791138  0.39204349
   0.33487000  0.00167000  0.00066000
   0.32798971  0.99750309  0.36077742
   0.00122000  0.00217000  0.24080000
   0.16722000  0.50179000  0.05903000
   0.50000000  0.50344000  0.05949000
   0.49861000  0.16115000  0.05868000
   0.49968000  0.16444000  0.18182000
   0.83872885  0.50618009  0.29927160
   0.99722000  0.66135000  0.24151000
   0.33419000  0.66573000  0.24040000
   0.33414000  0.65855000  0.00278000
   0.33358490  0.67627467  0.36712908
   0.66923000  0.66337000  0.24097000
Direct configuration=    35
   0.83310000  0.49871000  0.06001000
   0.83472000  0.83192000  0.06027000
   0.00081000  0.66425000  0.00034000
   0.15766619  0.82863153  0.29972388
   0.66557041  0.32987310  0.35884474
   0.66559000  0.33138000  0.00044000
   0.49968000  0.83322000  0.06046000
   0.66721000  0.33321000  0.24067000
   0.50058000  0.49950000  0.18024000
   0.33595000  0.33196000  0.11912000
   0.33462000  0.33376000  0.24059000
   0.50343733  0.50016157  0.30110958
   0.00055000  0.33190000  0.12006000
   0.16752000  0.49945000  0.18065000
   0.00021000  0.33145000  0.00038000
   0.33510000  0.33170000  0.00029000
   0.00873326  0.33163382  0.35984173
   0.00077000  0.99959000  0.12036000
   0.16814000  0.16634000  0.18048000
   0.33405000  0.66593000  0.12095000
   0.50078000  0.83242000  0.18121000
   0.00093875  0.66701014  0.35905383
   0.99982000  0.33359000  0.24030000
   0.00025000  0.66569000  0.12051000
   0.16581000  0.83217000  0.18114000
   0.66566000  0.33123000  0.11970000
   0.83259397  0.83521150  0.30204357
   0.16902252  0.50007324  0.30140467
   0.16684928  0.16941182  0.30152648
   0.00161000  0.99891000  0.00024000
   0.00881058  0.00020328  0.35997512
   0.16807000  0.16539000  0.06004000
   0.50698286  0.83229718  0.29932439
   0.83476000  0.83303000  0.18132000
   0.66715000  0.66559000  0.00000000
   0.66719000  0.66640000  0.12032000
   0.83302000  0.49937000  0.17995000
   0.16769000  0.83389000  0.06029000
   0.50116460  0.16649208  0.30213208
   0.33289000  0.99824000  0.24130000
   0.66679000  0.99914000  0.24097000
   0.33466000  0.00023000  0.12082000
   0.66746000  0.99815000  0.00001000
   0.83512542  0.16686242  0.30204153
   0.83358000  0.16456000  0.06013000
   0.66333786  0.00291491  0.35973141
   0.83364000  0.16593000  0.18062000
   0.66653000  0.99972000  0.12044000
   0.33643026  0.33083514  0.35933564
   0.66841241  0.66733565  0.39206594
   0.33487000  0.00167000  0.00066000
   0.32878593  0.99641424  0.36065223
   0.00122000  0.00217000  0.24080000
   0.16722000  0.50179000  0.05903000
   0.50000000  0.50344000  0.05949000
   0.49861000  0.16115000  0.05868000
   0.49968000  0.16444000  0.18182000
   0.83786544  0.50597578  0.29928347
   0.99722000  0.66135000  0.24151000
   0.33419000  0.66573000  0.24040000
   0.33414000  0.65855000  0.00278000
   0.33245936  0.67591755  0.36698264
   0.66923000  0.66337000  0.24097000
Direct configuration=    36
   0.83310000  0.49871000  0.06001000
   0.83472000  0.83192000  0.06027000
   0.00081000  0.66425000  0.00034000
   0.15688116  0.82853254  0.29974336
   0.66566104  0.32954231  0.35886341
   0.66559000  0.33138000  0.00044000
   0.49968000  0.83322000  0.06046000
   0.66721000  0.33321000  0.24067000
   0.50058000  0.49950000  0.18024000
   0.33595000  0.33196000  0.11912000
   0.33462000  0.33376000  0.24059000
   0.50300968  0.50005526  0.30109881
   0.00055000  0.33190000  0.12006000
   0.16752000  0.49945000  0.18065000
   0.00021000  0.33145000  0.00038000
   0.33510000  0.33170000  0.00029000
   0.00880121  0.33123832  0.35985763
   0.00077000  0.99959000  0.12036000
   0.16814000  0.16634000  0.18048000
   0.33405000  0.66593000  0.12095000
   0.50078000  0.83242000  0.18121000
   0.00021475  0.66698867  0.35893486
   0.99982000  0.33359000  0.24030000
   0.00025000  0.66569000  0.12051000
   0.16581000  0.83217000  0.18114000
   0.66566000  0.33123000  0.11970000
   0.83205882  0.83493319  0.30185330
   0.16844465  0.50001993  0.30126986
   0.16671711  0.16944979  0.30146943
   0.00161000  0.99891000  0.00024000
   0.00922301  0.00031064  0.36000157
   0.16807000  0.16539000  0.06004000
   0.50699616  0.83218183  0.29953603
   0.83476000  0.83303000  0.18132000
   0.66715000  0.66559000  0.00000000
   0.66719000  0.66640000  0.12032000
   0.83302000  0.49937000  0.17995000
   0.16769000  0.83389000  0.06029000
   0.50128247  0.16663214  0.30216483
   0.33289000  0.99824000  0.24130000
   0.66679000  0.99914000  0.24097000
   0.33466000  0.00023000  0.12082000
   0.66746000  0.99815000  0.00001000
   0.83515699  0.16720913  0.30212790
   0.83358000  0.16456000  0.06013000
   0.66322728  0.00283339  0.35984393
   0.83364000  0.16593000  0.18062000
   0.66653000  0.99972000  0.12044000
   0.33629851  0.33060636  0.35939173
   0.66782130  0.66702531  0.39207804
   0.33487000  0.00167000  0.00066000
   0.32921511  0.99582732  0.36058475
   0.00122000  0.00217000  0.24080000
   0.16722000  0.50179000  0.05903000
   0.50000000  0.50344000  0.05949000
   0.49861000  0.16115000  0.05868000
   0.49968000  0.16444000  0.18182000
   0.83740005  0.50586565  0.29928986
   0.99722000  0.66135000  0.24151000
   0.33419000  0.66573000  0.24040000
   0.33414000  0.65855000  0.00278000
   0.33185267  0.67572504  0.36690371
   0.66923000  0.66337000  0.24097000
Direct configuration=    37
   0.83310000  0.49871000  0.06001000
   0.83472000  0.83192000  0.06027000
   0.00081000  0.66425000  0.00034000
   0.15652274  0.82878714  0.29974470
   0.66543784  0.32997140  0.35911714
   0.66559000  0.33138000  0.00044000
   0.49968000  0.83322000  0.06046000
   0.66721000  0.33321000  0.24067000
   0.50058000  0.49950000  0.18024000
   0.33595000  0.33196000  0.11912000
   0.33462000  0.33376000  0.24059000
   0.50209460  0.49981797  0.30111592
   0.00055000  0.33190000  0.12006000
   0.16752000  0.49945000  0.18065000
   0.00021000  0.33145000  0.00038000
   0.33510000  0.33170000  0.00029000
   0.00896445  0.33077356  0.36010519
   0.00077000  0.99959000  0.12036000
   0.16814000  0.16634000  0.18048000
   0.33405000  0.66593000  0.12095000
   0.50078000  0.83242000  0.18121000
   0.99845301  0.66690142  0.35874944
   0.99982000  0.33359000  0.24030000
   0.00025000  0.66569000  0.12051000
   0.16581000  0.83217000  0.18114000
   0.66566000  0.33123000  0.11970000
   0.83136394  0.83518718  0.30198565
   0.16782320  0.49978203  0.30126984
   0.16732375  0.16869261  0.30163577
   0.00161000  0.99891000  0.00024000
   0.00942746  0.00014222  0.36009678
   0.16807000  0.16539000  0.06004000
   0.50703224  0.83229709  0.29963919
   0.83476000  0.83303000  0.18132000
   0.66715000  0.66559000  0.00000000
   0.66719000  0.66640000  0.12032000
   0.83302000  0.49937000  0.17995000
   0.16769000  0.83389000  0.06029000
   0.50128965  0.16642860  0.30234960
   0.33289000  0.99824000  0.24130000
   0.66679000  0.99914000  0.24097000
   0.33466000  0.00023000  0.12082000
   0.66746000  0.99815000  0.00001000
   0.83502221  0.16655692  0.30231815
   0.83358000  0.16456000  0.06013000
   0.66343644  0.00278815  0.35993554
   0.83364000  0.16593000  0.18062000
   0.66653000  0.99972000  0.12044000
   0.33558541  0.33055809  0.35949440
   0.66655998  0.66634204  0.39203982
   0.33487000  0.00167000  0.00066000
   0.33004448  0.99509598  0.36036776
   0.00122000  0.00217000  0.24080000
   0.16722000  0.50179000  0.05903000
   0.50000000  0.50344000  0.05949000
   0.49861000  0.16115000  0.05868000
   0.49968000  0.16444000  0.18182000
   0.83645404  0.50569293  0.29920284
   0.99722000  0.66135000  0.24151000
   0.33419000  0.66573000  0.24040000
   0.33414000  0.65855000  0.00278000
   0.33003192  0.67499087  0.36699078
   0.66923000  0.66337000  0.24097000
Direct configuration=    38
   0.83310000  0.49871000  0.06001000
   0.83472000  0.83192000  0.06027000
   0.00081000  0.66425000  0.00034000
   0.15641985  0.82886022  0.29974509
   0.66537377  0.33009457  0.35918997
   0.66559000  0.33138000  0.00044000
   0.49968000  0.83322000  0.06046000
   0.66721000  0.33321000  0.24067000
   0.50058000  0.49950000  0.18024000
   0.33595000  0.33196000  0.11912000
   0.33462000  0.33376000  0.24059000
   0.50183193  0.49974986  0.30112084
   0.00055000  0.33190000  0.12006000
   0.16752000  0.49945000  0.18065000
   0.00021000  0.33145000  0.00038000
   0.33510000  0.33170000  0.00029000
   0.00901131  0.33064015  0.36017626
   0.00077000  0.99959000  0.12036000
   0.16814000  0.16634000  0.18048000
   0.33405000  0.66593000  0.12095000
   0.50078000  0.83242000  0.18121000
   0.99794729  0.66687638  0.35869622
   0.99982000  0.33359000  0.24030000
   0.00025000  0.66569000  0.12051000
   0.16581000  0.83217000  0.18114000
   0.66566000  0.33123000  0.11970000
   0.83116447  0.83526009  0.30202364
   0.16764481  0.49971374  0.30126984
   0.16749789  0.16847526  0.30168352
   0.00161000  0.99891000  0.00024000
   0.00948615  0.00009387  0.36012412
   0.16807000  0.16539000  0.06004000
   0.50704260  0.83233018  0.29966881
   0.83476000  0.83303000  0.18132000
   0.66715000  0.66559000  0.00000000
   0.66719000  0.66640000  0.12032000
   0.83302000  0.49937000  0.17995000
   0.16769000  0.83389000  0.06029000
   0.50129172  0.16637018  0.30240264
   0.33289000  0.99824000  0.24130000
   0.66679000  0.99914000  0.24097000
   0.33466000  0.00023000  0.12082000
   0.66746000  0.99815000  0.00001000
   0.83498352  0.16636970  0.30237276
   0.83358000  0.16456000  0.06013000
   0.66349648  0.00277516  0.35996183
   0.83364000  0.16593000  0.18062000
   0.66653000  0.99972000  0.12044000
   0.33538071  0.33054424  0.35952387
   0.66619791  0.66614591  0.39202885
   0.33487000  0.00167000  0.00066000
   0.33028255  0.99488605  0.36030548
   0.00122000  0.00217000  0.24080000
   0.16722000  0.50179000  0.05903000
   0.50000000  0.50344000  0.05949000
   0.49861000  0.16115000  0.05868000
   0.49968000  0.16444000  0.18182000
   0.83618249  0.50564335  0.29917786
   0.99722000  0.66135000  0.24151000
   0.33419000  0.66573000  0.24040000
   0.33414000  0.65855000  0.00278000
   0.32950928  0.67478013  0.36701577
   0.66923000  0.66337000  0.24097000
Direct configuration=    39
   0.83310000  0.49871000  0.06001000
   0.83472000  0.83192000  0.06027000
   0.00081000  0.66425000  0.00034000
   0.15671254  0.82873268  0.29961629
   0.66489815  0.33060673  0.35919179
   0.66559000  0.33138000  0.00044000
   0.49968000  0.83322000  0.06046000
   0.66721000  0.33321000  0.24067000
   0.50058000  0.49950000  0.18024000
   0.33595000  0.33196000  0.11912000
   0.33462000  0.33376000  0.24059000
   0.50174863  0.49972021  0.30120326
   0.00055000  0.33190000  0.12006000
   0.16752000  0.49945000  0.18065000
   0.00021000  0.33145000  0.00038000
   0.33510000  0.33170000  0.00029000
   0.00927204  0.33028399  0.36021383
   0.00077000  0.99959000  0.12036000
   0.16814000  0.16634000  0.18048000
   0.33405000  0.66593000  0.12095000
   0.50078000  0.83242000  0.18121000
   0.99678299  0.66674120  0.35867772
   0.99982000  0.33359000  0.24030000
   0.00025000  0.66569000  0.12051000
   0.16581000  0.83217000  0.18114000
   0.66566000  0.33123000  0.11970000
   0.83163070  0.83533570  0.30228313
   0.16722522  0.49935434  0.30137915
   0.16724860  0.16861688  0.30180233
   0.00161000  0.99891000  0.00024000
   0.00939439  0.99960957  0.36035978
   0.16807000  0.16539000  0.06004000
   0.50652377  0.83191146  0.29949295
   0.83476000  0.83303000  0.18132000
   0.66715000  0.66559000  0.00000000
   0.66719000  0.66640000  0.12032000
   0.83302000  0.49937000  0.17995000
   0.16769000  0.83389000  0.06029000
   0.50137359  0.16668273  0.30247076
   0.33289000  0.99824000  0.24130000
   0.66679000  0.99914000  0.24097000
   0.33466000  0.00023000  0.12082000
   0.66746000  0.99815000  0.00001000
   0.83512229  0.16651555  0.30236178
   0.83358000  0.16456000  0.06013000
   0.66369792  0.00272101  0.36013244
   0.83364000  0.16593000  0.18062000
   0.66653000  0.99972000  0.12044000
   0.33481764  0.33058361  0.35961326
   0.66487753  0.66593566  0.39204397
   0.33487000  0.00167000  0.00066000
   0.33048500  0.99463206  0.36038081
   0.00122000  0.00217000  0.24080000
   0.16722000  0.50179000  0.05903000
   0.50000000  0.50344000  0.05949000
   0.49861000  0.16115000  0.05868000
   0.49968000  0.16444000  0.18182000
   0.83600924  0.50533926  0.29916261
   0.99722000  0.66135000  0.24151000
   0.33419000  0.66573000  0.24040000
   0.33414000  0.65855000  0.00278000
   0.32852755  0.67445475  0.36718220
   0.66923000  0.66337000  0.24097000
Direct configuration=    40
   0.83310000  0.49871000  0.06001000
   0.83472000  0.83192000  0.06027000
   0.00081000  0.66425000  0.00034000
   0.15670241  0.82873709  0.29962075
   0.66491461  0.33058900  0.35919173
   0.66559000  0.33138000  0.00044000
   0.49968000  0.83322000  0.06046000
   0.66721000  0.33321000  0.24067000
   0.50058000  0.49950000  0.18024000
   0.33595000  0.33196000  0.11912000
   0.33462000  0.33376000  0.24059000
   0.50175151  0.49972124  0.30120040
   0.00055000  0.33190000  0.12006000
   0.16752000  0.49945000  0.18065000
   0.00021000  0.33145000  0.00038000
   0.33510000  0.33170000  0.00029000
   0.00926301  0.33029632  0.36021253
   0.00077000  0.99959000  0.12036000
   0.16814000  0.16634000  0.18048000
   0.33405000  0.66593000  0.12095000
   0.50078000  0.83242000  0.18121000
   0.99682329  0.66674588  0.35867836
   0.99982000  0.33359000  0.24030000
   0.00025000  0.66569000  0.12051000
   0.16581000  0.83217000  0.18114000
   0.66566000  0.33123000  0.11970000
   0.83161456  0.83533308  0.30227414
   0.16723974  0.49936678  0.30137537
   0.16725723  0.16861198  0.30179822
   0.00161000  0.99891000  0.00024000
   0.00939756  0.99962633  0.36035163
   0.16807000  0.16539000  0.06004000
   0.50654173  0.83192595  0.29949903
   0.83476000  0.83303000  0.18132000
   0.66715000  0.66559000  0.00000000
   0.66719000  0.66640000  0.12032000
   0.83302000  0.49937000  0.17995000
   0.16769000  0.83389000  0.06029000
   0.50137075  0.16667191  0.30246840
   0.33289000  0.99824000  0.24130000
   0.66679000  0.99914000  0.24097000
   0.33466000  0.00023000  0.12082000
   0.66746000  0.99815000  0.00001000
   0.83511748  0.16651050  0.30236216
   0.83358000  0.16456000  0.06013000
   0.66369095  0.00272289  0.36012653
   0.83364000  0.16593000  0.18062000
   0.66653000  0.99972000  0.12044000
   0.33483712  0.33058224  0.35961017
   0.66492323  0.66594294  0.39204345
   0.33487000  0.00167000  0.00066000
   0.33047799  0.99464086  0.36037820
   0.00122000  0.00217000  0.24080000
   0.16722000  0.50179000  0.05903000
   0.50000000  0.50344000  0.05949000
   0.49861000  0.16115000  0.05868000
   0.49968000  0.16444000  0.18182000
   0.83601524  0.50534978  0.29916313
   0.99722000  0.66135000  0.24151000
   0.33419000  0.66573000  0.24040000
   0.33414000  0.65855000  0.00278000
   0.32856153  0.67446601  0.36717644
   0.66923000  0.66337000  0.24097000
Direct configuration=    41
   0.83310000  0.49871000  0.06001000
   0.83472000  0.83192000  0.06027000
   0.00081000  0.66425000  0.00034000
   0.15674474  0.82854143  0.29965095
   0.66472935  0.33072946  0.35909864
   0.66559000  0.33138000  0.00044000
   0.49968000  0.83322000  0.06046000
   0.66721000  0.33321000  0.24067000
   0.50058000  0.49950000  0.18024000
   0.33595000  0.33196000  0.11912000
   0.33462000  0.33376000  0.24059000
   0.50173723  0.49988048  0.30117659
   0.00055000  0.33190000  0.12006000
   0.16752000  0.49945000  0.18065000
   0.00021000  0.33145000  0.00038000
   0.33510000  0.33170000  0.00029000
   0.00931239  0.33013881  0.36027505
   0.00077000  0.99959000  0.12036000
   0.16814000  0.16634000  0.18048000
   0.33405000  0.66593000  0.12095000
   0.50078000  0.83242000  0.18121000
   0.99663463  0.66659995  0.35878298
   0.99982000  0.33359000  0.24030000
   0.00025000  0.66569000  0.12051000
   0.16581000  0.83217000  0.18114000
   0.66566000  0.33123000  0.11970000
   0.83161462  0.83531529  0.30226793
   0.16729675  0.49950072  0.30133896
   0.16706328  0.16845532  0.30177640
   0.00161000  0.99891000  0.00024000
   0.00953565  0.99922773  0.36040340
   0.16807000  0.16539000  0.06004000
   0.50636934  0.83172096  0.29951457
   0.83476000  0.83303000  0.18132000
   0.66715000  0.66559000  0.00000000
   0.66719000  0.66640000  0.12032000
   0.83302000  0.49937000  0.17995000
   0.16769000  0.83389000  0.06029000
   0.50126272  0.16655323  0.30248020
   0.33289000  0.99824000  0.24130000
   0.66679000  0.99914000  0.24097000
   0.33466000  0.00023000  0.12082000
   0.66746000  0.99815000  0.00001000
   0.83501741  0.16661773  0.30239864
   0.83358000  0.16456000  0.06013000
   0.66363145  0.00280755  0.36003770
   0.83364000  0.16593000  0.18062000
   0.66653000  0.99972000  0.12044000
   0.33471306  0.33055882  0.35967455
   0.66422848  0.66613631  0.39207203
   0.33487000  0.00167000  0.00066000
   0.33031156  0.99480804  0.36050134
   0.00122000  0.00217000  0.24080000
   0.16722000  0.50179000  0.05903000
   0.50000000  0.50344000  0.05949000
   0.49861000  0.16115000  0.05868000
   0.49968000  0.16444000  0.18182000
   0.83619148  0.50545982  0.29925137
   0.99722000  0.66135000  0.24151000
   0.33419000  0.66573000  0.24040000
   0.33414000  0.65855000  0.00278000
   0.32826622  0.67453231  0.36726446
   0.66923000  0.66337000  0.24097000
