System = ni3al
PREC = Accurate
EDIFF = 1E-6
EDIFFG = -1E-2
ISTART = 0
ICHARG = 2
LREAL = False
NSW = 300
ISIF = 2
IBRION = 2
ISMEAR = 1
SIGMA = 0.1
ENCUT = 450
ALGO = Normal
#POTIM = 0.2
LMAXMIX = 4
AMIN = 0.01
NELM = 150
LCHARG = .FALSE.
LWAVE = .FALSE.
ISPIN = 2
NCORE = 4
KPAR = 8
