Generated by VASPKIT code
 1.000000
    8.5326995849999996    0.0000000000000000    0.0000000000000000
   -0.0005193328000000    8.4969997247000002    0.0000000000000000
    0.0000000000000000    0.0000000000000000   23.5949993133999989
   Pb
     1
Direct
    0.4983766030190416    0.1580810369468708    0.4440694088476260    Pb001
