  64  64   0   0
  0.2663607E+02  0.8504600E-09  0.8509100E-09  0.2355660E-08  0.5000000E-15
  1.000000000000000E-004
  CAR 
 INCAR-For-OPT                           
      5.60836242    -45.66273866  301      0.97923957      1.00000000
    -45.663  0.0000E+00  0.0000E+00  0.0000E+00  0.0000E+00
    -45.492  0.0000E+00  0.0000E+00  0.0000E+00  0.0000E+00
    -45.321  0.0000E+00  0.0000E+00  0.0000E+00  0.0000E+00
    -45.150  0.0000E+00  0.0000E+00  0.0000E+00  0.0000E+00
    -44.979  0.0000E+00  0.0000E+00  0.0000E+00  0.0000E+00
    -44.808  0.0000E+00  0.0000E+00  0.0000E+00  0.0000E+00
    -44.637  0.0000E+00 -0.6389E-34  0.0000E+00 -0.1092E-34
    -44.466  0.0000E+00 -0.6213E-26  0.0000E+00 -0.1062E-26
    -44.296  0.0000E+00 -0.4430E-19  0.0000E+00 -0.7570E-20
    -44.125 -0.1072E-32 -0.2234E-13 -0.1833E-33 -0.3817E-14
    -43.954 -0.7264E-25 -0.8403E-09 -0.1241E-25 -0.1436E-09
    -43.783 -0.3638E-18 -0.2292E-05 -0.6217E-19 -0.3919E-06
    -43.612 -0.1302E-12 -0.4300E-03 -0.2225E-13 -0.7389E-04
    -43.441 -0.3533E-08 -0.2389E-02 -0.6039E-09 -0.4822E-03
    -43.270 -0.7028E-05  0.5050E-01 -0.1202E-05  0.8148E-02
    -43.099 -0.9378E-03  0.1456E+00 -0.1615E-03  0.3304E-01
    -42.928 -0.2364E-03  0.9909E-01 -0.2019E-03  0.4997E-01
    -42.757  0.8945E-01  0.4765E-01  0.1509E-01  0.5812E-01
    -42.586  0.8841E-01  0.7830E-01  0.3020E-01  0.7150E-01
    -42.416 -0.1859E-02  0.6810E-01  0.2988E-01  0.8314E-01
    -42.245  0.1785E-01  0.2967E-01  0.3293E-01  0.8821E-01
    -42.074  0.9047E-01  0.3572E-01  0.4839E-01  0.9431E-01
    -41.903  0.1191E+00  0.3647E-01  0.6874E-01  0.1005E+00
    -41.732  0.1363E+00  0.1652E-01  0.9205E-01  0.1034E+00
    -41.561  0.1058E+00  0.2342E-01  0.1101E+00  0.1074E+00
    -41.390 -0.6840E-03  0.1662E-01  0.1100E+00  0.1102E+00
    -41.219  0.2722E-01 -0.1149E-02  0.1147E+00  0.1100E+00
    -41.048  0.3230E-01 -0.8284E-04  0.1202E+00  0.1100E+00
    -40.877 -0.7705E-03 -0.2075E-06  0.1200E+00  0.1100E+00
    -40.707 -0.2773E-03 -0.9492E-09  0.1200E+00  0.1100E+00
    -40.536 -0.8760E-05 -0.2158E-05  0.1200E+00  0.1100E+00
    -40.365 -0.1052E-02 -0.3082E-03  0.1198E+00  0.1099E+00
    -40.194  0.2105E-02  0.2166E-03  0.1202E+00  0.1100E+00
    -40.023  0.8346E-01  0.2397E-01  0.1344E+00  0.1141E+00
    -39.852  0.3587E-01  0.4519E-01  0.1406E+00  0.1218E+00
    -39.681 -0.3217E-02  0.7085E-01  0.1400E+00  0.1339E+00
    -39.510 -0.1351E-03  0.3564E-01  0.1400E+00  0.1400E+00
    -39.339 -0.2703E-06  0.4622E-03  0.1400E+00  0.1401E+00
    -39.168 -0.3900E-10 -0.4660E-03  0.1400E+00  0.1400E+00
    -38.997 -0.4160E-15 -0.3433E-05  0.1400E+00  0.1400E+00
    -38.827  0.0000E+00 -0.1473E-08  0.1400E+00  0.1400E+00
    -38.656  0.0000E+00 -0.4302E-13  0.1400E+00  0.1400E+00
    -38.485  0.0000E+00  0.0000E+00  0.1400E+00  0.1400E+00
    -38.314  0.0000E+00  0.0000E+00  0.1400E+00  0.1400E+00
    -38.143  0.0000E+00  0.0000E+00  0.1400E+00  0.1400E+00
    -37.972  0.0000E+00  0.0000E+00  0.1400E+00  0.1400E+00
    -37.801  0.0000E+00  0.0000E+00  0.1400E+00  0.1400E+00
    -37.630  0.0000E+00  0.0000E+00  0.1400E+00  0.1400E+00
    -37.459  0.0000E+00  0.0000E+00  0.1400E+00  0.1400E+00
    -37.288  0.0000E+00  0.0000E+00  0.1400E+00  0.1400E+00
    -37.118  0.0000E+00  0.0000E+00  0.1400E+00  0.1400E+00
    -36.947  0.0000E+00  0.0000E+00  0.1400E+00  0.1400E+00
    -36.776  0.0000E+00  0.0000E+00  0.1400E+00  0.1400E+00
    -36.605  0.0000E+00  0.0000E+00  0.1400E+00  0.1400E+00
    -36.434  0.0000E+00  0.0000E+00  0.1400E+00  0.1400E+00
    -36.263  0.0000E+00  0.0000E+00  0.1400E+00  0.1400E+00
    -36.092  0.0000E+00  0.0000E+00  0.1400E+00  0.1400E+00
    -35.921  0.0000E+00  0.0000E+00  0.1400E+00  0.1400E+00
    -35.750  0.0000E+00  0.0000E+00  0.1400E+00  0.1400E+00
    -35.579  0.0000E+00  0.0000E+00  0.1400E+00  0.1400E+00
    -35.409  0.0000E+00  0.0000E+00  0.1400E+00  0.1400E+00
    -35.238  0.0000E+00  0.0000E+00  0.1400E+00  0.1400E+00
    -35.067  0.0000E+00  0.0000E+00  0.1400E+00  0.1400E+00
    -34.896  0.0000E+00  0.0000E+00  0.1400E+00  0.1400E+00
    -34.725  0.0000E+00  0.0000E+00  0.1400E+00  0.1400E+00
    -34.554  0.0000E+00  0.0000E+00  0.1400E+00  0.1400E+00
    -34.383  0.0000E+00  0.0000E+00  0.1400E+00  0.1400E+00
    -34.212  0.0000E+00  0.0000E+00  0.1400E+00  0.1400E+00
    -34.041  0.0000E+00  0.0000E+00  0.1400E+00  0.1400E+00
    -33.870  0.0000E+00  0.0000E+00  0.1400E+00  0.1400E+00
    -33.699  0.0000E+00  0.0000E+00  0.1400E+00  0.1400E+00
    -33.529  0.0000E+00  0.0000E+00  0.1400E+00  0.1400E+00
    -33.358  0.0000E+00  0.0000E+00  0.1400E+00  0.1400E+00
    -33.187  0.0000E+00  0.0000E+00  0.1400E+00  0.1400E+00
    -33.016  0.0000E+00  0.0000E+00  0.1400E+00  0.1400E+00
    -32.845  0.0000E+00  0.0000E+00  0.1400E+00  0.1400E+00
    -32.674  0.0000E+00  0.0000E+00  0.1400E+00  0.1400E+00
    -32.503  0.0000E+00  0.0000E+00  0.1400E+00  0.1400E+00
    -32.332  0.0000E+00  0.0000E+00  0.1400E+00  0.1400E+00
    -32.161  0.0000E+00  0.0000E+00  0.1400E+00  0.1400E+00
    -31.990  0.0000E+00  0.0000E+00  0.1400E+00  0.1400E+00
    -31.820  0.0000E+00  0.0000E+00  0.1400E+00  0.1400E+00
    -31.649  0.0000E+00  0.0000E+00  0.1400E+00  0.1400E+00
    -31.478  0.0000E+00  0.0000E+00  0.1400E+00  0.1400E+00
    -31.307  0.0000E+00  0.0000E+00  0.1400E+00  0.1400E+00
    -31.136  0.0000E+00  0.0000E+00  0.1400E+00  0.1400E+00
    -30.965  0.0000E+00  0.0000E+00  0.1400E+00  0.1400E+00
    -30.794  0.0000E+00  0.0000E+00  0.1400E+00  0.1400E+00
    -30.623  0.0000E+00  0.0000E+00  0.1400E+00  0.1400E+00
    -30.452  0.0000E+00  0.0000E+00  0.1400E+00  0.1400E+00
    -30.281  0.0000E+00  0.0000E+00  0.1400E+00  0.1400E+00
    -30.111  0.0000E+00  0.0000E+00  0.1400E+00  0.1400E+00
    -29.940  0.0000E+00  0.0000E+00  0.1400E+00  0.1400E+00
    -29.769  0.0000E+00  0.0000E+00  0.1400E+00  0.1400E+00
    -29.598  0.0000E+00  0.0000E+00  0.1400E+00  0.1400E+00
    -29.427  0.0000E+00  0.0000E+00  0.1400E+00  0.1400E+00
    -29.256  0.0000E+00  0.0000E+00  0.1400E+00  0.1400E+00
    -29.085  0.0000E+00  0.0000E+00  0.1400E+00  0.1400E+00
    -28.914  0.0000E+00  0.0000E+00  0.1400E+00  0.1400E+00
    -28.743  0.0000E+00  0.0000E+00  0.1400E+00  0.1400E+00
    -28.572  0.0000E+00  0.0000E+00  0.1400E+00  0.1400E+00
    -28.401  0.0000E+00  0.0000E+00  0.1400E+00  0.1400E+00
    -28.231  0.0000E+00  0.0000E+00  0.1400E+00  0.1400E+00
    -28.060  0.0000E+00  0.0000E+00  0.1400E+00  0.1400E+00
    -27.889  0.0000E+00  0.0000E+00  0.1400E+00  0.1400E+00
    -27.718  0.0000E+00  0.0000E+00  0.1400E+00  0.1400E+00
    -27.547  0.0000E+00  0.0000E+00  0.1400E+00  0.1400E+00
    -27.376  0.0000E+00  0.0000E+00  0.1400E+00  0.1400E+00
    -27.205  0.0000E+00  0.0000E+00  0.1400E+00  0.1400E+00
    -27.034  0.0000E+00  0.0000E+00  0.1400E+00  0.1400E+00
    -26.863  0.0000E+00  0.0000E+00  0.1400E+00  0.1400E+00
    -26.692  0.0000E+00  0.0000E+00  0.1400E+00  0.1400E+00
    -26.522  0.0000E+00  0.0000E+00  0.1400E+00  0.1400E+00
    -26.351  0.0000E+00  0.0000E+00  0.1400E+00  0.1400E+00
    -26.180  0.0000E+00  0.0000E+00  0.1400E+00  0.1400E+00
    -26.009  0.0000E+00  0.0000E+00  0.1400E+00  0.1400E+00
    -25.838  0.0000E+00  0.0000E+00  0.1400E+00  0.1400E+00
    -25.667  0.0000E+00  0.0000E+00  0.1400E+00  0.1400E+00
    -25.496  0.0000E+00  0.0000E+00  0.1400E+00  0.1400E+00
    -25.325  0.0000E+00  0.0000E+00  0.1400E+00  0.1400E+00
    -25.154  0.0000E+00  0.0000E+00  0.1400E+00  0.1400E+00
    -24.983  0.0000E+00  0.0000E+00  0.1400E+00  0.1400E+00
    -24.812  0.0000E+00  0.0000E+00  0.1400E+00  0.1400E+00
    -24.642  0.0000E+00  0.0000E+00  0.1400E+00  0.1400E+00
    -24.471  0.0000E+00  0.0000E+00  0.1400E+00  0.1400E+00
    -24.300  0.0000E+00  0.0000E+00  0.1400E+00  0.1400E+00
    -24.129  0.0000E+00  0.0000E+00  0.1400E+00  0.1400E+00
    -23.958  0.0000E+00  0.0000E+00  0.1400E+00  0.1400E+00
    -23.787  0.0000E+00  0.0000E+00  0.1400E+00  0.1400E+00
    -23.616  0.0000E+00  0.0000E+00  0.1400E+00  0.1400E+00
    -23.445  0.0000E+00  0.0000E+00  0.1400E+00  0.1400E+00
    -23.274  0.0000E+00  0.0000E+00  0.1400E+00  0.1400E+00
    -23.103  0.0000E+00  0.0000E+00  0.1400E+00  0.1400E+00
    -22.933  0.0000E+00  0.0000E+00  0.1400E+00  0.1400E+00
    -22.762  0.0000E+00  0.0000E+00  0.1400E+00  0.1400E+00
    -22.591  0.0000E+00  0.0000E+00  0.1400E+00  0.1400E+00
    -22.420  0.0000E+00  0.0000E+00  0.1400E+00  0.1400E+00
    -22.249  0.0000E+00  0.0000E+00  0.1400E+00  0.1400E+00
    -22.078  0.0000E+00  0.0000E+00  0.1400E+00  0.1400E+00
    -21.907  0.0000E+00  0.0000E+00  0.1400E+00  0.1400E+00
    -21.736  0.0000E+00  0.0000E+00  0.1400E+00  0.1400E+00
    -21.565  0.0000E+00  0.0000E+00  0.1400E+00  0.1400E+00
    -21.394  0.0000E+00  0.0000E+00  0.1400E+00  0.1400E+00
    -21.224  0.0000E+00  0.0000E+00  0.1400E+00  0.1400E+00
    -21.053  0.0000E+00  0.0000E+00  0.1400E+00  0.1400E+00
    -20.882  0.0000E+00  0.0000E+00  0.1400E+00  0.1400E+00
    -20.711  0.0000E+00  0.0000E+00  0.1400E+00  0.1400E+00
    -20.540  0.0000E+00  0.0000E+00  0.1400E+00  0.1400E+00
    -20.369  0.0000E+00  0.0000E+00  0.1400E+00  0.1400E+00
    -20.198  0.0000E+00  0.0000E+00  0.1400E+00  0.1400E+00
    -20.027  0.0000E+00  0.0000E+00  0.1400E+00  0.1400E+00
    -19.856  0.0000E+00  0.0000E+00  0.1400E+00  0.1400E+00
    -19.685  0.0000E+00  0.0000E+00  0.1400E+00  0.1400E+00
    -19.514  0.0000E+00  0.0000E+00  0.1400E+00  0.1400E+00
    -19.344  0.0000E+00  0.0000E+00  0.1400E+00  0.1400E+00
    -19.173  0.0000E+00  0.0000E+00  0.1400E+00  0.1400E+00
    -19.002  0.0000E+00  0.0000E+00  0.1400E+00  0.1400E+00
    -18.831  0.0000E+00  0.0000E+00  0.1400E+00  0.1400E+00
    -18.660  0.0000E+00  0.0000E+00  0.1400E+00  0.1400E+00
    -18.489  0.0000E+00  0.0000E+00  0.1400E+00  0.1400E+00
    -18.318  0.0000E+00  0.0000E+00  0.1400E+00  0.1400E+00
    -18.147  0.0000E+00  0.0000E+00  0.1400E+00  0.1400E+00
    -17.976  0.0000E+00  0.0000E+00  0.1400E+00  0.1400E+00
    -17.805  0.0000E+00  0.0000E+00  0.1400E+00  0.1400E+00
    -17.635  0.0000E+00  0.0000E+00  0.1400E+00  0.1400E+00
    -17.464  0.0000E+00  0.0000E+00  0.1400E+00  0.1400E+00
    -17.293  0.0000E+00  0.0000E+00  0.1400E+00  0.1400E+00
    -17.122  0.0000E+00  0.0000E+00  0.1400E+00  0.1400E+00
    -16.951  0.0000E+00  0.0000E+00  0.1400E+00  0.1400E+00
    -16.780  0.0000E+00  0.0000E+00  0.1400E+00  0.1400E+00
    -16.609 -0.1910E-31 -0.1056E-30  0.1400E+00  0.1400E+00
    -16.438 -0.9234E-24 -0.4186E-23  0.1400E+00  0.1400E+00
    -16.267 -0.3288E-17 -0.1221E-16  0.1400E+00  0.1400E+00
    -16.096 -0.8258E-12 -0.2506E-11  0.1400E+00  0.1400E+00
    -15.926 -0.1537E-07 -0.3791E-07  0.1400E+00  0.1400E+00
    -15.755 -0.1989E-04 -0.3910E-04  0.1400E+00  0.1400E+00
    -15.584 -0.1473E-02 -0.2095E-02  0.1397E+00  0.1396E+00
    -15.413  0.8535E-02  0.1633E-01  0.1412E+00  0.1424E+00
    -15.242  0.7437E-01  0.7651E-01  0.1539E+00  0.1555E+00
    -15.071  0.1830E-01  0.8328E-02  0.1570E+00  0.1569E+00
    -14.900 -0.2138E-02 -0.1490E-02  0.1567E+00  0.1567E+00
    -14.729 -0.5315E-04 -0.1796E-04  0.1567E+00  0.1567E+00
    -14.558 -0.7027E-07 -0.1242E-07  0.1567E+00  0.1567E+00
    -14.387 -0.6549E-11 -0.6038E-12  0.1567E+00  0.1567E+00
    -14.216 -0.4331E-16  0.0000E+00  0.1567E+00  0.1567E+00
    -14.046  0.0000E+00  0.0000E+00  0.1567E+00  0.1567E+00
    -13.875  0.0000E+00  0.0000E+00  0.1567E+00  0.1567E+00
    -13.704  0.0000E+00  0.0000E+00  0.1567E+00  0.1567E+00
    -13.533  0.0000E+00  0.0000E+00  0.1567E+00  0.1567E+00
    -13.362  0.0000E+00  0.0000E+00  0.1567E+00  0.1567E+00
    -13.191  0.0000E+00  0.0000E+00  0.1567E+00  0.1567E+00
    -13.020  0.0000E+00  0.0000E+00  0.1567E+00  0.1567E+00
    -12.849  0.0000E+00  0.0000E+00  0.1567E+00  0.1567E+00
    -12.678  0.0000E+00  0.0000E+00  0.1567E+00  0.1567E+00
    -12.507  0.0000E+00  0.0000E+00  0.1567E+00  0.1567E+00
    -12.337  0.0000E+00  0.0000E+00  0.1567E+00  0.1567E+00
    -12.166  0.0000E+00  0.0000E+00  0.1567E+00  0.1567E+00
    -11.995  0.0000E+00  0.0000E+00  0.1567E+00  0.1567E+00
    -11.824  0.0000E+00  0.0000E+00  0.1567E+00  0.1567E+00
    -11.653  0.0000E+00  0.0000E+00  0.1567E+00  0.1567E+00
    -11.482  0.0000E+00  0.0000E+00  0.1567E+00  0.1567E+00
    -11.311  0.0000E+00  0.0000E+00  0.1567E+00  0.1567E+00
    -11.140  0.0000E+00  0.0000E+00  0.1567E+00  0.1567E+00
    -10.969  0.0000E+00  0.0000E+00  0.1567E+00  0.1567E+00
    -10.798  0.0000E+00  0.0000E+00  0.1567E+00  0.1567E+00
    -10.627  0.0000E+00  0.0000E+00  0.1567E+00  0.1567E+00
    -10.457  0.0000E+00  0.0000E+00  0.1567E+00  0.1567E+00
    -10.286  0.0000E+00  0.0000E+00  0.1567E+00  0.1567E+00
    -10.115  0.0000E+00  0.0000E+00  0.1567E+00  0.1567E+00
     -9.944  0.0000E+00  0.0000E+00  0.1567E+00  0.1567E+00
     -9.773  0.0000E+00  0.0000E+00  0.1567E+00  0.1567E+00
     -9.602  0.0000E+00  0.0000E+00  0.1567E+00  0.1567E+00
     -9.431  0.0000E+00  0.0000E+00  0.1567E+00  0.1567E+00
     -9.260  0.0000E+00  0.0000E+00  0.1567E+00  0.1567E+00
     -9.089  0.0000E+00  0.0000E+00  0.1567E+00  0.1567E+00
     -8.918  0.0000E+00  0.0000E+00  0.1567E+00  0.1567E+00
     -8.748 -0.1434E-36 -0.3623E-37  0.1567E+00  0.1567E+00
     -8.577 -0.2306E-28 -0.8701E-29  0.1567E+00  0.1567E+00
     -8.406 -0.2720E-21 -0.1428E-21  0.1567E+00  0.1567E+00
     -8.235 -0.2377E-15 -0.1720E-15  0.1567E+00  0.1567E+00
     -8.064 -0.1649E-10 -0.1575E-10  0.1567E+00  0.1567E+00
     -7.893 -0.8959E-07 -0.1038E-06  0.1567E+00  0.1567E+00
     -7.722 -0.3580E-04 -0.4451E-04  0.1567E+00  0.1567E+00
     -7.551 -0.5818E-03 -0.6246E-03  0.1566E+00  0.1566E+00
     -7.380  0.7838E-02  0.9209E-02  0.1579E+00  0.1581E+00
     -7.209  0.1249E-01  0.1146E-01  0.1600E+00  0.1601E+00
     -7.039  0.1945E-02 -0.5784E-04  0.1604E+00  0.1601E+00
     -6.868  0.6305E-02  0.4264E-02  0.1614E+00  0.1608E+00
     -6.697  0.3012E-02  0.5490E-02  0.1620E+00  0.1617E+00
     -6.526  0.6481E-02  0.2356E-02  0.1631E+00  0.1621E+00
     -6.355  0.7441E-02  0.8598E-02  0.1643E+00  0.1636E+00
     -6.184  0.9682E-03  0.4528E-02  0.1645E+00  0.1644E+00
     -6.013  0.9236E-02  0.1951E-02  0.1661E+00  0.1647E+00
     -5.842  0.1525E-01  0.1145E-01  0.1687E+00  0.1667E+00
     -5.671  0.9075E-02  0.1389E-01  0.1702E+00  0.1691E+00
     -5.500  0.1223E-01  0.8091E-02  0.1723E+00  0.1704E+00
     -5.329  0.8670E-02  0.1306E-01  0.1738E+00  0.1727E+00
     -5.159  0.8379E-02  0.6623E-02  0.1752E+00  0.1738E+00
     -4.988  0.2209E-01  0.7196E-02  0.1790E+00  0.1750E+00
     -4.817  0.1214E-01  0.2110E-01  0.1811E+00  0.1786E+00
     -4.646  0.1914E-01  0.1147E-01  0.1844E+00  0.1806E+00
     -4.475  0.1869E-01  0.1662E-01  0.1876E+00  0.1834E+00
     -4.304  0.2740E-01  0.1358E-01  0.1922E+00  0.1858E+00
     -4.133  0.2929E-01  0.1665E-01  0.1973E+00  0.1886E+00
     -3.962  0.4816E-01  0.2920E-01  0.2055E+00  0.1936E+00
     -3.791  0.6498E-01  0.2131E-01  0.2166E+00  0.1972E+00
     -3.620  0.1044E+00  0.2589E-01  0.2344E+00  0.2017E+00
     -3.450  0.1264E+00  0.1862E-01  0.2560E+00  0.2048E+00
     -3.279  0.1251E+00  0.3382E-01  0.2774E+00  0.2106E+00
     -3.108  0.1803E+00  0.4194E-01  0.3082E+00  0.2178E+00
     -2.937  0.1713E+00  0.6196E-01  0.3375E+00  0.2284E+00
     -2.766  0.1373E+00  0.6688E-01  0.3610E+00  0.2398E+00
     -2.595  0.1604E+00  0.7520E-01  0.3884E+00  0.2527E+00
     -2.424  0.2462E+00  0.6858E-01  0.4305E+00  0.2644E+00
     -2.253  0.2530E+00  0.9324E-01  0.4737E+00  0.2803E+00
     -2.082  0.2310E+00  0.1110E+00  0.5132E+00  0.2993E+00
     -1.911  0.2426E+00  0.1225E+00  0.5546E+00  0.3202E+00
     -1.740  0.2388E+00  0.1231E+00  0.5955E+00  0.3413E+00
     -1.570  0.2270E+00  0.1158E+00  0.6343E+00  0.3611E+00
     -1.399  0.2149E+00  0.1193E+00  0.6710E+00  0.3814E+00
     -1.228  0.1902E+00  0.1430E+00  0.7035E+00  0.4059E+00
     -1.057  0.1702E+00  0.1665E+00  0.7326E+00  0.4343E+00
     -0.886  0.1652E+00  0.1855E+00  0.7608E+00  0.4660E+00
     -0.715  0.1789E+00  0.1872E+00  0.7914E+00  0.4980E+00
     -0.544  0.2213E+00  0.1985E+00  0.8292E+00  0.5320E+00
     -0.373  0.2944E+00  0.2077E+00  0.8795E+00  0.5675E+00
     -0.202  0.3200E+00  0.2165E+00  0.9342E+00  0.6045E+00
     -0.031  0.2772E+00  0.2047E+00  0.9816E+00  0.6394E+00
      0.139  0.2103E+00  0.1711E+00  0.1018E+01  0.6687E+00
      0.310  0.1645E+00  0.1464E+00  0.1046E+01  0.6937E+00
      0.481  0.1532E+00  0.1390E+00  0.1072E+01  0.7175E+00
      0.652  0.1463E+00  0.1340E+00  0.1097E+01  0.7404E+00
      0.823  0.1319E+00  0.1041E+00  0.1119E+01  0.7582E+00
      0.994  0.1146E+00  0.1144E+00  0.1139E+01  0.7777E+00
      1.165  0.1062E+00  0.1232E+00  0.1157E+01  0.7988E+00
      1.336  0.1051E+00  0.1492E+00  0.1175E+01  0.8243E+00
      1.507  0.9900E-01  0.1744E+00  0.1192E+01  0.8541E+00
      1.678  0.1016E+00  0.1939E+00  0.1209E+01  0.8872E+00
      1.848  0.9638E-01  0.2285E+00  0.1226E+01  0.9262E+00
      2.019  0.9997E-01  0.2557E+00  0.1243E+01  0.9699E+00
      2.190  0.8303E-01  0.2931E+00  0.1257E+01  0.1020E+01
      2.361  0.1896E-01  0.3007E+00  0.1260E+01  0.1071E+01
      2.532 -0.1968E-02  0.3201E+00  0.1260E+01  0.1126E+01
      2.703 -0.9693E-04  0.3209E+00  0.1260E+01  0.1181E+01
      2.874 -0.2403E-06  0.2267E+00  0.1260E+01  0.1220E+01
      3.045 -0.4296E-10  0.1556E+00  0.1260E+01  0.1246E+01
      3.216 -0.5798E-15  0.7571E-01  0.1260E+01  0.1259E+01
      3.387  0.0000E+00  0.5652E-02  0.1260E+01  0.1260E+01
      3.558  0.0000E+00 -0.1187E-02  0.1260E+01  0.1260E+01
      3.728  0.0000E+00 -0.3759E-04  0.1260E+01  0.1260E+01
      3.899  0.0000E+00 -0.1414E-06  0.1260E+01  0.1260E+01
      4.070  0.0000E+00 -0.5021E-10  0.1260E+01  0.1260E+01
      4.241  0.0000E+00 -0.1356E-14  0.1260E+01  0.1260E+01
      4.412  0.0000E+00  0.0000E+00  0.1260E+01  0.1260E+01
      4.583  0.0000E+00  0.0000E+00  0.1260E+01  0.1260E+01
      4.754  0.0000E+00  0.0000E+00  0.1260E+01  0.1260E+01
      4.925  0.0000E+00  0.0000E+00  0.1260E+01  0.1260E+01
      5.096  0.0000E+00  0.0000E+00  0.1260E+01  0.1260E+01
      5.267  0.0000E+00  0.0000E+00  0.1260E+01  0.1260E+01
      5.437  0.0000E+00  0.0000E+00  0.1260E+01  0.1260E+01
      5.608  0.0000E+00  0.0000E+00  0.1260E+01  0.1260E+01
