Generated by VASPKIT code
 1.000000
    8.5261999999999993    0.0000000000000000    0.0000000000000000
   -0.0017663600000000    8.5045998199999993    0.0000000000000000
    0.0000000000000000    0.0000000000000000   23.5558000000000014
   Pb   Cr   Fe
     1    14    48
Selective Dynamics
Direct
    0.8856600000000000    0.9163500000000000    0.4402700000000000    T  T  T            Pb1
    0.9996200000000000    0.3343100000000000    0.0019900000000000    F  F  F            Cr1
    0.0057100000000000    0.3333600000000000    0.3675900000000000    T  T  T            Cr2
    0.3352400000000000    0.6703700000000000    0.0002300000000000    F  F  F            Cr3
    0.6687900000000000    0.9968900000000001    0.1222500000000000    F  F  F            Cr4
    0.1719000000000000    0.8301900000000000    0.3031200000000000    T  T  T            Cr5
    0.8305000000000000    0.8311400000000000    0.3025700000000000    T  T  T            Cr6
    0.3340000000000000    0.6700500000000000    0.3659000000000000    T  T  T            Cr7
    0.3366200000000000    0.9978399999999999    0.2417200000000000    F  F  F            Cr8
    0.0024000000000000    0.3333200000000000    0.2407900000000000    F  F  F            Cr9
    0.0012700000000000    0.6647600000000000    0.1204600000000000    F  F  F           Cr10
    0.3392200000000000    0.3307200000000000    0.0000000000000000    F  F  F           Cr11
    0.8377900000000000    0.4999900000000000    0.0613500000000000    F  F  F           Cr12
    0.5027199999999999    0.8339100000000000    0.1809800000000000    F  F  F           Cr13
    0.3345300000000000    0.3372700000000000    0.3614900000000000    T  T  T           Cr14
    0.6688200000000000    0.6665500000000000    0.0006800000000000    F  F  F            Fe1
    0.5022200000000000    0.8331800000000000    0.0607700000000000    F  F  F            Fe2
    0.1689400000000000    0.8330400000000000    0.0606200000000000    F  F  F            Fe3
    0.0002500000000000    0.6662000000000000    0.3585100000000000    T  T  T            Fe4
    0.0023900000000000    0.6644099999999999    0.0005100000000000    F  F  F            Fe5
    0.6677800000000000    0.3338000000000000    0.3591500000000000    T  T  T            Fe6
    0.6693000000000000    0.3335800000000000    0.0005000000000000    F  F  F            Fe7
    0.5021500000000000    0.4999200000000000    0.0608600000000000    F  F  F            Fe8
    0.8362000000000001    0.8320600000000000    0.0608600000000000    F  F  F            Fe9
    0.6694800000000000    0.9988300000000000    0.0005300000000000    F  F  F           Fe10
    0.6687100000000000    0.0019400000000000    0.3601100000000000    T  T  T           Fe11
    0.3332800000000000    0.0001600000000000    0.3600400000000000    T  T  T           Fe12
    0.5034300000000000    0.1652000000000000    0.0610500000000000    F  F  F           Fe13
    0.1692900000000000    0.1669400000000000    0.0607100000000000    F  F  F           Fe14
    0.3365700000000000    0.0007500000000000    0.0006700000000000    F  F  F           Fe15
    0.0027100000000000    0.9986900000000000    0.0003400000000000    F  F  F           Fe16
    0.0134000000000000    0.0020200000000000    0.3610900000000000    T  T  T           Fe17
    0.8357000000000000    0.1655600000000000    0.0609400000000000    F  F  F           Fe18
    0.1706100000000000    0.4974600000000000    0.0603200000000000    F  F  F           Fe19
    0.5032100000000000    0.1647200000000000    0.3021000000000000    T  T  T           Fe20
    0.6698800000000000    0.9992400000000000    0.2414200000000000    F  F  F           Fe21
    0.6696500000000000    0.3330400000000000    0.1210300000000000    F  F  F           Fe22
    0.8362600000000000    0.4996300000000000    0.1811700000000000    F  F  F           Fe23
    0.1689900000000000    0.8332900000000000    0.1817700000000000    F  F  F           Fe24
    0.3358200000000000    0.6668900000000000    0.1209500000000000    F  F  F           Fe25
    0.6691400000000000    0.6672200000000000    0.1211700000000000    F  F  F           Fe26
    0.8368000000000000    0.8322000000000001    0.1811400000000000    F  F  F           Fe27
    0.0017200000000000    0.9994400000000000    0.2415100000000000    F  F  F           Fe28
    0.1691400000000000    0.1638000000000000    0.3014000000000000    T  T  T           Fe29
    0.0026000000000000    0.3328400000000000    0.1210100000000000    F  F  F           Fe30
    0.1699400000000000    0.4992500000000000    0.1810400000000000    F  F  F           Fe31
    0.5016400000000000    0.1659400000000000    0.1813500000000000    F  F  F           Fe32
    0.8361499999999999    0.1655900000000000    0.1809900000000000    F  F  F           Fe33
    0.1698000000000000    0.1658700000000000    0.1809900000000000    F  F  F           Fe34
    0.3362300000000000    0.9985200000000000    0.1211000000000000    F  F  F           Fe35
    0.0024500000000000    0.9986500000000000    0.1211700000000000    F  F  F           Fe36
    0.3365100000000000    0.3328700000000000    0.1208600000000000    F  F  F           Fe37
    0.5018000000000000    0.4993700000000000    0.1812300000000000    F  F  F           Fe38
    0.1654700000000000    0.4994800000000000    0.3006500000000000    T  T  T           Fe39
    0.8360700000000000    0.1646900000000000    0.3025000000000000    T  T  T           Fe40
    0.5060500000000000    0.5017700000000000    0.3012500000000000    T  T  T           Fe41
    0.3352400000000000    0.3324600000000000    0.2418300000000000    F  F  F           Fe42
    0.8324800000000000    0.5021700000000000    0.3026600000000000    T  T  T           Fe43
    0.6690199999999999    0.3331700000000000    0.2412300000000000    F  F  F           Fe44
    0.3360500000000000    0.6658800000000000    0.2414600000000000    F  F  F           Fe45
    0.0031800000000000    0.6659800000000000    0.2417700000000000    F  F  F           Fe46
    0.6691800000000000    0.6667400000000000    0.2413100000000000    F  F  F           Fe47
    0.5035400000000000    0.8354000000000000    0.3012100000000000    T  T  T           Fe48
