Generated by VASPKIT code               
   1.00000000000000     
     8.4969999999999999    0.0000000000000000    0.0000000000000000
    -0.0079994200000000    8.5191962399999994    0.0000000000000000
     0.0000000000000000    0.0000000000000000   23.5736999999999988
   Cr   Fe   Pb
    14    48     1
Selective dynamics
Direct
     0.9955900000000000    0.3282799999999995    0.1209199999999981   F   F   F
     0.3403321011632136    0.3426570468853327    0.3619957831036689   T   T   T
     0.3355400000000017    0.3371700000000004    0.1224399999999974   F   F   F
     0.9980800000000016    0.0029400000000024    0.0013799999999975   F   F   F
     0.0021536798277318    0.9961658943426184    0.3717371249448794   T   T   T
     0.3320500000000024    0.9993399999999966    0.1217100000000002   F   F   F
     0.6668000000000021    0.9988000000000028    0.2434999999999974   F   F   F
     0.8345199999999977    0.1661300000000026    0.0611999999999995   F   F   F
     0.6729399999999970    0.0020400000000009    0.1206900000000033   F   F   F
     0.3340499999999977    0.6669499999999999    0.2411099999999990   F   F   F
     0.9990999999999985    0.6674300000000031    0.1213800000000020   F   F   F
     0.3323820526298032    0.6601222302658151    0.3736492940633324   T   T   T
     0.3315100000000015    0.6680399999999977    0.0017399999999981   F   F   F
     0.3326800000000034    0.3322000000000003    0.0000000000000000   F   F   F
     0.8346599999999995    0.8346000000000018    0.0607600000000019   F   F   F
     0.6679163154434363    0.6627567155104548    0.3609748962859510   T   T   T
     0.6661599999999979    0.6669899999999984    0.0009099999999975   F   F   F
     0.8333821406543266    0.8326291050627317    0.3033875669537326   T   T   T
     0.6670400000000001    0.6674599999999984    0.2422899999999970   F   F   F
     0.5018000000000029    0.8345600000000033    0.1807900000000018   F   F   F
     0.3330600000000032    0.6670900000000017    0.1214299999999966   F   F   F
     0.5000900000000001    0.8356799999999964    0.0616500000000002   F   F   F
     0.8333000000000013    0.8348599999999990    0.1820700000000031   F   F   F
     0.6675100000000000    0.6677999999999997    0.1212700000000027   F   F   F
     0.0012412109702151    0.6689831336536305    0.3602589350266773   T   T   T
     0.1664400000000015    0.8342000000000027    0.0614899999999992   F   F   F
     0.1686668792386085    0.8324104102819316    0.3019276841729785   T   T   T
     0.0013999999999967    0.6661300000000026    0.0009999999999977   F   F   F
     0.8347899999999981    0.5008899999999983    0.1813000000000002   F   F   F
     0.0000700000000009    0.6666900000000027    0.2422499999999985   F   F   F
     0.8346000000000018    0.5005700000000033    0.0613499999999974   F   F   F
     0.6658499999999989    0.3331299999999970    0.1214000000000013   F   F   F
     0.1656499999999994    0.8345600000000033    0.1818299999999979   F   F   F
     0.4994669296661690    0.8320699124620382    0.3031743192986004   T   T   T
     0.0017899999999997    0.3355000000000032    0.0009000000000015   F   F   F
     0.4979500000000030    0.1668999999999983    0.0615000000000023   F   F   F
     0.5007400000000004    0.1649400000000014    0.1814400000000020   F   F   F
     0.8307211021214993    0.1682230854162176    0.3030981524002121   T   T   T
     0.6649999999999991    0.0003999999999991    0.0005999999999986   F   F   F
     0.6636225901493025    0.0030338287885118    0.3611281387794278   T   T   T
     0.8324500000000015    0.1654699999999991    0.1817100000000025   F   F   F
     0.9999699999999976    0.3336100000000002    0.2419799999999981   F   F   F
     0.1616461940973804    0.5001555415752044    0.3022882813621423   T   T   T
     0.3343800000000030    0.9994500000000031    0.2420299999999997   F   F   F
     0.4989962728357684    0.1654789015769757    0.3031630829431901   T   T   T
     0.0005000000000024    0.0005299999999977    0.1217800000000011   F   F   F
     0.1680899999999994    0.1673600000000022    0.1813799999999972   F   F   F
     0.1681782180080122    0.1679248578283733    0.3028145699317010   T   T   T
     0.1676399999999987    0.1683299999999974    0.0617900000000020   F   F   F
     0.9993399999999966    0.0003000000000029    0.2421900000000008   F   F   F
     0.3325000000000031    0.0005700000000033    0.0010600000000025   F   F   F
     0.3318162574502808    0.9997505873354099    0.3600645178239956   T   T   T
     0.1656400000000033    0.4997100000000003    0.1812299999999993   F   F   F
     0.1674599999999984    0.4978699999999989    0.0624699999999976   F   F   F
     0.5039709687237718    0.5028024885353386    0.3016523381262727   T   T   T
     0.3334499999999991    0.3340000000000032    0.2417599999999993   F   F   F
     0.5012800000000013    0.5008699999999990    0.1816699999999969   F   F   F
     0.4979299999999967    0.5002500000000012    0.0611600000000010   F   F   F
     0.8334073179753572    0.4994627900499916    0.3032093546323721   T   T   T
     0.6666299999999978    0.3332899999999981    0.2421799999999976   F   F   F
     0.6564632183714160    0.3352945181054900    0.3620368988224147   T   T   T
     0.6654699999999991    0.3346999999999980    0.0008100000000013   F   F   F
     0.9929805035222860    0.3352334038161041    0.3944265829054052   T   T   T
 
  0.00000000E+00  0.00000000E+00  0.00000000E+00
  0.00000000E+00  0.00000000E+00  0.00000000E+00
  0.00000000E+00  0.00000000E+00  0.00000000E+00
  0.00000000E+00  0.00000000E+00  0.00000000E+00
  0.00000000E+00  0.00000000E+00  0.00000000E+00
  0.00000000E+00  0.00000000E+00  0.00000000E+00
  0.00000000E+00  0.00000000E+00  0.00000000E+00
  0.00000000E+00  0.00000000E+00  0.00000000E+00
  0.00000000E+00  0.00000000E+00  0.00000000E+00
  0.00000000E+00  0.00000000E+00  0.00000000E+00
  0.00000000E+00  0.00000000E+00  0.00000000E+00
  0.00000000E+00  0.00000000E+00  0.00000000E+00
  0.00000000E+00  0.00000000E+00  0.00000000E+00
  0.00000000E+00  0.00000000E+00  0.00000000E+00
  0.00000000E+00  0.00000000E+00  0.00000000E+00
  0.00000000E+00  0.00000000E+00  0.00000000E+00
  0.00000000E+00  0.00000000E+00  0.00000000E+00
  0.00000000E+00  0.00000000E+00  0.00000000E+00
  0.00000000E+00  0.00000000E+00  0.00000000E+00
  0.00000000E+00  0.00000000E+00  0.00000000E+00
  0.00000000E+00  0.00000000E+00  0.00000000E+00
  0.00000000E+00  0.00000000E+00  0.00000000E+00
  0.00000000E+00  0.00000000E+00  0.00000000E+00
  0.00000000E+00  0.00000000E+00  0.00000000E+00
  0.00000000E+00  0.00000000E+00  0.00000000E+00
  0.00000000E+00  0.00000000E+00  0.00000000E+00
  0.00000000E+00  0.00000000E+00  0.00000000E+00
  0.00000000E+00  0.00000000E+00  0.00000000E+00
  0.00000000E+00  0.00000000E+00  0.00000000E+00
  0.00000000E+00  0.00000000E+00  0.00000000E+00
  0.00000000E+00  0.00000000E+00  0.00000000E+00
  0.00000000E+00  0.00000000E+00  0.00000000E+00
  0.00000000E+00  0.00000000E+00  0.00000000E+00
  0.00000000E+00  0.00000000E+00  0.00000000E+00
  0.00000000E+00  0.00000000E+00  0.00000000E+00
  0.00000000E+00  0.00000000E+00  0.00000000E+00
  0.00000000E+00  0.00000000E+00  0.00000000E+00
  0.00000000E+00  0.00000000E+00  0.00000000E+00
  0.00000000E+00  0.00000000E+00  0.00000000E+00
  0.00000000E+00  0.00000000E+00  0.00000000E+00
  0.00000000E+00  0.00000000E+00  0.00000000E+00
  0.00000000E+00  0.00000000E+00  0.00000000E+00
  0.00000000E+00  0.00000000E+00  0.00000000E+00
  0.00000000E+00  0.00000000E+00  0.00000000E+00
  0.00000000E+00  0.00000000E+00  0.00000000E+00
  0.00000000E+00  0.00000000E+00  0.00000000E+00
  0.00000000E+00  0.00000000E+00  0.00000000E+00
  0.00000000E+00  0.00000000E+00  0.00000000E+00
  0.00000000E+00  0.00000000E+00  0.00000000E+00
  0.00000000E+00  0.00000000E+00  0.00000000E+00
  0.00000000E+00  0.00000000E+00  0.00000000E+00
  0.00000000E+00  0.00000000E+00  0.00000000E+00
  0.00000000E+00  0.00000000E+00  0.00000000E+00
  0.00000000E+00  0.00000000E+00  0.00000000E+00
  0.00000000E+00  0.00000000E+00  0.00000000E+00
  0.00000000E+00  0.00000000E+00  0.00000000E+00
  0.00000000E+00  0.00000000E+00  0.00000000E+00
  0.00000000E+00  0.00000000E+00  0.00000000E+00
  0.00000000E+00  0.00000000E+00  0.00000000E+00
  0.00000000E+00  0.00000000E+00  0.00000000E+00
  0.00000000E+00  0.00000000E+00  0.00000000E+00
  0.00000000E+00  0.00000000E+00  0.00000000E+00
  0.00000000E+00  0.00000000E+00  0.00000000E+00
