  63  63   0   0
  0.2708641E+02  0.8497000E-09  0.8519200E-09  0.2357370E-08  0.5000000E-15
  1.000000000000000E-004
  CAR 
 INCAR-For-OPT                           
      5.50392010    -45.66095830  301      1.01545314      1.00000000
    -45.661  0.0000E+00  0.0000E+00  0.0000E+00  0.0000E+00
    -45.490  0.0000E+00  0.0000E+00  0.0000E+00  0.0000E+00
    -45.320  0.0000E+00  0.0000E+00  0.0000E+00  0.0000E+00
    -45.149  0.0000E+00  0.0000E+00  0.0000E+00  0.0000E+00
    -44.979  0.0000E+00  0.0000E+00  0.0000E+00  0.0000E+00
    -44.808  0.0000E+00  0.0000E+00  0.0000E+00  0.0000E+00
    -44.638  0.0000E+00 -0.1411E-33  0.0000E+00 -0.2407E-34
    -44.467  0.0000E+00 -0.1366E-25  0.0000E+00 -0.2330E-26
    -44.297  0.0000E+00 -0.9948E-19  0.0000E+00 -0.1697E-19
    -44.126  0.0000E+00 -0.5261E-13  0.0000E+00 -0.8973E-14
    -43.955 -0.9387E-33 -0.2122E-08 -0.1601E-33 -0.3619E-09
    -43.785 -0.6287E-25 -0.6257E-05 -0.1072E-25 -0.1067E-05
    -43.614 -0.3155E-18 -0.1247E-02 -0.5381E-19 -0.2137E-03
    -43.444 -0.1148E-12 -0.5672E-02 -0.1958E-13 -0.1181E-02
    -43.273 -0.3207E-08  0.1536E+00 -0.5469E-09  0.2502E-01
    -43.103 -0.6599E-05  0.2315E+00 -0.1126E-05  0.6451E-01
    -42.932 -0.8894E-03  0.1011E+00 -0.1528E-03  0.8174E-01
    -42.762  0.9430E-03  0.1048E+00  0.8011E-05  0.9962E-01
    -42.591  0.7646E-01  0.5459E-01  0.1305E-01  0.1089E+00
    -42.421  0.4278E-01  0.7386E-02  0.2034E-01  0.1102E+00
    -42.250  0.2224E-01 -0.1109E-02  0.2414E-01  0.1100E+00
    -42.079  0.2905E-01 -0.3653E-04  0.2909E-01  0.1100E+00
    -41.909  0.6114E-01 -0.2630E-06  0.3952E-01  0.1100E+00
    -41.738  0.1874E+00 -0.7429E-04  0.7148E-01  0.1100E+00
    -41.568  0.1219E+00 -0.1102E-02  0.9227E-01  0.1098E+00
    -41.397  0.4866E-01  0.1380E-01  0.1006E+00  0.1122E+00
    -41.227 -0.2979E-02  0.3866E-01  0.1001E+00  0.1187E+00
    -41.056 -0.3523E-03  0.8369E-02  0.1000E+00  0.1202E+00
    -40.886 -0.1279E-05 -0.9859E-03  0.1000E+00  0.1200E+00
    -40.715 -0.1705E-04 -0.3066E-04  0.1000E+00  0.1200E+00
    -40.544 -0.9704E-03 -0.4751E-07  0.9983E-01  0.1200E+00
    -40.374  0.4335E-02 -0.4936E-11  0.1006E+00  0.1200E+00
    -40.203  0.5134E-01 -0.2172E-12  0.1093E+00  0.1200E+00
    -40.033  0.1318E+00 -0.4418E-08  0.1318E+00  0.1200E+00
    -39.862  0.5119E-01 -0.6050E-05  0.1405E+00  0.1200E+00
    -39.692 -0.2767E-02 -0.4791E-03  0.1401E+00  0.1199E+00
    -39.521 -0.3856E-03  0.9576E-03  0.1400E+00  0.1201E+00
    -39.351 -0.2121E-05  0.3462E-01  0.1400E+00  0.1260E+00
    -39.180 -0.8309E-09  0.6591E-01  0.1400E+00  0.1372E+00
    -39.010 -0.2357E-13  0.1810E-01  0.1400E+00  0.1403E+00
    -38.839  0.0000E+00 -0.1744E-02  0.1400E+00  0.1400E+00
    -38.668  0.0000E+00 -0.8707E-04  0.1400E+00  0.1400E+00
    -38.498  0.0000E+00 -0.1846E-06  0.1400E+00  0.1400E+00
    -38.327  0.0000E+00 -0.2552E-10  0.1400E+00  0.1400E+00
    -38.157  0.0000E+00 -0.2517E-15  0.1400E+00  0.1400E+00
    -37.986  0.0000E+00  0.0000E+00  0.1400E+00  0.1400E+00
    -37.816  0.0000E+00  0.0000E+00  0.1400E+00  0.1400E+00
    -37.645  0.0000E+00  0.0000E+00  0.1400E+00  0.1400E+00
    -37.475  0.0000E+00  0.0000E+00  0.1400E+00  0.1400E+00
    -37.304  0.0000E+00  0.0000E+00  0.1400E+00  0.1400E+00
    -37.133  0.0000E+00  0.0000E+00  0.1400E+00  0.1400E+00
    -36.963  0.0000E+00  0.0000E+00  0.1400E+00  0.1400E+00
    -36.792  0.0000E+00  0.0000E+00  0.1400E+00  0.1400E+00
    -36.622  0.0000E+00  0.0000E+00  0.1400E+00  0.1400E+00
    -36.451  0.0000E+00  0.0000E+00  0.1400E+00  0.1400E+00
    -36.281  0.0000E+00  0.0000E+00  0.1400E+00  0.1400E+00
    -36.110  0.0000E+00  0.0000E+00  0.1400E+00  0.1400E+00
    -35.940  0.0000E+00  0.0000E+00  0.1400E+00  0.1400E+00
    -35.769  0.0000E+00  0.0000E+00  0.1400E+00  0.1400E+00
    -35.599  0.0000E+00  0.0000E+00  0.1400E+00  0.1400E+00
    -35.428  0.0000E+00  0.0000E+00  0.1400E+00  0.1400E+00
    -35.257  0.0000E+00  0.0000E+00  0.1400E+00  0.1400E+00
    -35.087  0.0000E+00  0.0000E+00  0.1400E+00  0.1400E+00
    -34.916  0.0000E+00  0.0000E+00  0.1400E+00  0.1400E+00
    -34.746  0.0000E+00  0.0000E+00  0.1400E+00  0.1400E+00
    -34.575  0.0000E+00  0.0000E+00  0.1400E+00  0.1400E+00
    -34.405  0.0000E+00  0.0000E+00  0.1400E+00  0.1400E+00
    -34.234  0.0000E+00  0.0000E+00  0.1400E+00  0.1400E+00
    -34.064  0.0000E+00  0.0000E+00  0.1400E+00  0.1400E+00
    -33.893  0.0000E+00  0.0000E+00  0.1400E+00  0.1400E+00
    -33.722  0.0000E+00  0.0000E+00  0.1400E+00  0.1400E+00
    -33.552  0.0000E+00  0.0000E+00  0.1400E+00  0.1400E+00
    -33.381  0.0000E+00  0.0000E+00  0.1400E+00  0.1400E+00
    -33.211  0.0000E+00  0.0000E+00  0.1400E+00  0.1400E+00
    -33.040  0.0000E+00  0.0000E+00  0.1400E+00  0.1400E+00
    -32.870  0.0000E+00  0.0000E+00  0.1400E+00  0.1400E+00
    -32.699  0.0000E+00  0.0000E+00  0.1400E+00  0.1400E+00
    -32.529  0.0000E+00  0.0000E+00  0.1400E+00  0.1400E+00
    -32.358  0.0000E+00  0.0000E+00  0.1400E+00  0.1400E+00
    -32.188  0.0000E+00  0.0000E+00  0.1400E+00  0.1400E+00
    -32.017  0.0000E+00  0.0000E+00  0.1400E+00  0.1400E+00
    -31.846  0.0000E+00  0.0000E+00  0.1400E+00  0.1400E+00
    -31.676  0.0000E+00  0.0000E+00  0.1400E+00  0.1400E+00
    -31.505  0.0000E+00  0.0000E+00  0.1400E+00  0.1400E+00
    -31.335  0.0000E+00  0.0000E+00  0.1400E+00  0.1400E+00
    -31.164  0.0000E+00  0.0000E+00  0.1400E+00  0.1400E+00
    -30.994  0.0000E+00  0.0000E+00  0.1400E+00  0.1400E+00
    -30.823  0.0000E+00  0.0000E+00  0.1400E+00  0.1400E+00
    -30.653  0.0000E+00  0.0000E+00  0.1400E+00  0.1400E+00
    -30.482  0.0000E+00  0.0000E+00  0.1400E+00  0.1400E+00
    -30.311  0.0000E+00  0.0000E+00  0.1400E+00  0.1400E+00
    -30.141  0.0000E+00  0.0000E+00  0.1400E+00  0.1400E+00
    -29.970  0.0000E+00  0.0000E+00  0.1400E+00  0.1400E+00
    -29.800  0.0000E+00  0.0000E+00  0.1400E+00  0.1400E+00
    -29.629  0.0000E+00  0.0000E+00  0.1400E+00  0.1400E+00
    -29.459  0.0000E+00  0.0000E+00  0.1400E+00  0.1400E+00
    -29.288  0.0000E+00  0.0000E+00  0.1400E+00  0.1400E+00
    -29.118  0.0000E+00  0.0000E+00  0.1400E+00  0.1400E+00
    -28.947  0.0000E+00  0.0000E+00  0.1400E+00  0.1400E+00
    -28.777  0.0000E+00  0.0000E+00  0.1400E+00  0.1400E+00
    -28.606  0.0000E+00  0.0000E+00  0.1400E+00  0.1400E+00
    -28.435  0.0000E+00  0.0000E+00  0.1400E+00  0.1400E+00
    -28.265  0.0000E+00  0.0000E+00  0.1400E+00  0.1400E+00
    -28.094  0.0000E+00  0.0000E+00  0.1400E+00  0.1400E+00
    -27.924  0.0000E+00  0.0000E+00  0.1400E+00  0.1400E+00
    -27.753  0.0000E+00  0.0000E+00  0.1400E+00  0.1400E+00
    -27.583  0.0000E+00  0.0000E+00  0.1400E+00  0.1400E+00
    -27.412  0.0000E+00  0.0000E+00  0.1400E+00  0.1400E+00
    -27.242  0.0000E+00  0.0000E+00  0.1400E+00  0.1400E+00
    -27.071  0.0000E+00  0.0000E+00  0.1400E+00  0.1400E+00
    -26.901  0.0000E+00  0.0000E+00  0.1400E+00  0.1400E+00
    -26.730  0.0000E+00  0.0000E+00  0.1400E+00  0.1400E+00
    -26.559  0.0000E+00  0.0000E+00  0.1400E+00  0.1400E+00
    -26.389  0.0000E+00  0.0000E+00  0.1400E+00  0.1400E+00
    -26.218  0.0000E+00  0.0000E+00  0.1400E+00  0.1400E+00
    -26.048  0.0000E+00  0.0000E+00  0.1400E+00  0.1400E+00
    -25.877  0.0000E+00  0.0000E+00  0.1400E+00  0.1400E+00
    -25.707  0.0000E+00  0.0000E+00  0.1400E+00  0.1400E+00
    -25.536  0.0000E+00  0.0000E+00  0.1400E+00  0.1400E+00
    -25.366  0.0000E+00  0.0000E+00  0.1400E+00  0.1400E+00
    -25.195  0.0000E+00  0.0000E+00  0.1400E+00  0.1400E+00
    -25.024  0.0000E+00  0.0000E+00  0.1400E+00  0.1400E+00
    -24.854  0.0000E+00  0.0000E+00  0.1400E+00  0.1400E+00
    -24.683  0.0000E+00  0.0000E+00  0.1400E+00  0.1400E+00
    -24.513  0.0000E+00  0.0000E+00  0.1400E+00  0.1400E+00
    -24.342  0.0000E+00  0.0000E+00  0.1400E+00  0.1400E+00
    -24.172  0.0000E+00  0.0000E+00  0.1400E+00  0.1400E+00
    -24.001  0.0000E+00  0.0000E+00  0.1400E+00  0.1400E+00
    -23.831  0.0000E+00  0.0000E+00  0.1400E+00  0.1400E+00
    -23.660  0.0000E+00  0.0000E+00  0.1400E+00  0.1400E+00
    -23.490  0.0000E+00  0.0000E+00  0.1400E+00  0.1400E+00
    -23.319  0.0000E+00  0.0000E+00  0.1400E+00  0.1400E+00
    -23.148  0.0000E+00  0.0000E+00  0.1400E+00  0.1400E+00
    -22.978  0.0000E+00  0.0000E+00  0.1400E+00  0.1400E+00
    -22.807  0.0000E+00  0.0000E+00  0.1400E+00  0.1400E+00
    -22.637  0.0000E+00  0.0000E+00  0.1400E+00  0.1400E+00
    -22.466  0.0000E+00  0.0000E+00  0.1400E+00  0.1400E+00
    -22.296  0.0000E+00  0.0000E+00  0.1400E+00  0.1400E+00
    -22.125  0.0000E+00  0.0000E+00  0.1400E+00  0.1400E+00
    -21.955  0.0000E+00  0.0000E+00  0.1400E+00  0.1400E+00
    -21.784  0.0000E+00  0.0000E+00  0.1400E+00  0.1400E+00
    -21.613  0.0000E+00  0.0000E+00  0.1400E+00  0.1400E+00
    -21.443  0.0000E+00  0.0000E+00  0.1400E+00  0.1400E+00
    -21.272  0.0000E+00  0.0000E+00  0.1400E+00  0.1400E+00
    -21.102  0.0000E+00  0.0000E+00  0.1400E+00  0.1400E+00
    -20.931  0.0000E+00  0.0000E+00  0.1400E+00  0.1400E+00
    -20.761  0.0000E+00  0.0000E+00  0.1400E+00  0.1400E+00
    -20.590  0.0000E+00  0.0000E+00  0.1400E+00  0.1400E+00
    -20.420  0.0000E+00  0.0000E+00  0.1400E+00  0.1400E+00
    -20.249  0.0000E+00  0.0000E+00  0.1400E+00  0.1400E+00
    -20.079  0.0000E+00  0.0000E+00  0.1400E+00  0.1400E+00
    -19.908  0.0000E+00  0.0000E+00  0.1400E+00  0.1400E+00
    -19.737  0.0000E+00  0.0000E+00  0.1400E+00  0.1400E+00
    -19.567  0.0000E+00  0.0000E+00  0.1400E+00  0.1400E+00
    -19.396  0.0000E+00  0.0000E+00  0.1400E+00  0.1400E+00
    -19.226  0.0000E+00  0.0000E+00  0.1400E+00  0.1400E+00
    -19.055  0.0000E+00  0.0000E+00  0.1400E+00  0.1400E+00
    -18.885  0.0000E+00  0.0000E+00  0.1400E+00  0.1400E+00
    -18.714  0.0000E+00  0.0000E+00  0.1400E+00  0.1400E+00
    -18.544  0.0000E+00  0.0000E+00  0.1400E+00  0.1400E+00
    -18.373  0.0000E+00  0.0000E+00  0.1400E+00  0.1400E+00
    -18.202  0.0000E+00  0.0000E+00  0.1400E+00  0.1400E+00
    -18.032  0.0000E+00  0.0000E+00  0.1400E+00  0.1400E+00
    -17.861  0.0000E+00  0.0000E+00  0.1400E+00  0.1400E+00
    -17.691  0.0000E+00  0.0000E+00  0.1400E+00  0.1400E+00
    -17.520  0.0000E+00  0.0000E+00  0.1400E+00  0.1400E+00
    -17.350  0.0000E+00  0.0000E+00  0.1400E+00  0.1400E+00
    -17.179  0.0000E+00  0.0000E+00  0.1400E+00  0.1400E+00
    -17.009  0.0000E+00  0.0000E+00  0.1400E+00  0.1400E+00
    -16.838 -0.6389E-37 -0.7147E-36  0.1400E+00  0.1400E+00
    -16.668 -0.1961E-28 -0.1378E-27  0.1400E+00  0.1400E+00
    -16.497 -0.3578E-21 -0.1903E-20  0.1400E+00  0.1400E+00
    -16.326 -0.4742E-15 -0.1905E-14  0.1400E+00  0.1400E+00
    -16.156 -0.4758E-10 -0.1435E-09  0.1400E+00  0.1400E+00
    -15.985 -0.3442E-06 -0.7765E-06  0.1400E+00  0.1400E+00
    -15.815 -0.1655E-03 -0.2740E-03  0.1400E+00  0.1400E+00
    -15.644 -0.3043E-02 -0.2874E-02  0.1395E+00  0.1395E+00
    -15.474  0.3880E-01  0.4867E-01  0.1461E+00  0.1478E+00
    -15.303  0.6366E-01  0.5496E-01  0.1569E+00  0.1571E+00
    -15.133 -0.9334E-03 -0.2384E-02  0.1568E+00  0.1567E+00
    -14.962 -0.5904E-03 -0.3778E-03  0.1567E+00  0.1567E+00
    -14.791 -0.3002E-05 -0.1367E-05  0.1567E+00  0.1567E+00
    -14.621 -0.9879E-09 -0.3255E-09  0.1567E+00  0.1567E+00
    -14.450 -0.2377E-13 -0.5662E-14  0.1567E+00  0.1567E+00
    -14.280  0.0000E+00  0.0000E+00  0.1567E+00  0.1567E+00
    -14.109  0.0000E+00  0.0000E+00  0.1567E+00  0.1567E+00
    -13.939  0.0000E+00  0.0000E+00  0.1567E+00  0.1567E+00
    -13.768  0.0000E+00  0.0000E+00  0.1567E+00  0.1567E+00
    -13.598  0.0000E+00  0.0000E+00  0.1567E+00  0.1567E+00
    -13.427  0.0000E+00  0.0000E+00  0.1567E+00  0.1567E+00
    -13.257  0.0000E+00  0.0000E+00  0.1567E+00  0.1567E+00
    -13.086  0.0000E+00  0.0000E+00  0.1567E+00  0.1567E+00
    -12.915  0.0000E+00  0.0000E+00  0.1567E+00  0.1567E+00
    -12.745  0.0000E+00  0.0000E+00  0.1567E+00  0.1567E+00
    -12.574  0.0000E+00  0.0000E+00  0.1567E+00  0.1567E+00
    -12.404  0.0000E+00  0.0000E+00  0.1567E+00  0.1567E+00
    -12.233  0.0000E+00  0.0000E+00  0.1567E+00  0.1567E+00
    -12.063  0.0000E+00  0.0000E+00  0.1567E+00  0.1567E+00
    -11.892  0.0000E+00  0.0000E+00  0.1567E+00  0.1567E+00
    -11.722  0.0000E+00  0.0000E+00  0.1567E+00  0.1567E+00
    -11.551  0.0000E+00  0.0000E+00  0.1567E+00  0.1567E+00
    -11.380  0.0000E+00  0.0000E+00  0.1567E+00  0.1567E+00
    -11.210  0.0000E+00  0.0000E+00  0.1567E+00  0.1567E+00
    -11.039  0.0000E+00  0.0000E+00  0.1567E+00  0.1567E+00
    -10.869  0.0000E+00  0.0000E+00  0.1567E+00  0.1567E+00
    -10.698  0.0000E+00  0.0000E+00  0.1567E+00  0.1567E+00
    -10.528  0.0000E+00  0.0000E+00  0.1567E+00  0.1567E+00
    -10.357  0.0000E+00  0.0000E+00  0.1567E+00  0.1567E+00
    -10.187  0.0000E+00  0.0000E+00  0.1567E+00  0.1567E+00
    -10.016  0.0000E+00  0.0000E+00  0.1567E+00  0.1567E+00
     -9.846  0.0000E+00  0.0000E+00  0.1567E+00  0.1567E+00
     -9.675  0.0000E+00  0.0000E+00  0.1567E+00  0.1567E+00
     -9.504  0.0000E+00  0.0000E+00  0.1567E+00  0.1567E+00
     -9.334  0.0000E+00  0.0000E+00  0.1567E+00  0.1567E+00
     -9.163 -0.1140E-36 -0.2858E-36  0.1567E+00  0.1567E+00
     -8.993 -0.1843E-28 -0.4458E-28  0.1567E+00  0.1567E+00
     -8.822 -0.2265E-21 -0.5184E-21  0.1567E+00  0.1567E+00
     -8.652 -0.2081E-15 -0.4499E-15  0.1567E+00  0.1567E+00
     -8.481 -0.1518E-10 -0.3056E-10  0.1567E+00  0.1567E+00
     -8.311 -0.8530E-07 -0.1551E-06  0.1567E+00  0.1567E+00
     -8.140 -0.3456E-04 -0.5342E-04  0.1567E+00  0.1567E+00
     -7.969 -0.5731E-03 -0.5735E-03  0.1566E+00  0.1566E+00
     -7.799  0.7566E-02  0.9578E-02  0.1579E+00  0.1582E+00
     -7.628  0.1280E-01  0.1114E-01  0.1600E+00  0.1601E+00
     -7.458 -0.8800E-04 -0.4673E-03  0.1600E+00  0.1600E+00
     -7.287 -0.1915E-03 -0.1021E-03  0.1600E+00  0.1600E+00
     -7.117  0.2672E-03 -0.4125E-04  0.1600E+00  0.1600E+00
     -6.946  0.4219E-02  0.2225E-02  0.1608E+00  0.1604E+00
     -6.776  0.5858E-02  0.6200E-02  0.1618E+00  0.1614E+00
     -6.605  0.3348E-02  0.3334E-02  0.1623E+00  0.1620E+00
     -6.435  0.8324E-02  0.5823E-02  0.1637E+00  0.1630E+00
     -6.264  0.3802E-02  0.7369E-02  0.1644E+00  0.1642E+00
     -6.093  0.2798E-02  0.1282E-02  0.1649E+00  0.1645E+00
     -5.923  0.1244E-01  0.6461E-02  0.1670E+00  0.1656E+00
     -5.752  0.1434E-01  0.1440E-01  0.1694E+00  0.1680E+00
     -5.582  0.8888E-02  0.1086E-01  0.1710E+00  0.1699E+00
     -5.411  0.1163E-01  0.9849E-02  0.1729E+00  0.1716E+00
     -5.241  0.7627E-02  0.1029E-01  0.1742E+00  0.1733E+00
     -5.070  0.1601E-01  0.6447E-02  0.1770E+00  0.1744E+00
     -4.900  0.1800E-01  0.1688E-01  0.1800E+00  0.1773E+00
     -4.729  0.1345E-01  0.1579E-01  0.1823E+00  0.1800E+00
     -4.559  0.1993E-01  0.1239E-01  0.1857E+00  0.1821E+00
     -4.388  0.2263E-01  0.1640E-01  0.1896E+00  0.1849E+00
     -4.217  0.2670E-01  0.1391E-01  0.1941E+00  0.1873E+00
     -4.047  0.3846E-01  0.2621E-01  0.2007E+00  0.1917E+00
     -3.876  0.5553E-01  0.2628E-01  0.2102E+00  0.1962E+00
     -3.706  0.8180E-01  0.2365E-01  0.2241E+00  0.2002E+00
     -3.535  0.1176E+00  0.2175E-01  0.2442E+00  0.2040E+00
     -3.365  0.1194E+00  0.3385E-01  0.2646E+00  0.2097E+00
     -3.194  0.1483E+00  0.4489E-01  0.2899E+00  0.2174E+00
     -3.024  0.1729E+00  0.6190E-01  0.3194E+00  0.2279E+00
     -2.853  0.1478E+00  0.6607E-01  0.3446E+00  0.2392E+00
     -2.682  0.1482E+00  0.7722E-01  0.3698E+00  0.2524E+00
     -2.512  0.1975E+00  0.7232E-01  0.4035E+00  0.2647E+00
     -2.341  0.2560E+00  0.9603E-01  0.4472E+00  0.2811E+00
     -2.171  0.2281E+00  0.1014E+00  0.4861E+00  0.2984E+00
     -2.000  0.2226E+00  0.1103E+00  0.5240E+00  0.3172E+00
     -1.830  0.2330E+00  0.1144E+00  0.5638E+00  0.3367E+00
     -1.659  0.2257E+00  0.1075E+00  0.6023E+00  0.3550E+00
     -1.489  0.2248E+00  0.1375E+00  0.6406E+00  0.3785E+00
     -1.318  0.2086E+00  0.1645E+00  0.6762E+00  0.4066E+00
     -1.148  0.1719E+00  0.1787E+00  0.7055E+00  0.4370E+00
     -0.977  0.1626E+00  0.1740E+00  0.7332E+00  0.4667E+00
     -0.806  0.1729E+00  0.1790E+00  0.7627E+00  0.4972E+00
     -0.636  0.2047E+00  0.1824E+00  0.7976E+00  0.5283E+00
     -0.465  0.2508E+00  0.1914E+00  0.8404E+00  0.5610E+00
     -0.295  0.2893E+00  0.1940E+00  0.8898E+00  0.5941E+00
     -0.124  0.2950E+00  0.1999E+00  0.9401E+00  0.6282E+00
      0.046  0.2306E+00  0.1792E+00  0.9794E+00  0.6587E+00
      0.217  0.1615E+00  0.1588E+00  0.1007E+01  0.6858E+00
      0.387  0.1466E+00  0.1395E+00  0.1032E+01  0.7096E+00
      0.558  0.1398E+00  0.1244E+00  0.1056E+01  0.7308E+00
      0.729  0.1193E+00  0.1138E+00  0.1076E+01  0.7502E+00
      0.899  0.9866E-01  0.1168E+00  0.1093E+01  0.7701E+00
      1.070  0.8204E-01  0.1210E+00  0.1107E+01  0.7908E+00
      1.240  0.9917E-01  0.1371E+00  0.1124E+01  0.8141E+00
      1.411  0.1106E+00  0.1751E+00  0.1143E+01  0.8440E+00
      1.581  0.1096E+00  0.2018E+00  0.1161E+01  0.8784E+00
      1.752  0.1150E+00  0.2194E+00  0.1181E+01  0.9158E+00
      1.922  0.1101E+00  0.2271E+00  0.1200E+01  0.9546E+00
      2.093  0.9550E-01  0.2579E+00  0.1216E+01  0.9986E+00
      2.263  0.9466E-01  0.2987E+00  0.1232E+01  0.1049E+01
      2.434  0.4633E-01  0.3096E+00  0.1240E+01  0.1102E+01
      2.605 -0.2523E-03  0.2924E+00  0.1240E+01  0.1152E+01
      2.775 -0.5355E-03  0.2458E+00  0.1240E+01  0.1194E+01
      2.946 -0.4376E-05  0.1780E+00  0.1240E+01  0.1224E+01
      3.116 -0.2383E-08  0.8552E-01  0.1240E+01  0.1239E+01
      3.287 -0.9556E-13  0.7147E-02  0.1240E+01  0.1240E+01
      3.457  0.0000E+00 -0.1399E-02  0.1240E+01  0.1240E+01
      3.628  0.0000E+00 -0.4638E-04  0.1240E+01  0.1240E+01
      3.798  0.0000E+00 -0.1651E-06  0.1240E+01  0.1240E+01
      3.969  0.0000E+00 -0.5712E-10  0.1240E+01  0.1240E+01
      4.140  0.0000E+00 -0.1568E-14  0.1240E+01  0.1240E+01
      4.310  0.0000E+00  0.0000E+00  0.1240E+01  0.1240E+01
      4.481  0.0000E+00  0.0000E+00  0.1240E+01  0.1240E+01
      4.651  0.0000E+00  0.0000E+00  0.1240E+01  0.1240E+01
      4.822  0.0000E+00  0.0000E+00  0.1240E+01  0.1240E+01
      4.992  0.0000E+00  0.0000E+00  0.1240E+01  0.1240E+01
      5.163  0.0000E+00  0.0000E+00  0.1240E+01  0.1240E+01
      5.333  0.0000E+00  0.0000E+00  0.1240E+01  0.1240E+01
      5.504  0.0000E+00  0.0000E+00  0.1240E+01  0.1240E+01
