  63  63   0   0
  0.2705886E+02  0.8504600E-09  0.8509100E-09  0.2355660E-08  0.5000000E-15
  1.000000000000000E-004
  CAR 
 INCAR-For-OPT                           
      5.06195587    -45.79893847  301      0.83497470      1.00000000
    -45.799  0.0000E+00  0.0000E+00  0.0000E+00  0.0000E+00
    -45.629  0.0000E+00  0.0000E+00  0.0000E+00  0.0000E+00
    -45.460  0.0000E+00  0.0000E+00  0.0000E+00  0.0000E+00
    -45.290  0.0000E+00  0.0000E+00  0.0000E+00  0.0000E+00
    -45.121  0.0000E+00  0.0000E+00  0.0000E+00  0.0000E+00
    -44.951  0.0000E+00  0.0000E+00  0.0000E+00  0.0000E+00
    -44.782  0.0000E+00 -0.3418E-33  0.0000E+00 -0.5795E-34
    -44.612  0.0000E+00 -0.2672E-25  0.0000E+00 -0.4531E-26
    -44.443  0.0000E+00 -0.1613E-18  0.0000E+00 -0.2734E-19
    -44.273  0.0000E+00 -0.7229E-13  0.0000E+00 -0.1226E-13
    -44.104  0.0000E+00 -0.2525E-08  0.0000E+00 -0.4282E-09
    -43.934  0.0000E+00 -0.6605E-05  0.0000E+00 -0.1120E-05
    -43.765  0.0000E+00 -0.1209E-02  0.0000E+00 -0.2061E-03
    -43.595 -0.5276E-31 -0.5747E-02 -0.8945E-32 -0.1180E-02
    -43.425 -0.1812E-23  0.1449E+00 -0.3072E-24  0.2339E-01
    -43.256 -0.4744E-17  0.2519E+00 -0.8043E-18  0.6610E-01
    -43.086 -0.9053E-12  0.8165E-01 -0.1535E-12  0.7994E-01
    -42.917 -0.1325E-07  0.6572E-01 -0.2246E-08  0.9108E-01
    -42.747 -0.1403E-04  0.1218E+00 -0.2382E-05  0.1117E+00
    -42.578 -0.9265E-03  0.5677E-01 -0.1595E-03  0.1214E+00
    -42.408  0.3503E-02  0.2222E-01  0.4345E-03  0.1251E+00
    -42.239  0.5263E-01  0.3064E-01  0.9358E-02  0.1303E+00
    -42.069  0.9259E-01  0.3073E-01  0.2505E-01  0.1355E+00
    -41.900  0.1557E+00  0.1791E-01  0.5145E-01  0.1386E+00
    -41.730  0.1598E+00  0.9185E-02  0.7854E-01  0.1401E+00
    -41.561  0.1121E-01 -0.6662E-03  0.8044E-01  0.1400E+00
    -41.391 -0.2520E-02 -0.5410E-04  0.8001E-01  0.1400E+00
    -41.221 -0.5889E-04 -0.1401E-06  0.8000E-01  0.1400E+00
    -41.052 -0.1077E-06 -0.2341E-10  0.8000E-01  0.1400E+00
    -40.882 -0.4972E-07 -0.2794E-15  0.8000E-01  0.1400E+00
    -40.713 -0.3771E-04  0.0000E+00  0.7999E-01  0.1400E+00
    -40.543 -0.2096E-02  0.0000E+00  0.7964E-01  0.1400E+00
    -40.374  0.6649E-02  0.0000E+00  0.8077E-01  0.1400E+00
    -40.204  0.1445E+00  0.0000E+00  0.1053E+00  0.1400E+00
    -40.035  0.1688E+00  0.0000E+00  0.1339E+00  0.1400E+00
    -39.865  0.3772E-01  0.0000E+00  0.1403E+00  0.1400E+00
    -39.696 -0.1260E-02  0.0000E+00  0.1401E+00  0.1400E+00
    -39.526 -0.4492E-03  0.0000E+00  0.1400E+00  0.1400E+00
    -39.357 -0.3886E-05  0.0000E+00  0.1400E+00  0.1400E+00
    -39.187 -0.2257E-08  0.0000E+00  0.1400E+00  0.1400E+00
    -39.017 -0.9441E-13  0.0000E+00  0.1400E+00  0.1400E+00
    -38.848  0.0000E+00  0.0000E+00  0.1400E+00  0.1400E+00
    -38.678  0.0000E+00  0.0000E+00  0.1400E+00  0.1400E+00
    -38.509  0.0000E+00  0.0000E+00  0.1400E+00  0.1400E+00
    -38.339  0.0000E+00  0.0000E+00  0.1400E+00  0.1400E+00
    -38.170  0.0000E+00  0.0000E+00  0.1400E+00  0.1400E+00
    -38.000  0.0000E+00  0.0000E+00  0.1400E+00  0.1400E+00
    -37.831  0.0000E+00  0.0000E+00  0.1400E+00  0.1400E+00
    -37.661  0.0000E+00  0.0000E+00  0.1400E+00  0.1400E+00
    -37.492  0.0000E+00  0.0000E+00  0.1400E+00  0.1400E+00
    -37.322  0.0000E+00  0.0000E+00  0.1400E+00  0.1400E+00
    -37.153  0.0000E+00  0.0000E+00  0.1400E+00  0.1400E+00
    -36.983  0.0000E+00  0.0000E+00  0.1400E+00  0.1400E+00
    -36.814  0.0000E+00  0.0000E+00  0.1400E+00  0.1400E+00
    -36.644  0.0000E+00  0.0000E+00  0.1400E+00  0.1400E+00
    -36.474  0.0000E+00  0.0000E+00  0.1400E+00  0.1400E+00
    -36.305  0.0000E+00  0.0000E+00  0.1400E+00  0.1400E+00
    -36.135  0.0000E+00  0.0000E+00  0.1400E+00  0.1400E+00
    -35.966  0.0000E+00  0.0000E+00  0.1400E+00  0.1400E+00
    -35.796  0.0000E+00  0.0000E+00  0.1400E+00  0.1400E+00
    -35.627  0.0000E+00  0.0000E+00  0.1400E+00  0.1400E+00
    -35.457  0.0000E+00  0.0000E+00  0.1400E+00  0.1400E+00
    -35.288  0.0000E+00  0.0000E+00  0.1400E+00  0.1400E+00
    -35.118  0.0000E+00  0.0000E+00  0.1400E+00  0.1400E+00
    -34.949  0.0000E+00  0.0000E+00  0.1400E+00  0.1400E+00
    -34.779  0.0000E+00  0.0000E+00  0.1400E+00  0.1400E+00
    -34.610  0.0000E+00  0.0000E+00  0.1400E+00  0.1400E+00
    -34.440  0.0000E+00  0.0000E+00  0.1400E+00  0.1400E+00
    -34.270  0.0000E+00  0.0000E+00  0.1400E+00  0.1400E+00
    -34.101  0.0000E+00  0.0000E+00  0.1400E+00  0.1400E+00
    -33.931  0.0000E+00  0.0000E+00  0.1400E+00  0.1400E+00
    -33.762  0.0000E+00  0.0000E+00  0.1400E+00  0.1400E+00
    -33.592  0.0000E+00  0.0000E+00  0.1400E+00  0.1400E+00
    -33.423  0.0000E+00  0.0000E+00  0.1400E+00  0.1400E+00
    -33.253  0.0000E+00  0.0000E+00  0.1400E+00  0.1400E+00
    -33.084  0.0000E+00  0.0000E+00  0.1400E+00  0.1400E+00
    -32.914  0.0000E+00  0.0000E+00  0.1400E+00  0.1400E+00
    -32.745  0.0000E+00  0.0000E+00  0.1400E+00  0.1400E+00
    -32.575  0.0000E+00  0.0000E+00  0.1400E+00  0.1400E+00
    -32.406  0.0000E+00  0.0000E+00  0.1400E+00  0.1400E+00
    -32.236  0.0000E+00  0.0000E+00  0.1400E+00  0.1400E+00
    -32.066  0.0000E+00  0.0000E+00  0.1400E+00  0.1400E+00
    -31.897  0.0000E+00  0.0000E+00  0.1400E+00  0.1400E+00
    -31.727  0.0000E+00  0.0000E+00  0.1400E+00  0.1400E+00
    -31.558  0.0000E+00  0.0000E+00  0.1400E+00  0.1400E+00
    -31.388  0.0000E+00  0.0000E+00  0.1400E+00  0.1400E+00
    -31.219  0.0000E+00  0.0000E+00  0.1400E+00  0.1400E+00
    -31.049  0.0000E+00  0.0000E+00  0.1400E+00  0.1400E+00
    -30.880  0.0000E+00  0.0000E+00  0.1400E+00  0.1400E+00
    -30.710  0.0000E+00  0.0000E+00  0.1400E+00  0.1400E+00
    -30.541  0.0000E+00  0.0000E+00  0.1400E+00  0.1400E+00
    -30.371  0.0000E+00  0.0000E+00  0.1400E+00  0.1400E+00
    -30.202  0.0000E+00  0.0000E+00  0.1400E+00  0.1400E+00
    -30.032  0.0000E+00  0.0000E+00  0.1400E+00  0.1400E+00
    -29.863  0.0000E+00  0.0000E+00  0.1400E+00  0.1400E+00
    -29.693  0.0000E+00  0.0000E+00  0.1400E+00  0.1400E+00
    -29.523  0.0000E+00  0.0000E+00  0.1400E+00  0.1400E+00
    -29.354  0.0000E+00  0.0000E+00  0.1400E+00  0.1400E+00
    -29.184  0.0000E+00  0.0000E+00  0.1400E+00  0.1400E+00
    -29.015  0.0000E+00  0.0000E+00  0.1400E+00  0.1400E+00
    -28.845  0.0000E+00  0.0000E+00  0.1400E+00  0.1400E+00
    -28.676  0.0000E+00  0.0000E+00  0.1400E+00  0.1400E+00
    -28.506  0.0000E+00  0.0000E+00  0.1400E+00  0.1400E+00
    -28.337  0.0000E+00  0.0000E+00  0.1400E+00  0.1400E+00
    -28.167  0.0000E+00  0.0000E+00  0.1400E+00  0.1400E+00
    -27.998  0.0000E+00  0.0000E+00  0.1400E+00  0.1400E+00
    -27.828  0.0000E+00  0.0000E+00  0.1400E+00  0.1400E+00
    -27.659  0.0000E+00  0.0000E+00  0.1400E+00  0.1400E+00
    -27.489  0.0000E+00  0.0000E+00  0.1400E+00  0.1400E+00
    -27.319  0.0000E+00  0.0000E+00  0.1400E+00  0.1400E+00
    -27.150  0.0000E+00  0.0000E+00  0.1400E+00  0.1400E+00
    -26.980  0.0000E+00  0.0000E+00  0.1400E+00  0.1400E+00
    -26.811  0.0000E+00  0.0000E+00  0.1400E+00  0.1400E+00
    -26.641  0.0000E+00  0.0000E+00  0.1400E+00  0.1400E+00
    -26.472  0.0000E+00  0.0000E+00  0.1400E+00  0.1400E+00
    -26.302  0.0000E+00  0.0000E+00  0.1400E+00  0.1400E+00
    -26.133  0.0000E+00  0.0000E+00  0.1400E+00  0.1400E+00
    -25.963  0.0000E+00  0.0000E+00  0.1400E+00  0.1400E+00
    -25.794  0.0000E+00  0.0000E+00  0.1400E+00  0.1400E+00
    -25.624  0.0000E+00  0.0000E+00  0.1400E+00  0.1400E+00
    -25.455  0.0000E+00  0.0000E+00  0.1400E+00  0.1400E+00
    -25.285  0.0000E+00  0.0000E+00  0.1400E+00  0.1400E+00
    -25.116  0.0000E+00  0.0000E+00  0.1400E+00  0.1400E+00
    -24.946  0.0000E+00  0.0000E+00  0.1400E+00  0.1400E+00
    -24.776  0.0000E+00  0.0000E+00  0.1400E+00  0.1400E+00
    -24.607  0.0000E+00  0.0000E+00  0.1400E+00  0.1400E+00
    -24.437  0.0000E+00  0.0000E+00  0.1400E+00  0.1400E+00
    -24.268  0.0000E+00  0.0000E+00  0.1400E+00  0.1400E+00
    -24.098  0.0000E+00  0.0000E+00  0.1400E+00  0.1400E+00
    -23.929  0.0000E+00  0.0000E+00  0.1400E+00  0.1400E+00
    -23.759  0.0000E+00  0.0000E+00  0.1400E+00  0.1400E+00
    -23.590  0.0000E+00  0.0000E+00  0.1400E+00  0.1400E+00
    -23.420  0.0000E+00  0.0000E+00  0.1400E+00  0.1400E+00
    -23.251  0.0000E+00  0.0000E+00  0.1400E+00  0.1400E+00
    -23.081  0.0000E+00  0.0000E+00  0.1400E+00  0.1400E+00
    -22.912  0.0000E+00  0.0000E+00  0.1400E+00  0.1400E+00
    -22.742  0.0000E+00  0.0000E+00  0.1400E+00  0.1400E+00
    -22.572  0.0000E+00  0.0000E+00  0.1400E+00  0.1400E+00
    -22.403  0.0000E+00  0.0000E+00  0.1400E+00  0.1400E+00
    -22.233  0.0000E+00  0.0000E+00  0.1400E+00  0.1400E+00
    -22.064  0.0000E+00  0.0000E+00  0.1400E+00  0.1400E+00
    -21.894  0.0000E+00  0.0000E+00  0.1400E+00  0.1400E+00
    -21.725  0.0000E+00  0.0000E+00  0.1400E+00  0.1400E+00
    -21.555  0.0000E+00  0.0000E+00  0.1400E+00  0.1400E+00
    -21.386  0.0000E+00  0.0000E+00  0.1400E+00  0.1400E+00
    -21.216  0.0000E+00  0.0000E+00  0.1400E+00  0.1400E+00
    -21.047  0.0000E+00  0.0000E+00  0.1400E+00  0.1400E+00
    -20.877  0.0000E+00  0.0000E+00  0.1400E+00  0.1400E+00
    -20.708  0.0000E+00  0.0000E+00  0.1400E+00  0.1400E+00
    -20.538  0.0000E+00  0.0000E+00  0.1400E+00  0.1400E+00
    -20.368  0.0000E+00  0.0000E+00  0.1400E+00  0.1400E+00
    -20.199  0.0000E+00  0.0000E+00  0.1400E+00  0.1400E+00
    -20.029  0.0000E+00  0.0000E+00  0.1400E+00  0.1400E+00
    -19.860  0.0000E+00  0.0000E+00  0.1400E+00  0.1400E+00
    -19.690  0.0000E+00  0.0000E+00  0.1400E+00  0.1400E+00
    -19.521  0.0000E+00  0.0000E+00  0.1400E+00  0.1400E+00
    -19.351  0.0000E+00  0.0000E+00  0.1400E+00  0.1400E+00
    -19.182  0.0000E+00  0.0000E+00  0.1400E+00  0.1400E+00
    -19.012  0.0000E+00  0.0000E+00  0.1400E+00  0.1400E+00
    -18.843  0.0000E+00  0.0000E+00  0.1400E+00  0.1400E+00
    -18.673  0.0000E+00  0.0000E+00  0.1400E+00  0.1400E+00
    -18.504  0.0000E+00  0.0000E+00  0.1400E+00  0.1400E+00
    -18.334  0.0000E+00  0.0000E+00  0.1400E+00  0.1400E+00
    -18.165  0.0000E+00  0.0000E+00  0.1400E+00  0.1400E+00
    -17.995  0.0000E+00  0.0000E+00  0.1400E+00  0.1400E+00
    -17.825  0.0000E+00  0.0000E+00  0.1400E+00  0.1400E+00
    -17.656  0.0000E+00  0.0000E+00  0.1400E+00  0.1400E+00
    -17.486  0.0000E+00  0.0000E+00  0.1400E+00  0.1400E+00
    -17.317  0.0000E+00  0.0000E+00  0.1400E+00  0.1400E+00
    -17.147  0.0000E+00  0.0000E+00  0.1400E+00  0.1400E+00
    -16.978  0.0000E+00  0.0000E+00  0.1400E+00  0.1400E+00
    -16.808  0.0000E+00  0.0000E+00  0.1400E+00  0.1400E+00
    -16.639  0.0000E+00  0.0000E+00  0.1400E+00  0.1400E+00
    -16.469  0.0000E+00  0.0000E+00  0.1400E+00  0.1400E+00
    -16.300  0.0000E+00  0.0000E+00  0.1400E+00  0.1400E+00
    -16.130  0.0000E+00  0.0000E+00  0.1400E+00  0.1400E+00
    -15.961  0.0000E+00  0.0000E+00  0.1400E+00  0.1400E+00
    -15.791  0.0000E+00  0.0000E+00  0.1400E+00  0.1400E+00
    -15.621  0.0000E+00  0.0000E+00  0.1400E+00  0.1400E+00
    -15.452  0.0000E+00  0.0000E+00  0.1400E+00  0.1400E+00
    -15.282  0.0000E+00  0.0000E+00  0.1400E+00  0.1400E+00
    -15.113  0.0000E+00  0.0000E+00  0.1400E+00  0.1400E+00
    -14.943  0.0000E+00  0.0000E+00  0.1400E+00  0.1400E+00
    -14.774  0.0000E+00  0.0000E+00  0.1400E+00  0.1400E+00
    -14.604  0.0000E+00  0.0000E+00  0.1400E+00  0.1400E+00
    -14.435  0.0000E+00  0.0000E+00  0.1400E+00  0.1400E+00
    -14.265  0.0000E+00  0.0000E+00  0.1400E+00  0.1400E+00
    -14.096  0.0000E+00  0.0000E+00  0.1400E+00  0.1400E+00
    -13.926  0.0000E+00  0.0000E+00  0.1400E+00  0.1400E+00
    -13.757  0.0000E+00  0.0000E+00  0.1400E+00  0.1400E+00
    -13.587  0.0000E+00  0.0000E+00  0.1400E+00  0.1400E+00
    -13.418  0.0000E+00  0.0000E+00  0.1400E+00  0.1400E+00
    -13.248  0.0000E+00  0.0000E+00  0.1400E+00  0.1400E+00
    -13.078  0.0000E+00  0.0000E+00  0.1400E+00  0.1400E+00
    -12.909  0.0000E+00  0.0000E+00  0.1400E+00  0.1400E+00
    -12.739  0.0000E+00  0.0000E+00  0.1400E+00  0.1400E+00
    -12.570  0.0000E+00  0.0000E+00  0.1400E+00  0.1400E+00
    -12.400  0.0000E+00  0.0000E+00  0.1400E+00  0.1400E+00
    -12.231  0.0000E+00  0.0000E+00  0.1400E+00  0.1400E+00
    -12.061  0.0000E+00  0.0000E+00  0.1400E+00  0.1400E+00
    -11.892  0.0000E+00  0.0000E+00  0.1400E+00  0.1400E+00
    -11.722  0.0000E+00  0.0000E+00  0.1400E+00  0.1400E+00
    -11.553  0.0000E+00  0.0000E+00  0.1400E+00  0.1400E+00
    -11.383  0.0000E+00  0.0000E+00  0.1400E+00  0.1400E+00
    -11.214  0.0000E+00  0.0000E+00  0.1400E+00  0.1400E+00
    -11.044  0.0000E+00  0.0000E+00  0.1400E+00  0.1400E+00
    -10.874  0.0000E+00  0.0000E+00  0.1400E+00  0.1400E+00
    -10.705  0.0000E+00  0.0000E+00  0.1400E+00  0.1400E+00
    -10.535  0.0000E+00  0.0000E+00  0.1400E+00  0.1400E+00
    -10.366  0.0000E+00  0.0000E+00  0.1400E+00  0.1400E+00
    -10.196  0.0000E+00  0.0000E+00  0.1400E+00  0.1400E+00
    -10.027  0.0000E+00  0.0000E+00  0.1400E+00  0.1400E+00
     -9.857  0.0000E+00  0.0000E+00  0.1400E+00  0.1400E+00
     -9.688  0.0000E+00  0.0000E+00  0.1400E+00  0.1400E+00
     -9.518  0.0000E+00  0.0000E+00  0.1400E+00  0.1400E+00
     -9.349  0.0000E+00  0.0000E+00  0.1400E+00  0.1400E+00
     -9.179  0.0000E+00  0.0000E+00  0.1400E+00  0.1400E+00
     -9.010  0.0000E+00  0.0000E+00  0.1400E+00  0.1400E+00
     -8.840  0.0000E+00  0.0000E+00  0.1400E+00  0.1400E+00
     -8.670 -0.2027E-35  0.0000E+00  0.1400E+00  0.1400E+00
     -8.501 -0.1871E-27 -0.6748E-32  0.1400E+00  0.1400E+00
     -8.331 -0.1313E-20 -0.2085E-24  0.1400E+00  0.1400E+00
     -8.162 -0.6698E-15 -0.4878E-18  0.1400E+00  0.1400E+00
     -7.992 -0.2573E-10 -0.8202E-13  0.1400E+00  0.1400E+00
     -7.823 -0.6970E-07 -0.1028E-08  0.1400E+00  0.1400E+00
     -7.653 -0.1192E-04 -0.8783E-06  0.1400E+00  0.1400E+00
     -7.484 -0.6254E-04 -0.4204E-04  0.1400E+00  0.1400E+00
     -7.314  0.1172E-02  0.1318E-03  0.1402E+00  0.1400E+00
     -7.145  0.5184E-02  0.2718E-02  0.1411E+00  0.1405E+00
     -6.975  0.4435E-02  0.5908E-02  0.1418E+00  0.1415E+00
     -6.806  0.2729E-02  0.2539E-02  0.1423E+00  0.1419E+00
     -6.636  0.9267E-02  0.5218E-02  0.1439E+00  0.1428E+00
     -6.467  0.3236E-02  0.8635E-02  0.1444E+00  0.1443E+00
     -6.297  0.3967E-02  0.1621E-02  0.1451E+00  0.1445E+00
     -6.127  0.1319E-01  0.8460E-02  0.1473E+00  0.1460E+00
     -5.958  0.1222E-01  0.1266E-01  0.1494E+00  0.1481E+00
     -5.788  0.9470E-02  0.1141E-01  0.1510E+00  0.1500E+00
     -5.619  0.1332E-01  0.1089E-01  0.1532E+00  0.1519E+00
     -5.449  0.4426E-02  0.9641E-02  0.1540E+00  0.1535E+00
     -5.280  0.1450E-01  0.4436E-02  0.1565E+00  0.1543E+00
     -5.110  0.2022E-01  0.1548E-01  0.1599E+00  0.1569E+00
     -4.941  0.1225E-01  0.1858E-01  0.1620E+00  0.1601E+00
     -4.771  0.1995E-01  0.1289E-01  0.1653E+00  0.1622E+00
     -4.602  0.1996E-01  0.1913E-01  0.1687E+00  0.1655E+00
     -4.432  0.2871E-01  0.1116E-01  0.1736E+00  0.1674E+00
     -4.263  0.3233E-01  0.2428E-01  0.1791E+00  0.1715E+00
     -4.093  0.5200E-01  0.2436E-01  0.1879E+00  0.1756E+00
     -3.923  0.7121E-01  0.2595E-01  0.2000E+00  0.1800E+00
     -3.754  0.1132E+00  0.1833E-01  0.2192E+00  0.1831E+00
     -3.584  0.1209E+00  0.2696E-01  0.2397E+00  0.1877E+00
     -3.415  0.1319E+00  0.3784E-01  0.2620E+00  0.1941E+00
     -3.245  0.1733E+00  0.4883E-01  0.2914E+00  0.2024E+00
     -3.076  0.1571E+00  0.6573E-01  0.3180E+00  0.2135E+00
     -2.906  0.1501E+00  0.7406E-01  0.3435E+00  0.2261E+00
     -2.737  0.1716E+00  0.6418E-01  0.3726E+00  0.2370E+00
     -2.567  0.2545E+00  0.8253E-01  0.4157E+00  0.2510E+00
     -2.398  0.2492E+00  0.1248E+00  0.4580E+00  0.2721E+00
     -2.228  0.2252E+00  0.1306E+00  0.4962E+00  0.2943E+00
     -2.059  0.2423E+00  0.1335E+00  0.5372E+00  0.3169E+00
     -1.889  0.2320E+00  0.1205E+00  0.5765E+00  0.3373E+00
     -1.719  0.2189E+00  0.1100E+00  0.6137E+00  0.3560E+00
     -1.550  0.2104E+00  0.1496E+00  0.6493E+00  0.3813E+00
     -1.380  0.1802E+00  0.1656E+00  0.6799E+00  0.4094E+00
     -1.211  0.1653E+00  0.1848E+00  0.7079E+00  0.4408E+00
     -1.041  0.1560E+00  0.2035E+00  0.7343E+00  0.4753E+00
     -0.872  0.1779E+00  0.1935E+00  0.7645E+00  0.5081E+00
     -0.702  0.2398E+00  0.2087E+00  0.8052E+00  0.5434E+00
     -0.533  0.3009E+00  0.2072E+00  0.8562E+00  0.5786E+00
     -0.363  0.3222E+00  0.1974E+00  0.9108E+00  0.6120E+00
     -0.194  0.2565E+00  0.1852E+00  0.9543E+00  0.6434E+00
     -0.024  0.1734E+00  0.1658E+00  0.9837E+00  0.6715E+00
      0.145  0.1341E+00  0.1603E+00  0.1006E+01  0.6987E+00
      0.315  0.1155E+00  0.1499E+00  0.1026E+01  0.7241E+00
      0.484  0.1027E+00  0.1438E+00  0.1043E+01  0.7485E+00
      0.654  0.9381E-01  0.1209E+00  0.1059E+01  0.7690E+00
      0.824  0.9037E-01  0.1212E+00  0.1075E+01  0.7896E+00
      0.993  0.9789E-01  0.1200E+00  0.1091E+01  0.8099E+00
      1.163  0.9158E-01  0.1475E+00  0.1107E+01  0.8349E+00
      1.332  0.8808E-01  0.1575E+00  0.1122E+01  0.8616E+00
      1.502  0.9462E-01  0.1863E+00  0.1138E+01  0.8932E+00
      1.671  0.9482E-01  0.2300E+00  0.1154E+01  0.9322E+00
      1.841  0.9796E-01  0.2625E+00  0.1170E+01  0.9767E+00
      2.010  0.1105E+00  0.3028E+00  0.1189E+01  0.1028E+01
      2.180  0.1139E+00  0.3050E+00  0.1208E+01  0.1080E+01
      2.349  0.9572E-01  0.3396E+00  0.1225E+01  0.1137E+01
      2.519  0.3365E-01  0.3396E+00  0.1230E+01  0.1195E+01
      2.688 -0.2070E-02  0.1814E+00  0.1230E+01  0.1226E+01
      2.858 -0.2623E-03  0.2955E-01  0.1230E+01  0.1231E+01
      3.028 -0.1214E-05 -0.3784E-02  0.1230E+01  0.1230E+01
      3.197 -0.4054E-09 -0.1736E-03  0.1230E+01  0.1230E+01
      3.367 -0.1036E-13 -0.4927E-06  0.1230E+01  0.1230E+01
      3.536  0.0000E+00 -0.1238E-09  0.1230E+01  0.1230E+01
      3.706  0.0000E+00 -0.2885E-14  0.1230E+01  0.1230E+01
      3.875  0.0000E+00  0.0000E+00  0.1230E+01  0.1230E+01
      4.045  0.0000E+00  0.0000E+00  0.1230E+01  0.1230E+01
      4.214  0.0000E+00  0.0000E+00  0.1230E+01  0.1230E+01
      4.384  0.0000E+00  0.0000E+00  0.1230E+01  0.1230E+01
      4.553  0.0000E+00  0.0000E+00  0.1230E+01  0.1230E+01
      4.723  0.0000E+00  0.0000E+00  0.1230E+01  0.1230E+01
      4.892  0.0000E+00  0.0000E+00  0.1230E+01  0.1230E+01
      5.062  0.0000E+00  0.0000E+00  0.1230E+01  0.1230E+01
