Generated by VASPKIT code
 1.000000
    8.5045999999999999    0.0000000000000000    0.0000000000000000
   -0.0010989900000000    8.5090999299999996    0.0000000000000000
    0.0000000000000000    0.0000000000000000   23.5565999999999995
   Fe   Cr
    49    14
Selective Dynamics
Direct
    0.9995000000000001    0.0003200000000000    0.0010300000000000    F  F  F    Fe001
    0.9992900000000000    0.0003200000000000    0.3629700000000000    T  T  T    Fe002
    0.1667000000000000    0.1659200000000000    0.0616000000000000    F  F  F    Fe003
    0.9993000000000000    0.0001300000000000    0.1218300000000000    F  F  F    Fe004
    0.1667000000000000    0.1669200000000000    0.1817000000000000    F  F  F    Fe005
    0.1662900000000000    0.1659100000000000    0.3027800000000000    T  T  T    Fe006
    0.3336800000000000    0.9998600000000000    0.0010800000000000    F  F  F    Fe007
    0.3334700000000000    0.9998600000000000    0.3630300000000000    T  T  T    Fe008
    0.5000800000000000    0.1660600000000000    0.0616400000000000    F  F  F    Fe009
    0.3336500000000000    0.9994499999999999    0.1219400000000000    F  F  F    Fe010
    0.5001300000000000    0.1665700000000000    0.1817600000000000    F  F  F    Fe011
    0.3337400000000000    0.9999400000000001    0.2425200000000000    F  F  F    Fe012
    0.5003300000000001    0.1664200000000000    0.3028200000000000    T  T  T    Fe013
    0.8341200000000000    0.1680700000000000    0.0613000000000000    F  F  F    Fe014
    0.6676700000000000    0.9997200000000001    0.1216800000000000    F  F  F    Fe015
    0.6679200000000000    0.0003200000000000    0.2423300000000000    F  F  F    Fe016
    0.8328900000000000    0.1663400000000000    0.3030100000000000    T  T  T    Fe017
    0.0003300000000000    0.3334600000000000    0.0007600000000000    F  F  F    Fe018
    0.0001200000000000    0.3334700000000000    0.3627100000000000    T  T  T    Fe019
    0.1670400000000000    0.5011600000000000    0.0607700000000000    F  F  F    Fe020
    0.1662700000000000    0.4994000000000000    0.1823800000000000    F  F  F    Fe021
    0.0000000000000000    0.3331900000000000    0.2426000000000000    F  F  F    Fe022
    0.1684300000000000    0.4998300000000000    0.3028700000000000    T  T  T    Fe023
    0.4981100000000000    0.5018600000000000    0.0611200000000000    F  F  F    Fe024
    0.3332800000000000    0.3343400000000000    0.1214800000000000    F  F  F    Fe025
    0.5005100000000000    0.5005300000000000    0.1814500000000000    F  F  F    Fe026
    0.3339200000000000    0.3326900000000000    0.2422900000000000    F  F  F    Fe027
    0.4993600000000000    0.5000599999999999    0.3027900000000000    T  T  T    Fe028
    0.6668700000000000    0.3341800000000000    0.0012900000000000    F  F  F    Fe029
    0.6666600000000000    0.3341900000000000    0.3632400000000000    T  T  T    Fe030
    0.6667000000000000    0.3333200000000000    0.1217700000000000    F  F  F    Fe031
    0.8346600000000000    0.4991600000000000    0.1818100000000000    F  F  F    Fe032
    0.6674800000000000    0.3329100000000000    0.2423400000000000    F  F  F    Fe033
    0.9994900000000000    0.6658100000000000    0.0011200000000000    F  F  F    Fe034
    0.9992900000000000    0.6658200000000000    0.3630700000000000    T  T  T    Fe035
    0.1677300000000000    0.8329500000000000    0.0614100000000000    F  F  F    Fe036
    0.0014900000000000    0.6667200000000000    0.1219600000000000    F  F  F    Fe037
    0.1659200000000000    0.8338900000000000    0.1823500000000000    F  F  F    Fe038
    0.9995000000000001    0.6663500000000000    0.2424500000000000    F  F  F    Fe039
    0.1662100000000000    0.8335800000000000    0.3026200000000000    T  T  T    Fe040
    0.4982500000000000    0.8318500000000000    0.0618900000000000    F  F  F    Fe041
    0.5006400000000000    0.8333500000000000    0.1818900000000000    F  F  F    Fe042
    0.3342400000000000    0.6662700000000000    0.2423900000000000    F  F  F    Fe043
    0.6652100000000000    0.6662900000000000    0.0010000000000000    F  F  F    Fe044
    0.6650000000000000    0.6662900000000000    0.3629500000000000    T  T  T    Fe045
    0.8338200000000000    0.8326800000000000    0.0612800000000000    F  F  F    Fe046
    0.8339000000000000    0.8331100000000000    0.1819100000000000    F  F  F    Fe047
    0.6672100000000000    0.6667500000000000    0.2422100000000000    F  F  F    Fe048
    0.8327100000000000    0.8333700000000001    0.3028000000000000    T  T  T    Fe049
    0.9976000000000000    0.0033000000000000    0.2422100000000000    F  F  F    Cr001
    0.6656100000000000    0.9983400000000000    0.0006000000000000    F  F  F    Cr002
    0.6654000000000000    0.9983500000000000    0.3625400000000000    T  T  T    Cr003
    0.8346700000000000    0.1658900000000000    0.1820900000000000    F  F  F    Cr004
    0.9986600000000000    0.3340400000000000    0.1219800000000000    F  F  F    Cr005
    0.3342100000000000    0.3314700000000000    0.0010100000000000    F  F  F    Cr006
    0.3340000000000000    0.3314700000000000    0.3629500000000000    T  T  T    Cr007
    0.8322000000000001    0.5002500000000000    0.0627500000000000    F  F  F    Cr008
    0.8330500000000000    0.5001200000000000    0.3027700000000000    T  T  T    Cr009
    0.3351200000000000    0.6703700000000000    0.0000000000000000    F  F  F    Cr010
    0.3349100000000000    0.6703700000000000    0.3619500000000000    T  T  T    Cr011
    0.3314500000000000    0.6648800000000000    0.1229200000000000    F  F  F    Cr012
    0.5006400000000000    0.8347300000000000    0.3033700000000000    T  T  T    Cr013
    0.6711100000000000    0.6655000000000000    0.1214800000000000    F  F  F    Cr014
