INCAR-For-OPT                           
           1
     8.504600    0.000000    0.000000
    -0.001099    8.509100    0.000000
     0.000000    0.000000   23.556600
   Fe   Cr
    49    14
Direct configuration=     1
   0.99950000  0.00032000  0.00103000
   0.99929000  0.00032000  0.36297000
   0.16670000  0.16592000  0.06160000
   0.99930000  0.00013000  0.12183000
   0.16670000  0.16692000  0.18170000
   0.16629000  0.16591000  0.30278000
   0.33368000  0.99986000  0.00108000
   0.33347000  0.99986000  0.36303000
   0.50008000  0.16606000  0.06164000
   0.33365000  0.99945000  0.12194000
   0.50013000  0.16657000  0.18176000
   0.33374000  0.99994000  0.24252000
   0.50033000  0.16642000  0.30282000
   0.83412000  0.16807000  0.06130000
   0.66767000  0.99972000  0.12168000
   0.66792000  0.00032000  0.24233000
   0.83289000  0.16634000  0.30301000
   0.00033000  0.33346000  0.00076000
   0.00012000  0.33347000  0.36271000
   0.16704000  0.50116000  0.06077000
   0.16627000  0.49940000  0.18238000
   0.00000000  0.33319000  0.24260000
   0.16843000  0.49983000  0.30287000
   0.49811000  0.50186000  0.06112000
   0.33328000  0.33434000  0.12148000
   0.50051000  0.50053000  0.18145000
   0.33392000  0.33269000  0.24229000
   0.49936000  0.50006000  0.30279000
   0.66687000  0.33418000  0.00129000
   0.66666000  0.33419000  0.36324000
   0.66670000  0.33332000  0.12177000
   0.83466000  0.49916000  0.18181000
   0.66748000  0.33291000  0.24234000
   0.99949000  0.66581000  0.00112000
   0.99929000  0.66582000  0.36307000
   0.16773000  0.83295000  0.06141000
   0.00149000  0.66672000  0.12196000
   0.16592000  0.83389000  0.18235000
   0.99950000  0.66635000  0.24245000
   0.16621000  0.83358000  0.30262000
   0.49825000  0.83185000  0.06189000
   0.50064000  0.83335000  0.18189000
   0.33424000  0.66627000  0.24239000
   0.66521000  0.66629000  0.00100000
   0.66500000  0.66629000  0.36295000
   0.83382000  0.83268000  0.06128000
   0.83390000  0.83311000  0.18191000
   0.66721000  0.66675000  0.24221000
   0.83271000  0.83337000  0.30280000
   0.99760000  0.00330000  0.24221000
   0.66561000  0.99834000  0.00060000
   0.66540000  0.99835000  0.36254000
   0.83467000  0.16589000  0.18209000
   0.99866000  0.33404000  0.12198000
   0.33421000  0.33147000  0.00101000
   0.33400000  0.33147000  0.36295000
   0.83220000  0.50025000  0.06275000
   0.83305000  0.50012000  0.30277000
   0.33512000  0.67037000  0.00000000
   0.33491000  0.67037000  0.36195000
   0.33145000  0.66488000  0.12292000
   0.50064000  0.83473000  0.30337000
   0.67111000  0.66550000  0.12148000
Direct configuration=     2
   0.99950000  0.00032000  0.00103000
   0.99893922  0.00018432  0.36219486
   0.16670000  0.16592000  0.06160000
   0.99930000  0.00013000  0.12183000
   0.16670000  0.16692000  0.18170000
   0.16493285  0.16498781  0.30346753
   0.33368000  0.99986000  0.00108000
   0.33367384  0.00018774  0.36216242
   0.50008000  0.16606000  0.06164000
   0.33365000  0.99945000  0.12194000
   0.50013000  0.16657000  0.18176000
   0.33374000  0.99994000  0.24252000
   0.50100148  0.16662096  0.30331959
   0.83412000  0.16807000  0.06130000
   0.66767000  0.99972000  0.12168000
   0.66792000  0.00032000  0.24233000
   0.83381171  0.16768699  0.30371260
   0.00033000  0.33346000  0.00076000
   0.00077611  0.33315041  0.36202909
   0.16704000  0.50116000  0.06077000
   0.16627000  0.49940000  0.18238000
   0.00000000  0.33319000  0.24260000
   0.16655098  0.50006721  0.30363934
   0.49811000  0.50186000  0.06112000
   0.33328000  0.33434000  0.12148000
   0.50051000  0.50053000  0.18145000
   0.33392000  0.33269000  0.24229000
   0.50085014  0.50016754  0.30356615
   0.66687000  0.33418000  0.00129000
   0.66619033  0.33377043  0.36245295
   0.66670000  0.33332000  0.12177000
   0.83466000  0.49916000  0.18181000
   0.66748000  0.33291000  0.24234000
   0.99949000  0.66581000  0.00112000
   0.99992867  0.66626439  0.36229728
   0.16773000  0.83295000  0.06141000
   0.00149000  0.66672000  0.12196000
   0.16592000  0.83389000  0.18235000
   0.99950000  0.66635000  0.24245000
   0.16511067  0.83412342  0.30341460
   0.49825000  0.83185000  0.06189000
   0.50064000  0.83335000  0.18189000
   0.33424000  0.66627000  0.24239000
   0.66521000  0.66629000  0.00100000
   0.66478841  0.66642928  0.36237347
   0.83382000  0.83268000  0.06128000
   0.83390000  0.83311000  0.18191000
   0.66721000  0.66675000  0.24221000
   0.83365559  0.83227687  0.30347247
   0.99760000  0.00330000  0.24221000
   0.66561000  0.99834000  0.00060000
   0.66501011  0.99822856  0.36282732
   0.83467000  0.16589000  0.18209000
   0.99866000  0.33404000  0.12198000
   0.33421000  0.33147000  0.00101000
   0.33406935  0.33013465  0.36319110
   0.83220000  0.50025000  0.06275000
   0.83260779  0.50009425  0.30314358
   0.33512000  0.67037000  0.00000000
   0.33520873  0.67186249  0.36211569
   0.33145000  0.66488000  0.12292000
   0.50100789  0.83401241  0.30341748
   0.67111000  0.66550000  0.12148000
Direct configuration=     3
   0.99950000  0.00032000  0.00103000
   0.99863770  0.00006770  0.36152857
   0.16670000  0.16592000  0.06160000
   0.99930000  0.00013000  0.12183000
   0.16670000  0.16692000  0.18170000
   0.16376627  0.16419512  0.30405852
   0.33368000  0.99986000  0.00108000
   0.33384906  0.00046945  0.36141666
   0.50008000  0.16606000  0.06164000
   0.33365000  0.99945000  0.12194000
   0.50013000  0.16657000  0.18176000
   0.33374000  0.99994000  0.24252000
   0.50157867  0.16679371  0.30374903
   0.83412000  0.16807000  0.06130000
   0.66767000  0.99972000  0.12168000
   0.66792000  0.00032000  0.24233000
   0.83460399  0.16884484  0.30431654
   0.00033000  0.33346000  0.00076000
   0.00134008  0.33287570  0.36144380
   0.16704000  0.50116000  0.06077000
   0.16627000  0.49940000  0.18238000
   0.00000000  0.33319000  0.24260000
   0.16493582  0.50027112  0.30430065
   0.49811000  0.50186000  0.06112000
   0.33328000  0.33434000  0.12148000
   0.50051000  0.50053000  0.18145000
   0.33392000  0.33269000  0.24229000
   0.50213103  0.50025997  0.30423331
   0.66687000  0.33418000  0.00129000
   0.66578661  0.33340977  0.36177642
   0.66670000  0.33332000  0.12177000
   0.83466000  0.49916000  0.18181000
   0.66748000  0.33291000  0.24234000
   0.99949000  0.66581000  0.00112000
   0.00047765  0.66664638  0.36163307
   0.16773000  0.83295000  0.06141000
   0.00149000  0.66672000  0.12196000
   0.16592000  0.83389000  0.18235000
   0.99950000  0.66635000  0.24245000
   0.16416571  0.83459052  0.30409762
   0.49825000  0.83185000  0.06189000
   0.50064000  0.83335000  0.18189000
   0.33424000  0.66627000  0.24239000
   0.66521000  0.66629000  0.00100000
   0.66460652  0.66654900  0.36187789
   0.83382000  0.83268000  0.06128000
   0.83390000  0.83311000  0.18191000
   0.66721000  0.66675000  0.24221000
   0.83446840  0.83133723  0.30405051
   0.99760000  0.00330000  0.24221000
   0.66561000  0.99834000  0.00060000
   0.66467498  0.99812418  0.36307429
   0.83467000  0.16589000  0.18209000
   0.99866000  0.33404000  0.12198000
   0.33421000  0.33147000  0.00101000
   0.33412896  0.32898681  0.36339834
   0.83220000  0.50025000  0.06275000
   0.83222768  0.50007212  0.30346470
   0.33512000  0.67037000  0.00000000
   0.33546551  0.67314540  0.36225811
   0.33145000  0.66488000  0.12292000
   0.50132412  0.83339559  0.30345828
   0.67111000  0.66550000  0.12148000
Direct configuration=     4
   0.99950000  0.00032000  0.00103000
   0.99862293  0.00006199  0.36149595
   0.16670000  0.16592000  0.06160000
   0.99930000  0.00013000  0.12183000
   0.16670000  0.16692000  0.18170000
   0.16370915  0.16415630  0.30408746
   0.33368000  0.99986000  0.00108000
   0.33385764  0.00048325  0.36138014
   0.50008000  0.16606000  0.06164000
   0.33365000  0.99945000  0.12194000
   0.50013000  0.16657000  0.18176000
   0.33374000  0.99994000  0.24252000
   0.50160693  0.16680217  0.30377006
   0.83412000  0.16807000  0.06130000
   0.66767000  0.99972000  0.12168000
   0.66792000  0.00032000  0.24233000
   0.83464278  0.16890154  0.30434611
   0.00033000  0.33346000  0.00076000
   0.00136770  0.33286225  0.36141514
   0.16704000  0.50116000  0.06077000
   0.16627000  0.49940000  0.18238000
   0.00000000  0.33319000  0.24260000
   0.16485673  0.50028110  0.30433303
   0.49811000  0.50186000  0.06112000
   0.33328000  0.33434000  0.12148000
   0.50051000  0.50053000  0.18145000
   0.33392000  0.33269000  0.24229000
   0.50219375  0.50026450  0.30426598
   0.66687000  0.33418000  0.00129000
   0.66576684  0.33339211  0.36174329
   0.66670000  0.33332000  0.12177000
   0.83466000  0.49916000  0.18181000
   0.66748000  0.33291000  0.24234000
   0.99949000  0.66581000  0.00112000
   0.00050453  0.66666508  0.36160054
   0.16773000  0.83295000  0.06141000
   0.00149000  0.66672000  0.12196000
   0.16592000  0.83389000  0.18235000
   0.99950000  0.66635000  0.24245000
   0.16411944  0.83461340  0.30413107
   0.49825000  0.83185000  0.06189000
   0.50064000  0.83335000  0.18189000
   0.33424000  0.66627000  0.24239000
   0.66521000  0.66629000  0.00100000
   0.66459762  0.66655487  0.36185363
   0.83382000  0.83268000  0.06128000
   0.83390000  0.83311000  0.18191000
   0.66721000  0.66675000  0.24221000
   0.83450820  0.83129122  0.30407882
   0.99760000  0.00330000  0.24221000
   0.66561000  0.99834000  0.00060000
   0.66465857  0.99811907  0.36308638
   0.83467000  0.16589000  0.18209000
   0.99866000  0.33404000  0.12198000
   0.33421000  0.33147000  0.00101000
   0.33413188  0.32893060  0.36340849
   0.83220000  0.50025000  0.06275000
   0.83220907  0.50007103  0.30348042
   0.33512000  0.67037000  0.00000000
   0.33547808  0.67320822  0.36226508
   0.33145000  0.66488000  0.12292000
   0.50133960  0.83336539  0.30346028
   0.67111000  0.66550000  0.12148000
Direct configuration=     5
   0.99950000  0.00032000  0.00103000
   0.99804302  0.99982869  0.36144921
   0.16670000  0.16592000  0.06160000
   0.99930000  0.00013000  0.12183000
   0.16670000  0.16692000  0.18170000
   0.16391765  0.16413984  0.30398950
   0.33368000  0.99986000  0.00108000
   0.33427073  0.00067682  0.36096925
   0.50008000  0.16606000  0.06164000
   0.33365000  0.99945000  0.12194000
   0.50013000  0.16657000  0.18176000
   0.33374000  0.99994000  0.24252000
   0.50186863  0.16676331  0.30361424
   0.83412000  0.16807000  0.06130000
   0.66767000  0.99972000  0.12168000
   0.66792000  0.00032000  0.24233000
   0.83414656  0.16880586  0.30430541
   0.00033000  0.33346000  0.00076000
   0.00166308  0.33280432  0.36142275
   0.16704000  0.50116000  0.06077000
   0.16627000  0.49940000  0.18238000
   0.00000000  0.33319000  0.24260000
   0.16550739  0.50029560  0.30451102
   0.49811000  0.50186000  0.06112000
   0.33328000  0.33434000  0.12148000
   0.50051000  0.50053000  0.18145000
   0.33392000  0.33269000  0.24229000
   0.50142822  0.50018822  0.30446942
   0.66687000  0.33418000  0.00129000
   0.66561855  0.33320486  0.36161867
   0.66670000  0.33332000  0.12177000
   0.83466000  0.49916000  0.18181000
   0.66748000  0.33291000  0.24234000
   0.99949000  0.66581000  0.00112000
   0.00078479  0.66693008  0.36154457
   0.16773000  0.83295000  0.06141000
   0.00149000  0.66672000  0.12196000
   0.16592000  0.83389000  0.18235000
   0.99950000  0.66635000  0.24245000
   0.16434545  0.83460582  0.30408972
   0.49825000  0.83185000  0.06189000
   0.50064000  0.83335000  0.18189000
   0.33424000  0.66627000  0.24239000
   0.66521000  0.66629000  0.00100000
   0.66461403  0.66672543  0.36175144
   0.83382000  0.83268000  0.06128000
   0.83390000  0.83311000  0.18191000
   0.66721000  0.66675000  0.24221000
   0.83401089  0.83135015  0.30404653
   0.99760000  0.00330000  0.24221000
   0.66561000  0.99834000  0.00060000
   0.66463589  0.99798798  0.36327539
   0.83467000  0.16589000  0.18209000
   0.99866000  0.33404000  0.12198000
   0.33421000  0.33147000  0.00101000
   0.33400481  0.32831638  0.36356942
   0.83220000  0.50025000  0.06275000
   0.83193954  0.50014041  0.30359281
   0.33512000  0.67037000  0.00000000
   0.33569027  0.67396980  0.36240402
   0.33145000  0.66488000  0.12292000
   0.50158311  0.83306638  0.30324853
   0.67111000  0.66550000  0.12148000
Direct configuration=     6
   0.99950000  0.00032000  0.00103000
   0.99644722  0.99918673  0.36132059
   0.16670000  0.16592000  0.06160000
   0.99930000  0.00013000  0.12183000
   0.16670000  0.16692000  0.18170000
   0.16449141  0.16409455  0.30371996
   0.33368000  0.99986000  0.00108000
   0.33540748  0.00120947  0.35983855
   0.50008000  0.16606000  0.06164000
   0.33365000  0.99945000  0.12194000
   0.50013000  0.16657000  0.18176000
   0.33374000  0.99994000  0.24252000
   0.50258876  0.16665637  0.30318545
   0.83412000  0.16807000  0.06130000
   0.66767000  0.99972000  0.12168000
   0.66792000  0.00032000  0.24233000
   0.83278108  0.16854259  0.30419340
   0.00033000  0.33346000  0.00076000
   0.00247591  0.33264492  0.36144367
   0.16704000  0.50116000  0.06077000
   0.16627000  0.49940000  0.18238000
   0.00000000  0.33319000  0.24260000
   0.16729784  0.50033550  0.30500080
   0.49811000  0.50186000  0.06112000
   0.33328000  0.33434000  0.12148000
   0.50051000  0.50053000  0.18145000
   0.33392000  0.33269000  0.24229000
   0.49932163  0.49997833  0.30502925
   0.66687000  0.33418000  0.00129000
   0.66521051  0.33268961  0.36127573
   0.66670000  0.33332000  0.12177000
   0.83466000  0.49916000  0.18181000
   0.66748000  0.33291000  0.24234000
   0.99949000  0.66581000  0.00112000
   0.00155602  0.66765929  0.36139057
   0.16773000  0.83295000  0.06141000
   0.00149000  0.66672000  0.12196000
   0.16592000  0.83389000  0.18235000
   0.99950000  0.66635000  0.24245000
   0.16496739  0.83458498  0.30397596
   0.49825000  0.83185000  0.06189000
   0.50064000  0.83335000  0.18189000
   0.33424000  0.66627000  0.24239000
   0.66521000  0.66629000  0.00100000
   0.66465920  0.66719478  0.36147025
   0.83382000  0.83268000  0.06128000
   0.83390000  0.83311000  0.18191000
   0.66721000  0.66675000  0.24221000
   0.83264239  0.83151232  0.30395768
   0.99760000  0.00330000  0.24221000
   0.66561000  0.99834000  0.00060000
   0.66457348  0.99762726  0.36379548
   0.83467000  0.16589000  0.18209000
   0.99866000  0.33404000  0.12198000
   0.33421000  0.33147000  0.00101000
   0.33365515  0.32662615  0.36401228
   0.83220000  0.50025000  0.06275000
   0.83119788  0.50033131  0.30390209
   0.33512000  0.67037000  0.00000000
   0.33627417  0.67606552  0.36278634
   0.33145000  0.66488000  0.12292000
   0.50225317  0.83224355  0.30266585
   0.67111000  0.66550000  0.12148000
Direct configuration=     7
   0.99950000  0.00032000  0.00103000
   0.99560090  0.99895390  0.36121963
   0.16670000  0.16592000  0.06160000
   0.99930000  0.00013000  0.12183000
   0.16670000  0.16692000  0.18170000
   0.16376790  0.16425196  0.30348254
   0.33368000  0.99986000  0.00108000
   0.33635373  0.00122566  0.35948594
   0.50008000  0.16606000  0.06164000
   0.33365000  0.99945000  0.12194000
   0.50013000  0.16657000  0.18176000
   0.33374000  0.99994000  0.24252000
   0.50282340  0.16680413  0.30286266
   0.83412000  0.16807000  0.06130000
   0.66767000  0.99972000  0.12168000
   0.66792000  0.00032000  0.24233000
   0.83322664  0.16851567  0.30409991
   0.00033000  0.33346000  0.00076000
   0.00279311  0.33230818  0.36138625
   0.16704000  0.50116000  0.06077000
   0.16627000  0.49940000  0.18238000
   0.00000000  0.33319000  0.24260000
   0.16729518  0.50043660  0.30503873
   0.49811000  0.50186000  0.06112000
   0.33328000  0.33434000  0.12148000
   0.50051000  0.50053000  0.18145000
   0.33392000  0.33269000  0.24229000
   0.49909192  0.49989322  0.30500638
   0.66687000  0.33418000  0.00129000
   0.66489814  0.33252677  0.36134455
   0.66670000  0.33332000  0.12177000
   0.83466000  0.49916000  0.18181000
   0.66748000  0.33291000  0.24234000
   0.99949000  0.66581000  0.00112000
   0.00195833  0.66817255  0.36138912
   0.16773000  0.83295000  0.06141000
   0.00149000  0.66672000  0.12196000
   0.16592000  0.83389000  0.18235000
   0.99950000  0.66635000  0.24245000
   0.16457623  0.83453871  0.30367136
   0.49825000  0.83185000  0.06189000
   0.50064000  0.83335000  0.18189000
   0.33424000  0.66627000  0.24239000
   0.66521000  0.66629000  0.00100000
   0.66445613  0.66725939  0.36148463
   0.83382000  0.83268000  0.06128000
   0.83390000  0.83311000  0.18191000
   0.66721000  0.66675000  0.24221000
   0.83299119  0.83145667  0.30375155
   0.99760000  0.00330000  0.24221000
   0.66561000  0.99834000  0.00060000
   0.66439194  0.99772670  0.36419033
   0.83467000  0.16589000  0.18209000
   0.99866000  0.33404000  0.12198000
   0.33421000  0.33147000  0.00101000
   0.33357872  0.32565404  0.36441634
   0.83220000  0.50025000  0.06275000
   0.83133345  0.50024388  0.30392151
   0.33512000  0.67037000  0.00000000
   0.33640917  0.67688299  0.36324109
   0.33145000  0.66488000  0.12292000
   0.50224438  0.83214666  0.30213653
   0.67111000  0.66550000  0.12148000
Direct configuration=     8
   0.99950000  0.00032000  0.00103000
   0.99522448  0.99885035  0.36117473
   0.16670000  0.16592000  0.06160000
   0.99930000  0.00013000  0.12183000
   0.16670000  0.16692000  0.18170000
   0.16344610  0.16432197  0.30337694
   0.33368000  0.99986000  0.00108000
   0.33677459  0.00123287  0.35932910
   0.50008000  0.16606000  0.06164000
   0.33365000  0.99945000  0.12194000
   0.50013000  0.16657000  0.18176000
   0.33374000  0.99994000  0.24252000
   0.50292776  0.16686984  0.30271910
   0.83412000  0.16807000  0.06130000
   0.66767000  0.99972000  0.12168000
   0.66792000  0.00032000  0.24233000
   0.83342482  0.16850370  0.30405832
   0.00033000  0.33346000  0.00076000
   0.00293419  0.33215841  0.36136071
   0.16704000  0.50116000  0.06077000
   0.16627000  0.49940000  0.18238000
   0.00000000  0.33319000  0.24260000
   0.16729400  0.50048157  0.30505561
   0.49811000  0.50186000  0.06112000
   0.33328000  0.33434000  0.12148000
   0.50051000  0.50053000  0.18145000
   0.33392000  0.33269000  0.24229000
   0.49898975  0.49985536  0.30499621
   0.66687000  0.33418000  0.00129000
   0.66475920  0.33245434  0.36137516
   0.66670000  0.33332000  0.12177000
   0.83466000  0.49916000  0.18181000
   0.66748000  0.33291000  0.24234000
   0.99949000  0.66581000  0.00112000
   0.00213727  0.66840082  0.36138847
   0.16773000  0.83295000  0.06141000
   0.00149000  0.66672000  0.12196000
   0.16592000  0.83389000  0.18235000
   0.99950000  0.66635000  0.24245000
   0.16440225  0.83451813  0.30353589
   0.49825000  0.83185000  0.06189000
   0.50064000  0.83335000  0.18189000
   0.33424000  0.66627000  0.24239000
   0.66521000  0.66629000  0.00100000
   0.66436581  0.66728813  0.36149103
   0.83382000  0.83268000  0.06128000
   0.83390000  0.83311000  0.18191000
   0.66721000  0.66675000  0.24221000
   0.83314632  0.83143192  0.30365987
   0.99760000  0.00330000  0.24221000
   0.66561000  0.99834000  0.00060000
   0.66431119  0.99777093  0.36436595
   0.83467000  0.16589000  0.18209000
   0.99866000  0.33404000  0.12198000
   0.33421000  0.33147000  0.00101000
   0.33354473  0.32522167  0.36459604
   0.83220000  0.50025000  0.06275000
   0.83139375  0.50020499  0.30393015
   0.33512000  0.67037000  0.00000000
   0.33646921  0.67724658  0.36344336
   0.33145000  0.66488000  0.12292000
   0.50224048  0.83210357  0.30190111
   0.67111000  0.66550000  0.12148000
Direct configuration=     9
   0.99950000  0.00032000  0.00103000
   0.99447165  0.99864325  0.36108492
   0.16670000  0.16592000  0.06160000
   0.99930000  0.00013000  0.12183000
   0.16670000  0.16692000  0.18170000
   0.16280251  0.16446200  0.30316574
   0.33368000  0.99986000  0.00108000
   0.33761630  0.00124727  0.35901544
   0.50008000  0.16606000  0.06164000
   0.33365000  0.99945000  0.12194000
   0.50013000  0.16657000  0.18176000
   0.33374000  0.99994000  0.24252000
   0.50313648  0.16700127  0.30243197
   0.83412000  0.16807000  0.06130000
   0.66767000  0.99972000  0.12168000
   0.66792000  0.00032000  0.24233000
   0.83382116  0.16847975  0.30397516
   0.00033000  0.33346000  0.00076000
   0.00321635  0.33185886  0.36130963
   0.16704000  0.50116000  0.06077000
   0.16627000  0.49940000  0.18238000
   0.00000000  0.33319000  0.24260000
   0.16729163  0.50057150  0.30508936
   0.49811000  0.50186000  0.06112000
   0.33328000  0.33434000  0.12148000
   0.50051000  0.50053000  0.18145000
   0.33392000  0.33269000  0.24229000
   0.49878542  0.49977966  0.30497587
   0.66687000  0.33418000  0.00129000
   0.66448134  0.33230949  0.36143637
   0.66670000  0.33332000  0.12177000
   0.83466000  0.49916000  0.18181000
   0.66748000  0.33291000  0.24234000
   0.99949000  0.66581000  0.00112000
   0.00249515  0.66885738  0.36138718
   0.16773000  0.83295000  0.06141000
   0.00149000  0.66672000  0.12196000
   0.16592000  0.83389000  0.18235000
   0.99950000  0.66635000  0.24245000
   0.16405430  0.83447697  0.30326494
   0.49825000  0.83185000  0.06189000
   0.50064000  0.83335000  0.18189000
   0.33424000  0.66627000  0.24239000
   0.66521000  0.66629000  0.00100000
   0.66418517  0.66734560  0.36150383
   0.83382000  0.83268000  0.06128000
   0.83390000  0.83311000  0.18191000
   0.66721000  0.66675000  0.24221000
   0.83345659  0.83138242  0.30347651
   0.99760000  0.00330000  0.24221000
   0.66561000  0.99834000  0.00060000
   0.66414970  0.99785939  0.36471718
   0.83467000  0.16589000  0.18209000
   0.99866000  0.33404000  0.12198000
   0.33421000  0.33147000  0.00101000
   0.33347675  0.32435695  0.36495546
   0.83220000  0.50025000  0.06275000
   0.83151434  0.50012722  0.30394743
   0.33512000  0.67037000  0.00000000
   0.33658929  0.67797375  0.36384788
   0.33145000  0.66488000  0.12292000
   0.50223266  0.83201738  0.30143027
   0.67111000  0.66550000  0.12148000
Direct configuration=    10
   0.99950000  0.00032000  0.00103000
   0.99497743  0.99878238  0.36114526
   0.16670000  0.16592000  0.06160000
   0.99930000  0.00013000  0.12183000
   0.16670000  0.16692000  0.18170000
   0.16323489  0.16436793  0.30330763
   0.33368000  0.99986000  0.00108000
   0.33705082  0.00123759  0.35922617
   0.50008000  0.16606000  0.06164000
   0.33365000  0.99945000  0.12194000
   0.50013000  0.16657000  0.18176000
   0.33374000  0.99994000  0.24252000
   0.50299626  0.16691297  0.30262487
   0.83412000  0.16807000  0.06130000
   0.66767000  0.99972000  0.12168000
   0.66792000  0.00032000  0.24233000
   0.83355489  0.16849584  0.30403103
   0.00033000  0.33346000  0.00076000
   0.00302679  0.33206010  0.36134394
   0.16704000  0.50116000  0.06077000
   0.16627000  0.49940000  0.18238000
   0.00000000  0.33319000  0.24260000
   0.16729322  0.50051108  0.30506668
   0.49811000  0.50186000  0.06112000
   0.33328000  0.33434000  0.12148000
   0.50051000  0.50053000  0.18145000
   0.33392000  0.33269000  0.24229000
   0.49892269  0.49983052  0.30498953
   0.66687000  0.33418000  0.00129000
   0.66466802  0.33240680  0.36139525
   0.66670000  0.33332000  0.12177000
   0.83466000  0.49916000  0.18181000
   0.66748000  0.33291000  0.24234000
   0.99949000  0.66581000  0.00112000
   0.00225472  0.66855065  0.36138805
   0.16773000  0.83295000  0.06141000
   0.00149000  0.66672000  0.12196000
   0.16592000  0.83389000  0.18235000
   0.99950000  0.66635000  0.24245000
   0.16428806  0.83450462  0.30344697
   0.49825000  0.83185000  0.06189000
   0.50064000  0.83335000  0.18189000
   0.33424000  0.66627000  0.24239000
   0.66521000  0.66629000  0.00100000
   0.66430653  0.66730699  0.36149523
   0.83382000  0.83268000  0.06128000
   0.83390000  0.83311000  0.18191000
   0.66721000  0.66675000  0.24221000
   0.83324814  0.83141568  0.30359969
   0.99760000  0.00330000  0.24221000
   0.66561000  0.99834000  0.00060000
   0.66425819  0.99779996  0.36448121
   0.83467000  0.16589000  0.18209000
   0.99866000  0.33404000  0.12198000
   0.33421000  0.33147000  0.00101000
   0.33352242  0.32493789  0.36471400
   0.83220000  0.50025000  0.06275000
   0.83143332  0.50017947  0.30393582
   0.33512000  0.67037000  0.00000000
   0.33650862  0.67748522  0.36357611
   0.33145000  0.66488000  0.12292000
   0.50223791  0.83207528  0.30174659
   0.67111000  0.66550000  0.12148000
Direct configuration=    11
   0.99950000  0.00032000  0.00103000
   0.99490077  0.99871318  0.36119930
   0.16670000  0.16592000  0.06160000
   0.99930000  0.00013000  0.12183000
   0.16670000  0.16692000  0.18170000
   0.16332599  0.16427011  0.30336531
   0.33368000  0.99986000  0.00108000
   0.33725368  0.00066392  0.35919669
   0.50008000  0.16606000  0.06164000
   0.33365000  0.99945000  0.12194000
   0.50013000  0.16657000  0.18176000
   0.33374000  0.99994000  0.24252000
   0.50300329  0.16710240  0.30266108
   0.83412000  0.16807000  0.06130000
   0.66767000  0.99972000  0.12168000
   0.66792000  0.00032000  0.24233000
   0.83345993  0.16854173  0.30409270
   0.00033000  0.33346000  0.00076000
   0.00294906  0.33188994  0.36136337
   0.16704000  0.50116000  0.06077000
   0.16627000  0.49940000  0.18238000
   0.00000000  0.33319000  0.24260000
   0.16704463  0.50052664  0.30499210
   0.49811000  0.50186000  0.06112000
   0.33328000  0.33434000  0.12148000
   0.50051000  0.50053000  0.18145000
   0.33392000  0.33269000  0.24229000
   0.49954975  0.49994853  0.30489032
   0.66687000  0.33418000  0.00129000
   0.66461643  0.33243562  0.36146247
   0.66670000  0.33332000  0.12177000
   0.83466000  0.49916000  0.18181000
   0.66748000  0.33291000  0.24234000
   0.99949000  0.66581000  0.00112000
   0.00247902  0.66889415  0.36146813
   0.16773000  0.83295000  0.06141000
   0.00149000  0.66672000  0.12196000
   0.16592000  0.83389000  0.18235000
   0.99950000  0.66635000  0.24245000
   0.16441475  0.83457454  0.30344804
   0.49825000  0.83185000  0.06189000
   0.50064000  0.83335000  0.18189000
   0.33424000  0.66627000  0.24239000
   0.66521000  0.66629000  0.00100000
   0.66388008  0.66745124  0.36141037
   0.83382000  0.83268000  0.06128000
   0.83390000  0.83311000  0.18191000
   0.66721000  0.66675000  0.24221000
   0.83308256  0.83131036  0.30362262
   0.99760000  0.00330000  0.24221000
   0.66561000  0.99834000  0.00060000
   0.66443666  0.99839052  0.36465578
   0.83467000  0.16589000  0.18209000
   0.99866000  0.33404000  0.12198000
   0.33421000  0.33147000  0.00101000
   0.33360354  0.32470137  0.36479454
   0.83220000  0.50025000  0.06275000
   0.83172601  0.50000572  0.30390131
   0.33512000  0.67037000  0.00000000
   0.33604946  0.67714662  0.36388335
   0.33145000  0.66488000  0.12292000
   0.50209483  0.83217452  0.30131789
   0.67111000  0.66550000  0.12148000
Direct configuration=    12
   0.99950000  0.00032000  0.00103000
   0.99480845  0.99862984  0.36126438
   0.16670000  0.16592000  0.06160000
   0.99930000  0.00013000  0.12183000
   0.16670000  0.16692000  0.18170000
   0.16343569  0.16415232  0.30343476
   0.33368000  0.99986000  0.00108000
   0.33749797  0.99997312  0.35916120
   0.50008000  0.16606000  0.06164000
   0.33365000  0.99945000  0.12194000
   0.50013000  0.16657000  0.18176000
   0.33374000  0.99994000  0.24252000
   0.50301176  0.16733051  0.30270469
   0.83412000  0.16807000  0.06130000
   0.66767000  0.99972000  0.12168000
   0.66792000  0.00032000  0.24233000
   0.83334559  0.16859698  0.30416697
   0.00033000  0.33346000  0.00076000
   0.00285546  0.33168504  0.36138676
   0.16704000  0.50116000  0.06077000
   0.16627000  0.49940000  0.18238000
   0.00000000  0.33319000  0.24260000
   0.16674528  0.50054538  0.30490230
   0.49811000  0.50186000  0.06112000
   0.33328000  0.33434000  0.12148000
   0.50051000  0.50053000  0.18145000
   0.33392000  0.33269000  0.24229000
   0.50030483  0.50009064  0.30477085
   0.66687000  0.33418000  0.00129000
   0.66455431  0.33247032  0.36154343
   0.66670000  0.33332000  0.12177000
   0.83466000  0.49916000  0.18181000
   0.66748000  0.33291000  0.24234000
   0.99949000  0.66581000  0.00112000
   0.00274913  0.66930779  0.36156458
   0.16773000  0.83295000  0.06141000
   0.00149000  0.66672000  0.12196000
   0.16592000  0.83389000  0.18235000
   0.99950000  0.66635000  0.24245000
   0.16456729  0.83465873  0.30344932
   0.49825000  0.83185000  0.06189000
   0.50064000  0.83335000  0.18189000
   0.33424000  0.66627000  0.24239000
   0.66521000  0.66629000  0.00100000
   0.66336656  0.66762494  0.36130818
   0.83382000  0.83268000  0.06128000
   0.83390000  0.83311000  0.18191000
   0.66721000  0.66675000  0.24221000
   0.83288317  0.83118355  0.30365022
   0.99760000  0.00330000  0.24221000
   0.66561000  0.99834000  0.00060000
   0.66465156  0.99910166  0.36486599
   0.83467000  0.16589000  0.18209000
   0.99866000  0.33404000  0.12198000
   0.33421000  0.33147000  0.00101000
   0.33370123  0.32441656  0.36489153
   0.83220000  0.50025000  0.06275000
   0.83207845  0.49979650  0.30385976
   0.33512000  0.67037000  0.00000000
   0.33549655  0.67673889  0.36425332
   0.33145000  0.66488000  0.12292000
   0.50192252  0.83229401  0.30080165
   0.67111000  0.66550000  0.12148000
Direct configuration=    13
   0.99950000  0.00032000  0.00103000
   0.99462383  0.99846317  0.36139453
   0.16670000  0.16592000  0.06160000
   0.99930000  0.00013000  0.12183000
   0.16670000  0.16692000  0.18170000
   0.16365509  0.16391674  0.30357366
   0.33368000  0.99986000  0.00108000
   0.33798655  0.99859150  0.35909021
   0.50008000  0.16606000  0.06164000
   0.33365000  0.99945000  0.12194000
   0.50013000  0.16657000  0.18176000
   0.33374000  0.99994000  0.24252000
   0.50302871  0.16778672  0.30279189
   0.83412000  0.16807000  0.06130000
   0.66767000  0.99972000  0.12168000
   0.66792000  0.00032000  0.24233000
   0.83311691  0.16870749  0.30431551
   0.00033000  0.33346000  0.00076000
   0.00266826  0.33127523  0.36143355
   0.16704000  0.50116000  0.06077000
   0.16627000  0.49940000  0.18238000
   0.00000000  0.33319000  0.24260000
   0.16614659  0.50058285  0.30472269
   0.49811000  0.50186000  0.06112000
   0.33328000  0.33434000  0.12148000
   0.50051000  0.50053000  0.18145000
   0.33392000  0.33269000  0.24229000
   0.50181500  0.50037486  0.30453191
   0.66687000  0.33418000  0.00129000
   0.66443006  0.33253972  0.36170533
   0.66670000  0.33332000  0.12177000
   0.83466000  0.49916000  0.18181000
   0.66748000  0.33291000  0.24234000
   0.99949000  0.66581000  0.00112000
   0.00328934  0.67013507  0.36175746
   0.16773000  0.83295000  0.06141000
   0.00149000  0.66672000  0.12196000
   0.16592000  0.83389000  0.18235000
   0.99950000  0.66635000  0.24245000
   0.16487239  0.83482712  0.30345188
   0.49825000  0.83185000  0.06189000
   0.50064000  0.83335000  0.18189000
   0.33424000  0.66627000  0.24239000
   0.66521000  0.66629000  0.00100000
   0.66233951  0.66797235  0.36110380
   0.83382000  0.83268000  0.06128000
   0.83390000  0.83311000  0.18191000
   0.66721000  0.66675000  0.24221000
   0.83248438  0.83092991  0.30370542
   0.99760000  0.00330000  0.24221000
   0.66561000  0.99834000  0.00060000
   0.66508137  0.00052394  0.36528642
   0.83467000  0.16589000  0.18209000
   0.99866000  0.33404000  0.12198000
   0.33421000  0.33147000  0.00101000
   0.33389661  0.32384694  0.36508550
   0.83220000  0.50025000  0.06275000
   0.83278334  0.49937806  0.30377667
   0.33512000  0.67037000  0.00000000
   0.33439074  0.67592343  0.36499325
   0.33145000  0.66488000  0.12292000
   0.50157792  0.83253301  0.29976916
   0.67111000  0.66550000  0.12148000
Direct configuration=    14
   0.99950000  0.00032000  0.00103000
   0.99472206  0.99855185  0.36132528
   0.16670000  0.16592000  0.06160000
   0.99930000  0.00013000  0.12183000
   0.16670000  0.16692000  0.18170000
   0.16353835  0.16404209  0.30349975
   0.33368000  0.99986000  0.00108000
   0.33772658  0.99932665  0.35912798
   0.50008000  0.16606000  0.06164000
   0.33365000  0.99945000  0.12194000
   0.50013000  0.16657000  0.18176000
   0.33374000  0.99994000  0.24252000
   0.50301969  0.16754397  0.30274549
   0.83412000  0.16807000  0.06130000
   0.66767000  0.99972000  0.12168000
   0.66792000  0.00032000  0.24233000
   0.83323859  0.16864869  0.30423647
   0.00033000  0.33346000  0.00076000
   0.00276787  0.33149328  0.36140865
   0.16704000  0.50116000  0.06077000
   0.16627000  0.49940000  0.18238000
   0.00000000  0.33319000  0.24260000
   0.16646515  0.50056291  0.30481826
   0.49811000  0.50186000  0.06112000
   0.33328000  0.33434000  0.12148000
   0.50051000  0.50053000  0.18145000
   0.33392000  0.33269000  0.24229000
   0.50101145  0.50022363  0.30465905
   0.66687000  0.33418000  0.00129000
   0.66449617  0.33250280  0.36161918
   0.66670000  0.33332000  0.12177000
   0.83466000  0.49916000  0.18181000
   0.66748000  0.33291000  0.24234000
   0.99949000  0.66581000  0.00112000
   0.00300190  0.66969488  0.36165483
   0.16773000  0.83295000  0.06141000
   0.00149000  0.66672000  0.12196000
   0.16592000  0.83389000  0.18235000
   0.99950000  0.66635000  0.24245000
   0.16471005  0.83473752  0.30345052
   0.49825000  0.83185000  0.06189000
   0.50064000  0.83335000  0.18189000
   0.33424000  0.66627000  0.24239000
   0.66521000  0.66629000  0.00100000
   0.66288599  0.66778749  0.36121255
   0.83382000  0.83268000  0.06128000
   0.83390000  0.83311000  0.18191000
   0.66721000  0.66675000  0.24221000
   0.83269657  0.83106487  0.30367605
   0.99760000  0.00330000  0.24221000
   0.66561000  0.99834000  0.00060000
   0.66485267  0.99976715  0.36506271
   0.83467000  0.16589000  0.18209000
   0.99866000  0.33404000  0.12198000
   0.33421000  0.33147000  0.00101000
   0.33379265  0.32415003  0.36498229
   0.83220000  0.50025000  0.06275000
   0.83240827  0.49960071  0.30382088
   0.33512000  0.67037000  0.00000000
   0.33497914  0.67635733  0.36459954
   0.33145000  0.66488000  0.12292000
   0.50176128  0.83240584  0.30031854
   0.67111000  0.66550000  0.12148000
Direct configuration=    15
   0.99950000  0.00032000  0.00103000
   0.99471881  0.99848693  0.36134870
   0.16670000  0.16592000  0.06160000
   0.99930000  0.00013000  0.12183000
   0.16670000  0.16692000  0.18170000
   0.16359829  0.16399540  0.30353984
   0.33368000  0.99986000  0.00108000
   0.33791083  0.99893712  0.35911231
   0.50008000  0.16606000  0.06164000
   0.33365000  0.99945000  0.12194000
   0.50013000  0.16657000  0.18176000
   0.33374000  0.99994000  0.24252000
   0.50300455  0.16750028  0.30275135
   0.83412000  0.16807000  0.06130000
   0.66767000  0.99972000  0.12168000
   0.66792000  0.00032000  0.24233000
   0.83325388  0.16864947  0.30424305
   0.00033000  0.33346000  0.00076000
   0.00272811  0.33145004  0.36141992
   0.16704000  0.50116000  0.06077000
   0.16627000  0.49940000  0.18238000
   0.00000000  0.33319000  0.24260000
   0.16653288  0.50051790  0.30482337
   0.49811000  0.50186000  0.06112000
   0.33328000  0.33434000  0.12148000
   0.50051000  0.50053000  0.18145000
   0.33392000  0.33269000  0.24229000
   0.50097269  0.50026996  0.30464041
   0.66687000  0.33418000  0.00129000
   0.66452912  0.33258374  0.36164425
   0.66670000  0.33332000  0.12177000
   0.83466000  0.49916000  0.18181000
   0.66748000  0.33291000  0.24234000
   0.99949000  0.66581000  0.00112000
   0.00311861  0.66986715  0.36167662
   0.16773000  0.83295000  0.06141000
   0.00149000  0.66672000  0.12196000
   0.16592000  0.83389000  0.18235000
   0.99950000  0.66635000  0.24245000
   0.16473586  0.83469196  0.30345485
   0.49825000  0.83185000  0.06189000
   0.50064000  0.83335000  0.18189000
   0.33424000  0.66627000  0.24239000
   0.66521000  0.66629000  0.00100000
   0.66260648  0.66796949  0.36116928
   0.83382000  0.83268000  0.06128000
   0.83390000  0.83311000  0.18191000
   0.66721000  0.66675000  0.24221000
   0.83260171  0.83107936  0.30369749
   0.99760000  0.00330000  0.24221000
   0.66561000  0.99834000  0.00060000
   0.66505932  0.00013892  0.36520326
   0.83467000  0.16589000  0.18209000
   0.99866000  0.33404000  0.12198000
   0.33421000  0.33147000  0.00101000
   0.33382433  0.32413431  0.36497359
   0.83220000  0.50025000  0.06275000
   0.83249682  0.49957039  0.30383798
   0.33512000  0.67037000  0.00000000
   0.33468546  0.67605225  0.36475202
   0.33145000  0.66488000  0.12292000
   0.50167886  0.83242320  0.30010990
   0.67111000  0.66550000  0.12148000
Direct configuration=    16
   0.99950000  0.00032000  0.00103000
   0.99470905  0.99829215  0.36141895
   0.16670000  0.16592000  0.06160000
   0.99930000  0.00013000  0.12183000
   0.16670000  0.16692000  0.18170000
   0.16377811  0.16385535  0.30366010
   0.33368000  0.99986000  0.00108000
   0.33846358  0.99776852  0.35906531
   0.50008000  0.16606000  0.06164000
   0.33365000  0.99945000  0.12194000
   0.50013000  0.16657000  0.18176000
   0.33374000  0.99994000  0.24252000
   0.50295913  0.16736920  0.30276895
   0.83412000  0.16807000  0.06130000
   0.66767000  0.99972000  0.12168000
   0.66792000  0.00032000  0.24233000
   0.83329976  0.16865181  0.30426276
   0.00033000  0.33346000  0.00076000
   0.00260884  0.33132033  0.36145373
   0.16704000  0.50116000  0.06077000
   0.16627000  0.49940000  0.18238000
   0.00000000  0.33319000  0.24260000
   0.16673607  0.50038285  0.30483869
   0.49811000  0.50186000  0.06112000
   0.33328000  0.33434000  0.12148000
   0.50051000  0.50053000  0.18145000
   0.33392000  0.33269000  0.24229000
   0.50085640  0.50040894  0.30458451
   0.66687000  0.33418000  0.00129000
   0.66462796  0.33282657  0.36171944
   0.66670000  0.33332000  0.12177000
   0.83466000  0.49916000  0.18181000
   0.66748000  0.33291000  0.24234000
   0.99949000  0.66581000  0.00112000
   0.00346874  0.67038394  0.36174200
   0.16773000  0.83295000  0.06141000
   0.00149000  0.66672000  0.12196000
   0.16592000  0.83389000  0.18235000
   0.99950000  0.66635000  0.24245000
   0.16481331  0.83455528  0.30346785
   0.49825000  0.83185000  0.06189000
   0.50064000  0.83335000  0.18189000
   0.33424000  0.66627000  0.24239000
   0.66521000  0.66629000  0.00100000
   0.66176793  0.66851548  0.36103950
   0.83382000  0.83268000  0.06128000
   0.83390000  0.83311000  0.18191000
   0.66721000  0.66675000  0.24221000
   0.83231714  0.83112283  0.30376183
   0.99760000  0.00330000  0.24221000
   0.66561000  0.99834000  0.00060000
   0.66567928  0.00125423  0.36562491
   0.83467000  0.16589000  0.18209000
   0.99866000  0.33404000  0.12198000
   0.33421000  0.33147000  0.00101000
   0.33391936  0.32408713  0.36494751
   0.83220000  0.50025000  0.06275000
   0.83276244  0.49947945  0.30388926
   0.33512000  0.67037000  0.00000000
   0.33380444  0.67513701  0.36520947
   0.33145000  0.66488000  0.12292000
   0.50143160  0.83247529  0.29948399
   0.67111000  0.66550000  0.12148000
Direct configuration=    17
   0.99950000  0.00032000  0.00103000
   0.99468953  0.99790260  0.36155946
   0.16670000  0.16592000  0.06160000
   0.99930000  0.00013000  0.12183000
   0.16670000  0.16692000  0.18170000
   0.16413776  0.16357525  0.30390063
   0.33368000  0.99986000  0.00108000
   0.33956909  0.99543132  0.35897131
   0.50008000  0.16606000  0.06164000
   0.33365000  0.99945000  0.12194000
   0.50013000  0.16657000  0.18176000
   0.33374000  0.99994000  0.24252000
   0.50286829  0.16710703  0.30280413
   0.83412000  0.16807000  0.06130000
   0.66767000  0.99972000  0.12168000
   0.66792000  0.00032000  0.24233000
   0.83339151  0.16865650  0.30430219
   0.00033000  0.33346000  0.00076000
   0.00237030  0.33106090  0.36152135
   0.16704000  0.50116000  0.06077000
   0.16627000  0.49940000  0.18238000
   0.00000000  0.33319000  0.24260000
   0.16714245  0.50011275  0.30486934
   0.49811000  0.50186000  0.06112000
   0.33328000  0.33434000  0.12148000
   0.50051000  0.50053000  0.18145000
   0.33392000  0.33269000  0.24229000
   0.50062382  0.50068691  0.30447269
   0.66687000  0.33418000  0.00129000
   0.66482563  0.33331223  0.36186982
   0.66670000  0.33332000  0.12177000
   0.83466000  0.49916000  0.18181000
   0.66748000  0.33291000  0.24234000
   0.99949000  0.66581000  0.00112000
   0.00416900  0.67141754  0.36187277
   0.16773000  0.83295000  0.06141000
   0.00149000  0.66672000  0.12196000
   0.16592000  0.83389000  0.18235000
   0.99950000  0.66635000  0.24245000
   0.16496820  0.83428191  0.30349385
   0.49825000  0.83185000  0.06189000
   0.50064000  0.83335000  0.18189000
   0.33424000  0.66627000  0.24239000
   0.66521000  0.66629000  0.00100000
   0.66009084  0.66960745  0.36077992
   0.83382000  0.83268000  0.06128000
   0.83390000  0.83311000  0.18191000
   0.66721000  0.66675000  0.24221000
   0.83174801  0.83120978  0.30389049
   0.99760000  0.00330000  0.24221000
   0.66561000  0.99834000  0.00060000
   0.66691920  0.00348486  0.36646822
   0.83467000  0.16589000  0.18209000
   0.99866000  0.33404000  0.12198000
   0.33421000  0.33147000  0.00101000
   0.33410941  0.32399278  0.36489536
   0.83220000  0.50025000  0.06275000
   0.83329368  0.49929755  0.30399183
   0.33512000  0.67037000  0.00000000
   0.33204239  0.67330652  0.36612438
   0.33145000  0.66488000  0.12292000
   0.50093707  0.83257945  0.29823217
   0.67111000  0.66550000  0.12148000
Direct configuration=    18
   0.99950000  0.00032000  0.00103000
   0.99465048  0.99712350  0.36184048
   0.16670000  0.16592000  0.06160000
   0.99930000  0.00013000  0.12183000
   0.16670000  0.16692000  0.18170000
   0.16485704  0.16301504  0.30438169
   0.33368000  0.99986000  0.00108000
   0.34178011  0.99075691  0.35878331
   0.50008000  0.16606000  0.06164000
   0.33365000  0.99945000  0.12194000
   0.50013000  0.16657000  0.18176000
   0.33374000  0.99994000  0.24252000
   0.50268661  0.16658270  0.30287450
   0.83412000  0.16807000  0.06130000
   0.66767000  0.99972000  0.12168000
   0.66792000  0.00032000  0.24233000
   0.83357501  0.16866587  0.30438105
   0.00033000  0.33346000  0.00076000
   0.00189323  0.33054203  0.36165659
   0.16704000  0.50116000  0.06077000
   0.16627000  0.49940000  0.18238000
   0.00000000  0.33319000  0.24260000
   0.16795521  0.49957256  0.30493065
   0.49811000  0.50186000  0.06112000
   0.33328000  0.33434000  0.12148000
   0.50051000  0.50053000  0.18145000
   0.33392000  0.33269000  0.24229000
   0.50015865  0.50124284  0.30424907
   0.66687000  0.33418000  0.00129000
   0.66522099  0.33428354  0.36217058
   0.66670000  0.33332000  0.12177000
   0.83466000  0.49916000  0.18181000
   0.66748000  0.33291000  0.24234000
   0.99949000  0.66581000  0.00112000
   0.00556951  0.67348473  0.36213431
   0.16773000  0.83295000  0.06141000
   0.00149000  0.66672000  0.12196000
   0.16592000  0.83389000  0.18235000
   0.99950000  0.66635000  0.24245000
   0.16527797  0.83373518  0.30354586
   0.49825000  0.83185000  0.06189000
   0.50064000  0.83335000  0.18189000
   0.33424000  0.66627000  0.24239000
   0.66521000  0.66629000  0.00100000
   0.65673666  0.67179140  0.36026078
   0.83382000  0.83268000  0.06128000
   0.83390000  0.83311000  0.18191000
   0.66721000  0.66675000  0.24221000
   0.83060973  0.83138368  0.30414782
   0.99760000  0.00330000  0.24221000
   0.66561000  0.99834000  0.00060000
   0.66939903  0.00794610  0.36815482
   0.83467000  0.16589000  0.18209000
   0.99866000  0.33404000  0.12198000
   0.33421000  0.33147000  0.00101000
   0.33448953  0.32380407  0.36479104
   0.83220000  0.50025000  0.06275000
   0.83435617  0.49893377  0.30419698
   0.33512000  0.67037000  0.00000000
   0.32851830  0.66964555  0.36795419
   0.33145000  0.66488000  0.12292000
   0.49994801  0.83278778  0.29572852
   0.67111000  0.66550000  0.12148000
Direct configuration=    19
   0.99950000  0.00032000  0.00103000
   0.99468426  0.99779753  0.36159736
   0.16670000  0.16592000  0.06160000
   0.99930000  0.00013000  0.12183000
   0.16670000  0.16692000  0.18170000
   0.16423476  0.16349969  0.30396551
   0.33368000  0.99986000  0.00108000
   0.33986728  0.99480092  0.35894596
   0.50008000  0.16606000  0.06164000
   0.33365000  0.99945000  0.12194000
   0.50013000  0.16657000  0.18176000
   0.33374000  0.99994000  0.24252000
   0.50284379  0.16703632  0.30281362
   0.83412000  0.16807000  0.06130000
   0.66767000  0.99972000  0.12168000
   0.66792000  0.00032000  0.24233000
   0.83341626  0.16865776  0.30431282
   0.00033000  0.33346000  0.00076000
   0.00230597  0.33099092  0.36153959
   0.16704000  0.50116000  0.06077000
   0.16627000  0.49940000  0.18238000
   0.00000000  0.33319000  0.24260000
   0.16725206  0.50003990  0.30487761
   0.49811000  0.50186000  0.06112000
   0.33328000  0.33434000  0.12148000
   0.50051000  0.50053000  0.18145000
   0.33392000  0.33269000  0.24229000
   0.50056108  0.50076188  0.30444254
   0.66687000  0.33418000  0.00129000
   0.66487895  0.33344322  0.36191038
   0.66670000  0.33332000  0.12177000
   0.83466000  0.49916000  0.18181000
   0.66748000  0.33291000  0.24234000
   0.99949000  0.66581000  0.00112000
   0.00435787  0.67169633  0.36190804
   0.16773000  0.83295000  0.06141000
   0.00149000  0.66672000  0.12196000
   0.16592000  0.83389000  0.18235000
   0.99950000  0.66635000  0.24245000
   0.16500997  0.83420818  0.30350087
   0.49825000  0.83185000  0.06189000
   0.50064000  0.83335000  0.18189000
   0.33424000  0.66627000  0.24239000
   0.66521000  0.66629000  0.00100000
   0.65963849  0.66990198  0.36070991
   0.83382000  0.83268000  0.06128000
   0.83390000  0.83311000  0.18191000
   0.66721000  0.66675000  0.24221000
   0.83159449  0.83123323  0.30392520
   0.99760000  0.00330000  0.24221000
   0.66561000  0.99834000  0.00060000
   0.66725363  0.00408651  0.36669568
   0.83467000  0.16589000  0.18209000
   0.99866000  0.33404000  0.12198000
   0.33421000  0.33147000  0.00101000
   0.33416068  0.32396733  0.36488129
   0.83220000  0.50025000  0.06275000
   0.83343697  0.49924849  0.30401950
   0.33512000  0.67037000  0.00000000
   0.33156713  0.67281279  0.36637115
   0.33145000  0.66488000  0.12292000
   0.50080368  0.83260755  0.29789452
   0.67111000  0.66550000  0.12148000
Direct configuration=    20
   0.99950000  0.00032000  0.00103000
   0.99477059  0.99754561  0.36159590
   0.16670000  0.16592000  0.06160000
   0.99930000  0.00013000  0.12183000
   0.16670000  0.16692000  0.18170000
   0.16436742  0.16325874  0.30405320
   0.33368000  0.99986000  0.00108000
   0.34060415  0.99379557  0.35892688
   0.50008000  0.16606000  0.06164000
   0.33365000  0.99945000  0.12194000
   0.50013000  0.16657000  0.18176000
   0.33374000  0.99994000  0.24252000
   0.50293421  0.16657302  0.30279222
   0.83412000  0.16807000  0.06130000
   0.66767000  0.99972000  0.12168000
   0.66792000  0.00032000  0.24233000
   0.83366784  0.16866627  0.30423788
   0.00033000  0.33346000  0.00076000
   0.00229056  0.33112745  0.36153232
   0.16704000  0.50116000  0.06077000
   0.16627000  0.49940000  0.18238000
   0.00000000  0.33319000  0.24260000
   0.16739348  0.49991584  0.30495816
   0.49811000  0.50186000  0.06112000
   0.33328000  0.33434000  0.12148000
   0.50051000  0.50053000  0.18145000
   0.33392000  0.33269000  0.24229000
   0.50000991  0.50079790  0.30453088
   0.66687000  0.33418000  0.00129000
   0.66501982  0.33386579  0.36179550
   0.66670000  0.33332000  0.12177000
   0.83466000  0.49916000  0.18181000
   0.66748000  0.33291000  0.24234000
   0.99949000  0.66581000  0.00112000
   0.00444118  0.67182536  0.36189050
   0.16773000  0.83295000  0.06141000
   0.00149000  0.66672000  0.12196000
   0.16592000  0.83389000  0.18235000
   0.99950000  0.66635000  0.24245000
   0.16506762  0.83391165  0.30342685
   0.49825000  0.83185000  0.06189000
   0.50064000  0.83335000  0.18189000
   0.33424000  0.66627000  0.24239000
   0.66521000  0.66629000  0.00100000
   0.65875599  0.67052179  0.36069140
   0.83382000  0.83268000  0.06128000
   0.83390000  0.83311000  0.18191000
   0.66721000  0.66675000  0.24221000
   0.83142830  0.83142329  0.30395834
   0.99760000  0.00330000  0.24221000
   0.66561000  0.99834000  0.00060000
   0.66809187  0.00501900  0.36720719
   0.83467000  0.16589000  0.18209000
   0.99866000  0.33404000  0.12198000
   0.33421000  0.33147000  0.00101000
   0.33425283  0.32380243  0.36476899
   0.83220000  0.50025000  0.06275000
   0.83322753  0.49952750  0.30417112
   0.33512000  0.67037000  0.00000000
   0.33071595  0.67203578  0.36676767
   0.33145000  0.66488000  0.12292000
   0.50083993  0.83274392  0.29776128
   0.67111000  0.66550000  0.12148000
Direct configuration=    21
   0.99950000  0.00032000  0.00103000
   0.99494631  0.99703282  0.36159292
   0.16670000  0.16592000  0.06160000
   0.99930000  0.00013000  0.12183000
   0.16670000  0.16692000  0.18170000
   0.16463745  0.16276827  0.30423171
   0.33368000  0.99986000  0.00108000
   0.34210413  0.99174912  0.35888806
   0.50008000  0.16606000  0.06164000
   0.33365000  0.99945000  0.12194000
   0.50013000  0.16657000  0.18176000
   0.33374000  0.99994000  0.24252000
   0.50311825  0.16562995  0.30274866
   0.83412000  0.16807000  0.06130000
   0.66767000  0.99972000  0.12168000
   0.66792000  0.00032000  0.24233000
   0.83417997  0.16868359  0.30408533
   0.00033000  0.33346000  0.00076000
   0.00225919  0.33140537  0.36151752
   0.16704000  0.50116000  0.06077000
   0.16627000  0.49940000  0.18238000
   0.00000000  0.33319000  0.24260000
   0.16768134  0.49966331  0.30512214
   0.49811000  0.50186000  0.06112000
   0.33328000  0.33434000  0.12148000
   0.50051000  0.50053000  0.18145000
   0.33392000  0.33269000  0.24229000
   0.49888796  0.50087122  0.30471071
   0.66687000  0.33418000  0.00129000
   0.66530657  0.33472595  0.36156166
   0.66670000  0.33332000  0.12177000
   0.83466000  0.49916000  0.18181000
   0.66748000  0.33291000  0.24234000
   0.99949000  0.66581000  0.00112000
   0.00461076  0.67208803  0.36185480
   0.16773000  0.83295000  0.06141000
   0.00149000  0.66672000  0.12196000
   0.16592000  0.83389000  0.18235000
   0.99950000  0.66635000  0.24245000
   0.16518497  0.83330805  0.30327617
   0.49825000  0.83185000  0.06189000
   0.50064000  0.83335000  0.18189000
   0.33424000  0.66627000  0.24239000
   0.66521000  0.66629000  0.00100000
   0.65695958  0.67178347  0.36065371
   0.83382000  0.83268000  0.06128000
   0.83390000  0.83311000  0.18191000
   0.66721000  0.66675000  0.24221000
   0.83109000  0.83181016  0.30402582
   0.99760000  0.00330000  0.24221000
   0.66561000  0.99834000  0.00060000
   0.66979818  0.00691717  0.36824841
   0.83467000  0.16589000  0.18209000
   0.99866000  0.33404000  0.12198000
   0.33421000  0.33147000  0.00101000
   0.33444043  0.32346676  0.36454041
   0.83220000  0.50025000  0.06275000
   0.83280120  0.50009543  0.30447977
   0.33512000  0.67037000  0.00000000
   0.32898330  0.67045410  0.36757481
   0.33145000  0.66488000  0.12292000
   0.50091372  0.83302152  0.29749005
   0.67111000  0.66550000  0.12148000
Direct configuration=    22
   0.99950000  0.00032000  0.00103000
   0.99516131  0.99687590  0.36150975
   0.16670000  0.16592000  0.06160000
   0.99930000  0.00013000  0.12183000
   0.16670000  0.16692000  0.18170000
   0.16479242  0.16247880  0.30425450
   0.33368000  0.99986000  0.00108000
   0.34252274  0.99136646  0.35897904
   0.50008000  0.16606000  0.06164000
   0.33365000  0.99945000  0.12194000
   0.50013000  0.16657000  0.18176000
   0.33374000  0.99994000  0.24252000
   0.50344700  0.16539627  0.30278506
   0.83412000  0.16807000  0.06130000
   0.66767000  0.99972000  0.12168000
   0.66792000  0.00032000  0.24233000
   0.83425942  0.16872671  0.30403591
   0.00033000  0.33346000  0.00076000
   0.00226601  0.33166119  0.36146347
   0.16704000  0.50116000  0.06077000
   0.16627000  0.49940000  0.18238000
   0.00000000  0.33319000  0.24260000
   0.16727358  0.49966444  0.30508765
   0.49811000  0.50186000  0.06112000
   0.33328000  0.33434000  0.12148000
   0.50051000  0.50053000  0.18145000
   0.33392000  0.33269000  0.24229000
   0.49881642  0.50105370  0.30481047
   0.66687000  0.33418000  0.00129000
   0.66542717  0.33497198  0.36131976
   0.66670000  0.33332000  0.12177000
   0.83466000  0.49916000  0.18181000
   0.66748000  0.33291000  0.24234000
   0.99949000  0.66581000  0.00112000
   0.00421679  0.67175829  0.36181422
   0.16773000  0.83295000  0.06141000
   0.00149000  0.66672000  0.12196000
   0.16592000  0.83389000  0.18235000
   0.99950000  0.66635000  0.24245000
   0.16542729  0.83314953  0.30324295
   0.49825000  0.83185000  0.06189000
   0.50064000  0.83335000  0.18189000
   0.33424000  0.66627000  0.24239000
   0.66521000  0.66629000  0.00100000
   0.65639548  0.67220707  0.36081847
   0.83382000  0.83268000  0.06128000
   0.83390000  0.83311000  0.18191000
   0.66721000  0.66675000  0.24221000
   0.83100735  0.83189509  0.30405154
   0.99760000  0.00330000  0.24221000
   0.66561000  0.99834000  0.00060000
   0.67040187  0.00727222  0.36853295
   0.83467000  0.16589000  0.18209000
   0.99866000  0.33404000  0.12198000
   0.33421000  0.33147000  0.00101000
   0.33457176  0.32284989  0.36444300
   0.83220000  0.50025000  0.06275000
   0.83233677  0.50056801  0.30455057
   0.33512000  0.67037000  0.00000000
   0.32852229  0.67045845  0.36773517
   0.33145000  0.66488000  0.12292000
   0.50132661  0.83308699  0.29812429
   0.67111000  0.66550000  0.12148000
Direct configuration=    23
   0.99950000  0.00032000  0.00103000
   0.99550153  0.99662760  0.36137815
   0.16670000  0.16592000  0.06160000
   0.99930000  0.00013000  0.12183000
   0.16670000  0.16692000  0.18170000
   0.16503764  0.16202074  0.30429056
   0.33368000  0.99986000  0.00108000
   0.34318517  0.99076094  0.35912301
   0.50008000  0.16606000  0.06164000
   0.33365000  0.99945000  0.12194000
   0.50013000  0.16657000  0.18176000
   0.33374000  0.99994000  0.24252000
   0.50396723  0.16502648  0.30284266
   0.83412000  0.16807000  0.06130000
   0.66767000  0.99972000  0.12168000
   0.66792000  0.00032000  0.24233000
   0.83438513  0.16879495  0.30395772
   0.00033000  0.33346000  0.00076000
   0.00227679  0.33206600  0.36137793
   0.16704000  0.50116000  0.06077000
   0.16627000  0.49940000  0.18238000
   0.00000000  0.33319000  0.24260000
   0.16662833  0.49966623  0.30503307
   0.49811000  0.50186000  0.06112000
   0.33328000  0.33434000  0.12148000
   0.50051000  0.50053000  0.18145000
   0.33392000  0.33269000  0.24229000
   0.49870322  0.50134246  0.30496833
   0.66687000  0.33418000  0.00129000
   0.66561802  0.33536128  0.36093697
   0.66670000  0.33332000  0.12177000
   0.83466000  0.49916000  0.18181000
   0.66748000  0.33291000  0.24234000
   0.99949000  0.66581000  0.00112000
   0.00359336  0.67123652  0.36175000
   0.16773000  0.83295000  0.06141000
   0.00149000  0.66672000  0.12196000
   0.16592000  0.83389000  0.18235000
   0.99950000  0.66635000  0.24245000
   0.16581074  0.83289868  0.30319038
   0.49825000  0.83185000  0.06189000
   0.50064000  0.83335000  0.18189000
   0.33424000  0.66627000  0.24239000
   0.66521000  0.66629000  0.00100000
   0.65550282  0.67287740  0.36107920
   0.83382000  0.83268000  0.06128000
   0.83390000  0.83311000  0.18191000
   0.66721000  0.66675000  0.24221000
   0.83087656  0.83202950  0.30409224
   0.99760000  0.00330000  0.24221000
   0.66561000  0.99834000  0.00060000
   0.67135717  0.00783406  0.36898321
   0.83467000  0.16589000  0.18209000
   0.99866000  0.33404000  0.12198000
   0.33421000  0.33147000  0.00101000
   0.33477959  0.32187374  0.36428885
   0.83220000  0.50025000  0.06275000
   0.83160184  0.50131583  0.30466261
   0.33512000  0.67037000  0.00000000
   0.32779279  0.67046533  0.36798892
   0.33145000  0.66488000  0.12292000
   0.50197996  0.83319059  0.29912793
   0.67111000  0.66550000  0.12148000
Direct configuration=    24
   0.99950000  0.00032000  0.00103000
   0.99546317  0.99665560  0.36139299
   0.16670000  0.16592000  0.06160000
   0.99930000  0.00013000  0.12183000
   0.16670000  0.16692000  0.18170000
   0.16500999  0.16207239  0.30428650
   0.33368000  0.99986000  0.00108000
   0.34311048  0.99082921  0.35910678
   0.50008000  0.16606000  0.06164000
   0.33365000  0.99945000  0.12194000
   0.50013000  0.16657000  0.18176000
   0.33374000  0.99994000  0.24252000
   0.50390857  0.16506818  0.30283617
   0.83412000  0.16807000  0.06130000
   0.66767000  0.99972000  0.12168000
   0.66792000  0.00032000  0.24233000
   0.83437096  0.16878726  0.30396654
   0.00033000  0.33346000  0.00076000
   0.00227558  0.33202036  0.36138757
   0.16704000  0.50116000  0.06077000
   0.16627000  0.49940000  0.18238000
   0.00000000  0.33319000  0.24260000
   0.16670108  0.49966603  0.30503922
   0.49811000  0.50186000  0.06112000
   0.33328000  0.33434000  0.12148000
   0.50051000  0.50053000  0.18145000
   0.33392000  0.33269000  0.24229000
   0.49871598  0.50130991  0.30495054
   0.66687000  0.33418000  0.00129000
   0.66559650  0.33531739  0.36098013
   0.66670000  0.33332000  0.12177000
   0.83466000  0.49916000  0.18181000
   0.66748000  0.33291000  0.24234000
   0.99949000  0.66581000  0.00112000
   0.00366365  0.67129535  0.36175724
   0.16773000  0.83295000  0.06141000
   0.00149000  0.66672000  0.12196000
   0.16592000  0.83389000  0.18235000
   0.99950000  0.66635000  0.24245000
   0.16576751  0.83292696  0.30319631
   0.49825000  0.83185000  0.06189000
   0.50064000  0.83335000  0.18189000
   0.33424000  0.66627000  0.24239000
   0.66521000  0.66629000  0.00100000
   0.65560346  0.67280182  0.36104981
   0.83382000  0.83268000  0.06128000
   0.83390000  0.83311000  0.18191000
   0.66721000  0.66675000  0.24221000
   0.83089131  0.83201434  0.30408765
   0.99760000  0.00330000  0.24221000
   0.66561000  0.99834000  0.00060000
   0.67124947  0.00777072  0.36893245
   0.83467000  0.16589000  0.18209000
   0.99866000  0.33404000  0.12198000
   0.33421000  0.33147000  0.00101000
   0.33475615  0.32198380  0.36430623
   0.83220000  0.50025000  0.06275000
   0.83168470  0.50123152  0.30464998
   0.33512000  0.67037000  0.00000000
   0.32787504  0.67046456  0.36796031
   0.33145000  0.66488000  0.12292000
   0.50190630  0.83317891  0.29901477
   0.67111000  0.66550000  0.12148000
Direct configuration=    25
   0.99950000  0.00032000  0.00103000
   0.99581725  0.99668515  0.36131790
   0.16670000  0.16592000  0.06160000
   0.99930000  0.00013000  0.12183000
   0.16670000  0.16692000  0.18170000
   0.16503463  0.16208218  0.30424952
   0.33368000  0.99986000  0.00108000
   0.34302824  0.99103371  0.35927918
   0.50008000  0.16606000  0.06164000
   0.33365000  0.99945000  0.12194000
   0.50013000  0.16657000  0.18176000
   0.33374000  0.99994000  0.24252000
   0.50405546  0.16496410  0.30283557
   0.83412000  0.16807000  0.06130000
   0.66767000  0.99972000  0.12168000
   0.66792000  0.00032000  0.24233000
   0.83442953  0.16877295  0.30397286
   0.00033000  0.33346000  0.00076000
   0.00219187  0.33207062  0.36131997
   0.16704000  0.50116000  0.06077000
   0.16627000  0.49940000  0.18238000
   0.00000000  0.33319000  0.24260000
   0.16677456  0.49962208  0.30497168
   0.49811000  0.50186000  0.06112000
   0.33328000  0.33434000  0.12148000
   0.50051000  0.50053000  0.18145000
   0.33392000  0.33269000  0.24229000
   0.49848722  0.50156339  0.30493863
   0.66687000  0.33418000  0.00129000
   0.66577781  0.33534199  0.36097044
   0.66670000  0.33332000  0.12177000
   0.83466000  0.49916000  0.18181000
   0.66748000  0.33291000  0.24234000
   0.99949000  0.66581000  0.00112000
   0.00313393  0.67100208  0.36172388
   0.16773000  0.83295000  0.06141000
   0.00149000  0.66672000  0.12196000
   0.16592000  0.83389000  0.18235000
   0.99950000  0.66635000  0.24245000
   0.16582441  0.83286892  0.30330477
   0.49825000  0.83185000  0.06189000
   0.50064000  0.83335000  0.18189000
   0.33424000  0.66627000  0.24239000
   0.66521000  0.66629000  0.00100000
   0.65558627  0.67296632  0.36138223
   0.83382000  0.83268000  0.06128000
   0.83390000  0.83311000  0.18191000
   0.66721000  0.66675000  0.24221000
   0.83085436  0.83193980  0.30412923
   0.99760000  0.00330000  0.24221000
   0.66561000  0.99834000  0.00060000
   0.67192147  0.00811850  0.36906491
   0.83467000  0.16589000  0.18209000
   0.99866000  0.33404000  0.12198000
   0.33421000  0.33147000  0.00101000
   0.33480984  0.32168152  0.36424044
   0.83220000  0.50025000  0.06275000
   0.83153629  0.50140372  0.30456949
   0.33512000  0.67037000  0.00000000
   0.32736843  0.67033283  0.36798988
   0.33145000  0.66488000  0.12292000
   0.50210380  0.83309876  0.29904600
   0.67111000  0.66550000  0.12148000
Direct configuration=    26
   0.99950000  0.00032000  0.00103000
   0.99655458  0.99674668  0.36116154
   0.16670000  0.16592000  0.06160000
   0.99930000  0.00013000  0.12183000
   0.16670000  0.16692000  0.18170000
   0.16508595  0.16210258  0.30417250
   0.33368000  0.99986000  0.00108000
   0.34285698  0.99145955  0.35963821
   0.50008000  0.16606000  0.06164000
   0.33365000  0.99945000  0.12194000
   0.50013000  0.16657000  0.18176000
   0.33374000  0.99994000  0.24252000
   0.50436133  0.16474738  0.30283431
   0.83412000  0.16807000  0.06130000
   0.66767000  0.99972000  0.12168000
   0.66792000  0.00032000  0.24233000
   0.83455151  0.16874315  0.30398603
   0.00033000  0.33346000  0.00076000
   0.00201757  0.33217529  0.36117921
   0.16704000  0.50116000  0.06077000
   0.16627000  0.49940000  0.18238000
   0.00000000  0.33319000  0.24260000
   0.16692756  0.49953057  0.30483104
   0.49811000  0.50186000  0.06112000
   0.33328000  0.33434000  0.12148000
   0.50051000  0.50053000  0.18145000
   0.33392000  0.33269000  0.24229000
   0.49801085  0.50209126  0.30491383
   0.66687000  0.33418000  0.00129000
   0.66615538  0.33539320  0.36095027
   0.66670000  0.33332000  0.12177000
   0.83466000  0.49916000  0.18181000
   0.66748000  0.33291000  0.24234000
   0.99949000  0.66581000  0.00112000
   0.00203083  0.67039136  0.36165440
   0.16773000  0.83295000  0.06141000
   0.00149000  0.66672000  0.12196000
   0.16592000  0.83389000  0.18235000
   0.99950000  0.66635000  0.24245000
   0.16594290  0.83274805  0.30353062
   0.49825000  0.83185000  0.06189000
   0.50064000  0.83335000  0.18189000
   0.33424000  0.66627000  0.24239000
   0.66521000  0.66629000  0.00100000
   0.65555047  0.67330888  0.36207447
   0.83382000  0.83268000  0.06128000
   0.83390000  0.83311000  0.18191000
   0.66721000  0.66675000  0.24221000
   0.83077741  0.83178456  0.30421580
   0.99760000  0.00330000  0.24221000
   0.66561000  0.99834000  0.00060000
   0.67332087  0.00884273  0.36934074
   0.83467000  0.16589000  0.18209000
   0.99866000  0.33404000  0.12198000
   0.33421000  0.33147000  0.00101000
   0.33492163  0.32105206  0.36410344
   0.83220000  0.50025000  0.06275000
   0.83122722  0.50176231  0.30440187
   0.33512000  0.67037000  0.00000000
   0.32631347  0.67005852  0.36805144
   0.33145000  0.66488000  0.12292000
   0.50251508  0.83293184  0.29911104
   0.67111000  0.66550000  0.12148000
Direct configuration=    27
   0.99950000  0.00032000  0.00103000
   0.99626955  0.99672289  0.36122198
   0.16670000  0.16592000  0.06160000
   0.99930000  0.00013000  0.12183000
   0.16670000  0.16692000  0.18170000
   0.16506611  0.16209469  0.30420228
   0.33368000  0.99986000  0.00108000
   0.34292318  0.99129493  0.35949942
   0.50008000  0.16606000  0.06164000
   0.33365000  0.99945000  0.12194000
   0.50013000  0.16657000  0.18176000
   0.33374000  0.99994000  0.24252000
   0.50424309  0.16483116  0.30283480
   0.83412000  0.16807000  0.06130000
   0.66767000  0.99972000  0.12168000
   0.66792000  0.00032000  0.24233000
   0.83450436  0.16875467  0.30398094
   0.00033000  0.33346000  0.00076000
   0.00208495  0.33213483  0.36123363
   0.16704000  0.50116000  0.06077000
   0.16627000  0.49940000  0.18238000
   0.00000000  0.33319000  0.24260000
   0.16686842  0.49956595  0.30488541
   0.49811000  0.50186000  0.06112000
   0.33328000  0.33434000  0.12148000
   0.50051000  0.50053000  0.18145000
   0.33392000  0.33269000  0.24229000
   0.49819500  0.50188720  0.30492342
   0.66687000  0.33418000  0.00129000
   0.66600942  0.33537340  0.36095806
   0.66670000  0.33332000  0.12177000
   0.83466000  0.49916000  0.18181000
   0.66748000  0.33291000  0.24234000
   0.99949000  0.66581000  0.00112000
   0.00245726  0.67062745  0.36168126
   0.16773000  0.83295000  0.06141000
   0.00149000  0.66672000  0.12196000
   0.16592000  0.83389000  0.18235000
   0.99950000  0.66635000  0.24245000
   0.16589710  0.83279478  0.30344331
   0.49825000  0.83185000  0.06189000
   0.50064000  0.83335000  0.18189000
   0.33424000  0.66627000  0.24239000
   0.66521000  0.66629000  0.00100000
   0.65556431  0.67317646  0.36180687
   0.83382000  0.83268000  0.06128000
   0.83390000  0.83311000  0.18191000
   0.66721000  0.66675000  0.24221000
   0.83080716  0.83184457  0.30418233
   0.99760000  0.00330000  0.24221000
   0.66561000  0.99834000  0.00060000
   0.67277990  0.00856276  0.36923411
   0.83467000  0.16589000  0.18209000
   0.99866000  0.33404000  0.12198000
   0.33421000  0.33147000  0.00101000
   0.33487841  0.32129540  0.36415640
   0.83220000  0.50025000  0.06275000
   0.83134670  0.50162369  0.30446667
   0.33512000  0.67037000  0.00000000
   0.32672129  0.67016456  0.36802764
   0.33145000  0.66488000  0.12292000
   0.50235609  0.83299637  0.29908590
   0.67111000  0.66550000  0.12148000
Direct configuration=    28
   0.99950000  0.00032000  0.00103000
   0.99620852  0.99671780  0.36123493
   0.16670000  0.16592000  0.06160000
   0.99930000  0.00013000  0.12183000
   0.16670000  0.16692000  0.18170000
   0.16506186  0.16209301  0.30420865
   0.33368000  0.99986000  0.00108000
   0.34293736  0.99125968  0.35946970
   0.50008000  0.16606000  0.06164000
   0.33365000  0.99945000  0.12194000
   0.50013000  0.16657000  0.18176000
   0.33374000  0.99994000  0.24252000
   0.50421777  0.16484910  0.30283490
   0.83412000  0.16807000  0.06130000
   0.66767000  0.99972000  0.12168000
   0.66792000  0.00032000  0.24233000
   0.83449426  0.16875714  0.30397985
   0.00033000  0.33346000  0.00076000
   0.00209938  0.33212617  0.36124528
   0.16704000  0.50116000  0.06077000
   0.16627000  0.49940000  0.18238000
   0.00000000  0.33319000  0.24260000
   0.16685575  0.49957352  0.30489705
   0.49811000  0.50186000  0.06112000
   0.33328000  0.33434000  0.12148000
   0.50051000  0.50053000  0.18145000
   0.33392000  0.33269000  0.24229000
   0.49823443  0.50184351  0.30492547
   0.66687000  0.33418000  0.00129000
   0.66597817  0.33536916  0.36095973
   0.66670000  0.33332000  0.12177000
   0.83466000  0.49916000  0.18181000
   0.66748000  0.33291000  0.24234000
   0.99949000  0.66581000  0.00112000
   0.00254857  0.67067800  0.36168701
   0.16773000  0.83295000  0.06141000
   0.00149000  0.66672000  0.12196000
   0.16592000  0.83389000  0.18235000
   0.99950000  0.66635000  0.24245000
   0.16588729  0.83280478  0.30342462
   0.49825000  0.83185000  0.06189000
   0.50064000  0.83335000  0.18189000
   0.33424000  0.66627000  0.24239000
   0.66521000  0.66629000  0.00100000
   0.65556727  0.67314810  0.36174957
   0.83382000  0.83268000  0.06128000
   0.83390000  0.83311000  0.18191000
   0.66721000  0.66675000  0.24221000
   0.83081352  0.83185742  0.30417517
   0.99760000  0.00330000  0.24221000
   0.66561000  0.99834000  0.00060000
   0.67266407  0.00850281  0.36921128
   0.83467000  0.16589000  0.18209000
   0.99866000  0.33404000  0.12198000
   0.33421000  0.33147000  0.00101000
   0.33486916  0.32134750  0.36416774
   0.83220000  0.50025000  0.06275000
   0.83137228  0.50159401  0.30448054
   0.33512000  0.67037000  0.00000000
   0.32680861  0.67018726  0.36802255
   0.33145000  0.66488000  0.12292000
   0.50232205  0.83301018  0.29908051
   0.67111000  0.66550000  0.12148000
Direct configuration=    29
   0.99950000  0.00032000  0.00103000
   0.99658296  0.99681589  0.36123471
   0.16670000  0.16592000  0.06160000
   0.99930000  0.00013000  0.12183000
   0.16670000  0.16692000  0.18170000
   0.16515146  0.16214360  0.30417397
   0.33368000  0.99986000  0.00108000
   0.34288013  0.99149245  0.35943453
   0.50008000  0.16606000  0.06164000
   0.33365000  0.99945000  0.12194000
   0.50013000  0.16657000  0.18176000
   0.33374000  0.99994000  0.24252000
   0.50420204  0.16473849  0.30288000
   0.83412000  0.16807000  0.06130000
   0.66767000  0.99972000  0.12168000
   0.66792000  0.00032000  0.24233000
   0.83451634  0.16878221  0.30390402
   0.00033000  0.33346000  0.00076000
   0.00205926  0.33215264  0.36119612
   0.16704000  0.50116000  0.06077000
   0.16627000  0.49940000  0.18238000
   0.00000000  0.33319000  0.24260000
   0.16685631  0.49949458  0.30488413
   0.49811000  0.50186000  0.06112000
   0.33328000  0.33434000  0.12148000
   0.50051000  0.50053000  0.18145000
   0.33392000  0.33269000  0.24229000
   0.49859692  0.50196574  0.30503934
   0.66687000  0.33418000  0.00129000
   0.66596826  0.33546189  0.36098336
   0.66670000  0.33332000  0.12177000
   0.83466000  0.49916000  0.18181000
   0.66748000  0.33291000  0.24234000
   0.99949000  0.66581000  0.00112000
   0.00217857  0.67038139  0.36165196
   0.16773000  0.83295000  0.06141000
   0.00149000  0.66672000  0.12196000
   0.16592000  0.83389000  0.18235000
   0.99950000  0.66635000  0.24245000
   0.16591709  0.83284884  0.30346214
   0.49825000  0.83185000  0.06189000
   0.50064000  0.83335000  0.18189000
   0.33424000  0.66627000  0.24239000
   0.66521000  0.66629000  0.00100000
   0.65547141  0.67317521  0.36178704
   0.83382000  0.83268000  0.06128000
   0.83390000  0.83311000  0.18191000
   0.66721000  0.66675000  0.24221000
   0.83062163  0.83178268  0.30423782
   0.99760000  0.00330000  0.24221000
   0.66561000  0.99834000  0.00060000
   0.67302203  0.00866628  0.36924086
   0.83467000  0.16589000  0.18209000
   0.99866000  0.33404000  0.12198000
   0.33421000  0.33147000  0.00101000
   0.33490022  0.32143255  0.36416183
   0.83220000  0.50025000  0.06275000
   0.83130079  0.50148654  0.30444415
   0.33512000  0.67037000  0.00000000
   0.32648272  0.66992965  0.36806756
   0.33145000  0.66488000  0.12292000
   0.50230600  0.83317725  0.29907331
   0.67111000  0.66550000  0.12148000
Direct configuration=    30
   0.99950000  0.00032000  0.00103000
   0.99690089  0.99689917  0.36123453
   0.16670000  0.16592000  0.06160000
   0.99930000  0.00013000  0.12183000
   0.16670000  0.16692000  0.18170000
   0.16522753  0.16218656  0.30414452
   0.33368000  0.99986000  0.00108000
   0.34283154  0.99169008  0.35940467
   0.50008000  0.16606000  0.06164000
   0.33365000  0.99945000  0.12194000
   0.50013000  0.16657000  0.18176000
   0.33374000  0.99994000  0.24252000
   0.50418869  0.16464457  0.30291829
   0.83412000  0.16807000  0.06130000
   0.66767000  0.99972000  0.12168000
   0.66792000  0.00032000  0.24233000
   0.83453509  0.16880351  0.30383964
   0.00033000  0.33346000  0.00076000
   0.00202519  0.33217511  0.36115438
   0.16704000  0.50116000  0.06077000
   0.16627000  0.49940000  0.18238000
   0.00000000  0.33319000  0.24260000
   0.16685678  0.49942755  0.30487317
   0.49811000  0.50186000  0.06112000
   0.33328000  0.33434000  0.12148000
   0.50051000  0.50053000  0.18145000
   0.33392000  0.33269000  0.24229000
   0.49890471  0.50206953  0.30513603
   0.66687000  0.33418000  0.00129000
   0.66595984  0.33554063  0.36100342
   0.66670000  0.33332000  0.12177000
   0.83466000  0.49916000  0.18181000
   0.66748000  0.33291000  0.24234000
   0.99949000  0.66581000  0.00112000
   0.00186441  0.67012955  0.36162220
   0.16773000  0.83295000  0.06141000
   0.00149000  0.66672000  0.12196000
   0.16592000  0.83389000  0.18235000
   0.99950000  0.66635000  0.24245000
   0.16594238  0.83288624  0.30349399
   0.49825000  0.83185000  0.06189000
   0.50064000  0.83335000  0.18189000
   0.33424000  0.66627000  0.24239000
   0.66521000  0.66629000  0.00100000
   0.65539001  0.67319823  0.36181886
   0.83382000  0.83268000  0.06128000
   0.83390000  0.83311000  0.18191000
   0.66721000  0.66675000  0.24221000
   0.83045869  0.83171922  0.30429103
   0.99760000  0.00330000  0.24221000
   0.66561000  0.99834000  0.00060000
   0.67332596  0.00880508  0.36926597
   0.83467000  0.16589000  0.18209000
   0.99866000  0.33404000  0.12198000
   0.33421000  0.33147000  0.00101000
   0.33492659  0.32150476  0.36415682
   0.83220000  0.50025000  0.06275000
   0.83124010  0.50139529  0.30441326
   0.33512000  0.67037000  0.00000000
   0.32620602  0.66971092  0.36810578
   0.33145000  0.66488000  0.12292000
   0.50229237  0.83331911  0.29906719
   0.67111000  0.66550000  0.12148000
Direct configuration=    31
   0.99950000  0.00032000  0.00103000
   0.99726775  0.99707359  0.36118582
   0.16670000  0.16592000  0.06160000
   0.99930000  0.00013000  0.12183000
   0.16670000  0.16692000  0.18170000
   0.16532713  0.16232265  0.30409887
   0.33368000  0.99986000  0.00108000
   0.34278762  0.99186249  0.35939558
   0.50008000  0.16606000  0.06164000
   0.33365000  0.99945000  0.12194000
   0.50013000  0.16657000  0.18176000
   0.33374000  0.99994000  0.24252000
   0.50427039  0.16481813  0.30293497
   0.83412000  0.16807000  0.06130000
   0.66767000  0.99972000  0.12168000
   0.66792000  0.00032000  0.24233000
   0.83459489  0.16873339  0.30380889
   0.00033000  0.33346000  0.00076000
   0.00196903  0.33211162  0.36111810
   0.16704000  0.50116000  0.06077000
   0.16627000  0.49940000  0.18238000
   0.00000000  0.33319000  0.24260000
   0.16689476  0.49939096  0.30484668
   0.49811000  0.50186000  0.06112000
   0.33328000  0.33434000  0.12148000
   0.50051000  0.50053000  0.18145000
   0.33392000  0.33269000  0.24229000
   0.49886089  0.50205194  0.30516825
   0.66687000  0.33418000  0.00129000
   0.66605224  0.33549795  0.36105196
   0.66670000  0.33332000  0.12177000
   0.83466000  0.49916000  0.18181000
   0.66748000  0.33291000  0.24234000
   0.99949000  0.66581000  0.00112000
   0.00140363  0.66980057  0.36155493
   0.16773000  0.83295000  0.06141000
   0.00149000  0.66672000  0.12196000
   0.16592000  0.83389000  0.18235000
   0.99950000  0.66635000  0.24245000
   0.16581295  0.83274284  0.30350525
   0.49825000  0.83185000  0.06189000
   0.50064000  0.83335000  0.18189000
   0.33424000  0.66627000  0.24239000
   0.66521000  0.66629000  0.00100000
   0.65532096  0.67335058  0.36184967
   0.83382000  0.83268000  0.06128000
   0.83390000  0.83311000  0.18191000
   0.66721000  0.66675000  0.24221000
   0.83053152  0.83175418  0.30432916
   0.99760000  0.00330000  0.24221000
   0.66561000  0.99834000  0.00060000
   0.67354440  0.00891514  0.36928381
   0.83467000  0.16589000  0.18209000
   0.99866000  0.33404000  0.12198000
   0.33421000  0.33147000  0.00101000
   0.33491973  0.32166052  0.36416599
   0.83220000  0.50025000  0.06275000
   0.83123996  0.50129088  0.30439659
   0.33512000  0.67037000  0.00000000
   0.32602395  0.66962391  0.36812794
   0.33145000  0.66488000  0.12292000
   0.50213047  0.83338142  0.29913577
   0.67111000  0.66550000  0.12148000
