Generated by VASPKIT code               
   1.00000000000000     
     8.4969999999999999    0.0000000000000000    0.0000000000000000
    -0.0079997200000000    8.5191962399999994    0.0000000000000000
     0.0000000000000000    0.0000000000000000   23.5736999999999988
   Cr   Fe
    14    48
Selective dynamics
Direct
     0.9955900000000000    0.3282799999999995    0.1209199999999981   F   F   F
     0.3239470577151796    0.3360620729461541    0.3661590616183926   T   T   T
     0.3355400000000017    0.3371700000000004    0.1224399999999974   F   F   F
     0.9980800000000016    0.0029400000000024    0.0013799999999975   F   F   F
     0.0042027783387866    0.0045898327691438    0.3716440364482678   T   T   T
     0.3320500000000024    0.9993399999999966    0.1217100000000002   F   F   F
     0.6668000000000021    0.9988000000000028    0.2434999999999974   F   F   F
     0.8345199999999977    0.1661300000000026    0.0611999999999995   F   F   F
     0.6729399999999970    0.0020400000000009    0.1206900000000033   F   F   F
     0.3340499999999977    0.6669499999999999    0.2411099999999990   F   F   F
     0.9990999999999985    0.6674300000000031    0.1213800000000020   F   F   F
     0.3302020784168852    0.6645315241016811    0.3673907067634769   T   T   T
     0.3315100000000015    0.6680399999999977    0.0017399999999981   F   F   F
     0.3326800000000034    0.3322000000000003    0.0000000000000000   F   F   F
     0.8346599999999995    0.8346000000000018    0.0607600000000019   F   F   F
     0.6679050948190880    0.6652884980947525    0.3603299250985574   T   T   T
     0.6661599999999979    0.6669899999999984    0.0009099999999975   F   F   F
     0.8343328991642509    0.8334503980040581    0.3032082955648863   T   T   T
     0.6670400000000001    0.6674599999999984    0.2422899999999970   F   F   F
     0.5018000000000029    0.8345600000000033    0.1807900000000018   F   F   F
     0.3330600000000032    0.6670900000000017    0.1214299999999966   F   F   F
     0.5000900000000001    0.8356799999999964    0.0616500000000002   F   F   F
     0.8333000000000013    0.8348599999999990    0.1820700000000031   F   F   F
     0.6675100000000000    0.6677999999999997    0.1212700000000027   F   F   F
     0.0032901660931368    0.6673599075711666    0.3600082241532123   T   T   T
     0.1664400000000015    0.8342000000000027    0.0614899999999992   F   F   F
     0.1661457103206810    0.8334906912642428    0.3014215182164055   T   T   T
     0.0013999999999967    0.6661300000000026    0.0009999999999977   F   F   F
     0.8347899999999981    0.5008899999999983    0.1813000000000002   F   F   F
     0.0000700000000009    0.6666900000000027    0.2422499999999985   F   F   F
     0.8346000000000018    0.5005700000000033    0.0613499999999974   F   F   F
     0.6658499999999989    0.3331299999999970    0.1214000000000013   F   F   F
     0.1656499999999994    0.8345600000000033    0.1818299999999979   F   F   F
     0.5012767202885035    0.8330410411227296    0.3023403755149955   T   T   T
     0.0017899999999997    0.3355000000000032    0.0009000000000015   F   F   F
     0.4979500000000030    0.1668999999999983    0.0615000000000023   F   F   F
     0.5007400000000004    0.1649400000000014    0.1814400000000020   F   F   F
     0.8328876318448408    0.1707577537680824    0.3027646778359067   T   T   T
     0.6649999999999991    0.0003999999999991    0.0005999999999986   F   F   F
     0.6674350872314400    0.0023086257374270    0.3607944458320939   T   T   T
     0.8324500000000015    0.1654699999999991    0.1817100000000025   F   F   F
     0.9999699999999976    0.3336100000000002    0.2419799999999981   F   F   F
     0.1627807718692376    0.5009282080845504    0.3009092591685625   T   T   T
     0.3343800000000030    0.9994500000000031    0.2420299999999997   F   F   F
     0.5005269634632026    0.1676415596471754    0.3021212954055982   T   T   T
     0.0005000000000024    0.0005299999999977    0.1217800000000011   F   F   F
     0.1680899999999994    0.1673600000000022    0.1813799999999972   F   F   F
     0.1660888471837132    0.1680069444207873    0.3001619431193601   T   T   T
     0.1676399999999987    0.1683299999999974    0.0617900000000020   F   F   F
     0.9993399999999966    0.0003000000000029    0.2421900000000008   F   F   F
     0.3325000000000031    0.0005700000000033    0.0010600000000025   F   F   F
     0.3307101055830866    0.0018125081231277    0.3580850376408260   T   T   T
     0.1656400000000033    0.4997100000000003    0.1812299999999993   F   F   F
     0.1674599999999984    0.4978699999999989    0.0624699999999976   F   F   F
     0.5003503904957215    0.5000043330380132    0.3019004291560408   T   T   T
     0.3334499999999991    0.3340000000000032    0.2417599999999993   F   F   F
     0.5012800000000013    0.5008699999999990    0.1816699999999969   F   F   F
     0.4979299999999967    0.5002500000000012    0.0611600000000010   F   F   F
     0.8359165344653873    0.4970083258051635    0.3035543740983567   T   T   T
     0.6666299999999978    0.3332899999999981    0.2421799999999976   F   F   F
     0.6607735993832138    0.3334075019008625    0.3609072048373839   T   T   T
     0.6654699999999991    0.3346999999999980    0.0008100000000013   F   F   F
 
  0.00000000E+00  0.00000000E+00  0.00000000E+00
  0.00000000E+00  0.00000000E+00  0.00000000E+00
  0.00000000E+00  0.00000000E+00  0.00000000E+00
  0.00000000E+00  0.00000000E+00  0.00000000E+00
  0.00000000E+00  0.00000000E+00  0.00000000E+00
  0.00000000E+00  0.00000000E+00  0.00000000E+00
  0.00000000E+00  0.00000000E+00  0.00000000E+00
  0.00000000E+00  0.00000000E+00  0.00000000E+00
  0.00000000E+00  0.00000000E+00  0.00000000E+00
  0.00000000E+00  0.00000000E+00  0.00000000E+00
  0.00000000E+00  0.00000000E+00  0.00000000E+00
  0.00000000E+00  0.00000000E+00  0.00000000E+00
  0.00000000E+00  0.00000000E+00  0.00000000E+00
  0.00000000E+00  0.00000000E+00  0.00000000E+00
  0.00000000E+00  0.00000000E+00  0.00000000E+00
  0.00000000E+00  0.00000000E+00  0.00000000E+00
  0.00000000E+00  0.00000000E+00  0.00000000E+00
  0.00000000E+00  0.00000000E+00  0.00000000E+00
  0.00000000E+00  0.00000000E+00  0.00000000E+00
  0.00000000E+00  0.00000000E+00  0.00000000E+00
  0.00000000E+00  0.00000000E+00  0.00000000E+00
  0.00000000E+00  0.00000000E+00  0.00000000E+00
  0.00000000E+00  0.00000000E+00  0.00000000E+00
  0.00000000E+00  0.00000000E+00  0.00000000E+00
  0.00000000E+00  0.00000000E+00  0.00000000E+00
  0.00000000E+00  0.00000000E+00  0.00000000E+00
  0.00000000E+00  0.00000000E+00  0.00000000E+00
  0.00000000E+00  0.00000000E+00  0.00000000E+00
  0.00000000E+00  0.00000000E+00  0.00000000E+00
  0.00000000E+00  0.00000000E+00  0.00000000E+00
  0.00000000E+00  0.00000000E+00  0.00000000E+00
  0.00000000E+00  0.00000000E+00  0.00000000E+00
  0.00000000E+00  0.00000000E+00  0.00000000E+00
  0.00000000E+00  0.00000000E+00  0.00000000E+00
  0.00000000E+00  0.00000000E+00  0.00000000E+00
  0.00000000E+00  0.00000000E+00  0.00000000E+00
  0.00000000E+00  0.00000000E+00  0.00000000E+00
  0.00000000E+00  0.00000000E+00  0.00000000E+00
  0.00000000E+00  0.00000000E+00  0.00000000E+00
  0.00000000E+00  0.00000000E+00  0.00000000E+00
  0.00000000E+00  0.00000000E+00  0.00000000E+00
  0.00000000E+00  0.00000000E+00  0.00000000E+00
  0.00000000E+00  0.00000000E+00  0.00000000E+00
  0.00000000E+00  0.00000000E+00  0.00000000E+00
  0.00000000E+00  0.00000000E+00  0.00000000E+00
  0.00000000E+00  0.00000000E+00  0.00000000E+00
  0.00000000E+00  0.00000000E+00  0.00000000E+00
  0.00000000E+00  0.00000000E+00  0.00000000E+00
  0.00000000E+00  0.00000000E+00  0.00000000E+00
  0.00000000E+00  0.00000000E+00  0.00000000E+00
  0.00000000E+00  0.00000000E+00  0.00000000E+00
  0.00000000E+00  0.00000000E+00  0.00000000E+00
  0.00000000E+00  0.00000000E+00  0.00000000E+00
  0.00000000E+00  0.00000000E+00  0.00000000E+00
  0.00000000E+00  0.00000000E+00  0.00000000E+00
  0.00000000E+00  0.00000000E+00  0.00000000E+00
  0.00000000E+00  0.00000000E+00  0.00000000E+00
  0.00000000E+00  0.00000000E+00  0.00000000E+00
  0.00000000E+00  0.00000000E+00  0.00000000E+00
  0.00000000E+00  0.00000000E+00  0.00000000E+00
  0.00000000E+00  0.00000000E+00  0.00000000E+00
  0.00000000E+00  0.00000000E+00  0.00000000E+00
