  62  62   0   0
  0.2752329E+02  0.8497000E-09  0.8519200E-09  0.2357370E-08  0.5000000E-15
  1.000000000000000E-004
  CAR 
 INCAR-For-OPT                           
      5.38861608    -45.80671509  301      0.84835720      1.00000000
    -45.807  0.0000E+00  0.0000E+00  0.0000E+00  0.0000E+00
    -45.636  0.0000E+00  0.0000E+00  0.0000E+00  0.0000E+00
    -45.465  0.0000E+00  0.0000E+00  0.0000E+00  0.0000E+00
    -45.295  0.0000E+00  0.0000E+00  0.0000E+00  0.0000E+00
    -45.124  0.0000E+00  0.0000E+00  0.0000E+00  0.0000E+00
    -44.953  0.0000E+00  0.0000E+00  0.0000E+00  0.0000E+00
    -44.783  0.0000E+00 -0.8792E-34  0.0000E+00 -0.1500E-34
    -44.612  0.0000E+00 -0.8363E-26  0.0000E+00 -0.1427E-26
    -44.442  0.0000E+00 -0.5930E-19  0.0000E+00 -0.1012E-19
    -44.271 -0.1756E-34 -0.3020E-13 -0.2997E-35 -0.5154E-14
    -44.100 -0.2003E-26 -0.1158E-08 -0.3418E-27 -0.1977E-09
    -43.930 -0.1693E-19 -0.3206E-05 -0.2890E-20 -0.5473E-06
    -43.759 -0.1022E-13 -0.5984E-03 -0.1744E-14 -0.1027E-03
    -43.588 -0.4598E-09 -0.3102E-02 -0.7847E-10 -0.6320E-03
    -43.418 -0.1468E-05  0.7156E-01 -0.2506E-06  0.1158E-01
    -43.247 -0.3051E-03  0.1631E+00 -0.5232E-04  0.3942E-01
    -43.076 -0.1680E-02  0.1403E+00 -0.3390E-03  0.6337E-01
    -42.906  0.3667E-01  0.1050E+00  0.5919E-02  0.8128E-01
    -42.735  0.9174E-01  0.4956E-01  0.2157E-01  0.8974E-01
    -42.564  0.4884E-01  0.2318E-02  0.2991E-01  0.9014E-01
    -42.394  0.3364E-01 -0.1166E-02  0.3565E-01  0.8994E-01
    -42.223  0.4960E-01  0.2492E-02  0.4411E-01  0.9036E-01
    -42.052  0.1044E+00  0.1520E-01  0.6193E-01  0.9296E-01
    -41.882  0.2211E+00  0.6474E-02  0.9965E-01  0.9406E-01
    -41.711  0.1027E+00  0.2462E-01  0.1172E+00  0.9826E-01
    -41.540  0.1911E-01  0.4393E-01  0.1204E+00  0.1058E+00
    -41.370 -0.2466E-02  0.2540E-01  0.1200E+00  0.1101E+00
    -41.199 -0.8530E-04 -0.2715E-03  0.1200E+00  0.1100E+00
    -41.028 -0.1407E-06 -0.2724E-03  0.1200E+00  0.1100E+00
    -40.858 -0.1072E-06 -0.1781E-05  0.1200E+00  0.1100E+00
    -40.687 -0.7649E-04 -0.7851E-09  0.1200E+00  0.1100E+00
    -40.517 -0.2771E-02 -0.3149E-06  0.1195E+00  0.1100E+00
    -40.346  0.2512E-01 -0.9426E-04  0.1238E+00  0.1100E+00
    -40.175  0.8825E-01 -0.9454E-03  0.1389E+00  0.1098E+00
    -40.005  0.8292E-02  0.1334E-01  0.1403E+00  0.1121E+00
    -39.834 -0.1603E-02  0.4498E-01  0.1400E+00  0.1198E+00
    -39.663 -0.2067E-04  0.3887E-01  0.1400E+00  0.1264E+00
    -39.493 -0.1640E-07  0.2036E-01  0.1400E+00  0.1299E+00
    -39.322 -0.9504E-12  0.2235E-01  0.1400E+00  0.1337E+00
    -39.151 -0.4337E-17  0.2868E-01  0.1400E+00  0.1386E+00
    -38.981  0.0000E+00  0.9066E-02  0.1400E+00  0.1401E+00
    -38.810  0.0000E+00 -0.7531E-03  0.1400E+00  0.1400E+00
    -38.639  0.0000E+00 -0.5168E-04  0.1400E+00  0.1400E+00
    -38.469  0.0000E+00 -0.1229E-06  0.1400E+00  0.1400E+00
    -38.298  0.0000E+00 -0.1835E-10  0.1400E+00  0.1400E+00
    -38.127  0.0000E+00 -0.1908E-15  0.1400E+00  0.1400E+00
    -37.957  0.0000E+00  0.0000E+00  0.1400E+00  0.1400E+00
    -37.786  0.0000E+00  0.0000E+00  0.1400E+00  0.1400E+00
    -37.615  0.0000E+00  0.0000E+00  0.1400E+00  0.1400E+00
    -37.445  0.0000E+00  0.0000E+00  0.1400E+00  0.1400E+00
    -37.274  0.0000E+00  0.0000E+00  0.1400E+00  0.1400E+00
    -37.104  0.0000E+00  0.0000E+00  0.1400E+00  0.1400E+00
    -36.933  0.0000E+00  0.0000E+00  0.1400E+00  0.1400E+00
    -36.762  0.0000E+00  0.0000E+00  0.1400E+00  0.1400E+00
    -36.592  0.0000E+00  0.0000E+00  0.1400E+00  0.1400E+00
    -36.421  0.0000E+00  0.0000E+00  0.1400E+00  0.1400E+00
    -36.250  0.0000E+00  0.0000E+00  0.1400E+00  0.1400E+00
    -36.080  0.0000E+00  0.0000E+00  0.1400E+00  0.1400E+00
    -35.909  0.0000E+00  0.0000E+00  0.1400E+00  0.1400E+00
    -35.738  0.0000E+00  0.0000E+00  0.1400E+00  0.1400E+00
    -35.568  0.0000E+00  0.0000E+00  0.1400E+00  0.1400E+00
    -35.397  0.0000E+00  0.0000E+00  0.1400E+00  0.1400E+00
    -35.226  0.0000E+00  0.0000E+00  0.1400E+00  0.1400E+00
    -35.056  0.0000E+00  0.0000E+00  0.1400E+00  0.1400E+00
    -34.885  0.0000E+00  0.0000E+00  0.1400E+00  0.1400E+00
    -34.714  0.0000E+00  0.0000E+00  0.1400E+00  0.1400E+00
    -34.544  0.0000E+00  0.0000E+00  0.1400E+00  0.1400E+00
    -34.373  0.0000E+00  0.0000E+00  0.1400E+00  0.1400E+00
    -34.202  0.0000E+00  0.0000E+00  0.1400E+00  0.1400E+00
    -34.032  0.0000E+00  0.0000E+00  0.1400E+00  0.1400E+00
    -33.861  0.0000E+00  0.0000E+00  0.1400E+00  0.1400E+00
    -33.690  0.0000E+00  0.0000E+00  0.1400E+00  0.1400E+00
    -33.520  0.0000E+00  0.0000E+00  0.1400E+00  0.1400E+00
    -33.349  0.0000E+00  0.0000E+00  0.1400E+00  0.1400E+00
    -33.179  0.0000E+00  0.0000E+00  0.1400E+00  0.1400E+00
    -33.008  0.0000E+00  0.0000E+00  0.1400E+00  0.1400E+00
    -32.837  0.0000E+00  0.0000E+00  0.1400E+00  0.1400E+00
    -32.667  0.0000E+00  0.0000E+00  0.1400E+00  0.1400E+00
    -32.496  0.0000E+00  0.0000E+00  0.1400E+00  0.1400E+00
    -32.325  0.0000E+00  0.0000E+00  0.1400E+00  0.1400E+00
    -32.155  0.0000E+00  0.0000E+00  0.1400E+00  0.1400E+00
    -31.984  0.0000E+00  0.0000E+00  0.1400E+00  0.1400E+00
    -31.813  0.0000E+00  0.0000E+00  0.1400E+00  0.1400E+00
    -31.643  0.0000E+00  0.0000E+00  0.1400E+00  0.1400E+00
    -31.472  0.0000E+00  0.0000E+00  0.1400E+00  0.1400E+00
    -31.301  0.0000E+00  0.0000E+00  0.1400E+00  0.1400E+00
    -31.131  0.0000E+00  0.0000E+00  0.1400E+00  0.1400E+00
    -30.960  0.0000E+00  0.0000E+00  0.1400E+00  0.1400E+00
    -30.789  0.0000E+00  0.0000E+00  0.1400E+00  0.1400E+00
    -30.619  0.0000E+00  0.0000E+00  0.1400E+00  0.1400E+00
    -30.448  0.0000E+00  0.0000E+00  0.1400E+00  0.1400E+00
    -30.277  0.0000E+00  0.0000E+00  0.1400E+00  0.1400E+00
    -30.107  0.0000E+00  0.0000E+00  0.1400E+00  0.1400E+00
    -29.936  0.0000E+00  0.0000E+00  0.1400E+00  0.1400E+00
    -29.766  0.0000E+00  0.0000E+00  0.1400E+00  0.1400E+00
    -29.595  0.0000E+00  0.0000E+00  0.1400E+00  0.1400E+00
    -29.424  0.0000E+00  0.0000E+00  0.1400E+00  0.1400E+00
    -29.254  0.0000E+00  0.0000E+00  0.1400E+00  0.1400E+00
    -29.083  0.0000E+00  0.0000E+00  0.1400E+00  0.1400E+00
    -28.912  0.0000E+00  0.0000E+00  0.1400E+00  0.1400E+00
    -28.742  0.0000E+00  0.0000E+00  0.1400E+00  0.1400E+00
    -28.571  0.0000E+00  0.0000E+00  0.1400E+00  0.1400E+00
    -28.400  0.0000E+00  0.0000E+00  0.1400E+00  0.1400E+00
    -28.230  0.0000E+00  0.0000E+00  0.1400E+00  0.1400E+00
    -28.059  0.0000E+00  0.0000E+00  0.1400E+00  0.1400E+00
    -27.888  0.0000E+00  0.0000E+00  0.1400E+00  0.1400E+00
    -27.718  0.0000E+00  0.0000E+00  0.1400E+00  0.1400E+00
    -27.547  0.0000E+00  0.0000E+00  0.1400E+00  0.1400E+00
    -27.376  0.0000E+00  0.0000E+00  0.1400E+00  0.1400E+00
    -27.206  0.0000E+00  0.0000E+00  0.1400E+00  0.1400E+00
    -27.035  0.0000E+00  0.0000E+00  0.1400E+00  0.1400E+00
    -26.864  0.0000E+00  0.0000E+00  0.1400E+00  0.1400E+00
    -26.694  0.0000E+00  0.0000E+00  0.1400E+00  0.1400E+00
    -26.523  0.0000E+00  0.0000E+00  0.1400E+00  0.1400E+00
    -26.352  0.0000E+00  0.0000E+00  0.1400E+00  0.1400E+00
    -26.182  0.0000E+00  0.0000E+00  0.1400E+00  0.1400E+00
    -26.011  0.0000E+00  0.0000E+00  0.1400E+00  0.1400E+00
    -25.841  0.0000E+00  0.0000E+00  0.1400E+00  0.1400E+00
    -25.670  0.0000E+00  0.0000E+00  0.1400E+00  0.1400E+00
    -25.499  0.0000E+00  0.0000E+00  0.1400E+00  0.1400E+00
    -25.329  0.0000E+00  0.0000E+00  0.1400E+00  0.1400E+00
    -25.158  0.0000E+00  0.0000E+00  0.1400E+00  0.1400E+00
    -24.987  0.0000E+00  0.0000E+00  0.1400E+00  0.1400E+00
    -24.817  0.0000E+00  0.0000E+00  0.1400E+00  0.1400E+00
    -24.646  0.0000E+00  0.0000E+00  0.1400E+00  0.1400E+00
    -24.475  0.0000E+00  0.0000E+00  0.1400E+00  0.1400E+00
    -24.305  0.0000E+00  0.0000E+00  0.1400E+00  0.1400E+00
    -24.134  0.0000E+00  0.0000E+00  0.1400E+00  0.1400E+00
    -23.963  0.0000E+00  0.0000E+00  0.1400E+00  0.1400E+00
    -23.793  0.0000E+00  0.0000E+00  0.1400E+00  0.1400E+00
    -23.622  0.0000E+00  0.0000E+00  0.1400E+00  0.1400E+00
    -23.451  0.0000E+00  0.0000E+00  0.1400E+00  0.1400E+00
    -23.281  0.0000E+00  0.0000E+00  0.1400E+00  0.1400E+00
    -23.110  0.0000E+00  0.0000E+00  0.1400E+00  0.1400E+00
    -22.939  0.0000E+00  0.0000E+00  0.1400E+00  0.1400E+00
    -22.769  0.0000E+00  0.0000E+00  0.1400E+00  0.1400E+00
    -22.598  0.0000E+00  0.0000E+00  0.1400E+00  0.1400E+00
    -22.428  0.0000E+00  0.0000E+00  0.1400E+00  0.1400E+00
    -22.257  0.0000E+00  0.0000E+00  0.1400E+00  0.1400E+00
    -22.086  0.0000E+00  0.0000E+00  0.1400E+00  0.1400E+00
    -21.916  0.0000E+00  0.0000E+00  0.1400E+00  0.1400E+00
    -21.745  0.0000E+00  0.0000E+00  0.1400E+00  0.1400E+00
    -21.574  0.0000E+00  0.0000E+00  0.1400E+00  0.1400E+00
    -21.404  0.0000E+00  0.0000E+00  0.1400E+00  0.1400E+00
    -21.233  0.0000E+00  0.0000E+00  0.1400E+00  0.1400E+00
    -21.062  0.0000E+00  0.0000E+00  0.1400E+00  0.1400E+00
    -20.892  0.0000E+00  0.0000E+00  0.1400E+00  0.1400E+00
    -20.721  0.0000E+00  0.0000E+00  0.1400E+00  0.1400E+00
    -20.550  0.0000E+00  0.0000E+00  0.1400E+00  0.1400E+00
    -20.380  0.0000E+00  0.0000E+00  0.1400E+00  0.1400E+00
    -20.209  0.0000E+00  0.0000E+00  0.1400E+00  0.1400E+00
    -20.038  0.0000E+00  0.0000E+00  0.1400E+00  0.1400E+00
    -19.868  0.0000E+00  0.0000E+00  0.1400E+00  0.1400E+00
    -19.697  0.0000E+00  0.0000E+00  0.1400E+00  0.1400E+00
    -19.526  0.0000E+00  0.0000E+00  0.1400E+00  0.1400E+00
    -19.356  0.0000E+00  0.0000E+00  0.1400E+00  0.1400E+00
    -19.185  0.0000E+00  0.0000E+00  0.1400E+00  0.1400E+00
    -19.014  0.0000E+00  0.0000E+00  0.1400E+00  0.1400E+00
    -18.844  0.0000E+00  0.0000E+00  0.1400E+00  0.1400E+00
    -18.673  0.0000E+00  0.0000E+00  0.1400E+00  0.1400E+00
    -18.503  0.0000E+00  0.0000E+00  0.1400E+00  0.1400E+00
    -18.332  0.0000E+00  0.0000E+00  0.1400E+00  0.1400E+00
    -18.161  0.0000E+00  0.0000E+00  0.1400E+00  0.1400E+00
    -17.991  0.0000E+00  0.0000E+00  0.1400E+00  0.1400E+00
    -17.820  0.0000E+00  0.0000E+00  0.1400E+00  0.1400E+00
    -17.649  0.0000E+00  0.0000E+00  0.1400E+00  0.1400E+00
    -17.479  0.0000E+00  0.0000E+00  0.1400E+00  0.1400E+00
    -17.308  0.0000E+00  0.0000E+00  0.1400E+00  0.1400E+00
    -17.137  0.0000E+00  0.0000E+00  0.1400E+00  0.1400E+00
    -16.967  0.0000E+00  0.0000E+00  0.1400E+00  0.1400E+00
    -16.796  0.0000E+00  0.0000E+00  0.1400E+00  0.1400E+00
    -16.625  0.0000E+00  0.0000E+00  0.1400E+00  0.1400E+00
    -16.455  0.0000E+00  0.0000E+00  0.1400E+00  0.1400E+00
    -16.284  0.0000E+00  0.0000E+00  0.1400E+00  0.1400E+00
    -16.113  0.0000E+00  0.0000E+00  0.1400E+00  0.1400E+00
    -15.943  0.0000E+00  0.0000E+00  0.1400E+00  0.1400E+00
    -15.772  0.0000E+00  0.0000E+00  0.1400E+00  0.1400E+00
    -15.601  0.0000E+00  0.0000E+00  0.1400E+00  0.1400E+00
    -15.431  0.0000E+00  0.0000E+00  0.1400E+00  0.1400E+00
    -15.260  0.0000E+00  0.0000E+00  0.1400E+00  0.1400E+00
    -15.090  0.0000E+00  0.0000E+00  0.1400E+00  0.1400E+00
    -14.919  0.0000E+00  0.0000E+00  0.1400E+00  0.1400E+00
    -14.748  0.0000E+00  0.0000E+00  0.1400E+00  0.1400E+00
    -14.578  0.0000E+00  0.0000E+00  0.1400E+00  0.1400E+00
    -14.407  0.0000E+00  0.0000E+00  0.1400E+00  0.1400E+00
    -14.236  0.0000E+00  0.0000E+00  0.1400E+00  0.1400E+00
    -14.066  0.0000E+00  0.0000E+00  0.1400E+00  0.1400E+00
    -13.895  0.0000E+00  0.0000E+00  0.1400E+00  0.1400E+00
    -13.724  0.0000E+00  0.0000E+00  0.1400E+00  0.1400E+00
    -13.554  0.0000E+00  0.0000E+00  0.1400E+00  0.1400E+00
    -13.383  0.0000E+00  0.0000E+00  0.1400E+00  0.1400E+00
    -13.212  0.0000E+00  0.0000E+00  0.1400E+00  0.1400E+00
    -13.042  0.0000E+00  0.0000E+00  0.1400E+00  0.1400E+00
    -12.871  0.0000E+00  0.0000E+00  0.1400E+00  0.1400E+00
    -12.700  0.0000E+00  0.0000E+00  0.1400E+00  0.1400E+00
    -12.530  0.0000E+00  0.0000E+00  0.1400E+00  0.1400E+00
    -12.359  0.0000E+00  0.0000E+00  0.1400E+00  0.1400E+00
    -12.188  0.0000E+00  0.0000E+00  0.1400E+00  0.1400E+00
    -12.018  0.0000E+00  0.0000E+00  0.1400E+00  0.1400E+00
    -11.847  0.0000E+00  0.0000E+00  0.1400E+00  0.1400E+00
    -11.676  0.0000E+00  0.0000E+00  0.1400E+00  0.1400E+00
    -11.506  0.0000E+00  0.0000E+00  0.1400E+00  0.1400E+00
    -11.335  0.0000E+00  0.0000E+00  0.1400E+00  0.1400E+00
    -11.165  0.0000E+00  0.0000E+00  0.1400E+00  0.1400E+00
    -10.994  0.0000E+00  0.0000E+00  0.1400E+00  0.1400E+00
    -10.823  0.0000E+00  0.0000E+00  0.1400E+00  0.1400E+00
    -10.653  0.0000E+00  0.0000E+00  0.1400E+00  0.1400E+00
    -10.482  0.0000E+00  0.0000E+00  0.1400E+00  0.1400E+00
    -10.311  0.0000E+00  0.0000E+00  0.1400E+00  0.1400E+00
    -10.141  0.0000E+00  0.0000E+00  0.1400E+00  0.1400E+00
     -9.970  0.0000E+00  0.0000E+00  0.1400E+00  0.1400E+00
     -9.799  0.0000E+00  0.0000E+00  0.1400E+00  0.1400E+00
     -9.629  0.0000E+00  0.0000E+00  0.1400E+00  0.1400E+00
     -9.458  0.0000E+00  0.0000E+00  0.1400E+00  0.1400E+00
     -9.287  0.0000E+00  0.0000E+00  0.1400E+00  0.1400E+00
     -9.117  0.0000E+00  0.0000E+00  0.1400E+00  0.1400E+00
     -8.946  0.0000E+00  0.0000E+00  0.1400E+00  0.1400E+00
     -8.775  0.0000E+00  0.0000E+00  0.1400E+00  0.1400E+00
     -8.605 -0.4342E-33 -0.7512E-38  0.1400E+00  0.1400E+00
     -8.434 -0.2176E-25 -0.1601E-29  0.1400E+00  0.1400E+00
     -8.263 -0.7994E-19 -0.2510E-22  0.1400E+00  0.1400E+00
     -8.093 -0.2048E-13 -0.2786E-16  0.1400E+00  0.1400E+00
     -7.922 -0.3790E-09 -0.2258E-11  0.1400E+00  0.1400E+00
     -7.752 -0.4669E-06 -0.1264E-07  0.1400E+00  0.1400E+00
     -7.581 -0.3246E-04 -0.4478E-05  0.1400E+00  0.1400E+00
     -7.410  0.5291E-04 -0.6921E-04  0.1400E+00  0.1400E+00
     -7.240  0.2349E-02  0.6083E-03  0.1404E+00  0.1401E+00
     -7.069  0.5903E-02  0.4274E-02  0.1414E+00  0.1408E+00
     -6.898  0.2882E-02  0.5334E-02  0.1419E+00  0.1417E+00
     -6.728  0.5021E-02  0.2054E-02  0.1428E+00  0.1421E+00
     -6.557  0.8646E-02  0.7955E-02  0.1442E+00  0.1434E+00
     -6.386  0.1168E-02  0.5534E-02  0.1444E+00  0.1444E+00
     -6.216  0.6751E-02  0.1056E-02  0.1456E+00  0.1446E+00
     -6.045  0.1496E-01  0.9262E-02  0.1481E+00  0.1461E+00
     -5.874  0.1007E-01  0.1486E-01  0.1499E+00  0.1487E+00
     -5.704  0.1044E-01  0.7649E-02  0.1516E+00  0.1500E+00
     -5.533  0.1153E-01  0.1177E-01  0.1536E+00  0.1520E+00
     -5.362  0.5280E-02  0.9969E-02  0.1545E+00  0.1537E+00
     -5.192  0.1893E-01  0.4146E-02  0.1577E+00  0.1544E+00
     -5.021  0.1703E-01  0.1837E-01  0.1606E+00  0.1575E+00
     -4.850  0.1597E-01  0.1604E-01  0.1634E+00  0.1603E+00
     -4.680  0.1774E-01  0.1231E-01  0.1664E+00  0.1624E+00
     -4.509  0.2539E-01  0.1543E-01  0.1707E+00  0.1650E+00
     -4.338  0.2719E-01  0.1265E-01  0.1754E+00  0.1672E+00
     -4.168  0.4007E-01  0.3055E-01  0.1822E+00  0.1724E+00
     -3.997  0.6041E-01  0.2159E-01  0.1925E+00  0.1761E+00
     -3.827  0.8713E-01  0.2431E-01  0.2074E+00  0.1802E+00
     -3.656  0.1215E+00  0.2279E-01  0.2281E+00  0.1841E+00
     -3.485  0.1201E+00  0.3009E-01  0.2486E+00  0.1892E+00
     -3.315  0.1560E+00  0.4791E-01  0.2752E+00  0.1974E+00
     -3.144  0.1737E+00  0.6288E-01  0.3049E+00  0.2081E+00
     -2.973  0.1415E+00  0.6064E-01  0.3290E+00  0.2185E+00
     -2.803  0.1492E+00  0.7697E-01  0.3545E+00  0.2316E+00
     -2.632  0.2151E+00  0.6922E-01  0.3912E+00  0.2434E+00
     -2.461  0.2565E+00  0.8981E-01  0.4350E+00  0.2588E+00
     -2.291  0.2279E+00  0.9922E-01  0.4739E+00  0.2757E+00
     -2.120  0.2216E+00  0.1031E+00  0.5117E+00  0.2933E+00
     -1.949  0.2314E+00  0.1070E+00  0.5512E+00  0.3116E+00
     -1.779  0.2208E+00  0.1048E+00  0.5889E+00  0.3294E+00
     -1.608  0.2261E+00  0.1277E+00  0.6274E+00  0.3512E+00
     -1.437  0.2051E+00  0.1631E+00  0.6624E+00  0.3791E+00
     -1.267  0.1668E+00  0.1711E+00  0.6909E+00  0.4083E+00
     -1.096  0.1625E+00  0.1659E+00  0.7186E+00  0.4366E+00
     -0.925  0.1792E+00  0.1730E+00  0.7492E+00  0.4661E+00
     -0.755  0.2098E+00  0.1844E+00  0.7850E+00  0.4976E+00
     -0.584  0.2514E+00  0.1899E+00  0.8279E+00  0.5300E+00
     -0.414  0.2988E+00  0.2035E+00  0.8789E+00  0.5647E+00
     -0.243  0.2879E+00  0.2062E+00  0.9281E+00  0.5999E+00
     -0.072  0.2187E+00  0.1712E+00  0.9654E+00  0.6291E+00
      0.098  0.1636E+00  0.1428E+00  0.9933E+00  0.6535E+00
      0.269  0.1522E+00  0.1413E+00  0.1019E+01  0.6776E+00
      0.440  0.1394E+00  0.1251E+00  0.1043E+01  0.6989E+00
      0.610  0.1434E+00  0.1071E+00  0.1068E+01  0.7172E+00
      0.781  0.1254E+00  0.1063E+00  0.1089E+01  0.7354E+00
      0.952  0.1094E+00  0.1249E+00  0.1108E+01  0.7567E+00
      1.122  0.1137E+00  0.1433E+00  0.1127E+01  0.7811E+00
      1.293  0.1254E+00  0.1804E+00  0.1148E+01  0.8119E+00
      1.464  0.1095E+00  0.2060E+00  0.1167E+01  0.8471E+00
      1.634  0.1143E+00  0.2242E+00  0.1187E+01  0.8853E+00
      1.805  0.1064E+00  0.2269E+00  0.1205E+01  0.9240E+00
      1.976  0.3282E-01  0.2680E+00  0.1210E+01  0.9698E+00
      2.146 -0.1672E-02  0.3051E+00  0.1210E+01  0.1022E+01
      2.317 -0.2711E-03  0.3111E+00  0.1210E+01  0.1075E+01
      2.488 -0.3435E-05  0.2934E+00  0.1210E+01  0.1125E+01
      2.658 -0.4726E-08  0.2446E+00  0.1210E+01  0.1167E+01
      2.829 -0.5127E-12  0.1643E+00  0.1210E+01  0.1195E+01
      3.000 -0.4066E-17  0.8298E-01  0.1210E+01  0.1209E+01
      3.170  0.0000E+00  0.7571E-02  0.1210E+01  0.1210E+01
      3.341  0.0000E+00 -0.1315E-02  0.1210E+01  0.1210E+01
      3.511  0.0000E+00 -0.5420E-04  0.1210E+01  0.1210E+01
      3.682  0.0000E+00 -0.2131E-06  0.1210E+01  0.1210E+01
      3.853  0.0000E+00 -0.7175E-10  0.1210E+01  0.1210E+01
      4.023  0.0000E+00 -0.1854E-14  0.1210E+01  0.1210E+01
      4.194  0.0000E+00  0.0000E+00  0.1210E+01  0.1210E+01
      4.365  0.0000E+00  0.0000E+00  0.1210E+01  0.1210E+01
      4.535  0.0000E+00  0.0000E+00  0.1210E+01  0.1210E+01
      4.706  0.0000E+00  0.0000E+00  0.1210E+01  0.1210E+01
      4.877  0.0000E+00  0.0000E+00  0.1210E+01  0.1210E+01
      5.047  0.0000E+00  0.0000E+00  0.1210E+01  0.1210E+01
      5.218  0.0000E+00  0.0000E+00  0.1210E+01  0.1210E+01
      5.389  0.0000E+00  0.0000E+00  0.1210E+01  0.1210E+01
