INCAR-For-OPT                           
           1
     8.497000    0.000000    0.000000
    -0.008000    8.519196    0.000000
     0.000000    0.000000   23.573700
   Cr   Fe
    14    48
Direct configuration=     1
   0.99559000  0.32828000  0.12092000
   0.33225100  0.34081600  0.36352900
   0.33554000  0.33717000  0.12244000
   0.99808000  0.00294000  0.00138000
   0.00162400  0.99998900  0.36485800
   0.33205000  0.99934000  0.12171000
   0.66680000  0.99880000  0.24350000
   0.83452000  0.16613000  0.06120000
   0.67294000  0.00204000  0.12069000
   0.33405000  0.66695000  0.24111000
   0.99910000  0.66743000  0.12138000
   0.33218300  0.66113100  0.37337200
   0.33151000  0.66804000  0.00174000
   0.33268000  0.33220000  0.00000000
   0.83466000  0.83460000  0.06076000
   0.66723100  0.66600100  0.36044700
   0.66616000  0.66699000  0.00091000
   0.83303000  0.83213500  0.30404400
   0.66704000  0.66746000  0.24229000
   0.50180000  0.83456000  0.18079000
   0.33306000  0.66709000  0.12143000
   0.50009000  0.83568000  0.06165000
   0.83330000  0.83486000  0.18207000
   0.66751000  0.66780000  0.12127000
   0.00129300  0.66629900  0.36053600
   0.16644000  0.83420000  0.06149000
   0.16906500  0.83213500  0.30266100
   0.00140000  0.66613000  0.00100000
   0.83479000  0.50089000  0.18130000
   0.00007000  0.66669000  0.24225000
   0.83460000  0.50057000  0.06135000
   0.66585000  0.33313000  0.12140000
   0.16565000  0.83456000  0.18183000
   0.49917500  0.83473600  0.30335900
   0.00179000  0.33550000  0.00090000
   0.49795000  0.16690000  0.06150000
   0.50074000  0.16494000  0.18144000
   0.83220700  0.16907700  0.30412700
   0.66500000  0.00040000  0.00060000
   0.66969400  0.00161400  0.36224500
   0.83245000  0.16547000  0.18171000
   0.99997000  0.33361000  0.24198000
   0.16349000  0.50215600  0.30191400
   0.33438000  0.99945000  0.24203000
   0.50014600  0.16497300  0.30356600
   0.00050000  0.00053000  0.12178000
   0.16809000  0.16736000  0.18138000
   0.16838100  0.16743800  0.30204300
   0.16764000  0.16833000  0.06179000
   0.99934000  0.00030000  0.24219000
   0.33250000  0.00057000  0.00106000
   0.32950900  0.00054100  0.35996100
   0.16564000  0.49971000  0.18123000
   0.16746000  0.49787000  0.06247000
   0.50316800  0.50201900  0.30218200
   0.33345000  0.33400000  0.24176000
   0.50128000  0.50087000  0.18167000
   0.49793000  0.50025000  0.06116000
   0.83385500  0.49874000  0.30365200
   0.66663000  0.33329000  0.24218000
   0.65956000  0.33276000  0.36172800
   0.66547000  0.33470000  0.00081000
Direct configuration=     2
   0.99559000  0.32828000  0.12092000
   0.33090948  0.33979334  0.36380124
   0.33554000  0.33717000  0.12244000
   0.99808000  0.00294000  0.00138000
   0.00206869  0.00055944  0.36607143
   0.33205000  0.99934000  0.12171000
   0.66680000  0.99880000  0.24350000
   0.83452000  0.16613000  0.06120000
   0.67294000  0.00204000  0.12069000
   0.33405000  0.66695000  0.24111000
   0.99910000  0.66743000  0.12138000
   0.33212472  0.66176474  0.37265849
   0.33151000  0.66804000  0.00174000
   0.33268000  0.33220000  0.00000000
   0.83466000  0.83460000  0.06076000
   0.66713225  0.66604851  0.36077659
   0.66616000  0.66699000  0.00091000
   0.83282522  0.83186927  0.30336707
   0.66704000  0.66746000  0.24229000
   0.50180000  0.83456000  0.18079000
   0.33306000  0.66709000  0.12143000
   0.50009000  0.83568000  0.06165000
   0.83330000  0.83486000  0.18207000
   0.66751000  0.66780000  0.12127000
   0.00176698  0.66640528  0.36054786
   0.16644000  0.83420000  0.06149000
   0.16905333  0.83109804  0.30219076
   0.00140000  0.66613000  0.00100000
   0.83479000  0.50089000  0.18130000
   0.00007000  0.66669000  0.24225000
   0.83460000  0.50057000  0.06135000
   0.66585000  0.33313000  0.12140000
   0.16565000  0.83456000  0.18183000
   0.49955925  0.83369524  0.30332310
   0.00179000  0.33550000  0.00090000
   0.49795000  0.16690000  0.06150000
   0.50074000  0.16494000  0.18144000
   0.83181571  0.17027012  0.30349401
   0.66500000  0.00040000  0.00060000
   0.66938097  0.00157049  0.36205006
   0.83245000  0.16547000  0.18171000
   0.99997000  0.33361000  0.24198000
   0.16372205  0.50189435  0.30175553
   0.33438000  0.99945000  0.24203000
   0.50074814  0.16565273  0.30310382
   0.00050000  0.00053000  0.12178000
   0.16809000  0.16736000  0.18138000
   0.16821104  0.16837138  0.30147644
   0.16764000  0.16833000  0.06179000
   0.99934000  0.00030000  0.24219000
   0.33250000  0.00057000  0.00106000
   0.32957181  0.00099680  0.35988501
   0.16564000  0.49971000  0.18123000
   0.16746000  0.49787000  0.06247000
   0.50185153  0.50192407  0.30207962
   0.33345000  0.33400000  0.24176000
   0.50128000  0.50087000  0.18167000
   0.49793000  0.50025000  0.06116000
   0.83467068  0.49776777  0.30356743
   0.66663000  0.33329000  0.24218000
   0.66001261  0.33300418  0.36159250
   0.66547000  0.33470000  0.00081000
Direct configuration=     3
   0.99559000  0.32828000  0.12092000
   0.32871313  0.33811903  0.36424694
   0.33554000  0.33717000  0.12244000
   0.99808000  0.00294000  0.00138000
   0.00279674  0.00149337  0.36805806
   0.33205000  0.99934000  0.12171000
   0.66680000  0.99880000  0.24350000
   0.83452000  0.16613000  0.06120000
   0.67294000  0.00204000  0.12069000
   0.33405000  0.66695000  0.24111000
   0.99910000  0.66743000  0.12138000
   0.33202930  0.66280229  0.37149033
   0.33151000  0.66804000  0.00174000
   0.33268000  0.33220000  0.00000000
   0.83466000  0.83460000  0.06076000
   0.66697057  0.66612630  0.36131619
   0.66616000  0.66699000  0.00091000
   0.83248995  0.83143422  0.30225879
   0.66704000  0.66746000  0.24229000
   0.50180000  0.83456000  0.18079000
   0.33306000  0.66709000  0.12143000
   0.50009000  0.83568000  0.06165000
   0.83330000  0.83486000  0.18207000
   0.66751000  0.66780000  0.12127000
   0.00254299  0.66657929  0.36056727
   0.16644000  0.83420000  0.06149000
   0.16903423  0.82940031  0.30142089
   0.00140000  0.66613000  0.00100000
   0.83479000  0.50089000  0.18130000
   0.00007000  0.66669000  0.24225000
   0.83460000  0.50057000  0.06135000
   0.66585000  0.33313000  0.12140000
   0.16565000  0.83456000  0.18183000
   0.50018834  0.83199130  0.30326432
   0.00179000  0.33550000  0.00090000
   0.49795000  0.16690000  0.06150000
   0.50074000  0.16494000  0.18144000
   0.83117510  0.17222349  0.30245767
   0.66500000  0.00040000  0.00060000
   0.66886848  0.00149925  0.36173091
   0.83245000  0.16547000  0.18171000
   0.99997000  0.33361000  0.24198000
   0.16410197  0.50146597  0.30149610
   0.33438000  0.99945000  0.24203000
   0.50173396  0.16676558  0.30234713
   0.00050000  0.00053000  0.12178000
   0.16809000  0.16736000  0.18138000
   0.16793277  0.16989952  0.30054887
   0.16764000  0.16833000  0.06179000
   0.99934000  0.00030000  0.24219000
   0.33250000  0.00057000  0.00106000
   0.32967465  0.00174304  0.35976061
   0.16564000  0.49971000  0.18123000
   0.16746000  0.49787000  0.06247000
   0.49969621  0.50176865  0.30191201
   0.33345000  0.33400000  0.24176000
   0.50128000  0.50087000  0.18167000
   0.49793000  0.50025000  0.06116000
   0.83600611  0.49617603  0.30342896
   0.66663000  0.33329000  0.24218000
   0.66075362  0.33340396  0.36137066
   0.66547000  0.33470000  0.00081000
Direct configuration=     4
   0.99559000  0.32828000  0.12092000
   0.32752625  0.33710204  0.36465690
   0.33554000  0.33717000  0.12244000
   0.99808000  0.00294000  0.00138000
   0.00304227  0.00199795  0.36894924
   0.33205000  0.99934000  0.12171000
   0.66680000  0.99880000  0.24350000
   0.83452000  0.16613000  0.06120000
   0.67294000  0.00204000  0.12069000
   0.33405000  0.66695000  0.24111000
   0.99910000  0.66743000  0.12138000
   0.33164317  0.66327231  0.37076506
   0.33151000  0.66804000  0.00174000
   0.33268000  0.33220000  0.00000000
   0.83466000  0.83460000  0.06076000
   0.66735564  0.66584726  0.36122933
   0.66616000  0.66699000  0.00091000
   0.83300376  0.83169737  0.30246548
   0.66704000  0.66746000  0.24229000
   0.50180000  0.83456000  0.18079000
   0.33306000  0.66709000  0.12143000
   0.50009000  0.83568000  0.06165000
   0.83330000  0.83486000  0.18207000
   0.66751000  0.66780000  0.12127000
   0.00281375  0.66661550  0.36026723
   0.16644000  0.83420000  0.06149000
   0.16839649  0.83044002  0.30147742
   0.00140000  0.66613000  0.00100000
   0.83479000  0.50089000  0.18130000
   0.00007000  0.66669000  0.24225000
   0.83460000  0.50057000  0.06135000
   0.66585000  0.33313000  0.12140000
   0.16565000  0.83456000  0.18183000
   0.50041021  0.83236918  0.30323200
   0.00179000  0.33550000  0.00090000
   0.49795000  0.16690000  0.06150000
   0.50074000  0.16494000  0.18144000
   0.83159031  0.17180614  0.30233329
   0.66500000  0.00040000  0.00060000
   0.66821255  0.00144095  0.36124496
   0.83245000  0.16547000  0.18171000
   0.99997000  0.33361000  0.24198000
   0.16381471  0.50129251  0.30136042
   0.33438000  0.99945000  0.24203000
   0.50145553  0.16666853  0.30226039
   0.00050000  0.00053000  0.12178000
   0.16809000  0.16736000  0.18138000
   0.16757311  0.16946791  0.30026218
   0.16764000  0.16833000  0.06179000
   0.99934000  0.00030000  0.24219000
   0.33250000  0.00057000  0.00106000
   0.33023197  0.00201655  0.35914510
   0.16564000  0.49971000  0.18123000
   0.16746000  0.49787000  0.06247000
   0.49997254  0.50146423  0.30197203
   0.33345000  0.33400000  0.24176000
   0.50128000  0.50087000  0.18167000
   0.49793000  0.50025000  0.06116000
   0.83609033  0.49649125  0.30359459
   0.66663000  0.33329000  0.24218000
   0.66097121  0.33380379  0.36111538
   0.66547000  0.33470000  0.00081000
Direct configuration=     5
   0.99559000  0.32828000  0.12092000
   0.32491555  0.33486501  0.36555867
   0.33554000  0.33717000  0.12244000
   0.99808000  0.00294000  0.00138000
   0.00358237  0.00310784  0.37090954
   0.33205000  0.99934000  0.12171000
   0.66680000  0.99880000  0.24350000
   0.83452000  0.16613000  0.06120000
   0.67294000  0.00204000  0.12069000
   0.33405000  0.66695000  0.24111000
   0.99910000  0.66743000  0.12138000
   0.33079380  0.66430619  0.36916973
   0.33151000  0.66804000  0.00174000
   0.33268000  0.33220000  0.00000000
   0.83466000  0.83460000  0.06076000
   0.66820267  0.66523348  0.36103828
   0.66616000  0.66699000  0.00091000
   0.83413398  0.83227622  0.30292011
   0.66704000  0.66746000  0.24229000
   0.50180000  0.83456000  0.18079000
   0.33306000  0.66709000  0.12143000
   0.50009000  0.83568000  0.06165000
   0.83330000  0.83486000  0.18207000
   0.66751000  0.66780000  0.12127000
   0.00340931  0.66669517  0.35960722
   0.16644000  0.83420000  0.06149000
   0.16699366  0.83272701  0.30160178
   0.00140000  0.66613000  0.00100000
   0.83479000  0.50089000  0.18130000
   0.00007000  0.66669000  0.24225000
   0.83460000  0.50057000  0.06135000
   0.66585000  0.33313000  0.12140000
   0.16565000  0.83456000  0.18183000
   0.50089824  0.83320040  0.30316090
   0.00179000  0.33550000  0.00090000
   0.49795000  0.16690000  0.06150000
   0.50074000  0.16494000  0.18144000
   0.83250364  0.17088813  0.30205971
   0.66500000  0.00040000  0.00060000
   0.66676972  0.00131272  0.36017605
   0.83245000  0.16547000  0.18171000
   0.99997000  0.33361000  0.24198000
   0.16318284  0.50091098  0.30106199
   0.33438000  0.99945000  0.24203000
   0.50084307  0.16645505  0.30206958
   0.00050000  0.00053000  0.12178000
   0.16809000  0.16736000  0.18138000
   0.16678197  0.16851850  0.29963155
   0.16764000  0.16833000  0.06179000
   0.99934000  0.00030000  0.24219000
   0.33250000  0.00057000  0.00106000
   0.33145790  0.00261817  0.35779119
   0.16564000  0.49971000  0.18123000
   0.16746000  0.49787000  0.06247000
   0.50058038  0.50079459  0.30210403
   0.33345000  0.33400000  0.24176000
   0.50128000  0.50087000  0.18167000
   0.49793000  0.50025000  0.06116000
   0.83627558  0.49718464  0.30395892
   0.66663000  0.33329000  0.24218000
   0.66144984  0.33468326  0.36055385
   0.66547000  0.33470000  0.00081000
Direct configuration=     6
   0.99559000  0.32828000  0.12092000
   0.32530534  0.33519901  0.36542403
   0.33554000  0.33717000  0.12244000
   0.99808000  0.00294000  0.00138000
   0.00350173  0.00294212  0.37061686
   0.33205000  0.99934000  0.12171000
   0.66680000  0.99880000  0.24350000
   0.83452000  0.16613000  0.06120000
   0.67294000  0.00204000  0.12069000
   0.33405000  0.66695000  0.24111000
   0.99910000  0.66743000  0.12138000
   0.33092062  0.66415183  0.36940792
   0.33151000  0.66804000  0.00174000
   0.33268000  0.33220000  0.00000000
   0.83466000  0.83460000  0.06076000
   0.66807620  0.66532512  0.36106680
   0.66616000  0.66699000  0.00091000
   0.83396523  0.83218980  0.30285223
   0.66704000  0.66746000  0.24229000
   0.50180000  0.83456000  0.18079000
   0.33306000  0.66709000  0.12143000
   0.50009000  0.83568000  0.06165000
   0.83330000  0.83486000  0.18207000
   0.66751000  0.66780000  0.12127000
   0.00332039  0.66668328  0.35970576
   0.16644000  0.83420000  0.06149000
   0.16720311  0.83238555  0.30158321
   0.00140000  0.66613000  0.00100000
   0.83479000  0.50089000  0.18130000
   0.00007000  0.66669000  0.24225000
   0.83460000  0.50057000  0.06135000
   0.66585000  0.33313000  0.12140000
   0.16565000  0.83456000  0.18183000
   0.50082537  0.83307630  0.30317152
   0.00179000  0.33550000  0.00090000
   0.49795000  0.16690000  0.06150000
   0.50074000  0.16494000  0.18144000
   0.83236727  0.17102519  0.30210056
   0.66500000  0.00040000  0.00060000
   0.66698515  0.00133187  0.36033565
   0.83245000  0.16547000  0.18171000
   0.99997000  0.33361000  0.24198000
   0.16327718  0.50096795  0.30110655
   0.33438000  0.99945000  0.24203000
   0.50093452  0.16648692  0.30209807
   0.00050000  0.00053000  0.12178000
   0.16809000  0.16736000  0.18138000
   0.16690009  0.16866025  0.29972570
   0.16764000  0.16833000  0.06179000
   0.99934000  0.00030000  0.24219000
   0.33250000  0.00057000  0.00106000
   0.33127486  0.00252834  0.35799334
   0.16564000  0.49971000  0.18123000
   0.16746000  0.49787000  0.06247000
   0.50048963  0.50089457  0.30208432
   0.33345000  0.33400000  0.24176000
   0.50128000  0.50087000  0.18167000
   0.49793000  0.50025000  0.06116000
   0.83624792  0.49708111  0.30390453
   0.66663000  0.33329000  0.24218000
   0.66137838  0.33455195  0.36063769
   0.66547000  0.33470000  0.00081000
Direct configuration=     7
   0.99559000  0.32828000  0.12092000
   0.32465532  0.33491815  0.36575114
   0.33554000  0.33717000  0.12244000
   0.99808000  0.00294000  0.00138000
   0.00372658  0.00369276  0.37105157
   0.33205000  0.99934000  0.12171000
   0.66680000  0.99880000  0.24350000
   0.83452000  0.16613000  0.06120000
   0.67294000  0.00204000  0.12069000
   0.33405000  0.66695000  0.24111000
   0.99910000  0.66743000  0.12138000
   0.33046277  0.66433035  0.36880599
   0.33151000  0.66804000  0.00174000
   0.33268000  0.33220000  0.00000000
   0.83466000  0.83460000  0.06076000
   0.66834648  0.66523868  0.36092203
   0.66616000  0.66699000  0.00091000
   0.83421005  0.83263768  0.30301413
   0.66704000  0.66746000  0.24229000
   0.50180000  0.83456000  0.18079000
   0.33306000  0.66709000  0.12143000
   0.50009000  0.83568000  0.06165000
   0.83330000  0.83486000  0.18207000
   0.66751000  0.66780000  0.12127000
   0.00363968  0.66693081  0.35983084
   0.16644000  0.83420000  0.06149000
   0.16688688  0.83308599  0.30147544
   0.00140000  0.66613000  0.00100000
   0.83479000  0.50089000  0.18130000
   0.00007000  0.66669000  0.24225000
   0.83460000  0.50057000  0.06135000
   0.66585000  0.33313000  0.12140000
   0.16565000  0.83456000  0.18183000
   0.50104408  0.83254622  0.30266426
   0.00179000  0.33550000  0.00090000
   0.49795000  0.16690000  0.06150000
   0.50074000  0.16494000  0.18144000
   0.83278645  0.17059943  0.30238729
   0.66500000  0.00040000  0.00060000
   0.66703274  0.00161183  0.36035469
   0.83245000  0.16547000  0.18171000
   0.99997000  0.33361000  0.24198000
   0.16327481  0.50089915  0.30095325
   0.33438000  0.99945000  0.24203000
   0.50093904  0.16754198  0.30190707
   0.00050000  0.00053000  0.12178000
   0.16809000  0.16736000  0.18138000
   0.16629866  0.16797036  0.29984868
   0.16764000  0.16833000  0.06179000
   0.99934000  0.00030000  0.24219000
   0.33250000  0.00057000  0.00106000
   0.33101264  0.00249887  0.35791291
   0.16564000  0.49971000  0.18123000
   0.16746000  0.49787000  0.06247000
   0.50050249  0.50063163  0.30204707
   0.33345000  0.33400000  0.24176000
   0.50128000  0.50087000  0.18167000
   0.49793000  0.50025000  0.06116000
   0.83603542  0.49716029  0.30359399
   0.66663000  0.33329000  0.24218000
   0.66128910  0.33406854  0.36061504
   0.66547000  0.33470000  0.00081000
Direct configuration=     8
   0.99559000  0.32828000  0.12092000
   0.32413405  0.33469292  0.36601345
   0.33554000  0.33717000  0.12244000
   0.99808000  0.00294000  0.00138000
   0.00390690  0.00429472  0.37140017
   0.33205000  0.99934000  0.12171000
   0.66680000  0.99880000  0.24350000
   0.83452000  0.16613000  0.06120000
   0.67294000  0.00204000  0.12069000
   0.33405000  0.66695000  0.24111000
   0.99910000  0.66743000  0.12138000
   0.33009561  0.66447352  0.36832328
   0.33151000  0.66804000  0.00174000
   0.33268000  0.33220000  0.00000000
   0.83466000  0.83460000  0.06076000
   0.66856323  0.66516935  0.36080593
   0.66616000  0.66699000  0.00091000
   0.83440637  0.83299685  0.30314397
   0.66704000  0.66746000  0.24229000
   0.50180000  0.83456000  0.18079000
   0.33306000  0.66709000  0.12143000
   0.50009000  0.83568000  0.06165000
   0.83330000  0.83486000  0.18207000
   0.66751000  0.66780000  0.12127000
   0.00389572  0.66712931  0.35993114
   0.16644000  0.83420000  0.06149000
   0.16663329  0.83364770  0.30138901
   0.00140000  0.66613000  0.00100000
   0.83479000  0.50089000  0.18130000
   0.00007000  0.66669000  0.24225000
   0.83460000  0.50057000  0.06135000
   0.66585000  0.33313000  0.12140000
   0.16565000  0.83456000  0.18183000
   0.50121947  0.83212113  0.30225748
   0.00179000  0.33550000  0.00090000
   0.49795000  0.16690000  0.06150000
   0.50074000  0.16494000  0.18144000
   0.83312260  0.17025800  0.30261724
   0.66500000  0.00040000  0.00060000
   0.66707091  0.00183634  0.36036996
   0.83245000  0.16547000  0.18171000
   0.99997000  0.33361000  0.24198000
   0.16327291  0.50084398  0.30083031
   0.33438000  0.99945000  0.24203000
   0.50094267  0.16838805  0.30175390
   0.00050000  0.00053000  0.12178000
   0.16809000  0.16736000  0.18138000
   0.16581636  0.16741711  0.29994729
   0.16764000  0.16833000  0.06179000
   0.99934000  0.00030000  0.24219000
   0.33250000  0.00057000  0.00106000
   0.33080236  0.00247523  0.35784842
   0.16564000  0.49971000  0.18123000
   0.16746000  0.49787000  0.06247000
   0.50051281  0.50042076  0.30201720
   0.33345000  0.33400000  0.24176000
   0.50128000  0.50087000  0.18167000
   0.49793000  0.50025000  0.06116000
   0.83586501  0.49722379  0.30334496
   0.66663000  0.33329000  0.24218000
   0.66121750  0.33368088  0.36059688
   0.66547000  0.33470000  0.00081000
Direct configuration=     9
   0.99559000  0.32828000  0.12092000
   0.32422704  0.33473310  0.36596666
   0.33554000  0.33717000  0.12244000
   0.99808000  0.00294000  0.00138000
   0.00387473  0.00418734  0.37133799
   0.33205000  0.99934000  0.12171000
   0.66680000  0.99880000  0.24350000
   0.83452000  0.16613000  0.06120000
   0.67294000  0.00204000  0.12069000
   0.33405000  0.66695000  0.24111000
   0.99910000  0.66743000  0.12138000
   0.33016110  0.66444798  0.36840939
   0.33151000  0.66804000  0.00174000
   0.33268000  0.33220000  0.00000000
   0.83466000  0.83460000  0.06076000
   0.66852456  0.66518172  0.36082664
   0.66616000  0.66699000  0.00091000
   0.83437135  0.83293278  0.30312081
   0.66704000  0.66746000  0.24229000
   0.50180000  0.83456000  0.18079000
   0.33306000  0.66709000  0.12143000
   0.50009000  0.83568000  0.06165000
   0.83330000  0.83486000  0.18207000
   0.66751000  0.66780000  0.12127000
   0.00385004  0.66709390  0.35991324
   0.16644000  0.83420000  0.06149000
   0.16667853  0.83354750  0.30140443
   0.00140000  0.66613000  0.00100000
   0.83479000  0.50089000  0.18130000
   0.00007000  0.66669000  0.24225000
   0.83460000  0.50057000  0.06135000
   0.66585000  0.33313000  0.12140000
   0.16565000  0.83456000  0.18183000
   0.50118818  0.83219696  0.30233005
   0.00179000  0.33550000  0.00090000
   0.49795000  0.16690000  0.06150000
   0.50074000  0.16494000  0.18144000
   0.83306264  0.17031891  0.30257622
   0.66500000  0.00040000  0.00060000
   0.66706410  0.00179629  0.36036724
   0.83245000  0.16547000  0.18171000
   0.99997000  0.33361000  0.24198000
   0.16327325  0.50085382  0.30085224
   0.33438000  0.99945000  0.24203000
   0.50094202  0.16823712  0.30178123
   0.00050000  0.00053000  0.12178000
   0.16809000  0.16736000  0.18138000
   0.16590239  0.16751580  0.29992970
   0.16764000  0.16833000  0.06179000
   0.99934000  0.00030000  0.24219000
   0.33250000  0.00057000  0.00106000
   0.33083987  0.00247945  0.35785992
   0.16564000  0.49971000  0.18123000
   0.16746000  0.49787000  0.06247000
   0.50051097  0.50045838  0.30202253
   0.33345000  0.33400000  0.24176000
   0.50128000  0.50087000  0.18167000
   0.49793000  0.50025000  0.06116000
   0.83589541  0.49721247  0.30338938
   0.66663000  0.33329000  0.24218000
   0.66123027  0.33375003  0.36060012
   0.66547000  0.33470000  0.00081000
Direct configuration=    10
   0.99559000  0.32828000  0.12092000
   0.32444118  0.33482562  0.36585890
   0.33554000  0.33717000  0.12244000
   0.99808000  0.00294000  0.00138000
   0.00380066  0.00394005  0.37119478
   0.33205000  0.99934000  0.12171000
   0.66680000  0.99880000  0.24350000
   0.83452000  0.16613000  0.06120000
   0.67294000  0.00204000  0.12069000
   0.33405000  0.66695000  0.24111000
   0.99910000  0.66743000  0.12138000
   0.33031194  0.66438917  0.36860769
   0.33151000  0.66804000  0.00174000
   0.33268000  0.33220000  0.00000000
   0.83466000  0.83460000  0.06076000
   0.66843552  0.66521020  0.36087433
   0.66616000  0.66699000  0.00091000
   0.83429070  0.83278523  0.30306747
   0.66704000  0.66746000  0.24229000
   0.50180000  0.83456000  0.18079000
   0.33306000  0.66709000  0.12143000
   0.50009000  0.83568000  0.06165000
   0.83330000  0.83486000  0.18207000
   0.66751000  0.66780000  0.12127000
   0.00374486  0.66701235  0.35987204
   0.16644000  0.83420000  0.06149000
   0.16678271  0.83331675  0.30143994
   0.00140000  0.66613000  0.00100000
   0.83479000  0.50089000  0.18130000
   0.00007000  0.66669000  0.24225000
   0.83460000  0.50057000  0.06135000
   0.66585000  0.33313000  0.12140000
   0.16565000  0.83456000  0.18183000
   0.50111613  0.83237159  0.30249716
   0.00179000  0.33550000  0.00090000
   0.49795000  0.16690000  0.06150000
   0.50074000  0.16494000  0.18144000
   0.83292455  0.17045917  0.30248176
   0.66500000  0.00040000  0.00060000
   0.66704842  0.00170406  0.36036096
   0.83245000  0.16547000  0.18171000
   0.99997000  0.33361000  0.24198000
   0.16327403  0.50087649  0.30090274
   0.33438000  0.99945000  0.24203000
   0.50094053  0.16788955  0.30184415
   0.00050000  0.00053000  0.12178000
   0.16809000  0.16736000  0.18138000
   0.16610053  0.16774308  0.29988919
   0.16764000  0.16833000  0.06179000
   0.99934000  0.00030000  0.24219000
   0.33250000  0.00057000  0.00106000
   0.33092626  0.00248916  0.35788642
   0.16564000  0.49971000  0.18123000
   0.16746000  0.49787000  0.06247000
   0.50050673  0.50054500  0.30203480
   0.33345000  0.33400000  0.24176000
   0.50128000  0.50087000  0.18167000
   0.49793000  0.50025000  0.06116000
   0.83596542  0.49718638  0.30349169
   0.66663000  0.33329000  0.24218000
   0.66125968  0.33390928  0.36060758
   0.66547000  0.33470000  0.00081000
Direct configuration=    11
   0.99559000  0.32828000  0.12092000
   0.32433238  0.33477861  0.36591365
   0.33554000  0.33717000  0.12244000
   0.99808000  0.00294000  0.00138000
   0.00383829  0.00406570  0.37126754
   0.33205000  0.99934000  0.12171000
   0.66680000  0.99880000  0.24350000
   0.83452000  0.16613000  0.06120000
   0.67294000  0.00204000  0.12069000
   0.33405000  0.66695000  0.24111000
   0.99910000  0.66743000  0.12138000
   0.33023530  0.66441905  0.36850693
   0.33151000  0.66804000  0.00174000
   0.33268000  0.33220000  0.00000000
   0.83466000  0.83460000  0.06076000
   0.66848076  0.66519573  0.36085010
   0.66616000  0.66699000  0.00091000
   0.83433168  0.83286020  0.30309457
   0.66704000  0.66746000  0.24229000
   0.50180000  0.83456000  0.18079000
   0.33306000  0.66709000  0.12143000
   0.50009000  0.83568000  0.06165000
   0.83330000  0.83486000  0.18207000
   0.66751000  0.66780000  0.12127000
   0.00379830  0.66705379  0.35989298
   0.16644000  0.83420000  0.06149000
   0.16672978  0.83343399  0.30142190
   0.00140000  0.66613000  0.00100000
   0.83479000  0.50089000  0.18130000
   0.00007000  0.66669000  0.24225000
   0.83460000  0.50057000  0.06135000
   0.66585000  0.33313000  0.12140000
   0.16565000  0.83456000  0.18183000
   0.50115274  0.83228286  0.30241225
   0.00179000  0.33550000  0.00090000
   0.49795000  0.16690000  0.06150000
   0.50074000  0.16494000  0.18144000
   0.83299471  0.17038791  0.30252975
   0.66500000  0.00040000  0.00060000
   0.66705639  0.00175092  0.36036415
   0.83245000  0.16547000  0.18171000
   0.99997000  0.33361000  0.24198000
   0.16327363  0.50086497  0.30087708
   0.33438000  0.99945000  0.24203000
   0.50094129  0.16806615  0.30181218
   0.00050000  0.00053000  0.12178000
   0.16809000  0.16736000  0.18138000
   0.16599986  0.16762760  0.29990977
   0.16764000  0.16833000  0.06179000
   0.99934000  0.00030000  0.24219000
   0.33250000  0.00057000  0.00106000
   0.33088237  0.00248422  0.35787296
   0.16564000  0.49971000  0.18123000
   0.16746000  0.49787000  0.06247000
   0.50050888  0.50050099  0.30202856
   0.33345000  0.33400000  0.24176000
   0.50128000  0.50087000  0.18167000
   0.49793000  0.50025000  0.06116000
   0.83592985  0.49719963  0.30343971
   0.66663000  0.33329000  0.24218000
   0.66124474  0.33382837  0.36060379
   0.66547000  0.33470000  0.00081000
Direct configuration=    12
   0.99559000  0.32828000  0.12092000
   0.32417181  0.33508980  0.36598363
   0.33554000  0.33717000  0.12244000
   0.99808000  0.00294000  0.00138000
   0.00396738  0.00428154  0.37136500
   0.33205000  0.99934000  0.12171000
   0.66680000  0.99880000  0.24350000
   0.83452000  0.16613000  0.06120000
   0.67294000  0.00204000  0.12069000
   0.33405000  0.66695000  0.24111000
   0.99910000  0.66743000  0.12138000
   0.33022426  0.66450521  0.36821529
   0.33151000  0.66804000  0.00174000
   0.33268000  0.33220000  0.00000000
   0.83466000  0.83460000  0.06076000
   0.66843814  0.66526389  0.36068971
   0.66616000  0.66699000  0.00091000
   0.83434743  0.83293647  0.30315675
   0.66704000  0.66746000  0.24229000
   0.50180000  0.83456000  0.18079000
   0.33306000  0.66709000  0.12143000
   0.50009000  0.83568000  0.06165000
   0.83330000  0.83486000  0.18207000
   0.66751000  0.66780000  0.12127000
   0.00367656  0.66715728  0.35992799
   0.16644000  0.83420000  0.06149000
   0.16658627  0.83322761  0.30141704
   0.00140000  0.66613000  0.00100000
   0.83479000  0.50089000  0.18130000
   0.00007000  0.66669000  0.24225000
   0.83460000  0.50057000  0.06135000
   0.66585000  0.33313000  0.12140000
   0.16565000  0.83456000  0.18183000
   0.50105762  0.83253682  0.30239247
   0.00179000  0.33550000  0.00090000
   0.49795000  0.16690000  0.06150000
   0.50074000  0.16494000  0.18144000
   0.83300190  0.17055205  0.30264287
   0.66500000  0.00040000  0.00060000
   0.66709124  0.00189188  0.36046919
   0.83245000  0.16547000  0.18171000
   0.99997000  0.33361000  0.24198000
   0.16319640  0.50098787  0.30088192
   0.33438000  0.99945000  0.24203000
   0.50071253  0.16778349  0.30189688
   0.00050000  0.00053000  0.12178000
   0.16809000  0.16736000  0.18138000
   0.16598059  0.16775266  0.30004478
   0.16764000  0.16833000  0.06179000
   0.99934000  0.00030000  0.24219000
   0.33250000  0.00057000  0.00106000
   0.33096718  0.00224150  0.35789599
   0.16564000  0.49971000  0.18123000
   0.16746000  0.49787000  0.06247000
   0.50031015  0.50035423  0.30199584
   0.33345000  0.33400000  0.24176000
   0.50128000  0.50087000  0.18167000
   0.49793000  0.50025000  0.06116000
   0.83596783  0.49721417  0.30341618
   0.66663000  0.33329000  0.24218000
   0.66120347  0.33357265  0.36069802
   0.66547000  0.33470000  0.00081000
Direct configuration=    13
   0.99559000  0.32828000  0.12092000
   0.32392961  0.33555921  0.36608919
   0.33554000  0.33717000  0.12244000
   0.99808000  0.00294000  0.00138000
   0.00416210  0.00460714  0.37151201
   0.33205000  0.99934000  0.12171000
   0.66680000  0.99880000  0.24350000
   0.83452000  0.16613000  0.06120000
   0.67294000  0.00204000  0.12069000
   0.33405000  0.66695000  0.24111000
   0.99910000  0.66743000  0.12138000
   0.33020761  0.66463518  0.36777535
   0.33151000  0.66804000  0.00174000
   0.33268000  0.33220000  0.00000000
   0.83466000  0.83460000  0.06076000
   0.66837385  0.66536670  0.36044776
   0.66616000  0.66699000  0.00091000
   0.83437119  0.83305153  0.30325055
   0.66704000  0.66746000  0.24229000
   0.50180000  0.83456000  0.18079000
   0.33306000  0.66709000  0.12143000
   0.50009000  0.83568000  0.06165000
   0.83330000  0.83486000  0.18207000
   0.66751000  0.66780000  0.12127000
   0.00349291  0.66731341  0.35998081
   0.16644000  0.83420000  0.06149000
   0.16636979  0.83291630  0.30140972
   0.00140000  0.66613000  0.00100000
   0.83479000  0.50089000  0.18130000
   0.00007000  0.66669000  0.24225000
   0.83460000  0.50057000  0.06135000
   0.66585000  0.33313000  0.12140000
   0.16565000  0.83456000  0.18183000
   0.50091413  0.83291990  0.30236263
   0.00179000  0.33550000  0.00090000
   0.49795000  0.16690000  0.06150000
   0.50074000  0.16494000  0.18144000
   0.83301275  0.17079964  0.30281350
   0.66500000  0.00040000  0.00060000
   0.66714382  0.00210450  0.36062764
   0.83245000  0.16547000  0.18171000
   0.99997000  0.33361000  0.24198000
   0.16307991  0.50117327  0.30088921
   0.33438000  0.99945000  0.24203000
   0.50036744  0.16735712  0.30202466
   0.00050000  0.00053000  0.12178000
   0.16809000  0.16736000  0.18138000
   0.16595151  0.16794131  0.30024844
   0.16764000  0.16833000  0.06179000
   0.99934000  0.00030000  0.24219000
   0.33250000  0.00057000  0.00106000
   0.33109512  0.00187536  0.35793074
   0.16564000  0.49971000  0.18123000
   0.16746000  0.49787000  0.06247000
   0.50001036  0.50013284  0.30194647
   0.33345000  0.33400000  0.24176000
   0.50128000  0.50087000  0.18167000
   0.49793000  0.50025000  0.06116000
   0.83602512  0.49723609  0.30338068
   0.66663000  0.33329000  0.24218000
   0.66114122  0.33318690  0.36084016
   0.66547000  0.33470000  0.00081000
Direct configuration=    14
   0.99559000  0.32828000  0.12092000
   0.32383802  0.33608242  0.36617548
   0.33554000  0.33717000  0.12244000
   0.99808000  0.00294000  0.00138000
   0.00430423  0.00467793  0.37163860
   0.33205000  0.99934000  0.12171000
   0.66680000  0.99880000  0.24350000
   0.83452000  0.16613000  0.06120000
   0.67294000  0.00204000  0.12069000
   0.33405000  0.66695000  0.24111000
   0.99910000  0.66743000  0.12138000
   0.33027150  0.66462104  0.36740896
   0.33151000  0.66804000  0.00174000
   0.33268000  0.33220000  0.00000000
   0.83466000  0.83460000  0.06076000
   0.66802213  0.66534120  0.36026593
   0.66616000  0.66699000  0.00091000
   0.83435838  0.83345339  0.30324605
   0.66704000  0.66746000  0.24229000
   0.50180000  0.83456000  0.18079000
   0.33306000  0.66709000  0.12143000
   0.50009000  0.83568000  0.06165000
   0.83330000  0.83486000  0.18207000
   0.66751000  0.66780000  0.12127000
   0.00330057  0.66735886  0.36004534
   0.16644000  0.83420000  0.06149000
   0.16605213  0.83320030  0.30138780
   0.00140000  0.66613000  0.00100000
   0.83479000  0.50089000  0.18130000
   0.00007000  0.66669000  0.24225000
   0.83460000  0.50057000  0.06135000
   0.66585000  0.33313000  0.12140000
   0.16565000  0.83456000  0.18183000
   0.50118340  0.83310953  0.30231241
   0.00179000  0.33550000  0.00090000
   0.49795000  0.16690000  0.06150000
   0.50074000  0.16494000  0.18144000
   0.83289971  0.17093550  0.30284964
   0.66500000  0.00040000  0.00060000
   0.66732748  0.00227217  0.36079584
   0.83245000  0.16547000  0.18171000
   0.99997000  0.33361000  0.24198000
   0.16284157  0.50105200  0.30089264
   0.33438000  0.99945000  0.24203000
   0.50039986  0.16742777  0.30214785
   0.00050000  0.00053000  0.12178000
   0.16809000  0.16736000  0.18138000
   0.16602455  0.16811876  0.30027915
   0.16764000  0.16833000  0.06179000
   0.99934000  0.00030000  0.24219000
   0.33250000  0.00057000  0.00106000
   0.33086052  0.00158714  0.35807353
   0.16564000  0.49971000  0.18123000
   0.16746000  0.49787000  0.06247000
   0.50019236  0.49984790  0.30190190
   0.33345000  0.33400000  0.24176000
   0.50128000  0.50087000  0.18167000
   0.49793000  0.50025000  0.06116000
   0.83592502  0.49701937  0.30349430
   0.66663000  0.33329000  0.24218000
   0.66088621  0.33319164  0.36089061
   0.66547000  0.33470000  0.00081000
Direct configuration=    15
   0.99559000  0.32828000  0.12092000
   0.32384047  0.33606842  0.36617317
   0.33554000  0.33717000  0.12244000
   0.99808000  0.00294000  0.00138000
   0.00430042  0.00467603  0.37163521
   0.33205000  0.99934000  0.12171000
   0.66680000  0.99880000  0.24350000
   0.83452000  0.16613000  0.06120000
   0.67294000  0.00204000  0.12069000
   0.33405000  0.66695000  0.24111000
   0.99910000  0.66743000  0.12138000
   0.33026979  0.66462142  0.36741877
   0.33151000  0.66804000  0.00174000
   0.33268000  0.33220000  0.00000000
   0.83466000  0.83460000  0.06076000
   0.66803154  0.66534189  0.36027080
   0.66616000  0.66699000  0.00091000
   0.83435872  0.83344264  0.30324617
   0.66704000  0.66746000  0.24229000
   0.50180000  0.83456000  0.18079000
   0.33306000  0.66709000  0.12143000
   0.50009000  0.83568000  0.06165000
   0.83330000  0.83486000  0.18207000
   0.66751000  0.66780000  0.12127000
   0.00330572  0.66735764  0.36004361
   0.16644000  0.83420000  0.06149000
   0.16606063  0.83319270  0.30138839
   0.00140000  0.66613000  0.00100000
   0.83479000  0.50089000  0.18130000
   0.00007000  0.66669000  0.24225000
   0.83460000  0.50057000  0.06135000
   0.66585000  0.33313000  0.12140000
   0.16565000  0.83456000  0.18183000
   0.50117619  0.83310446  0.30231375
   0.00179000  0.33550000  0.00090000
   0.49795000  0.16690000  0.06150000
   0.50074000  0.16494000  0.18144000
   0.83290273  0.17093187  0.30284868
   0.66500000  0.00040000  0.00060000
   0.66732257  0.00226769  0.36079134
   0.83245000  0.16547000  0.18171000
   0.99997000  0.33361000  0.24198000
   0.16284795  0.50105525  0.30089255
   0.33438000  0.99945000  0.24203000
   0.50039900  0.16742588  0.30214455
   0.00050000  0.00053000  0.12178000
   0.16809000  0.16736000  0.18138000
   0.16602260  0.16811401  0.30027833
   0.16764000  0.16833000  0.06179000
   0.99934000  0.00030000  0.24219000
   0.33250000  0.00057000  0.00106000
   0.33086680  0.00159485  0.35806970
   0.16564000  0.49971000  0.18123000
   0.16746000  0.49787000  0.06247000
   0.50018749  0.49985553  0.30190309
   0.33345000  0.33400000  0.24176000
   0.50128000  0.50087000  0.18167000
   0.49793000  0.50025000  0.06116000
   0.83592770  0.49702517  0.30349126
   0.66663000  0.33329000  0.24218000
   0.66089304  0.33319151  0.36088926
   0.66547000  0.33470000  0.00081000
Direct configuration=    16
   0.99559000  0.32828000  0.12092000
   0.32394706  0.33606207  0.36615906
   0.33554000  0.33717000  0.12244000
   0.99808000  0.00294000  0.00138000
   0.00420278  0.00458983  0.37164404
   0.33205000  0.99934000  0.12171000
   0.66680000  0.99880000  0.24350000
   0.83452000  0.16613000  0.06120000
   0.67294000  0.00204000  0.12069000
   0.33405000  0.66695000  0.24111000
   0.99910000  0.66743000  0.12138000
   0.33020208  0.66453152  0.36739071
   0.33151000  0.66804000  0.00174000
   0.33268000  0.33220000  0.00000000
   0.83466000  0.83460000  0.06076000
   0.66790509  0.66528850  0.36032993
   0.66616000  0.66699000  0.00091000
   0.83433290  0.83345040  0.30320830
   0.66704000  0.66746000  0.24229000
   0.50180000  0.83456000  0.18079000
   0.33306000  0.66709000  0.12143000
   0.50009000  0.83568000  0.06165000
   0.83330000  0.83486000  0.18207000
   0.66751000  0.66780000  0.12127000
   0.00329017  0.66735991  0.36000822
   0.16644000  0.83420000  0.06149000
   0.16614571  0.83349069  0.30142152
   0.00140000  0.66613000  0.00100000
   0.83479000  0.50089000  0.18130000
   0.00007000  0.66669000  0.24225000
   0.83460000  0.50057000  0.06135000
   0.66585000  0.33313000  0.12140000
   0.16565000  0.83456000  0.18183000
   0.50127672  0.83304104  0.30234038
   0.00179000  0.33550000  0.00090000
   0.49795000  0.16690000  0.06150000
   0.50074000  0.16494000  0.18144000
   0.83288763  0.17075775  0.30276468
   0.66500000  0.00040000  0.00060000
   0.66743509  0.00230863  0.36079445
   0.83245000  0.16547000  0.18171000
   0.99997000  0.33361000  0.24198000
   0.16278077  0.50092821  0.30090926
   0.33438000  0.99945000  0.24203000
   0.50052696  0.16764156  0.30212130
   0.00050000  0.00053000  0.12178000
   0.16809000  0.16736000  0.18138000
   0.16608885  0.16800694  0.30016194
   0.16764000  0.16833000  0.06179000
   0.99934000  0.00030000  0.24219000
   0.33250000  0.00057000  0.00106000
   0.33071011  0.00181251  0.35808504
   0.16564000  0.49971000  0.18123000
   0.16746000  0.49787000  0.06247000
   0.50035039  0.50000433  0.30190043
   0.33345000  0.33400000  0.24176000
   0.50128000  0.50087000  0.18167000
   0.49793000  0.50025000  0.06116000
   0.83591653  0.49700833  0.30355437
   0.66663000  0.33329000  0.24218000
   0.66077360  0.33340750  0.36090720
   0.66547000  0.33470000  0.00081000
