 
:: initializing oneAPI environment ...
   slurm_script: BASH_VERSION = 4.4.20(1)-release
   args: Using "$@" for setvars.sh arguments: --force
:: advisor -- latest
:: ccl -- latest
:: compiler -- latest
:: dal -- latest
:: debugger -- latest
:: dev-utilities -- latest
:: dnnl -- latest
:: dpcpp-ct -- latest
:: dpl -- latest
:: ipp -- latest
:: ippcp -- latest
:: mkl -- latest
:: mpi -- latest
:: pti -- latest
:: tbb -- latest
:: umf -- latest
:: vtune -- latest
:: oneAPI environment initialized ::
 
 running   96 mpi-ranks, on    1 nodes
 distrk:  each k-point on   12 cores,    8 groups
 distr:  one band on    4 cores,    3 groups
 vasp.6.5.1 10Mar25 (build Oct 09 2025 23:55:08) complex                        
  
 POSCAR found type information on POSCAR FeCrPb
 POSCAR found :  3 types and      64 ions
 -----------------------------------------------------------------------------
|                                                                             |
|           W    W    AA    RRRRR   N    N  II  N    N   GGGG   !!!           |
|           W    W   A  A   R    R  NN   N  II  NN   N  G    G  !!!           |
|           W    W  A    A  R    R  N N  N  II  N N  N  G       !!!           |
|           W WW W  AAAAAA  RRRRR   N  N N  II  N  N N  G  GGG   !            |
|           WW  WW  A    A  R   R   N   NN  II  N   NN  G    G                |
|           W    W  A    A  R    R  N    N  II  N    N   GGGG   !!!           |
|                                                                             |
|     You requested a magnetic or noncollinear calculation, but did not       |
|     specify the initial magnetic moment with the MAGMOM tag. Note that      |
|     a default of 1 will be used for all atoms. This ferromagnetic setup     |
|     may break the symmetry of the crystal, in particular it may rule        |
|     out finding an antiferromagnetic solution. Thence, we recommend         |
|     setting the initial magnetic moment manually or verifying carefully     |
|     that this magnetic setup is desired.                                    |
|                                                                             |
 -----------------------------------------------------------------------------

 scaLAPACK will be used
 -----------------------------------------------------------------------------
|                                                                             |
|           W    W    AA    RRRRR   N    N  II  N    N   GGGG   !!!           |
|           W    W   A  A   R    R  NN   N  II  NN   N  G    G  !!!           |
|           W    W  A    A  R    R  N N  N  II  N N  N  G       !!!           |
|           W WW W  AAAAAA  RRRRR   N  N N  II  N  N N  G  GGG   !            |
|           WW  WW  A    A  R   R   N   NN  II  N   NN  G    G                |
|           W    W  A    A  R    R  N    N  II  N    N   GGGG   !!!           |
|                                                                             |
|     For optimal performance we recommend to set                             |
|       NCORE = 2 up to number-of-cores-per-socket                            |
|     NCORE specifies how many cores store one orbital (NPAR=cpu/NCORE).      |
|     This setting can greatly improve the performance of VASP for DFT.       |
|     The default, NCORE=1 might be grossly inefficient on modern             |
|     multi-core architectures or massively parallel machines. Do your        |
|     own testing! More info at https://www.vasp.at/wiki/index.php/NCORE      |
|     Unfortunately you need to use the default for GW and RPA                |
|     calculations (for HF NCORE is supported but not extensively tested      |
|     yet).                                                                   |
|                                                                             |
 -----------------------------------------------------------------------------

 LDA part: xc-table for (Slater+PW92), standard interpolation
 POSCAR, INCAR and KPOINTS ok, starting setup
 FFT: planning ... GRIDC
 FFT: planning ... GRID_SOFT
 FFT: planning ... GRID
 WAVECAR not read
 WARNING: chargedensity file is incomplete
 WARNING: random wavefunctions but no delay for mixing, default for NELMDL
 entering main loop
       N       E                     dE             d eps       ncg     rms          rms(c)
DAV:   1     0.569886053603E+04    0.56989E+04   -0.24435E+05 16002   0.144E+03
DAV:   2    -0.628942498845E+02   -0.57618E+04   -0.55594E+04 15120   0.423E+02
DAV:   3    -0.529859882747E+03   -0.46697E+03   -0.41256E+03 15633   0.163E+02
DAV:   4    -0.588580587189E+03   -0.58721E+02   -0.54815E+02 26442   0.448E+01
DAV:   5    -0.591790070892E+03   -0.32095E+01   -0.30544E+01 24660   0.106E+01    0.935E+01
RMM:   6    -0.684651181414E+03   -0.92861E+02   -0.23592E+02 20302   0.278E+01    0.133E+02
RMM:   7    -0.620717349151E+03    0.63934E+02   -0.56251E+01 17087   0.156E+01    0.118E+02
RMM:   8    -0.598947812679E+03    0.21770E+02   -0.31258E+01 18005   0.106E+01    0.108E+02
RMM:   9    -0.551365289492E+03    0.47583E+02   -0.22217E+01 16462   0.118E+01    0.820E+01
RMM:  10    -0.516854232411E+03    0.34511E+02   -0.38593E+01 17794   0.150E+01    0.538E+01
RMM:  11    -0.504215055942E+03    0.12639E+02   -0.54873E+01 20241   0.170E+01    0.482E+01
RMM:  12    -0.499497440478E+03    0.47176E+01   -0.17130E+01 16500   0.990E+00    0.396E+01
RMM:  13    -0.498697576683E+03    0.79986E+00   -0.10866E+01 19963   0.423E+00    0.339E+01
RMM:  14    -0.498882808331E+03   -0.18523E+00   -0.30170E+00 23277   0.202E+00    0.351E+01
RMM:  15    -0.500076620758E+03   -0.11938E+01   -0.96639E-01 23307   0.117E+00    0.357E+01
RMM:  16    -0.503778022460E+03   -0.37014E+01   -0.33209E+00 23166   0.330E+00    0.300E+01
RMM:  17    -0.507625071440E+03   -0.38470E+01   -0.51987E+00 24871   0.378E+00    0.254E+01
RMM:  18    -0.508639871959E+03   -0.10148E+01   -0.31513E+00 23605   0.245E+00    0.207E+01
RMM:  19    -0.509645523501E+03   -0.10057E+01   -0.15075E+00 22408   0.192E+00    0.217E+01
RMM:  20    -0.509653605748E+03   -0.80822E-02   -0.10876E+00 22779   0.123E+00    0.187E+01
RMM:  21    -0.510246493745E+03   -0.59289E+00   -0.10225E+00 22406   0.135E+00    0.180E+01
RMM:  22    -0.510678051047E+03   -0.43156E+00   -0.22707E+00 23944   0.254E+00    0.132E+01
RMM:  23    -0.510800871682E+03   -0.12282E+00   -0.15230E+00 23284   0.146E+00    0.111E+01
RMM:  24    -0.510925015218E+03   -0.12414E+00   -0.79167E-01 23981   0.981E-01    0.103E+01
RMM:  25    -0.511036221595E+03   -0.11121E+00   -0.42618E-01 24624   0.656E-01    0.102E+01
RMM:  26    -0.511002268469E+03    0.33953E-01   -0.19133E-01 23941   0.373E-01    0.105E+01
RMM:  27    -0.511461191867E+03   -0.45892E+00   -0.66862E-01 24836   0.106E+00    0.101E+01
RMM:  28    -0.511732959411E+03   -0.27177E+00   -0.63191E-01 23840   0.733E-01    0.998E+00
RMM:  29    -0.511641981529E+03    0.90978E-01   -0.96959E-02 21244   0.360E-01    0.101E+01
RMM:  30    -0.512000716316E+03   -0.35873E+00   -0.34154E-01 24319   0.630E-01    0.105E+01
RMM:  31    -0.511693510661E+03    0.30721E+00   -0.90715E-02 19871   0.484E-01    0.106E+01
RMM:  32    -0.511863354232E+03   -0.16984E+00   -0.64587E-02 19257   0.327E-01    0.109E+01
RMM:  33    -0.511678390436E+03    0.18496E+00   -0.53626E-02 20273   0.346E-01    0.109E+01
RMM:  34    -0.511510389192E+03    0.16800E+00   -0.28325E-01 25586   0.653E-01    0.102E+01
RMM:  35    -0.511599851199E+03   -0.89462E-01   -0.12302E-01 23442   0.369E-01    0.985E+00
RMM:  36    -0.511869921962E+03   -0.27007E+00   -0.15117E-01 25088   0.498E-01    0.950E+00
RMM:  37    -0.512019296371E+03   -0.14937E+00   -0.15828E-01 24310   0.356E-01    0.947E+00
RMM:  38    -0.512097898497E+03   -0.78602E-01   -0.77755E-02 23378   0.237E-01    0.940E+00
RMM:  39    -0.512441637375E+03   -0.34374E+00   -0.24483E-01 26076   0.631E-01    0.874E+00
RMM:  40    -0.512680446157E+03   -0.23881E+00   -0.66628E-01 26434   0.105E+00    0.684E+00
RMM:  41    -0.512852252651E+03   -0.17181E+00   -0.54163E-01 26175   0.695E-01    0.579E+00
RMM:  42    -0.512991744662E+03   -0.13949E+00   -0.43178E-01 26019   0.718E-01    0.441E+00
RMM:  43    -0.513010592344E+03   -0.18848E-01   -0.11904E-01 25643   0.489E-01    0.436E+00
RMM:  44    -0.513015887787E+03   -0.52954E-02   -0.10239E-01 25230   0.403E-01    0.406E+00
RMM:  45    -0.513089058159E+03   -0.73170E-01   -0.18049E-01 26188   0.490E-01    0.325E+00
RMM:  46    -0.513089589764E+03   -0.53160E-03   -0.43050E-02 23104   0.237E-01    0.318E+00
RMM:  47    -0.513081188444E+03    0.84013E-02   -0.20959E-02 21774   0.125E-01    0.342E+00
RMM:  48    -0.513077855861E+03    0.33326E-02   -0.29677E-02 24135   0.304E-01    0.294E+00
RMM:  49    -0.513015371096E+03    0.62485E-01   -0.50939E-02 25695   0.331E-01    0.355E+00
RMM:  50    -0.513020751272E+03   -0.53802E-02   -0.13840E-02 22025   0.162E-01    0.317E+00
RMM:  51    -0.513035239564E+03   -0.14488E-01   -0.41396E-02 25552   0.345E-01    0.270E+00
RMM:  52    -0.513093133405E+03   -0.57894E-01   -0.96359E-02 26218   0.426E-01    0.176E+00
RMM:  53    -0.513101228816E+03   -0.80954E-02   -0.70706E-02 25660   0.275E-01    0.148E+00
RMM:  54    -0.513103736814E+03   -0.25080E-02   -0.17280E-02 23536   0.152E-01    0.124E+00
RMM:  55    -0.513107792361E+03   -0.40555E-02   -0.24436E-02 24963   0.198E-01    0.105E+00
RMM:  56    -0.513109876891E+03   -0.20845E-02   -0.28361E-02 25078   0.205E-01    0.828E-01
RMM:  57    -0.513111333834E+03   -0.14569E-02   -0.10222E-02 22407   0.129E-01    0.585E-01
RMM:  58    -0.513111692324E+03   -0.35849E-03   -0.93619E-03 22554   0.115E-01    0.487E-01
RMM:  59    -0.513112762658E+03   -0.10703E-02   -0.40766E-03 20470   0.905E-02    0.432E-01
RMM:  60    -0.513113288806E+03   -0.52615E-03   -0.35458E-03 21382   0.805E-02    0.283E-01
RMM:  61    -0.513113374356E+03   -0.85550E-04   -0.14561E-03 21486   0.458E-02    0.253E-01
RMM:  62    -0.513113589196E+03   -0.21484E-03   -0.99785E-04 21180   0.391E-02    0.202E-01
RMM:  63    -0.513113681560E+03   -0.92364E-04   -0.69878E-04 21256   0.327E-02    0.172E-01
RMM:  64    -0.513113795892E+03   -0.11433E-03   -0.48503E-04 20598   0.291E-02    0.134E-01
RMM:  65    -0.513113926605E+03   -0.13071E-03   -0.42610E-04 20179   0.231E-02    0.144E-01
RMM:  66    -0.513113972222E+03   -0.45617E-04   -0.28777E-04 19979   0.217E-02    0.743E-02
RMM:  67    -0.513113994411E+03   -0.22189E-04   -0.49734E-04 21840   0.263E-02    0.831E-02
RMM:  68    -0.513114065743E+03   -0.71332E-04   -0.15575E-04 17891   0.174E-02    0.422E-02
RMM:  69    -0.513114073834E+03   -0.80908E-05   -0.12910E-04 16701   0.150E-02    0.564E-02
RMM:  70    -0.513114088161E+03   -0.14328E-04   -0.54193E-05 12602   0.103E-02    0.393E-02
RMM:  71    -0.513114100900E+03   -0.12739E-04   -0.66838E-05 13058   0.110E-02    0.280E-02
RMM:  72    -0.513114110531E+03   -0.96309E-05   -0.36761E-05 11508   0.932E-03
   1 F= -.51311411E+03 E0= -.51311833E+03  d E =-.513114E+03  mag=   102.0557
 curvature:   0.00 expect dE= 0.000E+00 dE for cont linesearch  0.000E+00
 trial: gam= 0.00000 g(F)=  0.364E+00 g(S)=  0.000E+00 ort = 0.000E+00 (trialstep = 0.100E+01)
 search vector abs. value=  0.364E+00
 bond charge predicted
       N       E                     dE             d eps       ncg     rms          rms(c)
DAV:   1    -0.511575177232E+03    0.15389E+01   -0.11251E+02 19935   0.288E+01    0.953E+00
RMM:   2    -0.513932862420E+03   -0.23577E+01   -0.16353E+01 18413   0.702E+00    0.151E+01
RMM:   3    -0.514329285537E+03   -0.39642E+00   -0.29549E+00 21536   0.273E+00    0.136E+01
RMM:   4    -0.513585970057E+03    0.74332E+00   -0.63852E-01 19518   0.140E+00    0.782E+00
RMM:   5    -0.513406392120E+03    0.17958E+00   -0.29604E-01 22010   0.769E-01    0.338E+00
RMM:   6    -0.513387633605E+03    0.18759E-01   -0.14094E-01 22033   0.475E-01    0.250E+00
RMM:   7    -0.513397590058E+03   -0.99565E-02   -0.75102E-02 24501   0.290E-01    0.194E+00
RMM:   8    -0.513412670943E+03   -0.15081E-01   -0.41393E-02 23744   0.218E-01    0.195E+00
RMM:   9    -0.513416779343E+03   -0.41084E-02   -0.19411E-02 24284   0.151E-01    0.187E+00
RMM:  10    -0.513422218099E+03   -0.54388E-02   -0.12974E-02 24310   0.110E-01    0.193E+00
RMM:  11    -0.513415090138E+03    0.71280E-02   -0.58239E-03 21162   0.985E-02    0.188E+00
RMM:  12    -0.513405492482E+03    0.95977E-02   -0.12583E-02 21941   0.126E-01    0.163E+00
RMM:  13    -0.513400560687E+03    0.49318E-02   -0.10951E-02 21781   0.102E-01    0.138E+00
RMM:  14    -0.513397612201E+03    0.29485E-02   -0.54181E-03 21436   0.992E-02    0.111E+00
RMM:  15    -0.513393645930E+03    0.39663E-02   -0.85960E-03 22850   0.113E-01    0.847E-01
RMM:  16    -0.513392671132E+03    0.97480E-03   -0.63744E-03 22159   0.750E-02    0.724E-01
RMM:  17    -0.513392482597E+03    0.18853E-03   -0.59489E-03 22667   0.104E-01    0.567E-01
RMM:  18    -0.513393050336E+03   -0.56774E-03   -0.33114E-03 21329   0.727E-02    0.463E-01
RMM:  19    -0.513392622649E+03    0.42769E-03   -0.81485E-04 21130   0.429E-02    0.278E-01
RMM:  20    -0.513392724785E+03   -0.10214E-03   -0.60937E-04 19474   0.355E-02    0.194E-01
RMM:  21    -0.513392910024E+03   -0.18524E-03   -0.40020E-04 21159   0.234E-02    0.194E-01
RMM:  22    -0.513392919916E+03   -0.98918E-05   -0.20082E-04 18147   0.216E-02    0.167E-01
RMM:  23    -0.513392972291E+03   -0.52376E-04   -0.16453E-04 17715   0.171E-02    0.187E-01
RMM:  24    -0.513392948300E+03    0.23992E-04   -0.50364E-05 12164   0.991E-03    0.179E-01
RMM:  25    -0.513392894569E+03    0.53731E-04   -0.29191E-05 11149   0.887E-03    0.158E-01
RMM:  26    -0.513392830443E+03    0.64126E-04   -0.67981E-05 13950   0.116E-02    0.137E-01
RMM:  27    -0.513392850709E+03   -0.20266E-04   -0.41461E-05 12212   0.113E-02    0.121E-01
RMM:  28    -0.513392836067E+03    0.14641E-04   -0.78862E-05 14525   0.140E-02    0.629E-02
RMM:  29    -0.513392847458E+03   -0.11391E-04   -0.63723E-05 13187   0.119E-02    0.491E-02
RMM:  30    -0.513392855801E+03   -0.83427E-05   -0.23563E-05 10524   0.941E-03
   2 F= -.51339286E+03 E0= -.51339916E+03  d E =-.278745E+00  mag=   102.2517
 trial-energy change:   -0.278745  1 .order   -0.277894   -0.364400   -0.191389
 step:   2.0433(harm=  2.1062)  dis= 0.06942  next Energy=  -513.493660 (dE=-0.380E+00)
 bond charge predicted
       N       E                     dE             d eps       ncg     rms          rms(c)
DAV:   1    -0.511558104049E+03    0.18347E+01   -0.12098E+02 20205   0.304E+01    0.100E+01
RMM:   2    -0.513790884859E+03   -0.22328E+01   -0.17188E+01 18326   0.718E+00    0.133E+01
RMM:   3    -0.514747562694E+03   -0.95668E+00   -0.29845E+00 21685   0.276E+00    0.155E+01
RMM:   4    -0.513686707777E+03    0.10609E+01   -0.67406E-01 19407   0.145E+00    0.782E+00
RMM:   5    -0.513521324117E+03    0.16538E+00   -0.32140E-01 22184   0.790E-01    0.346E+00
RMM:   6    -0.513504190593E+03    0.17134E-01   -0.15448E-01 22166   0.493E-01    0.270E+00
RMM:   7    -0.513514448521E+03   -0.10258E-01   -0.80580E-02 24534   0.306E-01    0.215E+00
RMM:   8    -0.513531883843E+03   -0.17435E-01   -0.44902E-02 24007   0.228E-01    0.216E+00
RMM:   9    -0.513535848997E+03   -0.39652E-02   -0.21264E-02 24350   0.161E-01    0.202E+00
RMM:  10    -0.513544323000E+03   -0.84740E-02   -0.17666E-02 22407   0.151E-01    0.197E+00
RMM:  11    -0.513543896863E+03    0.42614E-03   -0.68825E-03 24800   0.789E-02    0.201E+00
RMM:  12    -0.513546580559E+03   -0.26837E-02   -0.44668E-03 22559   0.698E-02    0.202E+00
RMM:  13    -0.513543500732E+03    0.30798E-02   -0.16596E-03 22877   0.465E-02    0.191E+00
RMM:  14    -0.513536359517E+03    0.71412E-02   -0.22918E-03 20176   0.690E-02    0.179E+00
RMM:  15    -0.513539073525E+03   -0.27140E-02   -0.52658E-04 20210   0.342E-02    0.182E+00
RMM:  16    -0.513523511813E+03    0.15562E-01   -0.10807E-02 25301   0.140E-01    0.164E+00
RMM:  17    -0.513504321611E+03    0.19190E-01   -0.36371E-02 25765   0.210E-01    0.143E+00
RMM:  18    -0.513498497535E+03    0.58241E-02   -0.19983E-02 24997   0.117E-01    0.124E+00
RMM:  19    -0.513491086956E+03    0.74106E-02   -0.11109E-02 25441   0.119E-01    0.113E+00
RMM:  20    -0.513477208805E+03    0.13878E-01   -0.40043E-02 25961   0.224E-01    0.119E+00
RMM:  21    -0.513473853715E+03    0.33551E-02   -0.21593E-02 24849   0.111E-01    0.123E+00
RMM:  22    -0.513468583034E+03    0.52707E-02   -0.52031E-03 25436   0.114E-01    0.135E+00
RMM:  23    -0.513469395250E+03   -0.81222E-03   -0.55542E-03 24597   0.926E-02    0.130E+00
RMM:  24    -0.513463467767E+03    0.59275E-02   -0.37103E-02 25625   0.220E-01    0.144E+00
RMM:  25    -0.513476635610E+03   -0.13168E-01   -0.33607E-02 25762   0.283E-01    0.971E-01
RMM:  26    -0.513496302783E+03   -0.19667E-01   -0.12167E-01 26169   0.384E-01    0.804E-01
RMM:  27    -0.513504398146E+03   -0.80954E-02   -0.52976E-02 25499   0.192E-01    0.104E+00
RMM:  28    -0.513505794752E+03   -0.13966E-02   -0.63862E-03 24027   0.778E-02    0.111E+00
RMM:  29    -0.513506258089E+03   -0.46334E-03   -0.30812E-03 21570   0.375E-02    0.110E+00
RMM:  30    -0.513501820895E+03    0.44372E-02   -0.14694E-03 22247   0.542E-02    0.113E+00
RMM:  31    -0.513499546565E+03    0.22743E-02   -0.14660E-03 22733   0.420E-02    0.114E+00
RMM:  32    -0.513512928604E+03   -0.13382E-01   -0.19952E-02 25263   0.183E-01    0.122E+00
RMM:  33    -0.513534412254E+03   -0.21484E-01   -0.60646E-02 25791   0.245E-01    0.153E+00
RMM:  34    -0.513515048219E+03    0.19364E-01   -0.15245E-02 25110   0.188E-01    0.133E+00
RMM:  35    -0.513480448390E+03    0.34600E-01   -0.12578E-01 26043   0.413E-01    0.119E+00
RMM:  36    -0.513479479874E+03    0.96852E-03   -0.67334E-02 25592   0.221E-01    0.869E-01
RMM:  37    -0.513475664915E+03    0.38150E-02   -0.27396E-02 25425   0.160E-01    0.828E-01
RMM:  38    -0.513469722349E+03    0.59426E-02   -0.30665E-02 25414   0.168E-01    0.918E-01
RMM:  39    -0.513469257747E+03    0.46460E-03   -0.10426E-02 24207   0.795E-02    0.911E-01
RMM:  40    -0.513465877380E+03    0.33804E-02   -0.83900E-03 24697   0.959E-02    0.995E-01
RMM:  41    -0.513467076807E+03   -0.11994E-02   -0.20686E-03 21721   0.466E-02    0.960E-01
RMM:  42    -0.513464381838E+03    0.26950E-02   -0.51640E-03 24334   0.709E-02    0.101E+00
RMM:  43    -0.513468404502E+03   -0.40227E-02   -0.46778E-03 24838   0.104E-01    0.922E-01
RMM:  44    -0.513484307817E+03   -0.15903E-01   -0.16973E-01 25966   0.488E-01    0.695E-01
RMM:  45    -0.513514199747E+03   -0.29892E-01   -0.27235E-01 26346   0.476E-01    0.116E+00
RMM:  46    -0.513515045728E+03   -0.84598E-03   -0.26231E-02 24699   0.148E-01    0.116E+00
RMM:  47    -0.513510196231E+03    0.48495E-02   -0.52349E-03 24503   0.688E-02    0.120E+00
RMM:  48    -0.513491981290E+03    0.18215E-01   -0.34353E-02 25659   0.230E-01    0.107E+00
RMM:  49    -0.513469773449E+03    0.22208E-01   -0.15889E-01 26241   0.431E-01    0.106E+00
RMM:  50    -0.513464382552E+03    0.53909E-02   -0.99904E-02 25688   0.263E-01    0.102E+00
RMM:  51    -0.513452389031E+03    0.11994E-01   -0.49881E-02 25881   0.221E-01    0.134E+00
RMM:  52    -0.513444436075E+03    0.79530E-02   -0.26508E-02 25018   0.140E-01    0.156E+00
RMM:  53    -0.513438694430E+03    0.57416E-02   -0.10764E-02 24811   0.109E-01    0.168E+00
RMM:  54    -0.513451116261E+03   -0.12422E-01   -0.79897E-03 24953   0.136E-01    0.133E+00
RMM:  55    -0.513456086605E+03   -0.49703E-02   -0.36148E-03 24926   0.700E-02    0.116E+00
RMM:  56    -0.513463064296E+03   -0.69777E-02   -0.82798E-03 25204   0.108E-01    0.909E-01
RMM:  57    -0.513468868114E+03   -0.58038E-02   -0.15713E-02 25085   0.123E-01    0.729E-01
RMM:  58    -0.513474071497E+03   -0.52034E-02   -0.18105E-02 25321   0.128E-01    0.576E-01
RMM:  59    -0.513478658360E+03   -0.45869E-02   -0.19924E-02 25113   0.129E-01    0.496E-01
RMM:  60    -0.513482308237E+03   -0.36499E-02   -0.13269E-02 24992   0.103E-01    0.454E-01
RMM:  61    -0.513484067889E+03   -0.17597E-02   -0.48759E-03 24417   0.688E-02    0.446E-01
RMM:  62    -0.513487879078E+03   -0.38112E-02   -0.11859E-02 25026   0.118E-01    0.436E-01
RMM:  63    -0.513488483967E+03   -0.60489E-03   -0.41874E-03 23551   0.521E-02    0.458E-01
RMM:  64    -0.513487844597E+03    0.63937E-03   -0.88520E-04 18264   0.241E-02    0.490E-01
RMM:  65    -0.513489386072E+03   -0.15415E-02   -0.17603E-03 22599   0.400E-02    0.497E-01
RMM:  66    -0.513488934864E+03    0.45121E-03   -0.32662E-04 15662   0.188E-02    0.506E-01
RMM:  67    -0.513489175941E+03   -0.24108E-03   -0.31398E-04 15260   0.136E-02    0.522E-01
RMM:  68    -0.513489126628E+03    0.49314E-04   -0.55199E-05 11921   0.991E-03    0.519E-01
RMM:  69    -0.513487603440E+03    0.15232E-02   -0.89476E-04 22948   0.403E-02    0.502E-01
RMM:  70    -0.513487699518E+03   -0.96078E-04   -0.14139E-04 16091   0.119E-02    0.496E-01
RMM:  71    -0.513488369755E+03   -0.67024E-03   -0.69123E-05 12947   0.124E-02    0.485E-01
RMM:  72    -0.513490200122E+03   -0.18304E-02   -0.13313E-03 23429   0.438E-02    0.492E-01
RMM:  73    -0.513492513547E+03   -0.23134E-02   -0.28484E-03 24287   0.506E-02    0.509E-01
RMM:  74    -0.513490612301E+03    0.19012E-02   -0.64998E-04 19974   0.382E-02    0.521E-01
RMM:  75    -0.513490467824E+03    0.14448E-03   -0.82250E-05 13432   0.993E-03    0.520E-01
RMM:  76    -0.513490287533E+03    0.18029E-03   -0.31288E-05 10998   0.793E-03    0.519E-01
RMM:  77    -0.513493384768E+03   -0.30972E-02   -0.22420E-03 24151   0.596E-02    0.516E-01
RMM:  78    -0.513493089591E+03    0.29518E-03   -0.39001E-04 20006   0.202E-02    0.535E-01
RMM:  79    -0.513493818661E+03   -0.72907E-03   -0.47376E-04 20451   0.233E-02    0.552E-01
RMM:  80    -0.513494235929E+03   -0.41727E-03   -0.32153E-04 17339   0.137E-02    0.566E-01
RMM:  81    -0.513494621213E+03   -0.38528E-03   -0.95260E-05 14367   0.129E-02    0.571E-01
RMM:  82    -0.513494691858E+03   -0.70644E-04   -0.95561E-05 14509   0.131E-02    0.583E-01
RMM:  83    -0.513495118236E+03   -0.42638E-03   -0.10936E-04 15134   0.121E-02    0.588E-01
RMM:  84    -0.513493450050E+03    0.16682E-02   -0.55423E-04 21191   0.339E-02    0.570E-01
RMM:  85    -0.513490643866E+03    0.28062E-02   -0.30844E-03 24381   0.594E-02    0.537E-01
RMM:  86    -0.513488747293E+03    0.18966E-02   -0.30351E-03 24211   0.483E-02    0.503E-01
RMM:  87    -0.513481601945E+03    0.71453E-02   -0.19231E-02 25302   0.158E-01    0.503E-01
RMM:  88    -0.513481914555E+03   -0.31261E-03   -0.55590E-03 24317   0.566E-02    0.462E-01
RMM:  89    -0.513482625702E+03   -0.71115E-03   -0.63441E-04 18845   0.249E-02    0.431E-01
RMM:  90    -0.513482603098E+03    0.22604E-04   -0.32633E-04 15102   0.128E-02    0.425E-01
RMM:  91    -0.513482936256E+03   -0.33316E-03   -0.71251E-05 12452   0.109E-02    0.416E-01
RMM:  92    -0.513482120222E+03    0.81603E-03   -0.55140E-04 21760   0.322E-02    0.406E-01
RMM:  93    -0.513483164350E+03   -0.10441E-02   -0.44191E-04 20791   0.345E-02    0.403E-01
RMM:  94    -0.513482968195E+03    0.19616E-03   -0.29107E-05 10800   0.835E-03    0.410E-01
RMM:  95    -0.513483157695E+03   -0.18950E-03   -0.32517E-05 11223   0.756E-03    0.410E-01
RMM:  96    -0.513482260879E+03    0.89682E-03   -0.27029E-04 18667   0.244E-02    0.426E-01
RMM:  97    -0.513478536848E+03    0.37240E-02   -0.72076E-03 24838   0.976E-02    0.470E-01
RMM:  98    -0.513479753236E+03   -0.12164E-02   -0.67931E-04 20800   0.373E-02    0.440E-01
RMM:  99    -0.513480648067E+03   -0.89483E-03   -0.26000E-04 18119   0.245E-02    0.419E-01
RMM: 100    -0.513480987648E+03   -0.33958E-03   -0.10821E-04 14740   0.122E-02    0.417E-01
RMM: 101    -0.513480785136E+03    0.20251E-03   -0.18084E-05 10106   0.782E-03    0.422E-01
RMM: 102    -0.513477998522E+03    0.27866E-02   -0.42468E-03 24660   0.819E-02    0.438E-01
RMM: 103    -0.513474854330E+03    0.31442E-02   -0.87250E-03 24850   0.902E-02    0.483E-01
RMM: 104    -0.513477851249E+03   -0.29969E-02   -0.27712E-03 24223   0.787E-02    0.402E-01
RMM: 105    -0.513477803794E+03    0.47455E-04   -0.21639E-04 16951   0.162E-02    0.414E-01
RMM: 106    -0.513476173436E+03    0.16304E-02   -0.97680E-04 22847   0.395E-02    0.458E-01
RMM: 107    -0.513479575723E+03   -0.34023E-02   -0.50502E-03 24693   0.969E-02    0.373E-01
RMM: 108    -0.513484917007E+03   -0.53413E-02   -0.27359E-02 25438   0.172E-01    0.350E-01
RMM: 109    -0.513488895750E+03   -0.39787E-02   -0.17719E-02 24879   0.106E-01    0.440E-01
RMM: 110    -0.513491397240E+03   -0.25015E-02   -0.54579E-03 24716   0.624E-02    0.489E-01
RMM: 111    -0.513490789148E+03    0.60809E-03   -0.54488E-04 19583   0.343E-02    0.495E-01
RMM: 112    -0.513492018331E+03   -0.12292E-02   -0.90604E-04 21778   0.301E-02    0.509E-01
RMM: 113    -0.513491857993E+03    0.16034E-03   -0.22481E-04 16063   0.137E-02    0.515E-01
RMM: 114    -0.513491761857E+03    0.96136E-04   -0.98976E-05 12263   0.739E-03    0.524E-01
RMM: 115    -0.513492574001E+03   -0.81214E-03   -0.30510E-04 19125   0.201E-02    0.536E-01
RMM: 116    -0.513489541402E+03    0.30326E-02   -0.20661E-03 24123   0.609E-02    0.527E-01
RMM: 117    -0.513483585078E+03    0.59563E-02   -0.16291E-02 25164   0.138E-01    0.499E-01
RMM: 118    -0.513485532309E+03   -0.19472E-02   -0.14911E-03 22580   0.514E-02    0.471E-01
RMM: 119    -0.513486666282E+03   -0.11340E-02   -0.34803E-04 19285   0.284E-02    0.458E-01
RMM: 120    -0.513485694598E+03    0.97168E-03   -0.41894E-04 19473   0.257E-02    0.458E-01
RMM: 121    -0.513482970808E+03    0.27238E-02   -0.42125E-03 24524   0.714E-02    0.458E-01
RMM: 122    -0.513482912736E+03    0.58072E-04   -0.11723E-03 22134   0.254E-02    0.439E-01
RMM: 123    -0.513482457419E+03    0.45532E-03   -0.43409E-04 20189   0.257E-02    0.433E-01
RMM: 124    -0.513482448092E+03    0.93277E-05   -0.24552E-04 16186   0.116E-02    0.425E-01
RMM: 125    -0.513482510970E+03   -0.62878E-04   -0.44190E-05 11260   0.792E-03    0.420E-01
RMM: 126    -0.513482736356E+03   -0.22539E-03   -0.23247E-05 10733   0.774E-03    0.415E-01
RMM: 127    -0.513485578729E+03   -0.28424E-02   -0.39420E-03 24588   0.752E-02    0.382E-01
RMM: 128    -0.513488794830E+03   -0.32161E-02   -0.88390E-03 24942   0.914E-02    0.426E-01
RMM: 129    -0.513489819653E+03   -0.10248E-02   -0.26186E-03 23552   0.378E-02    0.469E-01
RMM: 130    -0.513485854760E+03    0.39649E-02   -0.44637E-03 24630   0.870E-02    0.469E-01
RMM: 131    -0.513479672481E+03    0.61823E-02   -0.21088E-02 25288   0.156E-01    0.472E-01
RMM: 132    -0.513471232390E+03    0.84401E-02   -0.48469E-02 25789   0.223E-01    0.550E-01
RMM: 133    -0.513473370455E+03   -0.21381E-02   -0.59446E-03 24391   0.749E-02    0.503E-01
RMM: 134    -0.513473976595E+03   -0.60614E-03   -0.23196E-03 21308   0.307E-02    0.450E-01
RMM: 135    -0.513473468862E+03    0.50773E-03   -0.78967E-04 20683   0.238E-02    0.454E-01
RMM: 136    -0.513473461107E+03    0.77549E-05   -0.23176E-04 15122   0.133E-02    0.447E-01
RMM: 137    -0.513471881022E+03    0.15801E-02   -0.14793E-03 23684   0.418E-02    0.482E-01
RMM: 138    -0.513471698247E+03    0.18277E-03   -0.51469E-04 20034   0.175E-02    0.478E-01
RMM: 139    -0.513471783279E+03   -0.85031E-04   -0.75528E-05 12696   0.104E-02    0.471E-01
RMM: 140    -0.513471233600E+03    0.54968E-03   -0.22532E-04 17463   0.155E-02    0.483E-01
RMM: 141    -0.513470579363E+03    0.65424E-03   -0.37650E-04 20078   0.197E-02    0.494E-01
RMM: 142    -0.513470065943E+03    0.51342E-03   -0.26901E-04 18472   0.162E-02    0.509E-01
RMM: 143    -0.513471315199E+03   -0.12493E-02   -0.41779E-04 19710   0.290E-02    0.468E-01
RMM: 144    -0.513470403700E+03    0.91150E-03   -0.16361E-04 16030   0.209E-02    0.502E-01
RMM: 145    -0.513470175018E+03    0.22868E-03   -0.78232E-05 13182   0.954E-03    0.505E-01
RMM: 146    -0.513469843822E+03    0.33120E-03   -0.92958E-05 14623   0.109E-02    0.513E-01
RMM: 147    -0.513464959987E+03    0.48838E-02   -0.66068E-03 24879   0.973E-02    0.652E-01
RMM: 148    -0.513469106798E+03   -0.41468E-02   -0.24284E-03 24314   0.802E-02    0.503E-01
RMM: 149    -0.513468213223E+03    0.89357E-03   -0.15108E-04 15464   0.231E-02    0.543E-01
RMM: 150    -0.513468236456E+03   -0.23233E-04   -0.14450E-05 10131   0.507E-03
 -----------------------------------------------------------------------------
|                                                                             |
|           W    W    AA    RRRRR   N    N  II  N    N   GGGG   !!!           |
|           W    W   A  A   R    R  NN   N  II  NN   N  G    G  !!!           |
|           W    W  A    A  R    R  N N  N  II  N N  N  G       !!!           |
|           W WW W  AAAAAA  RRRRR   N  N N  II  N  N N  G  GGG   !            |
|           WW  WW  A    A  R   R   N   NN  II  N   NN  G    G                |
|           W    W  A    A  R    R  N    N  II  N    N   GGGG   !!!           |
|                                                                             |
|     The electronic self-consistency was not achieved in the given           |
|     number of steps (NELM). The forces and other quantities evaluated       |
|     might not be reliable so examine the results carefully. If you find     |
|     spurious results, we suggest increasing NELM, if you were close to      |
|     convergence or switching to a different ALGO or adjusting the           |
|     density mixing parameters otherwise.                                    |
|                                                                             |
 -----------------------------------------------------------------------------

   3 F= -.51346824E+03 E0= -.51347571E+03  d E =-.354126E+00  mag=   103.0668
 curvature:  -1.05 expect dE=-0.896E-01 dE for cont linesearch -0.157E-01
 ZBRENT: interpolating
 opt :   1.7527  next Energy=  -513.478969 (dE=-0.365E+00)
 bond charge predicted
       N       E                     dE             d eps       ncg     rms          rms(c)
DAV:   1    -0.513317143339E+03    0.15107E+00   -0.96443E+00 19890   0.873E+00    0.177E+00
RMM:   2    -0.513461890123E+03   -0.14475E+00   -0.13312E+00 16473   0.184E+00    0.169E+00
RMM:   3    -0.513568555830E+03   -0.10667E+00   -0.25774E-01 20882   0.693E-01    0.405E+00
RMM:   4    -0.513477204625E+03    0.91351E-01   -0.21514E-02 17460   0.322E-01    0.916E-01
RMM:   5    -0.513481699224E+03   -0.44946E-02   -0.95188E-03 22797   0.147E-01    0.812E-01
RMM:   6    -0.513482699041E+03   -0.99982E-03   -0.37877E-03 21026   0.875E-02    0.664E-01
RMM:   7    -0.513483958003E+03   -0.12590E-02   -0.24536E-03 20921   0.729E-02    0.449E-01
RMM:   8    -0.513484435832E+03   -0.47783E-03   -0.18047E-03 20152   0.630E-02    0.305E-01
RMM:   9    -0.513484357390E+03    0.78442E-04   -0.89871E-04 22280   0.402E-02    0.265E-01
RMM:  10    -0.513484270793E+03    0.86597E-04   -0.45492E-04 22973   0.282E-02    0.225E-01
RMM:  11    -0.513484170087E+03    0.10071E-03   -0.49361E-04 20557   0.324E-02    0.146E-01
RMM:  12    -0.513484172556E+03   -0.24693E-05   -0.30530E-04 20589   0.236E-02    0.124E-01
RMM:  13    -0.513484192241E+03   -0.19684E-04   -0.11605E-04 17453   0.147E-02    0.115E-01
RMM:  14    -0.513484250809E+03   -0.58569E-04   -0.69156E-05 14065   0.126E-02    0.134E-01
RMM:  15    -0.513484265506E+03   -0.14697E-04   -0.31990E-05 11308   0.933E-03    0.142E-01
RMM:  16    -0.513484260995E+03    0.45115E-05   -0.15109E-05  9949   0.751E-03
   4 F= -.51348426E+03 E0= -.51349128E+03  d E =-.370150E+00  mag=   103.1442
 curvature:  -0.72 expect dE=-0.415E-01 dE for cont linesearch -0.175E-02
 ZBRENT: interpolating
 opt :   1.5824  next Energy=  -513.487146 (dE=-0.373E+00)
 bond charge predicted
       N       E                     dE             d eps       ncg     rms          rms(c)
DAV:   1    -0.513429868694E+03    0.54397E-01   -0.33371E+00 20016   0.511E+00    0.100E+00
RMM:   2    -0.513476678667E+03   -0.46810E-01   -0.45850E-01 16308   0.105E+00    0.668E-01
RMM:   3    -0.513489962200E+03   -0.13284E-01   -0.82698E-02 20515   0.369E-01    0.113E+00
RMM:   4    -0.513488893916E+03    0.10683E-02   -0.63767E-03 20627   0.149E-01    0.816E-01
RMM:   5    -0.513487984754E+03    0.90916E-03   -0.23227E-03 18397   0.910E-02    0.685E-01
RMM:   6    -0.513487220129E+03    0.76462E-03   -0.87914E-04 20149   0.522E-02    0.489E-01
RMM:   7    -0.513488292224E+03   -0.10721E-02   -0.75056E-04 20747   0.373E-02    0.466E-01
RMM:   8    -0.513488964602E+03   -0.67238E-03   -0.93042E-04 19615   0.405E-02    0.464E-01
RMM:   9    -0.513489170615E+03   -0.20601E-03   -0.37394E-04 20901   0.224E-02    0.485E-01
RMM:  10    -0.513488682510E+03    0.48811E-03   -0.10645E-04 14637   0.170E-02    0.452E-01
RMM:  11    -0.513488795286E+03   -0.11278E-03   -0.37158E-05 11639   0.951E-03    0.454E-01
RMM:  12    -0.513488711490E+03    0.83796E-04   -0.20989E-05 10493   0.792E-03    0.444E-01
RMM:  13    -0.513488911944E+03   -0.20045E-03   -0.12081E-03 23816   0.496E-02    0.309E-01
RMM:  14    -0.513489375735E+03   -0.46379E-03   -0.14580E-03 23105   0.386E-02    0.255E-01
RMM:  15    -0.513489461155E+03   -0.85420E-04   -0.23833E-04 17241   0.153E-02    0.257E-01
RMM:  16    -0.513489404443E+03    0.56712E-04   -0.60157E-05 12428   0.855E-03    0.260E-01
RMM:  17    -0.513489776646E+03   -0.37220E-03   -0.47215E-04 20987   0.310E-02    0.243E-01
RMM:  18    -0.513490127122E+03   -0.35048E-03   -0.10324E-03 23854   0.389E-02    0.217E-01
RMM:  19    -0.513490169256E+03   -0.42134E-04   -0.23263E-04 17400   0.133E-02    0.218E-01
RMM:  20    -0.513490191968E+03   -0.22713E-04   -0.89006E-05 13546   0.111E-02    0.215E-01
RMM:  21    -0.513490271921E+03   -0.79952E-04   -0.21766E-04 17265   0.154E-02    0.197E-01
RMM:  22    -0.513490491520E+03   -0.21960E-03   -0.18247E-03 24384   0.523E-02    0.169E-01
RMM:  23    -0.513490575956E+03   -0.84436E-04   -0.20387E-03 24279   0.422E-02    0.185E-01
RMM:  24    -0.513490590830E+03   -0.14874E-04   -0.73224E-04 21382   0.229E-02    0.181E-01
RMM:  25    -0.513490532778E+03    0.58052E-04   -0.48996E-04 21557   0.280E-02    0.184E-01
RMM:  26    -0.513490565782E+03   -0.33004E-04   -0.20668E-04 16004   0.155E-02    0.136E-01
RMM:  27    -0.513490601275E+03   -0.35492E-04   -0.48702E-05 11827   0.109E-02    0.107E-01
RMM:  28    -0.513490612512E+03   -0.11237E-04   -0.34012E-05 11592   0.919E-03    0.906E-02
RMM:  29    -0.513490639532E+03   -0.27020E-04   -0.75933E-05 14763   0.140E-02    0.622E-02
RMM:  30    -0.513490643260E+03   -0.37275E-05   -0.48738E-05 12246   0.107E-02
   5 F= -.51349064E+03 E0= -.51349739E+03  d E =-.376533E+00  mag=   103.4991
 curvature:  -1.18 expect dE=-0.749E-01 dE for cont linesearch -0.605E-02
 ZBRENT: bisectioning
 opt :   1.2912  next Energy=  -513.506548 (dE=-0.392E+00)
 bond charge predicted
       N       E                     dE             d eps       ncg     rms          rms(c)
DAV:   1    -0.513328597407E+03    0.16204E+00   -0.99910E+00 19683   0.870E+00    0.180E+00
RMM:   2    -0.513468383457E+03   -0.13979E+00   -0.13277E+00 16421   0.183E+00    0.147E+00
RMM:   3    -0.513598191103E+03   -0.12981E+00   -0.25963E-01 21584   0.688E-01    0.432E+00
RMM:   4    -0.513490128267E+03    0.10806E+00   -0.22360E-02 17132   0.329E-01    0.108E+00
RMM:   5    -0.513496115105E+03   -0.59868E-02   -0.10756E-02 22168   0.152E-01    0.999E-01
RMM:   6    -0.513495367188E+03    0.74792E-03   -0.38601E-03 20926   0.907E-02    0.717E-01
RMM:   7    -0.513497846629E+03   -0.24794E-02   -0.27289E-03 21377   0.716E-02    0.544E-01
RMM:   8    -0.513499039136E+03   -0.11925E-02   -0.23572E-03 20061   0.665E-02    0.427E-01
RMM:   9    -0.513499559387E+03   -0.52025E-03   -0.13561E-03 21429   0.467E-02    0.445E-01
RMM:  10    -0.513499824218E+03   -0.26483E-03   -0.85331E-04 22836   0.331E-02    0.420E-01
RMM:  11    -0.513500138219E+03   -0.31400E-03   -0.20372E-03 21677   0.564E-02    0.283E-01
RMM:  12    -0.513500447454E+03   -0.30924E-03   -0.13508E-03 21664   0.351E-02    0.285E-01
RMM:  13    -0.513500513931E+03   -0.66476E-04   -0.23713E-04 18500   0.187E-02    0.296E-01
RMM:  14    -0.513500338882E+03    0.17505E-03   -0.86185E-05 14218   0.127E-02    0.266E-01
RMM:  15    -0.513500368468E+03   -0.29586E-04   -0.35285E-05 11580   0.986E-03    0.273E-01
RMM:  16    -0.513500328150E+03    0.40318E-04   -0.88637E-05 14370   0.153E-02    0.243E-01
RMM:  17    -0.513500390232E+03   -0.62082E-04   -0.20744E-04 19348   0.191E-02    0.226E-01
RMM:  18    -0.513500479086E+03   -0.88854E-04   -0.14781E-04 16892   0.155E-02    0.214E-01
RMM:  19    -0.513500474444E+03    0.46421E-05   -0.29155E-04 19937   0.232E-02    0.133E-01
RMM:  20    -0.513500498881E+03   -0.24437E-04   -0.19896E-04 17902   0.173E-02    0.961E-02
RMM:  21    -0.513500546523E+03   -0.47641E-04   -0.16907E-04 18688   0.191E-02    0.757E-02
RMM:  22    -0.513500545222E+03    0.13011E-05   -0.11334E-04 14895   0.123E-02    0.440E-02
RMM:  23    -0.513500547954E+03   -0.27326E-05   -0.27852E-05 11106   0.881E-03
   6 F= -.51350055E+03 E0= -.51350706E+03  d E =-.386437E+00  mag=   103.8094
 curvature:  -3.11 expect dE=-0.176E+00 dE for cont linesearch -0.449E-02
 ZBRENT: bisectioning
 opt :   1.1456  next Energy=  -513.503154 (dE=-0.389E+00)
 bond charge predicted
       N       E                     dE             d eps       ncg     rms          rms(c)
DAV:   1    -0.513458726524E+03    0.41819E-01   -0.25507E+00 19854   0.435E+00    0.863E-01
RMM:   2    -0.513493858291E+03   -0.35132E-01   -0.34152E-01 16336   0.912E-01    0.581E-01
RMM:   3    -0.513509542178E+03   -0.15684E-01   -0.62340E-02 21018   0.322E-01    0.126E+00
RMM:   4    -0.513501889878E+03    0.76523E-02   -0.45646E-03 18700   0.137E-01    0.659E-01
RMM:   5    -0.513501892322E+03   -0.24444E-05   -0.15960E-03 21842   0.679E-02    0.468E-01
RMM:   6    -0.513501882562E+03    0.97603E-05   -0.61245E-04 19713   0.393E-02    0.346E-01
RMM:   7    -0.513502640982E+03   -0.75842E-03   -0.62850E-04 19501   0.382E-02    0.259E-01
RMM:   8    -0.513502725754E+03   -0.84772E-04   -0.51536E-04 19287   0.328E-02    0.180E-01
RMM:   9    -0.513502768110E+03   -0.42357E-04   -0.22773E-04 20091   0.206E-02    0.177E-01
RMM:  10    -0.513502820933E+03   -0.52823E-04   -0.24260E-04 18169   0.192E-02    0.153E-01
RMM:  11    -0.513502850029E+03   -0.29096E-04   -0.49805E-04 20189   0.279E-02    0.904E-02
RMM:  12    -0.513502867945E+03   -0.17916E-04   -0.14766E-04 16265   0.131E-02    0.831E-02
RMM:  13    -0.513502890178E+03   -0.22232E-04   -0.73735E-05 13684   0.126E-02    0.878E-02
RMM:  14    -0.513502906148E+03   -0.15970E-04   -0.55481E-05 12135   0.925E-03    0.958E-02
RMM:  15    -0.513502904792E+03    0.13559E-05   -0.15327E-05 10021   0.789E-03
   7 F= -.51350290E+03 E0= -.51350927E+03  d E =-.388794E+00  mag=   103.9195
 curvature:  -1.80 expect dE=-0.965E-01 dE for cont linesearch -0.261E-03
 trial: gam= 0.16699 g(F)=  0.536E-01 g(S)=  0.000E+00 ort =-0.727E-02 (trialstep = 0.103E+01)
 search vector abs. value=  0.613E-01
 bond charge predicted
       N       E                     dE             d eps       ncg     rms          rms(c)
DAV:   1    -0.513358314980E+03    0.14459E+00   -0.18470E+01 16272   0.949E+00    0.205E+00
RMM:   2    -0.513493976036E+03   -0.13566E+00   -0.12666E+00 19267   0.244E+00    0.150E+00
RMM:   3    -0.513611589362E+03   -0.11761E+00   -0.36656E-01 24770   0.104E+00    0.369E+00
RMM:   4    -0.513539610070E+03    0.71979E-01   -0.33956E-02 20326   0.366E-01    0.147E+00
RMM:   5    -0.513544739550E+03   -0.51295E-02   -0.10086E-02 22134   0.175E-01    0.109E+00
RMM:   6    -0.513546683047E+03   -0.19435E-02   -0.37012E-03 19034   0.112E-01    0.743E-01
RMM:   7    -0.513549860921E+03   -0.31779E-02   -0.34854E-03 18973   0.103E-01    0.398E-01
RMM:   8    -0.513549914346E+03   -0.53424E-04   -0.16879E-03 21625   0.685E-02    0.326E-01
RMM:   9    -0.513549895371E+03    0.18974E-04   -0.57405E-04 24005   0.343E-02    0.313E-01
RMM:  10    -0.513549822617E+03    0.72754E-04   -0.38881E-04 21263   0.260E-02    0.303E-01
RMM:  11    -0.513549814426E+03    0.81912E-05   -0.28756E-04 20619   0.225E-02    0.307E-01
RMM:  12    -0.513549822213E+03   -0.77867E-05   -0.97303E-05 15347   0.117E-02
   8 F= -.51354982E+03 E0= -.51355611E+03  d E =-.469174E-01  mag=   103.8306
 ZBRENT: can't locate minimum, use default step
 trial-energy change:   -0.046917  1 .order   -0.047330   -0.053893   -0.040768
 step:   4.1165(harm=  4.2256)  dis= 0.12144  next Energy=  -513.613547 (dE=-0.111E+00)
 bond charge predicted
       N       E                     dE             d eps       ncg     rms          rms(c)
DAV:   1    -0.511921436725E+03    0.16284E+01   -0.17181E+02 16524   0.288E+01    0.717E+00
RMM:   2    -0.513329565617E+03   -0.14081E+01   -0.11560E+01 19390   0.777E+00    0.741E+00
RMM:   3    -0.514673918239E+03   -0.13444E+01   -0.29506E+00 24800   0.320E+00    0.147E+01
RMM:   4    -0.513467400778E+03    0.12065E+01   -0.31365E-01 19178   0.117E+00    0.412E+00
RMM:   5    -0.513538961527E+03   -0.71561E-01   -0.13151E-01 22353   0.576E-01    0.340E+00
RMM:   6    -0.513566330184E+03   -0.27369E-01   -0.59712E-02 21334   0.389E-01    0.262E+00
RMM:   7    -0.513589424043E+03   -0.23094E-01   -0.37470E-02 22060   0.294E-01    0.165E+00
RMM:   8    -0.513600128768E+03   -0.10705E-01   -0.23883E-02 21156   0.233E-01    0.123E+00
RMM:   9    -0.513601357371E+03   -0.12286E-02   -0.11893E-02 23562   0.148E-01    0.115E+00
RMM:  10    -0.513601315902E+03    0.41470E-04   -0.59413E-03 24741   0.884E-02    0.115E+00
RMM:  11    -0.513601492803E+03   -0.17690E-03   -0.27114E-03 24867   0.547E-02    0.118E+00
RMM:  12    -0.513600396925E+03    0.10959E-02   -0.11987E-03 23074   0.435E-02    0.112E+00
RMM:  13    -0.513600083314E+03    0.31361E-03   -0.82441E-04 23473   0.277E-02    0.108E+00
RMM:  14    -0.513598220961E+03    0.18624E-02   -0.94513E-04 21198   0.460E-02    0.876E-01
RMM:  15    -0.513595359632E+03    0.28613E-02   -0.34073E-03 25204   0.906E-02    0.632E-01
RMM:  16    -0.513595049716E+03    0.30992E-03   -0.14133E-03 22478   0.437E-02    0.561E-01
RMM:  17    -0.513594281565E+03    0.76815E-03   -0.18218E-03 24066   0.715E-02    0.385E-01
RMM:  18    -0.513594511288E+03   -0.22972E-03   -0.25712E-03 24412   0.840E-02    0.340E-01
RMM:  19    -0.513594411017E+03    0.10027E-03   -0.57996E-04 20939   0.317E-02    0.243E-01
RMM:  20    -0.513594341906E+03    0.69111E-04   -0.25525E-04 19178   0.262E-02    0.138E-01
RMM:  21    -0.513594423517E+03   -0.81611E-04   -0.21965E-04 19150   0.228E-02    0.128E-01
RMM:  22    -0.513594408116E+03    0.15401E-04   -0.70366E-05 13648   0.144E-02    0.101E-01
RMM:  23    -0.513594382747E+03    0.25368E-04   -0.53354E-05 12747   0.137E-02    0.587E-02
RMM:  24    -0.513594395969E+03   -0.13221E-04   -0.32804E-05 11386   0.103E-02    0.557E-02
RMM:  25    -0.513594401093E+03   -0.51242E-05   -0.17952E-05 10114   0.945E-03
   9 F= -.51359440E+03 E0= -.51360067E+03  d E =-.914963E-01  mag=   103.7331
 curvature:  -2.47 expect dE=-0.846E-01 dE for cont linesearch -0.363E-02
 ZBRENT: interpolating
 opt :   3.5195  next Energy=  -513.597236 (dE=-0.943E-01)
 bond charge predicted
       N       E                     dE             d eps       ncg     rms          rms(c)
DAV:   1    -0.513533508515E+03    0.60887E-01   -0.62622E+00 16506   0.547E+00    0.121E+00
RMM:   2    -0.513578573930E+03   -0.45065E-01   -0.42055E-01 18997   0.140E+00    0.859E-01
RMM:   3    -0.513619081625E+03   -0.40508E-01   -0.11818E-01 24492   0.585E-01    0.220E+00
RMM:   4    -0.513592669965E+03    0.26412E-01   -0.99731E-03 19486   0.205E-01    0.714E-01
RMM:   5    -0.513596004306E+03   -0.33343E-02   -0.33629E-03 21190   0.989E-02    0.595E-01
RMM:   6    -0.513596407023E+03   -0.40272E-03   -0.11617E-03 17924   0.664E-02    0.385E-01
RMM:   7    -0.513597325841E+03   -0.91882E-03   -0.10138E-03 18365   0.573E-02    0.229E-01
RMM:   8    -0.513597241697E+03    0.84143E-04   -0.44633E-04 20772   0.370E-02    0.155E-01
RMM:   9    -0.513597199408E+03    0.42289E-04   -0.16356E-04 20042   0.196E-02    0.131E-01
RMM:  10    -0.513597124926E+03    0.74483E-04   -0.13675E-04 16903   0.182E-02    0.101E-01
RMM:  11    -0.513597071420E+03    0.53506E-04   -0.20321E-04 18369   0.236E-02    0.779E-02
RMM:  12    -0.513597075495E+03   -0.40748E-05   -0.52237E-05 12937   0.112E-02
  10 F= -.51359708E+03 E0= -.51360359E+03  d E =-.941707E-01  mag=   103.7777
 curvature:  -1.93 expect dE=-0.528E-01 dE for cont linesearch -0.521E-05
 trial: gam= 0.39885 g(F)=  0.274E-01 g(S)=  0.000E+00 ort =-0.407E-03 (trialstep = 0.153E+01)
 search vector abs. value=  0.368E-01
 bond charge predicted
       N       E                     dE             d eps       ncg     rms          rms(c)
DAV:   1    -0.513414903807E+03    0.18217E+00   -0.26868E+01 16623   0.958E+00    0.195E+00
RMM:   2    -0.513564216379E+03   -0.14931E+00   -0.14294E+00 19862   0.258E+00    0.135E+00
RMM:   3    -0.513659798470E+03   -0.95582E-01   -0.47144E-01 24528   0.111E+00    0.284E+00
RMM:   4    -0.513619840186E+03    0.39958E-01   -0.32055E-02 22109   0.345E-01    0.120E+00
RMM:   5    -0.513625461118E+03   -0.56209E-02   -0.81670E-03 23069   0.153E-01    0.888E-01
RMM:   6    -0.513627420163E+03   -0.19590E-02   -0.32707E-03 18437   0.103E-01    0.691E-01
RMM:   7    -0.513629401755E+03   -0.19816E-02   -0.27261E-03 18661   0.943E-02    0.331E-01
RMM:   8    -0.513629394941E+03    0.68143E-05   -0.12412E-03 22036   0.542E-02    0.292E-01
RMM:   9    -0.513629379739E+03    0.15202E-04   -0.41288E-04 23958   0.287E-02    0.278E-01
RMM:  10    -0.513629434202E+03   -0.54464E-04   -0.35906E-04 19926   0.262E-02    0.304E-01
RMM:  11    -0.513629508716E+03   -0.74513E-04   -0.20098E-04 19567   0.178E-02    0.328E-01
RMM:  12    -0.513629454851E+03    0.53864E-04   -0.53566E-05 12697   0.102E-02    0.325E-01
RMM:  13    -0.513629397121E+03    0.57731E-04   -0.49753E-05 12554   0.110E-02    0.319E-01
RMM:  14    -0.513629116924E+03    0.28020E-03   -0.29660E-04 21250   0.252E-02    0.246E-01
RMM:  15    -0.513629011287E+03    0.10564E-03   -0.21593E-04 19592   0.214E-02    0.169E-01
RMM:  16    -0.513628988290E+03    0.22997E-04   -0.21215E-04 20490   0.235E-02    0.110E-01
RMM:  17    -0.513629053343E+03   -0.65053E-04   -0.15154E-04 18240   0.195E-02    0.115E-01
RMM:  18    -0.513629026524E+03    0.26820E-04   -0.73032E-05 14771   0.154E-02    0.626E-02
RMM:  19    -0.513629024298E+03    0.22251E-05   -0.33828E-05 11487   0.105E-02
  11 F= -.51362902E+03 E0= -.51363533E+03  d E =-.319488E-01  mag=   103.7436
 trial-energy change:   -0.031949  1 .order   -0.031479   -0.041599   -0.021359
 step:   2.8101(harm=  3.1388)  dis= 0.06191  next Energy=  -513.638274 (dE=-0.412E-01)
 bond charge predicted
       N       E                     dE             d eps       ncg     rms          rms(c)
DAV:   1    -0.513488157301E+03    0.14087E+00   -0.18915E+01 16686   0.803E+00    0.166E+00
RMM:   2    -0.513593163865E+03   -0.10501E+00   -0.10037E+00 19839   0.219E+00    0.115E+00
RMM:   3    -0.513684767292E+03   -0.91603E-01   -0.33829E-01 24773   0.938E-01    0.318E+00
RMM:   4    -0.513630231706E+03    0.54536E-01   -0.22287E-02 20610   0.303E-01    0.868E-01
RMM:   5    -0.513636316239E+03   -0.60845E-02   -0.62904E-03 22776   0.132E-01    0.684E-01
RMM:   6    -0.513638653970E+03   -0.23377E-02   -0.25228E-03 18810   0.897E-02    0.623E-01
RMM:   7    -0.513639211078E+03   -0.55711E-03   -0.17932E-03 18422   0.796E-02    0.297E-01
RMM:   8    -0.513639219820E+03   -0.87419E-05   -0.82038E-04 21868   0.445E-02    0.256E-01
RMM:   9    -0.513639076512E+03    0.14331E-03   -0.30252E-04 23133   0.253E-02    0.197E-01
RMM:  10    -0.513638996083E+03    0.80428E-04   -0.32300E-04 19263   0.276E-02    0.144E-01
RMM:  11    -0.513638996528E+03   -0.44475E-06   -0.46091E-04 20028   0.334E-02    0.121E-01
RMM:  12    -0.513638981945E+03    0.14583E-04   -0.14767E-04 17972   0.164E-02    0.953E-02
RMM:  13    -0.513638977190E+03    0.47552E-05   -0.59743E-05 13834   0.147E-02
  12 F= -.51363898E+03 E0= -.51364499E+03  d E =-.419017E-01  mag=   103.7079
 curvature:  -2.03 expect dE=-0.244E-01 dE for cont linesearch -0.975E-04
 trial: gam= 0.27851 g(F)=  0.120E-01 g(S)=  0.000E+00 ort = 0.133E-02 (trialstep = 0.178E+01)
 search vector abs. value=  0.156E-01
 bond charge predicted
       N       E                     dE             d eps       ncg     rms          rms(c)
DAV:   1    -0.513515876154E+03    0.12311E+00   -0.14643E+01 16551   0.834E+00    0.170E+00
RMM:   2    -0.513620128773E+03   -0.10425E+00   -0.91642E-01 19895   0.222E+00    0.156E+00
RMM:   3    -0.513716616890E+03   -0.96488E-01   -0.29235E-01 24612   0.965E-01    0.374E+00
RMM:   4    -0.513646703271E+03    0.69914E-01   -0.24615E-02 19876   0.327E-01    0.879E-01
RMM:   5    -0.513654287056E+03   -0.75838E-02   -0.84363E-03 21544   0.155E-01    0.845E-01
RMM:   6    -0.513655390446E+03   -0.11034E-02   -0.24842E-03 18683   0.100E-01    0.479E-01
RMM:   7    -0.513656771966E+03   -0.13815E-02   -0.20353E-03 19767   0.783E-02    0.313E-01
RMM:   8    -0.513656851750E+03   -0.79784E-04   -0.76070E-04 22583   0.470E-02    0.272E-01
RMM:   9    -0.513656747403E+03    0.10435E-03   -0.31167E-04 23395   0.259E-02    0.243E-01
RMM:  10    -0.513656742431E+03    0.49719E-05   -0.22541E-04 19121   0.215E-02    0.250E-01
RMM:  11    -0.513656781887E+03   -0.39457E-04   -0.13274E-04 17388   0.167E-02    0.275E-01
RMM:  12    -0.513656710099E+03    0.71788E-04   -0.33289E-05 11311   0.921E-03    0.261E-01
RMM:  13    -0.513656540879E+03    0.16922E-03   -0.69408E-05 14025   0.139E-02    0.210E-01
RMM:  14    -0.513656383991E+03    0.15689E-03   -0.26326E-04 20423   0.249E-02    0.139E-01
RMM:  15    -0.513656405536E+03   -0.21545E-04   -0.76537E-05 14141   0.139E-02    0.106E-01
RMM:  16    -0.513656431924E+03   -0.26388E-04   -0.13631E-04 16980   0.209E-02    0.629E-02
RMM:  17    -0.513656450952E+03   -0.19028E-04   -0.64597E-05 13598   0.151E-02    0.504E-02
RMM:  18    -0.513656459421E+03   -0.84695E-05   -0.20313E-05 10280   0.863E-03
  13 F= -.51365646E+03 E0= -.51366264E+03  d E =-.174822E-01  mag=   103.6801
 trial-energy change:   -0.017482  1 .order   -0.017367   -0.022078   -0.012656
 step:   3.8518(harm=  4.1796)  dis= 0.05550  next Energy=  -513.663975 (dE=-0.250E-01)
 bond charge predicted
       N       E                     dE             d eps       ncg     rms          rms(c)
DAV:   1    -0.513474523549E+03    0.18193E+00   -0.19681E+01 16425   0.966E+00    0.198E+00
RMM:   2    -0.513610965596E+03   -0.13644E+00   -0.12473E+00 19847   0.258E+00    0.156E+00
RMM:   3    -0.513792372660E+03   -0.18141E+00   -0.40082E-01 24986   0.113E+00    0.510E+00
RMM:   4    -0.513650538822E+03    0.14183E+00   -0.34043E-02 18652   0.391E-01    0.103E+00
RMM:   5    -0.513662014431E+03   -0.11476E-01   -0.13259E-02 21455   0.186E-01    0.995E-01
RMM:   6    -0.513663039574E+03   -0.10251E-02   -0.35027E-03 19869   0.117E-01    0.557E-01
RMM:   7    -0.513665360655E+03   -0.23211E-02   -0.27804E-03 19784   0.894E-02    0.324E-01
RMM:   8    -0.513665428260E+03   -0.67605E-04   -0.11296E-03 22308   0.569E-02    0.269E-01
RMM:   9    -0.513665274258E+03    0.15400E-03   -0.44039E-04 23669   0.311E-02    0.215E-01
RMM:  10    -0.513665128782E+03    0.14548E-03   -0.38165E-04 19884   0.298E-02    0.168E-01
RMM:  11    -0.513665007144E+03    0.12164E-03   -0.50835E-04 19138   0.377E-02    0.105E-01
RMM:  12    -0.513665017070E+03   -0.99258E-05   -0.20000E-04 19607   0.213E-02    0.953E-02
RMM:  13    -0.513665043689E+03   -0.26618E-04   -0.62932E-05 13806   0.136E-02    0.898E-02
RMM:  14    -0.513665081483E+03   -0.37795E-04   -0.48381E-05 12811   0.126E-02    0.999E-02
RMM:  15    -0.513665087737E+03   -0.62533E-05   -0.18749E-05 10247   0.890E-03
  14 F= -.51366509E+03 E0= -.51367146E+03  d E =-.261105E-01  mag=   103.6295
 curvature:  -2.59 expect dE=-0.160E-01 dE for cont linesearch -0.183E-03
 trial: gam= 0.44496 g(F)=  0.618E-02 g(S)=  0.000E+00 ort = 0.105E-02 (trialstep = 0.220E+01)
 search vector abs. value=  0.102E-01
 bond charge predicted
       N       E                     dE             d eps       ncg     rms          rms(c)
DAV:   1    -0.513541262201E+03    0.12382E+00   -0.14321E+01 16587   0.830E+00    0.169E+00
RMM:   2    -0.513638797603E+03   -0.97535E-01   -0.89134E-01 19723   0.216E+00    0.140E+00
RMM:   3    -0.513747950567E+03   -0.10915E+00   -0.28028E-01 24600   0.930E-01    0.381E+00
RMM:   4    -0.513667600991E+03    0.80350E-01   -0.26035E-02 18282   0.338E-01    0.997E-01
RMM:   5    -0.513674042728E+03   -0.64417E-02   -0.79337E-03 21424   0.157E-01    0.806E-01
RMM:   6    -0.513676152797E+03   -0.21101E-02   -0.28475E-03 19261   0.102E-01    0.590E-01
RMM:   7    -0.513677538259E+03   -0.13855E-02   -0.23351E-03 19279   0.872E-02    0.389E-01
RMM:   8    -0.513677458201E+03    0.80058E-04   -0.97218E-04 21799   0.538E-02    0.259E-01
RMM:   9    -0.513677445207E+03    0.12995E-04   -0.41323E-04 23386   0.289E-02    0.253E-01
RMM:  10    -0.513677451428E+03   -0.62211E-05   -0.22062E-04 19788   0.193E-02    0.249E-01
RMM:  11    -0.513677515207E+03   -0.63780E-04   -0.16774E-04 17853   0.181E-02    0.268E-01
RMM:  12    -0.513677481122E+03    0.34086E-04   -0.44538E-05 11824   0.935E-03    0.266E-01
RMM:  13    -0.513677499140E+03   -0.18018E-04   -0.20556E-05 10645   0.775E-03    0.272E-01
RMM:  14    -0.513677238649E+03    0.26049E-03   -0.17321E-04 18712   0.222E-02    0.196E-01
RMM:  15    -0.513677086127E+03    0.15252E-03   -0.39879E-04 21943   0.284E-02    0.138E-01
RMM:  16    -0.513677126728E+03   -0.40601E-04   -0.13882E-04 16928   0.154E-02    0.113E-01
RMM:  17    -0.513677177405E+03   -0.50677E-04   -0.17639E-04 19119   0.251E-02    0.698E-02
RMM:  18    -0.513677176173E+03    0.12325E-05   -0.59173E-05 13055   0.120E-02
  15 F= -.51367718E+03 E0= -.51368344E+03  d E =-.120884E-01  mag=   103.6745
 trial-energy change:   -0.012088  1 .order   -0.012060   -0.014600   -0.009520
 step:   6.3148(harm=  6.3148)  dis= 0.08669  next Energy=  -513.686066 (dE=-0.210E-01)
 bond charge predicted
       N       E                     dE             d eps       ncg     rms          rms(c)
DAV:   1    -0.513191407237E+03    0.48577E+00   -0.50701E+01 16371   0.156E+01    0.325E+00
RMM:   2    -0.513543643838E+03   -0.35224E+00   -0.32986E+00 19504   0.417E+00    0.244E+00
RMM:   3    -0.513861318713E+03   -0.31767E+00   -0.96895E-01 24802   0.176E+00    0.608E+00
RMM:   4    -0.513661976236E+03    0.19934E+00   -0.96619E-02 19355   0.616E-01    0.233E+00
RMM:   5    -0.513675609713E+03   -0.13633E-01   -0.28272E-02 22286   0.291E-01    0.170E+00
RMM:   6    -0.513677920899E+03   -0.23112E-02   -0.93643E-03 19378   0.182E-01    0.113E+00
RMM:   7    -0.513686225114E+03   -0.83042E-02   -0.87648E-03 19434   0.163E-01    0.619E-01
RMM:   8    -0.513686112255E+03    0.11286E-03   -0.39005E-03 21872   0.107E-01    0.439E-01
RMM:   9    -0.513686010503E+03    0.10175E-03   -0.14280E-03 24327   0.551E-02    0.389E-01
RMM:  10    -0.513685790429E+03    0.22007E-03   -0.90982E-04 22067   0.407E-02    0.337E-01
RMM:  11    -0.513685397892E+03    0.39254E-03   -0.15171E-03 19825   0.620E-02    0.224E-01
RMM:  12    -0.513685319059E+03    0.78833E-04   -0.87974E-04 20387   0.431E-02    0.191E-01
RMM:  13    -0.513685367115E+03   -0.48056E-04   -0.27436E-04 22404   0.227E-02    0.184E-01
RMM:  14    -0.513685463234E+03   -0.96119E-04   -0.14948E-04 18711   0.193E-02    0.191E-01
RMM:  15    -0.513685506804E+03   -0.43570E-04   -0.70037E-05 13564   0.116E-02    0.203E-01
RMM:  16    -0.513685410609E+03    0.96195E-04   -0.49272E-05 12613   0.135E-02    0.165E-01
RMM:  17    -0.513685344498E+03    0.66111E-04   -0.15409E-04 17783   0.194E-02    0.112E-01
RMM:  18    -0.513685375360E+03   -0.30862E-04   -0.46299E-05 12235   0.104E-02    0.103E-01
RMM:  19    -0.513685379693E+03   -0.43325E-05   -0.42088E-05 11569   0.127E-02
  16 F= -.51368538E+03 E0= -.51369156E+03  d E =-.202920E-01  mag=   103.7435
 curvature:  -4.85 expect dE=-0.254E-01 dE for cont linesearch -0.162E-03
 trial: gam= 1.04460 g(F)=  0.525E-02 g(S)=  0.000E+00 ort =-0.584E-03 (trialstep = 0.203E+01)
 search vector abs. value=  0.152E-01
 bond charge predicted
       N       E                     dE             d eps       ncg     rms          rms(c)
DAV:   1    -0.513515609064E+03    0.16977E+00   -0.20064E+01 17928   0.921E+00    0.167E+00
RMM:   2    -0.513646101086E+03   -0.13049E+00   -0.12566E+00 19628   0.231E+00    0.116E+00
RMM:   3    -0.513756375400E+03   -0.11027E+00   -0.34882E-01 23752   0.969E-01    0.370E+00
RMM:   4    -0.513683090343E+03    0.73285E-01   -0.26723E-02 19674   0.339E-01    0.826E-01
RMM:   5    -0.513689301105E+03   -0.62108E-02   -0.67332E-03 22468   0.151E-01    0.727E-01
RMM:   6    -0.513690904354E+03   -0.16032E-02   -0.32927E-03 20580   0.944E-02    0.558E-01
RMM:   7    -0.513692497010E+03   -0.15927E-02   -0.19164E-03 18594   0.801E-02    0.417E-01
RMM:   8    -0.513692027867E+03    0.46914E-03   -0.10192E-03 20998   0.557E-02    0.240E-01
RMM:   9    -0.513692008171E+03    0.19695E-04   -0.39993E-04 23647   0.290E-02    0.212E-01
RMM:  10    -0.513691939277E+03    0.68894E-04   -0.27570E-04 20173   0.236E-02    0.157E-01
RMM:  11    -0.513691909920E+03    0.29357E-04   -0.60970E-04 20558   0.404E-02    0.115E-01
RMM:  12    -0.513691938909E+03   -0.28989E-04   -0.15334E-04 18359   0.157E-02    0.120E-01
RMM:  13    -0.513691964257E+03   -0.25348E-04   -0.41184E-05 11924   0.105E-02    0.126E-01
RMM:  14    -0.513691985214E+03   -0.20957E-04   -0.21697E-05 10722   0.826E-03    0.135E-01
RMM:  15    -0.513691972100E+03    0.13114E-04   -0.10159E-05  9656   0.736E-03    0.131E-01
RMM:  16    -0.513691962436E+03    0.96644E-05   -0.74951E-06  9145   0.619E-03
  17 F= -.51369196E+03 E0= -.51369795E+03  d E =-.658274E-02  mag=   103.8137
 trial-energy change:   -0.006583  1 .order   -0.006442   -0.009426   -0.003457
 step:   3.0062(harm=  3.2103)  dis= 0.05733  next Energy=  -513.692805 (dE=-0.743E-02)
 bond charge predicted
       N       E                     dE             d eps       ncg     rms          rms(c)
DAV:   1    -0.513654195255E+03    0.37777E-01   -0.46010E+00 18000   0.440E+00    0.814E-01
RMM:   2    -0.513682041595E+03   -0.27846E-01   -0.26539E-01 19608   0.111E+00    0.599E-01
RMM:   3    -0.513714238927E+03   -0.32197E-01   -0.84620E-02 23559   0.471E-01    0.209E+00
RMM:   4    -0.513690254364E+03    0.23985E-01   -0.67184E-03 18124   0.175E-01    0.395E-01
RMM:   5    -0.513692356591E+03   -0.21022E-02   -0.17434E-03 20936   0.819E-02    0.400E-01
RMM:   6    -0.513692395640E+03   -0.39048E-04   -0.81330E-04 20496   0.484E-02    0.253E-01
RMM:   7    -0.513692856727E+03   -0.46109E-03   -0.46815E-04 18950   0.386E-02    0.203E-01
RMM:   8    -0.513692786253E+03    0.70474E-04   -0.20994E-04 20608   0.240E-02    0.170E-01
RMM:   9    -0.513692785422E+03    0.83147E-06   -0.72989E-05 14259   0.123E-02
  18 F= -.51369279E+03 E0= -.51369872E+03  d E =-.740573E-02  mag=   103.8122
 curvature:  -5.09 expect dE=-0.967E-02 dE for cont linesearch -0.422E-04
 trial: gam= 0.10942 g(F)=  0.190E-02 g(S)=  0.000E+00 ort = 0.355E-03 (trialstep = 0.223E+01)
 search vector abs. value=  0.216E-02
 bond charge predicted
       N       E                     dE             d eps       ncg     rms          rms(c)
DAV:   1    -0.513670034486E+03    0.22752E-01   -0.28992E+00 16299   0.375E+00    0.804E-01
RMM:   2    -0.513693459776E+03   -0.23425E-01   -0.16414E-01 19091   0.983E-01    0.112E+00
RMM:   3    -0.513698516850E+03   -0.50571E-02   -0.46623E-02 23802   0.406E-01    0.119E+00
RMM:   4    -0.513693593609E+03    0.49232E-02   -0.42719E-03 21070   0.135E-01    0.467E-01
RMM:   5    -0.513694729319E+03   -0.11357E-02   -0.12348E-03 20206   0.662E-02    0.419E-01
RMM:   6    -0.513696169686E+03   -0.14404E-02   -0.70883E-04 18109   0.499E-02    0.415E-01
RMM:   7    -0.513695913544E+03    0.25614E-03   -0.52694E-04 17708   0.447E-02    0.318E-01
RMM:   8    -0.513695943260E+03   -0.29716E-04   -0.22819E-04 20168   0.240E-02    0.309E-01
RMM:   9    -0.513695887863E+03    0.55397E-04   -0.49612E-05 12797   0.112E-02    0.300E-01
RMM:  10    -0.513695644563E+03    0.24330E-03   -0.16005E-04 18825   0.216E-02    0.225E-01
RMM:  11    -0.513695609139E+03    0.35424E-04   -0.12948E-04 16670   0.145E-02    0.169E-01
RMM:  12    -0.513695564438E+03    0.44701E-04   -0.13728E-04 16837   0.204E-02    0.126E-01
RMM:  13    -0.513695492835E+03    0.71603E-04   -0.25481E-04 19947   0.268E-02    0.889E-02
RMM:  14    -0.513695480324E+03    0.12511E-04   -0.13038E-04 16764   0.185E-02    0.643E-02
RMM:  15    -0.513695497497E+03   -0.17173E-04   -0.46149E-05 12372   0.133E-02    0.449E-02
RMM:  16    -0.513695517062E+03   -0.19566E-04   -0.25490E-05 10419   0.983E-03    0.516E-02
RMM:  17    -0.513695517150E+03   -0.87530E-07   -0.89293E-06  9165   0.792E-03
  19 F= -.51369552E+03 E0= -.51370158E+03  d E =-.273173E-02  mag=   103.8567
 trial-energy change:   -0.002732  1 .order   -0.002736   -0.004319   -0.001153
 step:   3.0387(harm=  3.0387)  dis= 0.01230  next Energy=  -513.695731 (dE=-0.295E-02)
 bond charge predicted
       N       E                     dE             d eps       ncg     rms          rms(c)
DAV:   1    -0.513692316335E+03    0.32007E-02   -0.38373E-01 16407   0.136E+00    0.296E-01
RMM:   2    -0.513694902211E+03   -0.25859E-02   -0.21697E-02 18777   0.355E-01    0.291E-01
RMM:   3    -0.513697094516E+03   -0.21923E-02   -0.61658E-03 23753   0.147E-01    0.584E-01
RMM:   4    -0.513695411202E+03    0.16833E-02   -0.64344E-04 18318   0.544E-02    0.183E-01
RMM:   5    -0.513695585821E+03   -0.17462E-03   -0.20984E-04 18978   0.281E-02    0.150E-01
RMM:   6    -0.513695678293E+03   -0.92472E-04   -0.89496E-05 15524   0.187E-02    0.102E-01
RMM:   7    -0.513695709379E+03   -0.31086E-04   -0.64887E-05 14838   0.155E-02    0.557E-02
RMM:   8    -0.513695710666E+03   -0.12867E-05   -0.23353E-05 10180   0.100E-02
  20 F= -.51369571E+03 E0= -.51370179E+03  d E =-.292524E-02  mag=   103.8588
 curvature:  -1.69 expect dE=-0.877E-03 dE for cont linesearch -0.229E-05
 trial: gam= 0.24841 g(F)=  0.519E-03 g(S)=  0.000E+00 ort = 0.540E-04 (trialstep = 0.239E+01)
 search vector abs. value=  0.679E-03
 bond charge predicted
       N       E                     dE             d eps       ncg     rms          rms(c)
DAV:   1    -0.513684749046E+03    0.10960E-01   -0.10056E+00 16695   0.263E+00    0.556E-01
RMM:   2    -0.513693264527E+03   -0.85155E-02   -0.73343E-02 19043   0.646E-01    0.472E-01
RMM:   3    -0.513703843625E+03   -0.10579E-01   -0.20368E-02 23052   0.271E-01    0.126E+00
RMM:   4    -0.513695488704E+03    0.83549E-02   -0.20878E-03 17387   0.109E-01    0.278E-01
RMM:   5    -0.513696454978E+03   -0.96627E-03   -0.82642E-04 20248   0.524E-02    0.219E-01
RMM:   6    -0.513696660124E+03   -0.20515E-03   -0.28668E-04 17765   0.352E-02    0.175E-01
RMM:   7    -0.513696635268E+03    0.24857E-04   -0.18842E-04 18531   0.260E-02    0.938E-02
RMM:   8    -0.513696631363E+03    0.39046E-05   -0.71793E-05 14597   0.145E-02
  21 F= -.51369663E+03 E0= -.51370271E+03  d E =-.920697E-03  mag=   103.8717
 trial-energy change:   -0.000921  1 .order   -0.001033   -0.001271   -0.000794
 step:   6.3640(harm=  6.3640)  dis= 0.01183  next Energy=  -513.697403 (dE=-0.169E-02)
 bond charge predicted
       N       E                     dE             d eps       ncg     rms          rms(c)
DAV:   1    -0.513663987480E+03    0.32648E-01   -0.27824E+00 16614   0.437E+00    0.918E-01
RMM:   2    -0.513687665397E+03   -0.23678E-01   -0.20577E-01 19121   0.108E+00    0.781E-01
RMM:   3    -0.513715833305E+03   -0.28168E-01   -0.52853E-02 23159   0.448E-01    0.207E+00
RMM:   4    -0.513693570790E+03    0.22263E-01   -0.58964E-03 18100   0.182E-01    0.476E-01
RMM:   5    -0.513696141974E+03   -0.25712E-02   -0.22275E-03 20887   0.864E-02    0.375E-01
RMM:   6    -0.513696811310E+03   -0.66934E-03   -0.84546E-04 18128   0.590E-02    0.308E-01
RMM:   7    -0.513696672151E+03    0.13916E-03   -0.55150E-04 19058   0.441E-02    0.177E-01
RMM:   8    -0.513696656387E+03    0.15764E-04   -0.21019E-04 21083   0.249E-02    0.146E-01
RMM:   9    -0.513696604519E+03    0.51868E-04   -0.10471E-04 17096   0.164E-02    0.118E-01
RMM:  10    -0.513696533395E+03    0.71123E-04   -0.34758E-04 19253   0.322E-02    0.649E-02
RMM:  11    -0.513696542808E+03   -0.94124E-05   -0.90953E-05 15696   0.169E-02
  22 F= -.51369654E+03 E0= -.51370266E+03  d E =-.832142E-03  mag=   103.9051
 curvature:  -4.06 expect dE=-0.298E-02 dE for cont linesearch -0.254E-03
 ZBRENT: interpolating
 opt :   4.8419  next Energy=  -513.696700 (dE=-0.989E-03)
 bond charge predicted
       N       E                     dE             d eps       ncg     rms          rms(c)
DAV:   1    -0.513692033613E+03    0.44998E-02   -0.40893E-01 16740   0.167E+00    0.346E-01
RMM:   2    -0.513695364336E+03   -0.33307E-02   -0.29762E-02 18835   0.413E-01    0.254E-01
RMM:   3    -0.513696783068E+03   -0.14187E-02   -0.70974E-03 21115   0.165E-01    0.301E-01
RMM:   4    -0.513696953600E+03   -0.17053E-03   -0.10542E-03 21347   0.691E-02    0.347E-01
RMM:   5    -0.513696708118E+03    0.24548E-03   -0.19430E-04 19292   0.301E-02    0.162E-01
RMM:   6    -0.513696822560E+03   -0.11444E-03   -0.10755E-04 16355   0.200E-02    0.130E-01
RMM:   7    -0.513696867333E+03   -0.44773E-04   -0.77348E-05 15209   0.171E-02    0.105E-01
RMM:   8    -0.513696870492E+03   -0.31587E-05   -0.24357E-05 10168   0.994E-03
  23 F= -.51369687E+03 E0= -.51370307E+03  d E =-.115983E-02  mag=   103.9096
 curvature:  -2.50 expect dE=-0.112E-02 dE for cont linesearch -0.511E-04
 ZBRENT: interpolating
 opt :   3.3491  next Energy=  -513.696981 (dE=-0.127E-02)
 bond charge predicted
       N       E                     dE             d eps       ncg     rms          rms(c)
DAV:   1    -0.513692244021E+03    0.46233E-02   -0.39284E-01 16731   0.164E+00    0.362E-01
RMM:   2    -0.513695896430E+03   -0.36524E-02   -0.28646E-02 18877   0.402E-01    0.393E-01
RMM:   3    -0.513698230187E+03   -0.23338E-02   -0.72273E-03 21953   0.166E-01    0.653E-01
RMM:   4    -0.513696523233E+03    0.17070E-02   -0.91272E-04 18332   0.710E-02    0.266E-01
RMM:   5    -0.513696657449E+03   -0.13422E-03   -0.21884E-04 18694   0.325E-02    0.222E-01
RMM:   6    -0.513696985618E+03   -0.32817E-03   -0.19383E-04 17788   0.244E-02    0.221E-01
RMM:   7    -0.513697038235E+03   -0.52617E-04   -0.10816E-04 16970   0.172E-02    0.226E-01
RMM:   8    -0.513697007751E+03    0.30484E-04   -0.21082E-05 10339   0.879E-03    0.224E-01
RMM:   9    -0.513696876336E+03    0.13141E-03   -0.46815E-05 12202   0.129E-02    0.169E-01
RMM:  10    -0.513696794064E+03    0.82273E-04   -0.20974E-04 18491   0.189E-02    0.992E-02
RMM:  11    -0.513696825778E+03   -0.31715E-04   -0.40649E-05 11950   0.109E-02    0.883E-02
RMM:  12    -0.513696786273E+03    0.39505E-04   -0.70684E-05 13201   0.146E-02    0.623E-02
RMM:  13    -0.513696753337E+03    0.32936E-04   -0.83082E-05 14841   0.156E-02    0.350E-02
RMM:  14    -0.513696756427E+03   -0.30899E-05   -0.25775E-05 10464   0.101E-02
  24 F= -.51369676E+03 E0= -.51370283E+03  d E =-.104576E-02  mag=   103.8711
 curvature:  -5.43 expect dE=-0.122E-02 dE for cont linesearch -0.250E-04
 ZBRENT: interpolating
 opt :   3.8299  next Energy=  -513.696770 (dE=-0.106E-02)
 bond charge predicted
       N       E                     dE             d eps       ncg     rms          rms(c)
DAV:   1    -0.513696304940E+03    0.44840E-03   -0.40661E-02 16839   0.528E-01    0.111E-01
RMM:   2    -0.513696673243E+03   -0.36830E-03   -0.31442E-03 18736   0.133E-01    0.959E-02
RMM:   3    -0.513697063814E+03   -0.39057E-03   -0.81677E-04 22153   0.550E-02    0.244E-01
RMM:   4    -0.513696759034E+03    0.30478E-03   -0.95608E-05 14905   0.236E-02    0.594E-02
RMM:   5    -0.513696800207E+03   -0.41173E-04   -0.27966E-05 10604   0.120E-02    0.480E-02
RMM:   6    -0.513696809517E+03   -0.93106E-05   -0.16910E-05  9440   0.104E-02
  25 F= -.51369681E+03 E0= -.51370288E+03  d E =-.109885E-02  mag=   103.8738
 curvature:  -2.92 expect dE=-0.764E-03 dE for cont linesearch -0.118E-05
 trial: gam= 0.40428 g(F)=  0.262E-03 g(S)=  0.000E+00 ort = 0.166E-04 (trialstep = 0.268E+01)
 search vector abs. value=  0.386E-03
 bond charge predicted
       N       E                     dE             d eps       ncg     rms          rms(c)
DAV:   1    -0.513689377114E+03    0.74231E-02   -0.76594E-01 16596   0.214E+00    0.444E-01
RMM:   2    -0.513694991131E+03   -0.56140E-02   -0.50585E-02 19236   0.546E-01    0.337E-01
RMM:   3    -0.513702579651E+03   -0.75885E-02   -0.13432E-02 23647   0.226E-01    0.106E+00
RMM:   4    -0.513696582734E+03    0.59969E-02   -0.15400E-03 17422   0.901E-02    0.235E-01
RMM:   5    -0.513697153638E+03   -0.57090E-03   -0.48491E-04 20022   0.431E-02    0.189E-01
RMM:   6    -0.513697340685E+03   -0.18705E-03   -0.26762E-04 18684   0.301E-02    0.147E-01
RMM:   7    -0.513697354954E+03   -0.14269E-04   -0.11051E-04 16502   0.220E-02    0.998E-02
RMM:   8    -0.513697329636E+03    0.25318E-04   -0.59270E-05 13717   0.142E-02    0.690E-02
RMM:   9    -0.513697326083E+03    0.35534E-05   -0.16357E-05  9926   0.918E-03
  26 F= -.51369733E+03 E0= -.51370332E+03  d E =-.516566E-03  mag=   103.8747
 trial-energy change:   -0.000517  1 .order   -0.000534   -0.000718   -0.000350
 step:   5.2161(harm=  5.2161)  dis= 0.00867  next Energy=  -513.697509 (dE=-0.700E-03)
 reached required accuracy - stopping structural energy minimisation
