  64  64   0   0
  0.2668869E+02  0.8526200E-09  0.8504600E-09  0.2355580E-08  0.5000000E-15
  1.000000000000000E-004
  CAR 
 INCAR-For-OPT                           
      5.43914854    -45.67118261  301      0.97943376      1.00000000
    -45.671  0.0000E+00  0.0000E+00  0.0000E+00  0.0000E+00
    -45.501  0.0000E+00  0.0000E+00  0.0000E+00  0.0000E+00
    -45.330  0.0000E+00  0.0000E+00  0.0000E+00  0.0000E+00
    -45.160  0.0000E+00  0.0000E+00  0.0000E+00  0.0000E+00
    -44.990  0.0000E+00  0.0000E+00  0.0000E+00  0.0000E+00
    -44.819  0.0000E+00  0.0000E+00  0.0000E+00  0.0000E+00
    -44.649  0.0000E+00 -0.1034E-33  0.0000E+00 -0.1762E-34
    -44.479  0.0000E+00 -0.9005E-26  0.0000E+00 -0.1534E-26
    -44.308  0.0000E+00 -0.5863E-19  0.0000E+00 -0.9989E-20
    -44.138 -0.8933E-34 -0.2755E-13 -0.1522E-34 -0.4694E-14
    -43.968 -0.8172E-26 -0.9843E-09 -0.1392E-26 -0.1677E-09
    -43.797 -0.5595E-19 -0.2577E-05 -0.9531E-20 -0.4392E-06
    -43.627 -0.2752E-13 -0.4635E-03 -0.4689E-14 -0.7941E-04
    -43.456 -0.1015E-08 -0.2575E-02 -0.1728E-09 -0.5180E-03
    -43.286 -0.2661E-05  0.5436E-01 -0.4536E-06  0.8744E-02
    -43.116 -0.4565E-03  0.1504E+00 -0.7823E-04  0.3436E-01
    -42.945 -0.1426E-02  0.9197E-01 -0.3211E-03  0.5003E-01
    -42.775  0.5233E-01  0.1114E+00  0.8594E-02  0.6901E-01
    -42.605  0.6713E-01  0.7648E-01  0.2003E-01  0.8204E-01
    -42.434 -0.1626E-02  0.3998E-01  0.1975E-01  0.8885E-01
    -42.264  0.1633E-01  0.2799E-01  0.2254E-01  0.9362E-01
    -42.093  0.1051E+00  0.2612E-01  0.4043E-01  0.9807E-01
    -41.923  0.9123E-01  0.4618E-01  0.5598E-01  0.1059E+00
    -41.753  0.1258E+00  0.2922E-01  0.7741E-01  0.1109E+00
    -41.582  0.1524E+00  0.3318E-01  0.1034E+00  0.1166E+00
    -41.412  0.4117E-01  0.2021E-01  0.1104E+00  0.1200E+00
    -41.242 -0.1888E-02  0.2153E-03  0.1101E+00  0.1200E+00
    -41.071 -0.3932E-03 -0.2563E-03  0.1100E+00  0.1200E+00
    -40.901 -0.3213E-05 -0.2002E-05  0.1100E+00  0.1200E+00
    -40.731 -0.1367E-04 -0.9117E-09  0.1100E+00  0.1200E+00
    -40.560 -0.1341E-02 -0.2433E-07  0.1098E+00  0.1200E+00
    -40.390  0.4478E-02 -0.2561E-04  0.1105E+00  0.1200E+00
    -40.219  0.8763E-01 -0.1407E-02  0.1255E+00  0.1198E+00
    -40.049  0.7683E-01  0.9590E-02  0.1386E+00  0.1214E+00
    -39.879  0.1003E-01  0.5828E-01  0.1403E+00  0.1313E+00
    -39.708 -0.1483E-02  0.4528E-01  0.1400E+00  0.1390E+00
    -39.538 -0.4752E-04  0.6730E-02  0.1400E+00  0.1402E+00
    -39.368 -0.8559E-07 -0.1031E-02  0.1400E+00  0.1400E+00
    -39.197 -0.1073E-10 -0.2140E-04  0.1400E+00  0.1400E+00
    -39.027 -0.9558E-16 -0.2363E-07  0.1400E+00  0.1400E+00
    -38.856  0.0000E+00 -0.1794E-11  0.1400E+00  0.1400E+00
    -38.686  0.0000E+00 -0.8689E-17  0.1400E+00  0.1400E+00
    -38.516  0.0000E+00  0.0000E+00  0.1400E+00  0.1400E+00
    -38.345  0.0000E+00  0.0000E+00  0.1400E+00  0.1400E+00
    -38.175  0.0000E+00  0.0000E+00  0.1400E+00  0.1400E+00
    -38.005  0.0000E+00  0.0000E+00  0.1400E+00  0.1400E+00
    -37.834  0.0000E+00  0.0000E+00  0.1400E+00  0.1400E+00
    -37.664  0.0000E+00  0.0000E+00  0.1400E+00  0.1400E+00
    -37.494  0.0000E+00  0.0000E+00  0.1400E+00  0.1400E+00
    -37.323  0.0000E+00  0.0000E+00  0.1400E+00  0.1400E+00
    -37.153  0.0000E+00  0.0000E+00  0.1400E+00  0.1400E+00
    -36.982  0.0000E+00  0.0000E+00  0.1400E+00  0.1400E+00
    -36.812  0.0000E+00  0.0000E+00  0.1400E+00  0.1400E+00
    -36.642  0.0000E+00  0.0000E+00  0.1400E+00  0.1400E+00
    -36.471  0.0000E+00  0.0000E+00  0.1400E+00  0.1400E+00
    -36.301  0.0000E+00  0.0000E+00  0.1400E+00  0.1400E+00
    -36.131  0.0000E+00  0.0000E+00  0.1400E+00  0.1400E+00
    -35.960  0.0000E+00  0.0000E+00  0.1400E+00  0.1400E+00
    -35.790  0.0000E+00  0.0000E+00  0.1400E+00  0.1400E+00
    -35.619  0.0000E+00  0.0000E+00  0.1400E+00  0.1400E+00
    -35.449  0.0000E+00  0.0000E+00  0.1400E+00  0.1400E+00
    -35.279  0.0000E+00  0.0000E+00  0.1400E+00  0.1400E+00
    -35.108  0.0000E+00  0.0000E+00  0.1400E+00  0.1400E+00
    -34.938  0.0000E+00  0.0000E+00  0.1400E+00  0.1400E+00
    -34.768  0.0000E+00  0.0000E+00  0.1400E+00  0.1400E+00
    -34.597  0.0000E+00  0.0000E+00  0.1400E+00  0.1400E+00
    -34.427  0.0000E+00  0.0000E+00  0.1400E+00  0.1400E+00
    -34.257  0.0000E+00  0.0000E+00  0.1400E+00  0.1400E+00
    -34.086  0.0000E+00  0.0000E+00  0.1400E+00  0.1400E+00
    -33.916  0.0000E+00  0.0000E+00  0.1400E+00  0.1400E+00
    -33.745  0.0000E+00  0.0000E+00  0.1400E+00  0.1400E+00
    -33.575  0.0000E+00  0.0000E+00  0.1400E+00  0.1400E+00
    -33.405  0.0000E+00  0.0000E+00  0.1400E+00  0.1400E+00
    -33.234  0.0000E+00  0.0000E+00  0.1400E+00  0.1400E+00
    -33.064  0.0000E+00  0.0000E+00  0.1400E+00  0.1400E+00
    -32.894  0.0000E+00  0.0000E+00  0.1400E+00  0.1400E+00
    -32.723  0.0000E+00  0.0000E+00  0.1400E+00  0.1400E+00
    -32.553  0.0000E+00  0.0000E+00  0.1400E+00  0.1400E+00
    -32.382  0.0000E+00  0.0000E+00  0.1400E+00  0.1400E+00
    -32.212  0.0000E+00  0.0000E+00  0.1400E+00  0.1400E+00
    -32.042  0.0000E+00  0.0000E+00  0.1400E+00  0.1400E+00
    -31.871  0.0000E+00  0.0000E+00  0.1400E+00  0.1400E+00
    -31.701  0.0000E+00  0.0000E+00  0.1400E+00  0.1400E+00
    -31.531  0.0000E+00  0.0000E+00  0.1400E+00  0.1400E+00
    -31.360  0.0000E+00  0.0000E+00  0.1400E+00  0.1400E+00
    -31.190  0.0000E+00  0.0000E+00  0.1400E+00  0.1400E+00
    -31.020  0.0000E+00  0.0000E+00  0.1400E+00  0.1400E+00
    -30.849  0.0000E+00  0.0000E+00  0.1400E+00  0.1400E+00
    -30.679  0.0000E+00  0.0000E+00  0.1400E+00  0.1400E+00
    -30.508  0.0000E+00  0.0000E+00  0.1400E+00  0.1400E+00
    -30.338  0.0000E+00  0.0000E+00  0.1400E+00  0.1400E+00
    -30.168  0.0000E+00  0.0000E+00  0.1400E+00  0.1400E+00
    -29.997  0.0000E+00  0.0000E+00  0.1400E+00  0.1400E+00
    -29.827  0.0000E+00  0.0000E+00  0.1400E+00  0.1400E+00
    -29.657  0.0000E+00  0.0000E+00  0.1400E+00  0.1400E+00
    -29.486  0.0000E+00  0.0000E+00  0.1400E+00  0.1400E+00
    -29.316  0.0000E+00  0.0000E+00  0.1400E+00  0.1400E+00
    -29.146  0.0000E+00  0.0000E+00  0.1400E+00  0.1400E+00
    -28.975  0.0000E+00  0.0000E+00  0.1400E+00  0.1400E+00
    -28.805  0.0000E+00  0.0000E+00  0.1400E+00  0.1400E+00
    -28.634  0.0000E+00  0.0000E+00  0.1400E+00  0.1400E+00
    -28.464  0.0000E+00  0.0000E+00  0.1400E+00  0.1400E+00
    -28.294  0.0000E+00  0.0000E+00  0.1400E+00  0.1400E+00
    -28.123  0.0000E+00  0.0000E+00  0.1400E+00  0.1400E+00
    -27.953  0.0000E+00  0.0000E+00  0.1400E+00  0.1400E+00
    -27.783  0.0000E+00  0.0000E+00  0.1400E+00  0.1400E+00
    -27.612  0.0000E+00  0.0000E+00  0.1400E+00  0.1400E+00
    -27.442  0.0000E+00  0.0000E+00  0.1400E+00  0.1400E+00
    -27.271  0.0000E+00  0.0000E+00  0.1400E+00  0.1400E+00
    -27.101  0.0000E+00  0.0000E+00  0.1400E+00  0.1400E+00
    -26.931  0.0000E+00  0.0000E+00  0.1400E+00  0.1400E+00
    -26.760  0.0000E+00  0.0000E+00  0.1400E+00  0.1400E+00
    -26.590  0.0000E+00  0.0000E+00  0.1400E+00  0.1400E+00
    -26.420  0.0000E+00  0.0000E+00  0.1400E+00  0.1400E+00
    -26.249  0.0000E+00  0.0000E+00  0.1400E+00  0.1400E+00
    -26.079  0.0000E+00  0.0000E+00  0.1400E+00  0.1400E+00
    -25.909  0.0000E+00  0.0000E+00  0.1400E+00  0.1400E+00
    -25.738  0.0000E+00  0.0000E+00  0.1400E+00  0.1400E+00
    -25.568  0.0000E+00  0.0000E+00  0.1400E+00  0.1400E+00
    -25.397  0.0000E+00  0.0000E+00  0.1400E+00  0.1400E+00
    -25.227  0.0000E+00  0.0000E+00  0.1400E+00  0.1400E+00
    -25.057  0.0000E+00  0.0000E+00  0.1400E+00  0.1400E+00
    -24.886  0.0000E+00  0.0000E+00  0.1400E+00  0.1400E+00
    -24.716  0.0000E+00  0.0000E+00  0.1400E+00  0.1400E+00
    -24.546  0.0000E+00  0.0000E+00  0.1400E+00  0.1400E+00
    -24.375  0.0000E+00  0.0000E+00  0.1400E+00  0.1400E+00
    -24.205  0.0000E+00  0.0000E+00  0.1400E+00  0.1400E+00
    -24.034  0.0000E+00  0.0000E+00  0.1400E+00  0.1400E+00
    -23.864  0.0000E+00  0.0000E+00  0.1400E+00  0.1400E+00
    -23.694  0.0000E+00  0.0000E+00  0.1400E+00  0.1400E+00
    -23.523  0.0000E+00  0.0000E+00  0.1400E+00  0.1400E+00
    -23.353  0.0000E+00  0.0000E+00  0.1400E+00  0.1400E+00
    -23.183  0.0000E+00  0.0000E+00  0.1400E+00  0.1400E+00
    -23.012  0.0000E+00  0.0000E+00  0.1400E+00  0.1400E+00
    -22.842  0.0000E+00  0.0000E+00  0.1400E+00  0.1400E+00
    -22.672  0.0000E+00  0.0000E+00  0.1400E+00  0.1400E+00
    -22.501  0.0000E+00  0.0000E+00  0.1400E+00  0.1400E+00
    -22.331  0.0000E+00  0.0000E+00  0.1400E+00  0.1400E+00
    -22.160  0.0000E+00  0.0000E+00  0.1400E+00  0.1400E+00
    -21.990  0.0000E+00  0.0000E+00  0.1400E+00  0.1400E+00
    -21.820  0.0000E+00  0.0000E+00  0.1400E+00  0.1400E+00
    -21.649  0.0000E+00  0.0000E+00  0.1400E+00  0.1400E+00
    -21.479  0.0000E+00  0.0000E+00  0.1400E+00  0.1400E+00
    -21.309  0.0000E+00  0.0000E+00  0.1400E+00  0.1400E+00
    -21.138  0.0000E+00  0.0000E+00  0.1400E+00  0.1400E+00
    -20.968  0.0000E+00  0.0000E+00  0.1400E+00  0.1400E+00
    -20.797  0.0000E+00  0.0000E+00  0.1400E+00  0.1400E+00
    -20.627  0.0000E+00  0.0000E+00  0.1400E+00  0.1400E+00
    -20.457  0.0000E+00  0.0000E+00  0.1400E+00  0.1400E+00
    -20.286  0.0000E+00  0.0000E+00  0.1400E+00  0.1400E+00
    -20.116  0.0000E+00  0.0000E+00  0.1400E+00  0.1400E+00
    -19.946  0.0000E+00  0.0000E+00  0.1400E+00  0.1400E+00
    -19.775  0.0000E+00  0.0000E+00  0.1400E+00  0.1400E+00
    -19.605  0.0000E+00  0.0000E+00  0.1400E+00  0.1400E+00
    -19.435  0.0000E+00  0.0000E+00  0.1400E+00  0.1400E+00
    -19.264  0.0000E+00  0.0000E+00  0.1400E+00  0.1400E+00
    -19.094  0.0000E+00  0.0000E+00  0.1400E+00  0.1400E+00
    -18.923  0.0000E+00  0.0000E+00  0.1400E+00  0.1400E+00
    -18.753  0.0000E+00  0.0000E+00  0.1400E+00  0.1400E+00
    -18.583  0.0000E+00  0.0000E+00  0.1400E+00  0.1400E+00
    -18.412  0.0000E+00  0.0000E+00  0.1400E+00  0.1400E+00
    -18.242  0.0000E+00  0.0000E+00  0.1400E+00  0.1400E+00
    -18.072  0.0000E+00  0.0000E+00  0.1400E+00  0.1400E+00
    -17.901  0.0000E+00  0.0000E+00  0.1400E+00  0.1400E+00
    -17.731  0.0000E+00  0.0000E+00  0.1400E+00  0.1400E+00
    -17.561  0.0000E+00  0.0000E+00  0.1400E+00  0.1400E+00
    -17.390  0.0000E+00  0.0000E+00  0.1400E+00  0.1400E+00
    -17.220  0.0000E+00  0.0000E+00  0.1400E+00  0.1400E+00
    -17.049  0.0000E+00  0.0000E+00  0.1400E+00  0.1400E+00
    -16.879  0.0000E+00  0.0000E+00  0.1400E+00  0.1400E+00
    -16.709 -0.4110E-34 -0.5932E-33  0.1400E+00  0.1400E+00
    -16.538 -0.4364E-26 -0.4230E-25  0.1400E+00  0.1400E+00
    -16.368 -0.3482E-19 -0.2274E-18  0.1400E+00  0.1400E+00
    -16.198 -0.2010E-13 -0.8884E-13  0.1400E+00  0.1400E+00
    -16.027 -0.8753E-09 -0.2653E-08  0.1400E+00  0.1400E+00
    -15.857 -0.2729E-05 -0.5761E-05  0.1400E+00  0.1400E+00
    -15.686 -0.5436E-03 -0.7988E-03  0.1399E+00  0.1399E+00
    -15.516 -0.1122E-02  0.1046E-02  0.1397E+00  0.1400E+00
    -15.346  0.6016E-01  0.6700E-01  0.1500E+00  0.1515E+00
    -15.175  0.4232E-01  0.3354E-01  0.1572E+00  0.1572E+00
    -15.005 -0.2762E-02 -0.2813E-02  0.1567E+00  0.1567E+00
    -14.835 -0.2265E-03 -0.1389E-03  0.1567E+00  0.1567E+00
    -14.664 -0.6544E-06 -0.2883E-06  0.1567E+00  0.1567E+00
    -14.494 -0.1290E-09 -0.4058E-10  0.1567E+00  0.1567E+00
    -14.324 -0.1855E-14 -0.4127E-15  0.1567E+00  0.1567E+00
    -14.153  0.0000E+00  0.0000E+00  0.1567E+00  0.1567E+00
    -13.983  0.0000E+00  0.0000E+00  0.1567E+00  0.1567E+00
    -13.812  0.0000E+00  0.0000E+00  0.1567E+00  0.1567E+00
    -13.642  0.0000E+00  0.0000E+00  0.1567E+00  0.1567E+00
    -13.472  0.0000E+00  0.0000E+00  0.1567E+00  0.1567E+00
    -13.301  0.0000E+00  0.0000E+00  0.1567E+00  0.1567E+00
    -13.131  0.0000E+00  0.0000E+00  0.1567E+00  0.1567E+00
    -12.961  0.0000E+00  0.0000E+00  0.1567E+00  0.1567E+00
    -12.790  0.0000E+00  0.0000E+00  0.1567E+00  0.1567E+00
    -12.620  0.0000E+00  0.0000E+00  0.1567E+00  0.1567E+00
    -12.449  0.0000E+00  0.0000E+00  0.1567E+00  0.1567E+00
    -12.279  0.0000E+00  0.0000E+00  0.1567E+00  0.1567E+00
    -12.109  0.0000E+00  0.0000E+00  0.1567E+00  0.1567E+00
    -11.938  0.0000E+00  0.0000E+00  0.1567E+00  0.1567E+00
    -11.768  0.0000E+00  0.0000E+00  0.1567E+00  0.1567E+00
    -11.598  0.0000E+00  0.0000E+00  0.1567E+00  0.1567E+00
    -11.427  0.0000E+00  0.0000E+00  0.1567E+00  0.1567E+00
    -11.257  0.0000E+00  0.0000E+00  0.1567E+00  0.1567E+00
    -11.087  0.0000E+00  0.0000E+00  0.1567E+00  0.1567E+00
    -10.916  0.0000E+00  0.0000E+00  0.1567E+00  0.1567E+00
    -10.746  0.0000E+00  0.0000E+00  0.1567E+00  0.1567E+00
    -10.575  0.0000E+00  0.0000E+00  0.1567E+00  0.1567E+00
    -10.405  0.0000E+00  0.0000E+00  0.1567E+00  0.1567E+00
    -10.235  0.0000E+00  0.0000E+00  0.1567E+00  0.1567E+00
    -10.064  0.0000E+00  0.0000E+00  0.1567E+00  0.1567E+00
     -9.894  0.0000E+00  0.0000E+00  0.1567E+00  0.1567E+00
     -9.724  0.0000E+00  0.0000E+00  0.1567E+00  0.1567E+00
     -9.553  0.0000E+00  0.0000E+00  0.1567E+00  0.1567E+00
     -9.383  0.0000E+00  0.0000E+00  0.1567E+00  0.1567E+00
     -9.212  0.0000E+00  0.0000E+00  0.1567E+00  0.1567E+00
     -9.042  0.0000E+00  0.0000E+00  0.1567E+00  0.1567E+00
     -8.872  0.0000E+00  0.0000E+00  0.1567E+00  0.1567E+00
     -8.701 -0.1738E-34 -0.9347E-35  0.1567E+00  0.1567E+00
     -8.531 -0.1396E-26 -0.9437E-27  0.1567E+00  0.1567E+00
     -8.361 -0.8632E-20 -0.7361E-20  0.1567E+00  0.1567E+00
     -8.190 -0.4040E-14 -0.4273E-14  0.1567E+00  0.1567E+00
     -8.020 -0.1537E-09 -0.1918E-09  0.1567E+00  0.1567E+00
     -7.850 -0.4611E-06 -0.6227E-06  0.1567E+00  0.1567E+00
     -7.679 -0.9757E-04 -0.1267E-03  0.1566E+00  0.1566E+00
     -7.509 -0.3329E-03 -0.1574E-03  0.1566E+00  0.1566E+00
     -7.338  0.1184E-01  0.1326E-01  0.1586E+00  0.1589E+00
     -7.168  0.8930E-02  0.7138E-02  0.1601E+00  0.1601E+00
     -6.998  0.3514E-02  0.6442E-03  0.1607E+00  0.1602E+00
     -6.827  0.5819E-02  0.5632E-02  0.1617E+00  0.1612E+00
     -6.657  0.2613E-02  0.4056E-02  0.1622E+00  0.1619E+00
     -6.487  0.8864E-02  0.3701E-02  0.1637E+00  0.1625E+00
     -6.316  0.4163E-02  0.9329E-02  0.1644E+00  0.1641E+00
     -6.146  0.2826E-02  0.1796E-02  0.1649E+00  0.1644E+00
     -5.975  0.1277E-01  0.5005E-02  0.1670E+00  0.1652E+00
     -5.805  0.1327E-01  0.1356E-01  0.1693E+00  0.1675E+00
     -5.635  0.8934E-02  0.1200E-01  0.1708E+00  0.1696E+00
     -5.464  0.1318E-01  0.8820E-02  0.1731E+00  0.1711E+00
     -5.294  0.5633E-02  0.1322E-01  0.1740E+00  0.1733E+00
     -5.124  0.1403E-01  0.3749E-02  0.1764E+00  0.1740E+00
     -4.953  0.2027E-01  0.1234E-01  0.1799E+00  0.1761E+00
     -4.783  0.1228E-01  0.2077E-01  0.1820E+00  0.1796E+00
     -4.613  0.2037E-01  0.9191E-02  0.1854E+00  0.1812E+00
     -4.442  0.2046E-01  0.1981E-01  0.1889E+00  0.1846E+00
     -4.272  0.2734E-01  0.1026E-01  0.1936E+00  0.1863E+00
     -4.101  0.3376E-01  0.2342E-01  0.1993E+00  0.1903E+00
     -3.931  0.5244E-01  0.2641E-01  0.2083E+00  0.1948E+00
     -3.761  0.7458E-01  0.2271E-01  0.2210E+00  0.1987E+00
     -3.590  0.1167E+00  0.2340E-01  0.2409E+00  0.2027E+00
     -3.420  0.1212E+00  0.2134E-01  0.2615E+00  0.2063E+00
     -3.250  0.1416E+00  0.3649E-01  0.2856E+00  0.2125E+00
     -3.079  0.1856E+00  0.4510E-01  0.3173E+00  0.2202E+00
     -2.909  0.1557E+00  0.6369E-01  0.3438E+00  0.2310E+00
     -2.739  0.1398E+00  0.7069E-01  0.3676E+00  0.2431E+00
     -2.568  0.1812E+00  0.6972E-01  0.3985E+00  0.2550E+00
     -2.398  0.2612E+00  0.7244E-01  0.4430E+00  0.2673E+00
     -2.227  0.2409E+00  0.1052E+00  0.4840E+00  0.2852E+00
     -2.057  0.2291E+00  0.1254E+00  0.5231E+00  0.3066E+00
     -1.887  0.2392E+00  0.1244E+00  0.5638E+00  0.3278E+00
     -1.716  0.2315E+00  0.1269E+00  0.6033E+00  0.3494E+00
     -1.546  0.2228E+00  0.1054E+00  0.6412E+00  0.3674E+00
     -1.376  0.2187E+00  0.1291E+00  0.6785E+00  0.3894E+00
     -1.205  0.1997E+00  0.1508E+00  0.7125E+00  0.4151E+00
     -1.035  0.1578E+00  0.1766E+00  0.7394E+00  0.4451E+00
     -0.864  0.1490E+00  0.2053E+00  0.7648E+00  0.4801E+00
     -0.694  0.1930E+00  0.1906E+00  0.7977E+00  0.5126E+00
     -0.524  0.2338E+00  0.2011E+00  0.8375E+00  0.5468E+00
     -0.353  0.2970E+00  0.2163E+00  0.8881E+00  0.5837E+00
     -0.183  0.3236E+00  0.2070E+00  0.9432E+00  0.6190E+00
     -0.013  0.2629E+00  0.1986E+00  0.9880E+00  0.6528E+00
      0.158  0.1894E+00  0.1633E+00  0.1020E+01  0.6806E+00
      0.328  0.1550E+00  0.1463E+00  0.1047E+01  0.7055E+00
      0.498  0.1485E+00  0.1252E+00  0.1072E+01  0.7269E+00
      0.669  0.1333E+00  0.1205E+00  0.1095E+01  0.7474E+00
      0.839  0.1195E+00  0.1167E+00  0.1115E+01  0.7673E+00
      1.010  0.1044E+00  0.1172E+00  0.1133E+01  0.7873E+00
      1.180  0.1015E+00  0.1389E+00  0.1150E+01  0.8109E+00
      1.350  0.1117E+00  0.1558E+00  0.1169E+01  0.8375E+00
      1.521  0.9579E-01  0.1704E+00  0.1185E+01  0.8665E+00
      1.691  0.1021E+00  0.1927E+00  0.1203E+01  0.8993E+00
      1.861  0.1085E+00  0.2354E+00  0.1221E+01  0.9394E+00
      2.032  0.1100E+00  0.2705E+00  0.1240E+01  0.9855E+00
      2.202  0.9467E-01  0.2992E+00  0.1256E+01  0.1036E+01
      2.373  0.2406E-01  0.2951E+00  0.1260E+01  0.1087E+01
      2.543 -0.1855E-02  0.3268E+00  0.1260E+01  0.1142E+01
      2.713 -0.1738E-03  0.3235E+00  0.1260E+01  0.1198E+01
      2.884 -0.9114E-06  0.2120E+00  0.1260E+01  0.1234E+01
      3.054 -0.4149E-09  0.1348E+00  0.1260E+01  0.1257E+01
      3.224 -0.1580E-13  0.2248E-01  0.1260E+01  0.1260E+01
      3.395  0.0000E+00 -0.2584E-02  0.1260E+01  0.1260E+01
      3.565  0.0000E+00 -0.1447E-03  0.1260E+01  0.1260E+01
      3.735  0.0000E+00 -0.4725E-06  0.1260E+01  0.1260E+01
      3.906  0.0000E+00 -0.1235E-09  0.1260E+01  0.1260E+01
      4.076  0.0000E+00 -0.2671E-14  0.1260E+01  0.1260E+01
      4.247  0.0000E+00  0.0000E+00  0.1260E+01  0.1260E+01
      4.417  0.0000E+00  0.0000E+00  0.1260E+01  0.1260E+01
      4.587  0.0000E+00  0.0000E+00  0.1260E+01  0.1260E+01
      4.758  0.0000E+00  0.0000E+00  0.1260E+01  0.1260E+01
      4.928  0.0000E+00  0.0000E+00  0.1260E+01  0.1260E+01
      5.098  0.0000E+00  0.0000E+00  0.1260E+01  0.1260E+01
      5.269  0.0000E+00  0.0000E+00  0.1260E+01  0.1260E+01
      5.439  0.0000E+00  0.0000E+00  0.1260E+01  0.1260E+01
