INCAR-For-OPT                           
           1
     8.526200    0.000000    0.000000
    -0.001766    8.504600    0.000000
     0.000000    0.000000   23.555800
   Fe   Cr   Pb
    49    14     1
Direct configuration=     1
   0.00245000  0.99865000  0.12117000
   0.16980000  0.16587000  0.18099000
   0.33623000  0.99852000  0.12110000
   0.50164000  0.16594000  0.18135000
   0.83615000  0.16559000  0.18099000
   0.00260000  0.33284000  0.12101000
   0.16994000  0.49925000  0.18104000
   0.33651000  0.33287000  0.12086000
   0.50180000  0.49937000  0.18123000
   0.66965000  0.33304000  0.12103000
   0.83626000  0.49963000  0.18117000
   0.16899000  0.83329000  0.18177000
   0.33582000  0.66689000  0.12095000
   0.66914000  0.66722000  0.12117000
   0.83680000  0.83220000  0.18114000
   0.00172000  0.99944000  0.24151000
   0.16893000  0.15892000  0.30182000
   0.50263000  0.16587000  0.30262000
   0.66988000  0.99924000  0.24142000
   0.83602000  0.16445000  0.30285000
   0.16469000  0.50032000  0.30111000
   0.33524000  0.33246000  0.24183000
   0.50456000  0.50029000  0.30324000
   0.66902000  0.33317000  0.24123000
   0.83551000  0.49643000  0.30280000
   0.00318000  0.66598000  0.24177000
   0.33605000  0.66588000  0.24146000
   0.50221000  0.83516000  0.30229000
   0.66918000  0.66674000  0.24131000
   0.00271000  0.99869000  0.00034000
   0.01094000  0.99476000  0.35889000
   0.16929000  0.16694000  0.06071000
   0.33657000  0.00075000  0.00067000
   0.33797000  0.00893000  0.36268000
   0.50343000  0.16520000  0.06105000
   0.66948000  0.99883000  0.00053000
   0.65780000  0.00445000  0.36205000
   0.83570000  0.16556000  0.06094000
   0.17061000  0.49746000  0.06032000
   0.50215000  0.49992000  0.06086000
   0.66930000  0.33358000  0.00050000
   0.67043000  0.32974000  0.36034000
   0.00239000  0.66441000  0.00051000
   0.00065000  0.66335000  0.35797000
   0.16894000  0.83304000  0.06062000
   0.50222000  0.83318000  0.06077000
   0.66882000  0.66655000  0.00068000
   0.66795000  0.66504000  0.35952000
   0.83620000  0.83206000  0.06086000
   0.66879000  0.99689000  0.12225000
   0.00127000  0.66476000  0.12046000
   0.50272000  0.83391000  0.18098000
   0.33662000  0.99784000  0.24172000
   0.00240000  0.33332000  0.24079000
   0.17485000  0.83023000  0.30266000
   0.83345000  0.83367000  0.30251000
   0.99962000  0.33431000  0.00199000
   0.01118000  0.32952000  0.37166000
   0.33922000  0.33072000  0.00000000
   0.32947000  0.33744000  0.36025000
   0.83779000  0.49999000  0.06135000
   0.33524000  0.67037000  0.00023000
   0.32893000  0.67167000  0.37043000
   0.16766000  0.46609000  0.45177000
Direct configuration=     2
   0.00245000  0.99865000  0.12117000
   0.16980000  0.16587000  0.18099000
   0.33623000  0.99852000  0.12110000
   0.50164000  0.16594000  0.18135000
   0.83615000  0.16559000  0.18099000
   0.00260000  0.33284000  0.12101000
   0.16994000  0.49925000  0.18104000
   0.33651000  0.33287000  0.12086000
   0.50180000  0.49937000  0.18123000
   0.66965000  0.33304000  0.12103000
   0.83626000  0.49963000  0.18117000
   0.16899000  0.83329000  0.18177000
   0.33582000  0.66689000  0.12095000
   0.66914000  0.66722000  0.12117000
   0.83680000  0.83220000  0.18114000
   0.00172000  0.99944000  0.24151000
   0.16749720  0.16158330  0.30278655
   0.50256619  0.16605361  0.30251087
   0.66988000  0.99924000  0.24142000
   0.83743756  0.16583350  0.30345215
   0.16298276  0.49755198  0.30200465
   0.33524000  0.33246000  0.24183000
   0.50384280  0.50001655  0.30303948
   0.66902000  0.33317000  0.24123000
   0.83650092  0.49512553  0.30331975
   0.00318000  0.66598000  0.24177000
   0.33605000  0.66588000  0.24146000
   0.50204519  0.83507841  0.30232048
   0.66918000  0.66674000  0.24131000
   0.00271000  0.99869000  0.00034000
   0.01089706  0.99556015  0.35924254
   0.16929000  0.16694000  0.06071000
   0.33657000  0.00075000  0.00067000
   0.33739907  0.00875218  0.36254682
   0.50343000  0.16520000  0.06105000
   0.66948000  0.99883000  0.00053000
   0.65811721  0.00436388  0.36194214
   0.83570000  0.16556000  0.06094000
   0.17061000  0.49746000  0.06032000
   0.50215000  0.49992000  0.06086000
   0.66930000  0.33358000  0.00050000
   0.67116963  0.32995177  0.36049270
   0.00239000  0.66441000  0.00051000
   0.00120998  0.66149062  0.35905123
   0.16894000  0.83304000  0.06062000
   0.50222000  0.83318000  0.06077000
   0.66882000  0.66655000  0.00068000
   0.66831881  0.66510879  0.35952222
   0.83620000  0.83206000  0.06086000
   0.66879000  0.99689000  0.12225000
   0.00127000  0.66476000  0.12046000
   0.50272000  0.83391000  0.18098000
   0.33662000  0.99784000  0.24172000
   0.00240000  0.33332000  0.24079000
   0.17437998  0.83007928  0.30260909
   0.83363196  0.83347519  0.30251103
   0.99962000  0.33431000  0.00199000
   0.00862001  0.32781062  0.36727200
   0.33922000  0.33072000  0.00000000
   0.33136597  0.33673626  0.35998751
   0.83779000  0.49999000  0.06135000
   0.33524000  0.67037000  0.00023000
   0.32964987  0.67158878  0.37061052
   0.16787850  0.47008472  0.45234425
Direct configuration=     3
   0.00245000  0.99865000  0.12117000
   0.16980000  0.16587000  0.18099000
   0.33623000  0.99852000  0.12110000
   0.50164000  0.16594000  0.18135000
   0.83615000  0.16559000  0.18099000
   0.00260000  0.33284000  0.12101000
   0.16994000  0.49925000  0.18104000
   0.33651000  0.33287000  0.12086000
   0.50180000  0.49937000  0.18123000
   0.66965000  0.33304000  0.12103000
   0.83626000  0.49963000  0.18117000
   0.16899000  0.83329000  0.18177000
   0.33582000  0.66689000  0.12095000
   0.66914000  0.66722000  0.12117000
   0.83680000  0.83220000  0.18114000
   0.00172000  0.99944000  0.24151000
   0.16600236  0.16436191  0.30379494
   0.50249961  0.16624518  0.30239701
   0.66988000  0.99924000  0.24142000
   0.83891650  0.16727689  0.30408038
   0.16120162  0.49466412  0.30293802
   0.33524000  0.33246000  0.24183000
   0.50309455  0.49973126  0.30283027
   0.66902000  0.33317000  0.24123000
   0.83753474  0.49376459  0.30386199
   0.00318000  0.66598000  0.24177000
   0.33605000  0.66588000  0.24146000
   0.50187325  0.83499328  0.30235228
   0.66918000  0.66674000  0.24131000
   0.00271000  0.99869000  0.00034000
   0.01085225  0.99639494  0.35961035
   0.16929000  0.16694000  0.06071000
   0.33657000  0.00075000  0.00067000
   0.33680342  0.00856666  0.36240788
   0.50343000  0.16520000  0.06105000
   0.66948000  0.99883000  0.00053000
   0.65844814  0.00427403  0.36182962
   0.83570000  0.16556000  0.06094000
   0.17061000  0.49746000  0.06032000
   0.50215000  0.49992000  0.06086000
   0.66930000  0.33358000  0.00050000
   0.67194128  0.33017272  0.36065200
   0.00239000  0.66441000  0.00051000
   0.00179420  0.65955074  0.36017926
   0.16894000  0.83304000  0.06062000
   0.50222000  0.83318000  0.06077000
   0.66882000  0.66655000  0.00068000
   0.66870359  0.66518055  0.35952453
   0.83620000  0.83206000  0.06086000
   0.66879000  0.99689000  0.12225000
   0.00127000  0.66476000  0.12046000
   0.50272000  0.83391000  0.18098000
   0.33662000  0.99784000  0.24172000
   0.00240000  0.33332000  0.24079000
   0.17388961  0.82992203  0.30255598
   0.83382180  0.83327195  0.30251209
   0.99962000  0.33431000  0.00199000
   0.00594919  0.32602723  0.36269404
   0.33922000  0.33072000  0.00000000
   0.33334401  0.33600205  0.35971366
   0.83779000  0.49999000  0.06135000
   0.33524000  0.67037000  0.00023000
   0.33040090  0.67150404  0.37079886
   0.16810647  0.47425237  0.45294336
Direct configuration=     4
   0.00245000  0.99865000  0.12117000
   0.16980000  0.16587000  0.18099000
   0.33623000  0.99852000  0.12110000
   0.50164000  0.16594000  0.18135000
   0.83615000  0.16559000  0.18099000
   0.00260000  0.33284000  0.12101000
   0.16994000  0.49925000  0.18104000
   0.33651000  0.33287000  0.12086000
   0.50180000  0.49937000  0.18123000
   0.66965000  0.33304000  0.12103000
   0.83626000  0.49963000  0.18117000
   0.16899000  0.83329000  0.18177000
   0.33582000  0.66689000  0.12095000
   0.66914000  0.66722000  0.12117000
   0.83680000  0.83220000  0.18114000
   0.00172000  0.99944000  0.24151000
   0.16641868  0.16358807  0.30351410
   0.50251816  0.16619183  0.30242872
   0.66988000  0.99924000  0.24142000
   0.83850461  0.16687491  0.30390542
   0.16169767  0.49546839  0.30267808
   0.33524000  0.33246000  0.24183000
   0.50330294  0.49981071  0.30288853
   0.66902000  0.33317000  0.24123000
   0.83724682  0.49414361  0.30371098
   0.00318000  0.66598000  0.24177000
   0.33605000  0.66588000  0.24146000
   0.50192113  0.83501699  0.30234343
   0.66918000  0.66674000  0.24131000
   0.00271000  0.99869000  0.00034000
   0.01086473  0.99616245  0.35950792
   0.16929000  0.16694000  0.06071000
   0.33657000  0.00075000  0.00067000
   0.33696931  0.00861832  0.36244657
   0.50343000  0.16520000  0.06105000
   0.66948000  0.99883000  0.00053000
   0.65835598  0.00429906  0.36186096
   0.83570000  0.16556000  0.06094000
   0.17061000  0.49746000  0.06032000
   0.50215000  0.49992000  0.06086000
   0.66930000  0.33358000  0.00050000
   0.67172638  0.33011119  0.36060764
   0.00239000  0.66441000  0.00051000
   0.00163149  0.66009100  0.35986511
   0.16894000  0.83304000  0.06062000
   0.50222000  0.83318000  0.06077000
   0.66882000  0.66655000  0.00068000
   0.66859643  0.66516057  0.35952388
   0.83620000  0.83206000  0.06086000
   0.66879000  0.99689000  0.12225000
   0.00127000  0.66476000  0.12046000
   0.50272000  0.83391000  0.18098000
   0.33662000  0.99784000  0.24172000
   0.00240000  0.33332000  0.24079000
   0.17402618  0.82996583  0.30257077
   0.83376893  0.83332855  0.30251180
   0.99962000  0.33431000  0.00199000
   0.00669301  0.32652390  0.36396900
   0.33922000  0.33072000  0.00000000
   0.33279313  0.33620653  0.35978993
   0.83779000  0.49999000  0.06135000
   0.33524000  0.67037000  0.00023000
   0.33019174  0.67152764  0.37074641
   0.16804298  0.47309168  0.45277651
Direct configuration=     5
   0.00245000  0.99865000  0.12117000
   0.16980000  0.16587000  0.18099000
   0.33623000  0.99852000  0.12110000
   0.50164000  0.16594000  0.18135000
   0.83615000  0.16559000  0.18099000
   0.00260000  0.33284000  0.12101000
   0.16994000  0.49925000  0.18104000
   0.33651000  0.33287000  0.12086000
   0.50180000  0.49937000  0.18123000
   0.66965000  0.33304000  0.12103000
   0.83626000  0.49963000  0.18117000
   0.16899000  0.83329000  0.18177000
   0.33582000  0.66689000  0.12095000
   0.66914000  0.66722000  0.12117000
   0.83680000  0.83220000  0.18114000
   0.00172000  0.99944000  0.24151000
   0.16666276  0.16313437  0.30334945
   0.50252903  0.16616055  0.30244731
   0.66988000  0.99924000  0.24142000
   0.83826313  0.16663923  0.30380284
   0.16198850  0.49593993  0.30252567
   0.33524000  0.33246000  0.24183000
   0.50342511  0.49985729  0.30292269
   0.66902000  0.33317000  0.24123000
   0.83707802  0.49436583  0.30362244
   0.00318000  0.66598000  0.24177000
   0.33605000  0.66588000  0.24146000
   0.50194921  0.83503089  0.30233823
   0.66918000  0.66674000  0.24131000
   0.00271000  0.99869000  0.00034000
   0.01087204  0.99602614  0.35944786
   0.16929000  0.16694000  0.06071000
   0.33657000  0.00075000  0.00067000
   0.33706657  0.00864862  0.36246926
   0.50343000  0.16520000  0.06105000
   0.66948000  0.99883000  0.00053000
   0.65830194  0.00431373  0.36187933
   0.83570000  0.16556000  0.06094000
   0.17061000  0.49746000  0.06032000
   0.50215000  0.49992000  0.06086000
   0.66930000  0.33358000  0.00050000
   0.67160038  0.33007511  0.36058162
   0.00239000  0.66441000  0.00051000
   0.00153610  0.66040775  0.35968092
   0.16894000  0.83304000  0.06062000
   0.50222000  0.83318000  0.06077000
   0.66882000  0.66655000  0.00068000
   0.66853360  0.66514885  0.35952351
   0.83620000  0.83206000  0.06086000
   0.66879000  0.99689000  0.12225000
   0.00127000  0.66476000  0.12046000
   0.50272000  0.83391000  0.18098000
   0.33662000  0.99784000  0.24172000
   0.00240000  0.33332000  0.24079000
   0.17410625  0.82999150  0.30257944
   0.83373794  0.83336174  0.30251162
   0.99962000  0.33431000  0.00199000
   0.00712911  0.32681510  0.36471650
   0.33922000  0.33072000  0.00000000
   0.33247015  0.33632641  0.35983464
   0.83779000  0.49999000  0.06135000
   0.33524000  0.67037000  0.00023000
   0.33006910  0.67154148  0.37071566
   0.16800576  0.47241117  0.45267868
Direct configuration=     6
   0.00245000  0.99865000  0.12117000
   0.16980000  0.16587000  0.18099000
   0.33623000  0.99852000  0.12110000
   0.50164000  0.16594000  0.18135000
   0.83615000  0.16559000  0.18099000
   0.00260000  0.33284000  0.12101000
   0.16994000  0.49925000  0.18104000
   0.33651000  0.33287000  0.12086000
   0.50180000  0.49937000  0.18123000
   0.66965000  0.33304000  0.12103000
   0.83626000  0.49963000  0.18117000
   0.16899000  0.83329000  0.18177000
   0.33582000  0.66689000  0.12095000
   0.66914000  0.66722000  0.12117000
   0.83680000  0.83220000  0.18114000
   0.00172000  0.99944000  0.24151000
   0.16707998  0.16235884  0.30306800
   0.50254761  0.16610708  0.30247909
   0.66988000  0.99924000  0.24142000
   0.83785035  0.16623636  0.30362750
   0.16248563  0.49674595  0.30226516
   0.33524000  0.33246000  0.24183000
   0.50363396  0.49993692  0.30298108
   0.66902000  0.33317000  0.24123000
   0.83678947  0.49474568  0.30347109
   0.00318000  0.66598000  0.24177000
   0.33605000  0.66588000  0.24146000
   0.50199720  0.83505465  0.30232936
   0.66918000  0.66674000  0.24131000
   0.00271000  0.99869000  0.00034000
   0.01088455  0.99579315  0.35934520
   0.16929000  0.16694000  0.06071000
   0.33657000  0.00075000  0.00067000
   0.33723282  0.00870040  0.36250804
   0.50343000  0.16520000  0.06105000
   0.66948000  0.99883000  0.00053000
   0.65820957  0.00433880  0.36191074
   0.83570000  0.16556000  0.06094000
   0.17061000  0.49746000  0.06032000
   0.50215000  0.49992000  0.06086000
   0.66930000  0.33358000  0.00050000
   0.67138501  0.33001344  0.36053716
   0.00239000  0.66441000  0.00051000
   0.00137304  0.66094918  0.35936607
   0.16894000  0.83304000  0.06062000
   0.50222000  0.83318000  0.06077000
   0.66882000  0.66655000  0.00068000
   0.66842621  0.66512882  0.35952286
   0.83620000  0.83206000  0.06086000
   0.66879000  0.99689000  0.12225000
   0.00127000  0.66476000  0.12046000
   0.50272000  0.83391000  0.18098000
   0.33662000  0.99784000  0.24172000
   0.00240000  0.33332000  0.24079000
   0.17424311  0.83003539  0.30259427
   0.83368495  0.83341846  0.30251132
   0.99962000  0.33431000  0.00199000
   0.00787456  0.32731286  0.36599425
   0.33922000  0.33072000  0.00000000
   0.33191806  0.33653134  0.35991108
   0.83779000  0.49999000  0.06135000
   0.33524000  0.67037000  0.00023000
   0.32985949  0.67156513  0.37066309
   0.16794213  0.47124794  0.45251147
Direct configuration=     7
   0.00245000  0.99865000  0.12117000
   0.16980000  0.16587000  0.18099000
   0.33623000  0.99852000  0.12110000
   0.50164000  0.16594000  0.18135000
   0.83615000  0.16559000  0.18099000
   0.00260000  0.33284000  0.12101000
   0.16994000  0.49925000  0.18104000
   0.33651000  0.33287000  0.12086000
   0.50180000  0.49937000  0.18123000
   0.66965000  0.33304000  0.12103000
   0.83626000  0.49963000  0.18117000
   0.16899000  0.83329000  0.18177000
   0.33582000  0.66689000  0.12095000
   0.66914000  0.66722000  0.12117000
   0.83680000  0.83220000  0.18114000
   0.00172000  0.99944000  0.24151000
   0.16728859  0.16197107  0.30292727
   0.50255690  0.16608035  0.30249498
   0.66988000  0.99924000  0.24142000
   0.83764396  0.16603493  0.30353983
   0.16273420  0.49714897  0.30213490
   0.33524000  0.33246000  0.24183000
   0.50373838  0.49997673  0.30301028
   0.66902000  0.33317000  0.24123000
   0.83664519  0.49493561  0.30339542
   0.00318000  0.66598000  0.24177000
   0.33605000  0.66588000  0.24146000
   0.50202120  0.83506653  0.30232492
   0.66918000  0.66674000  0.24131000
   0.00271000  0.99869000  0.00034000
   0.01089080  0.99567665  0.35929387
   0.16929000  0.16694000  0.06071000
   0.33657000  0.00075000  0.00067000
   0.33731594  0.00872629  0.36252743
   0.50343000  0.16520000  0.06105000
   0.66948000  0.99883000  0.00053000
   0.65816339  0.00435134  0.36192644
   0.83570000  0.16556000  0.06094000
   0.17061000  0.49746000  0.06032000
   0.50215000  0.49992000  0.06086000
   0.66930000  0.33358000  0.00050000
   0.67127732  0.32998261  0.36051493
   0.00239000  0.66441000  0.00051000
   0.00129151  0.66121990  0.35920865
   0.16894000  0.83304000  0.06062000
   0.50222000  0.83318000  0.06077000
   0.66882000  0.66655000  0.00068000
   0.66837251  0.66511880  0.35952254
   0.83620000  0.83206000  0.06086000
   0.66879000  0.99689000  0.12225000
   0.00127000  0.66476000  0.12046000
   0.50272000  0.83391000  0.18098000
   0.33662000  0.99784000  0.24172000
   0.00240000  0.33332000  0.24079000
   0.17431155  0.83005733  0.30260168
   0.83365846  0.83344683  0.30251117
   0.99962000  0.33431000  0.00199000
   0.00824729  0.32756174  0.36663313
   0.33922000  0.33072000  0.00000000
   0.33164201  0.33663380  0.35994929
   0.83779000  0.49999000  0.06135000
   0.33524000  0.67037000  0.00023000
   0.32975468  0.67157695  0.37063681
   0.16791032  0.47066633  0.45242786
Direct configuration=     8
   0.00245000  0.99865000  0.12117000
   0.16980000  0.16587000  0.18099000
   0.33623000  0.99852000  0.12110000
   0.50164000  0.16594000  0.18135000
   0.83615000  0.16559000  0.18099000
   0.00260000  0.33284000  0.12101000
   0.16994000  0.49925000  0.18104000
   0.33651000  0.33287000  0.12086000
   0.50180000  0.49937000  0.18123000
   0.66965000  0.33304000  0.12103000
   0.83626000  0.49963000  0.18117000
   0.16899000  0.83329000  0.18177000
   0.33582000  0.66689000  0.12095000
   0.66914000  0.66722000  0.12117000
   0.83680000  0.83220000  0.18114000
   0.00172000  0.99944000  0.24151000
   0.16753491  0.16121250  0.30256591
   0.50271993  0.16593683  0.30235294
   0.66988000  0.99924000  0.24142000
   0.83679198  0.16494560  0.30321940
   0.16352890  0.49831356  0.30190004
   0.33524000  0.33246000  0.24183000
   0.50367430  0.49997546  0.30292132
   0.66902000  0.33317000  0.24123000
   0.83591752  0.49558585  0.30304517
   0.00318000  0.66598000  0.24177000
   0.33605000  0.66588000  0.24146000
   0.50193089  0.83513660  0.30227664
   0.66918000  0.66674000  0.24131000
   0.00271000  0.99869000  0.00034000
   0.01068158  0.99572379  0.35947597
   0.16929000  0.16694000  0.06071000
   0.33657000  0.00075000  0.00067000
   0.33727439  0.00854694  0.36245799
   0.50343000  0.16520000  0.06105000
   0.66948000  0.99883000  0.00053000
   0.65820774  0.00423033  0.36183962
   0.83570000  0.16556000  0.06094000
   0.17061000  0.49746000  0.06032000
   0.50215000  0.49992000  0.06086000
   0.66930000  0.33358000  0.00050000
   0.67119957  0.33025640  0.36051026
   0.00239000  0.66441000  0.00051000
   0.00192534  0.65944326  0.36015365
   0.16894000  0.83304000  0.06062000
   0.50222000  0.83318000  0.06077000
   0.66882000  0.66655000  0.00068000
   0.66875393  0.66526379  0.35950586
   0.83620000  0.83206000  0.06086000
   0.66879000  0.99689000  0.12225000
   0.00127000  0.66476000  0.12046000
   0.50272000  0.83391000  0.18098000
   0.33662000  0.99784000  0.24172000
   0.00240000  0.33332000  0.24079000
   0.17403081  0.83028559  0.30259218
   0.83377083  0.83345376  0.30260517
   0.99962000  0.33431000  0.00199000
   0.00657012  0.32632208  0.36606662
   0.33922000  0.33072000  0.00000000
   0.33305267  0.33613306  0.36004127
   0.83779000  0.49999000  0.06135000
   0.33524000  0.67037000  0.00023000
   0.33048015  0.67164096  0.37066396
   0.16722827  0.47423620  0.45228775
Direct configuration=     9
   0.00245000  0.99865000  0.12117000
   0.16980000  0.16587000  0.18099000
   0.33623000  0.99852000  0.12110000
   0.50164000  0.16594000  0.18135000
   0.83615000  0.16559000  0.18099000
   0.00260000  0.33284000  0.12101000
   0.16994000  0.49925000  0.18104000
   0.33651000  0.33287000  0.12086000
   0.50180000  0.49937000  0.18123000
   0.66965000  0.33304000  0.12103000
   0.83626000  0.49963000  0.18117000
   0.16899000  0.83329000  0.18177000
   0.33582000  0.66689000  0.12095000
   0.66914000  0.66722000  0.12117000
   0.83680000  0.83220000  0.18114000
   0.00172000  0.99944000  0.24151000
   0.16827388  0.15893680  0.30148181
   0.50320903  0.16550628  0.30192683
   0.66988000  0.99924000  0.24142000
   0.83423606  0.16167760  0.30225814
   0.16591302  0.50180734  0.30119544
   0.33524000  0.33246000  0.24183000
   0.50348206  0.49997163  0.30265443
   0.66902000  0.33317000  0.24123000
   0.83373452  0.49753657  0.30199441
   0.00318000  0.66598000  0.24177000
   0.33605000  0.66588000  0.24146000
   0.50165996  0.83534681  0.30213181
   0.66918000  0.66674000  0.24131000
   0.00271000  0.99869000  0.00034000
   0.01005391  0.99586521  0.36002227
   0.16929000  0.16694000  0.06071000
   0.33657000  0.00075000  0.00067000
   0.33714972  0.00800891  0.36224968
   0.50343000  0.16520000  0.06105000
   0.66948000  0.99883000  0.00053000
   0.65834079  0.00386729  0.36157917
   0.83570000  0.16556000  0.06094000
   0.17061000  0.49746000  0.06032000
   0.50215000  0.49992000  0.06086000
   0.66930000  0.33358000  0.00050000
   0.67096633  0.33107776  0.36049627
   0.00239000  0.66441000  0.00051000
   0.00382682  0.65411333  0.36298865
   0.16894000  0.83304000  0.06062000
   0.50222000  0.83318000  0.06077000
   0.66882000  0.66655000  0.00068000
   0.66989819  0.66569874  0.35945585
   0.83620000  0.83206000  0.06086000
   0.66879000  0.99689000  0.12225000
   0.00127000  0.66476000  0.12046000
   0.50272000  0.83391000  0.18098000
   0.33662000  0.99784000  0.24172000
   0.00240000  0.33332000  0.24079000
   0.17318860  0.83097037  0.30256370
   0.83410796  0.83347457  0.30288715
   0.99962000  0.33431000  0.00199000
   0.00153862  0.32260309  0.36436711
   0.33922000  0.33072000  0.00000000
   0.33728464  0.33463085  0.36031719
   0.83779000  0.49999000  0.06135000
   0.33524000  0.67037000  0.00023000
   0.33265657  0.67183300  0.37074542
   0.16518213  0.48494581  0.45186741
Direct configuration=    10
   0.00245000  0.99865000  0.12117000
   0.16980000  0.16587000  0.18099000
   0.33623000  0.99852000  0.12110000
   0.50164000  0.16594000  0.18135000
   0.83615000  0.16559000  0.18099000
   0.00260000  0.33284000  0.12101000
   0.16994000  0.49925000  0.18104000
   0.33651000  0.33287000  0.12086000
   0.50180000  0.49937000  0.18123000
   0.66965000  0.33304000  0.12103000
   0.83626000  0.49963000  0.18117000
   0.16899000  0.83329000  0.18177000
   0.33582000  0.66689000  0.12095000
   0.66914000  0.66722000  0.12117000
   0.83680000  0.83220000  0.18114000
   0.00172000  0.99944000  0.24151000
   0.16813098  0.15937687  0.30169145
   0.50311445  0.16558954  0.30200923
   0.66988000  0.99924000  0.24142000
   0.83473031  0.16230956  0.30244403
   0.16545199  0.50113172  0.30133169
   0.33524000  0.33246000  0.24183000
   0.50351923  0.49997237  0.30270604
   0.66902000  0.33317000  0.24123000
   0.83415666  0.49715934  0.30219760
   0.00318000  0.66598000  0.24177000
   0.33605000  0.66588000  0.24146000
   0.50171235  0.83530616  0.30215982
   0.66918000  0.66674000  0.24131000
   0.00271000  0.99869000  0.00034000
   0.01017528  0.99583786  0.35991662
   0.16929000  0.16694000  0.06071000
   0.33657000  0.00075000  0.00067000
   0.33717383  0.00811296  0.36228996
   0.50343000  0.16520000  0.06105000
   0.66948000  0.99883000  0.00053000
   0.65831506  0.00393749  0.36162953
   0.83570000  0.16556000  0.06094000
   0.17061000  0.49746000  0.06032000
   0.50215000  0.49992000  0.06086000
   0.66930000  0.33358000  0.00050000
   0.67101143  0.33091893  0.36049898
   0.00239000  0.66441000  0.00051000
   0.00345912  0.65514401  0.36244042
   0.16894000  0.83304000  0.06062000
   0.50222000  0.83318000  0.06077000
   0.66882000  0.66655000  0.00068000
   0.66967692  0.66561463  0.35946552
   0.83620000  0.83206000  0.06086000
   0.66879000  0.99689000  0.12225000
   0.00127000  0.66476000  0.12046000
   0.50272000  0.83391000  0.18098000
   0.33662000  0.99784000  0.24172000
   0.00240000  0.33332000  0.24079000
   0.17335147  0.83083795  0.30256921
   0.83404277  0.83347054  0.30283262
   0.99962000  0.33431000  0.00199000
   0.00251159  0.32332226  0.36469576
   0.33922000  0.33072000  0.00000000
   0.33646628  0.33492134  0.36026384
   0.83779000  0.49999000  0.06135000
   0.33524000  0.67037000  0.00023000
   0.33223570  0.67179587  0.37072967
   0.16557781  0.48287482  0.45194870
Direct configuration=    11
   0.00245000  0.99865000  0.12117000
   0.16980000  0.16587000  0.18099000
   0.33623000  0.99852000  0.12110000
   0.50164000  0.16594000  0.18135000
   0.83615000  0.16559000  0.18099000
   0.00260000  0.33284000  0.12101000
   0.16994000  0.49925000  0.18104000
   0.33651000  0.33287000  0.12086000
   0.50180000  0.49937000  0.18123000
   0.66965000  0.33304000  0.12103000
   0.83626000  0.49963000  0.18117000
   0.16899000  0.83329000  0.18177000
   0.33582000  0.66689000  0.12095000
   0.66914000  0.66722000  0.12117000
   0.83680000  0.83220000  0.18114000
   0.00172000  0.99944000  0.24151000
   0.16868625  0.15896348  0.30152200
   0.50326891  0.16527076  0.30195371
   0.66988000  0.99924000  0.24142000
   0.83369289  0.16142991  0.30202929
   0.16582757  0.50110744  0.30154776
   0.33524000  0.33246000  0.24183000
   0.50398546  0.50043386  0.30269684
   0.66902000  0.33317000  0.24123000
   0.83450226  0.49782511  0.30202613
   0.00318000  0.66598000  0.24177000
   0.33605000  0.66588000  0.24146000
   0.50197301  0.83517015  0.30208919
   0.66918000  0.66674000  0.24131000
   0.00271000  0.99869000  0.00034000
   0.00999927  0.99507591  0.35981375
   0.16929000  0.16694000  0.06071000
   0.33657000  0.00075000  0.00067000
   0.33729801  0.00804102  0.36217147
   0.50343000  0.16520000  0.06105000
   0.66948000  0.99883000  0.00053000
   0.65803471  0.00371052  0.36164087
   0.83570000  0.16556000  0.06094000
   0.17061000  0.49746000  0.06032000
   0.50215000  0.49992000  0.06086000
   0.66930000  0.33358000  0.00050000
   0.67035341  0.33116927  0.36012110
   0.00239000  0.66441000  0.00051000
   0.00418316  0.65323079  0.36298934
   0.16894000  0.83304000  0.06062000
   0.50222000  0.83318000  0.06077000
   0.66882000  0.66655000  0.00068000
   0.67027311  0.66589345  0.35948769
   0.83620000  0.83206000  0.06086000
   0.66879000  0.99689000  0.12225000
   0.00127000  0.66476000  0.12046000
   0.50272000  0.83391000  0.18098000
   0.33662000  0.99784000  0.24172000
   0.00240000  0.33332000  0.24079000
   0.17294294  0.83071029  0.30270768
   0.83457354  0.83271136  0.30300629
   0.99962000  0.33431000  0.00199000
   0.00321471  0.32440315  0.36533791
   0.33922000  0.33072000  0.00000000
   0.33623599  0.33455122  0.36063287
   0.83779000  0.49999000  0.06135000
   0.33524000  0.67037000  0.00023000
   0.33288746  0.67237961  0.37056871
   0.16325626  0.48683127  0.45067669
Direct configuration=    12
   0.00245000  0.99865000  0.12117000
   0.16980000  0.16587000  0.18099000
   0.33623000  0.99852000  0.12110000
   0.50164000  0.16594000  0.18135000
   0.83615000  0.16559000  0.18099000
   0.00260000  0.33284000  0.12101000
   0.16994000  0.49925000  0.18104000
   0.33651000  0.33287000  0.12086000
   0.50180000  0.49937000  0.18123000
   0.66965000  0.33304000  0.12103000
   0.83626000  0.49963000  0.18117000
   0.16899000  0.83329000  0.18177000
   0.33582000  0.66689000  0.12095000
   0.66914000  0.66722000  0.12117000
   0.83680000  0.83220000  0.18114000
   0.00172000  0.99944000  0.24151000
   0.16915270  0.15861622  0.30137966
   0.50339865  0.16500299  0.30190707
   0.66988000  0.99924000  0.24142000
   0.83282142  0.16069099  0.30168091
   0.16614307  0.50108705  0.30172926
   0.33524000  0.33246000  0.24183000
   0.50437711  0.50082152  0.30268911
   0.66902000  0.33317000  0.24123000
   0.83479257  0.49838436  0.30188210
   0.00318000  0.66598000  0.24177000
   0.33605000  0.66588000  0.24146000
   0.50219197  0.83505590  0.30202986
   0.66918000  0.66674000  0.24131000
   0.00271000  0.99869000  0.00034000
   0.00985142  0.99443586  0.35972734
   0.16929000  0.16694000  0.06071000
   0.33657000  0.00075000  0.00067000
   0.33740232  0.00798060  0.36207193
   0.50343000  0.16520000  0.06105000
   0.66948000  0.99883000  0.00053000
   0.65779921  0.00351985  0.36165040
   0.83570000  0.16556000  0.06094000
   0.17061000  0.49746000  0.06032000
   0.50215000  0.49992000  0.06086000
   0.66930000  0.33358000  0.00050000
   0.66980066  0.33137957  0.35980368
   0.00239000  0.66441000  0.00051000
   0.00479137  0.65162363  0.36345044
   0.16894000  0.83304000  0.06062000
   0.50222000  0.83318000  0.06077000
   0.66882000  0.66655000  0.00068000
   0.67077394  0.66612767  0.35950632
   0.83620000  0.83206000  0.06086000
   0.66879000  0.99689000  0.12225000
   0.00127000  0.66476000  0.12046000
   0.50272000  0.83391000  0.18098000
   0.33662000  0.99784000  0.24172000
   0.00240000  0.33332000  0.24079000
   0.17259977  0.83060306  0.30282400
   0.83501940  0.83207362  0.30315219
   0.99962000  0.33431000  0.00199000
   0.00380535  0.32531113  0.36587733
   0.33922000  0.33072000  0.00000000
   0.33604254  0.33424031  0.36094287
   0.83779000  0.49999000  0.06135000
   0.33524000  0.67037000  0.00023000
   0.33343496  0.67286996  0.37043350
   0.16130611  0.49015478  0.44960818
Direct configuration=    13
   0.00245000  0.99865000  0.12117000
   0.16980000  0.16587000  0.18099000
   0.33623000  0.99852000  0.12110000
   0.50164000  0.16594000  0.18135000
   0.83615000  0.16559000  0.18099000
   0.00260000  0.33284000  0.12101000
   0.16994000  0.49925000  0.18104000
   0.33651000  0.33287000  0.12086000
   0.50180000  0.49937000  0.18123000
   0.66965000  0.33304000  0.12103000
   0.83626000  0.49963000  0.18117000
   0.16899000  0.83329000  0.18177000
   0.33582000  0.66689000  0.12095000
   0.66914000  0.66722000  0.12117000
   0.83680000  0.83220000  0.18114000
   0.00172000  0.99944000  0.24151000
   0.16869440  0.15905760  0.30162514
   0.50288687  0.16525590  0.30193663
   0.66988000  0.99924000  0.24142000
   0.83402012  0.16176881  0.30200184
   0.16626250  0.50037863  0.30187520
   0.33524000  0.33246000  0.24183000
   0.50435457  0.50094056  0.30270873
   0.66902000  0.33317000  0.24123000
   0.83552199  0.49760509  0.30205036
   0.00318000  0.66598000  0.24177000
   0.33605000  0.66588000  0.24146000
   0.50238807  0.83490809  0.30193594
   0.66918000  0.66674000  0.24131000
   0.00271000  0.99869000  0.00034000
   0.00951122  0.99360169  0.35941332
   0.16929000  0.16694000  0.06071000
   0.33657000  0.00075000  0.00067000
   0.33771698  0.00811873  0.36202470
   0.50343000  0.16520000  0.06105000
   0.66948000  0.99883000  0.00053000
   0.65753742  0.00326984  0.36177805
   0.83570000  0.16556000  0.06094000
   0.17061000  0.49746000  0.06032000
   0.50215000  0.49992000  0.06086000
   0.66930000  0.33358000  0.00050000
   0.66942466  0.33144773  0.35940476
   0.00239000  0.66441000  0.00051000
   0.00431527  0.65213459  0.36298058
   0.16894000  0.83304000  0.06062000
   0.50222000  0.83318000  0.06077000
   0.66882000  0.66655000  0.00068000
   0.67144405  0.66641182  0.35964514
   0.83620000  0.83206000  0.06086000
   0.66879000  0.99689000  0.12225000
   0.00127000  0.66476000  0.12046000
   0.50272000  0.83391000  0.18098000
   0.33662000  0.99784000  0.24172000
   0.00240000  0.33332000  0.24079000
   0.17291192  0.82991243  0.30291306
   0.83540663  0.83143315  0.30318791
   0.99962000  0.33431000  0.00199000
   0.00389724  0.32512620  0.36628546
   0.33922000  0.33072000  0.00000000
   0.33535897  0.33383701  0.36111528
   0.83779000  0.49999000  0.06135000
   0.33524000  0.67037000  0.00023000
   0.33409130  0.67410000  0.37002821
   0.15963379  0.49317691  0.44915101
Direct configuration=    14
   0.00245000  0.99865000  0.12117000
   0.16980000  0.16587000  0.18099000
   0.33623000  0.99852000  0.12110000
   0.50164000  0.16594000  0.18135000
   0.83615000  0.16559000  0.18099000
   0.00260000  0.33284000  0.12101000
   0.16994000  0.49925000  0.18104000
   0.33651000  0.33287000  0.12086000
   0.50180000  0.49937000  0.18123000
   0.66965000  0.33304000  0.12103000
   0.83626000  0.49963000  0.18117000
   0.16899000  0.83329000  0.18177000
   0.33582000  0.66689000  0.12095000
   0.66914000  0.66722000  0.12117000
   0.83680000  0.83220000  0.18114000
   0.00172000  0.99944000  0.24151000
   0.16816306  0.15956933  0.30190974
   0.50229352  0.16554911  0.30197090
   0.66988000  0.99924000  0.24142000
   0.83540986  0.16301841  0.30237392
   0.16640095  0.49955732  0.30204439
   0.33524000  0.33246000  0.24183000
   0.50432845  0.50107857  0.30273148
   0.66902000  0.33317000  0.24123000
   0.83636767  0.49670162  0.30224543
   0.00318000  0.66598000  0.24177000
   0.33605000  0.66588000  0.24146000
   0.50261543  0.83473672  0.30182705
   0.66918000  0.66674000  0.24131000
   0.00271000  0.99869000  0.00034000
   0.00911680  0.99263457  0.35904926
   0.16929000  0.16694000  0.06071000
   0.33657000  0.00075000  0.00067000
   0.33808180  0.00827888  0.36196994
   0.50343000  0.16520000  0.06105000
   0.66948000  0.99883000  0.00053000
   0.65723392  0.00297998  0.36192606
   0.83570000  0.16556000  0.06094000
   0.17061000  0.49746000  0.06032000
   0.50215000  0.49992000  0.06086000
   0.66930000  0.33358000  0.00050000
   0.66898874  0.33152675  0.35894225
   0.00239000  0.66441000  0.00051000
   0.00376329  0.65272698  0.36243584
   0.16894000  0.83304000  0.06062000
   0.50222000  0.83318000  0.06077000
   0.66882000  0.66655000  0.00068000
   0.67222097  0.66674127  0.35980608
   0.83620000  0.83206000  0.06086000
   0.66879000  0.99689000  0.12225000
   0.00127000  0.66476000  0.12046000
   0.50272000  0.83391000  0.18098000
   0.33662000  0.99784000  0.24172000
   0.00240000  0.33332000  0.24079000
   0.17327382  0.82911174  0.30301631
   0.83585557  0.83069061  0.30322933
   0.99962000  0.33431000  0.00199000
   0.00400379  0.32491179  0.36675863
   0.33922000  0.33072000  0.00000000
   0.33456647  0.33336943  0.36131517
   0.83779000  0.49999000  0.06135000
   0.33524000  0.67037000  0.00023000
   0.33485225  0.67552608  0.36955833
   0.15769496  0.49668070  0.44862098
Direct configuration=    15
   0.00245000  0.99865000  0.12117000
   0.16980000  0.16587000  0.18099000
   0.33623000  0.99852000  0.12110000
   0.50164000  0.16594000  0.18135000
   0.83615000  0.16559000  0.18099000
   0.00260000  0.33284000  0.12101000
   0.16994000  0.49925000  0.18104000
   0.33651000  0.33287000  0.12086000
   0.50180000  0.49937000  0.18123000
   0.66965000  0.33304000  0.12103000
   0.83626000  0.49963000  0.18117000
   0.16899000  0.83329000  0.18177000
   0.33582000  0.66689000  0.12095000
   0.66914000  0.66722000  0.12117000
   0.83680000  0.83220000  0.18114000
   0.00172000  0.99944000  0.24151000
   0.16783221  0.15922761  0.30194571
   0.50249112  0.16531968  0.30187656
   0.66988000  0.99924000  0.24142000
   0.83504722  0.16237739  0.30230876
   0.16654961  0.49953756  0.30208440
   0.33524000  0.33246000  0.24183000
   0.50410390  0.50120774  0.30271735
   0.66902000  0.33317000  0.24123000
   0.83591466  0.49646632  0.30216208
   0.00318000  0.66598000  0.24177000
   0.33605000  0.66588000  0.24146000
   0.50328633  0.83530022  0.30167625
   0.66918000  0.66674000  0.24131000
   0.00271000  0.99869000  0.00034000
   0.00877890  0.99202065  0.35897078
   0.16929000  0.16694000  0.06071000
   0.33657000  0.00075000  0.00067000
   0.33853391  0.00864756  0.36200511
   0.50343000  0.16520000  0.06105000
   0.66948000  0.99883000  0.00053000
   0.65685607  0.00271559  0.36189431
   0.83570000  0.16556000  0.06094000
   0.17061000  0.49746000  0.06032000
   0.50215000  0.49992000  0.06086000
   0.66930000  0.33358000  0.00050000
   0.66906845  0.33151200  0.35902870
   0.00239000  0.66441000  0.00051000
   0.00286758  0.65443470  0.36161531
   0.16894000  0.83304000  0.06062000
   0.50222000  0.83318000  0.06077000
   0.66882000  0.66655000  0.00068000
   0.67293558  0.66692265  0.35984906
   0.83620000  0.83206000  0.06086000
   0.66879000  0.99689000  0.12225000
   0.00127000  0.66476000  0.12046000
   0.50272000  0.83391000  0.18098000
   0.33662000  0.99784000  0.24172000
   0.00240000  0.33332000  0.24079000
   0.17407608  0.82903174  0.30292476
   0.83550449  0.83112978  0.30296025
   0.99962000  0.33431000  0.00199000
   0.00358748  0.32415011  0.36726623
   0.33922000  0.33072000  0.00000000
   0.33409064  0.33329200  0.36152893
   0.83779000  0.49999000  0.06135000
   0.33524000  0.67037000  0.00023000
   0.33491836  0.67633683  0.36921424
   0.15679580  0.50022756  0.44856466
Direct configuration=    16
   0.00245000  0.99865000  0.12117000
   0.16980000  0.16587000  0.18099000
   0.33623000  0.99852000  0.12110000
   0.50164000  0.16594000  0.18135000
   0.83615000  0.16559000  0.18099000
   0.00260000  0.33284000  0.12101000
   0.16994000  0.49925000  0.18104000
   0.33651000  0.33287000  0.12086000
   0.50180000  0.49937000  0.18123000
   0.66965000  0.33304000  0.12103000
   0.83626000  0.49963000  0.18117000
   0.16899000  0.83329000  0.18177000
   0.33582000  0.66689000  0.12095000
   0.66914000  0.66722000  0.12117000
   0.83680000  0.83220000  0.18114000
   0.00172000  0.99944000  0.24151000
   0.16721227  0.15858729  0.30201312
   0.50286139  0.16488977  0.30169978
   0.66988000  0.99924000  0.24142000
   0.83436769  0.16117624  0.30218666
   0.16682816  0.49950054  0.30215936
   0.33524000  0.33246000  0.24183000
   0.50368314  0.50144978  0.30269088
   0.66902000  0.33317000  0.24123000
   0.83506581  0.49602541  0.30200589
   0.00318000  0.66598000  0.24177000
   0.33605000  0.66588000  0.24146000
   0.50454345  0.83635610  0.30139368
   0.66918000  0.66674000  0.24131000
   0.00271000  0.99869000  0.00034000
   0.00814575  0.99087029  0.35882373
   0.16929000  0.16694000  0.06071000
   0.33657000  0.00075000  0.00067000
   0.33938107  0.00933840  0.36207101
   0.50343000  0.16520000  0.06105000
   0.66948000  0.99883000  0.00053000
   0.65614805  0.00222019  0.36183482
   0.83570000  0.16556000  0.06094000
   0.17061000  0.49746000  0.06032000
   0.50215000  0.49992000  0.06086000
   0.66930000  0.33358000  0.00050000
   0.66921780  0.33148436  0.35919068
   0.00239000  0.66441000  0.00051000
   0.00118919  0.65763462  0.36007779
   0.16894000  0.83304000  0.06062000
   0.50222000  0.83318000  0.06077000
   0.66882000  0.66655000  0.00068000
   0.67427462  0.66726252  0.35992961
   0.83620000  0.83206000  0.06086000
   0.66879000  0.99689000  0.12225000
   0.00127000  0.66476000  0.12046000
   0.50272000  0.83391000  0.18098000
   0.33662000  0.99784000  0.24172000
   0.00240000  0.33332000  0.24079000
   0.17557937  0.82888185  0.30275321
   0.83484664  0.83195271  0.30245603
   0.99962000  0.33431000  0.00199000
   0.00280741  0.32272287  0.36821739
   0.33922000  0.33072000  0.00000000
   0.33319903  0.33314692  0.36192947
   0.83779000  0.49999000  0.06135000
   0.33524000  0.67037000  0.00023000
   0.33504223  0.67785602  0.36856947
   0.15511096  0.50687370  0.44845912
Direct configuration=    17
   0.00245000  0.99865000  0.12117000
   0.16980000  0.16587000  0.18099000
   0.33623000  0.99852000  0.12110000
   0.50164000  0.16594000  0.18135000
   0.83615000  0.16559000  0.18099000
   0.00260000  0.33284000  0.12101000
   0.16994000  0.49925000  0.18104000
   0.33651000  0.33287000  0.12086000
   0.50180000  0.49937000  0.18123000
   0.66965000  0.33304000  0.12103000
   0.83626000  0.49963000  0.18117000
   0.16899000  0.83329000  0.18177000
   0.33582000  0.66689000  0.12095000
   0.66914000  0.66722000  0.12117000
   0.83680000  0.83220000  0.18114000
   0.00172000  0.99944000  0.24151000
   0.16762259  0.15821206  0.30194743
   0.50256535  0.16580582  0.30177357
   0.66988000  0.99924000  0.24142000
   0.83368554  0.16130090  0.30208525
   0.16623234  0.49944210  0.30224540
   0.33524000  0.33246000  0.24183000
   0.50390004  0.50125616  0.30286189
   0.66902000  0.33317000  0.24123000
   0.83491381  0.49581068  0.30183542
   0.00318000  0.66598000  0.24177000
   0.33605000  0.66588000  0.24146000
   0.50407601  0.83576966  0.30135067
   0.66918000  0.66674000  0.24131000
   0.00271000  0.99869000  0.00034000
   0.00807773  0.99038384  0.35888527
   0.16929000  0.16694000  0.06071000
   0.33657000  0.00075000  0.00067000
   0.33974427  0.01010545  0.36209462
   0.50343000  0.16520000  0.06105000
   0.66948000  0.99883000  0.00053000
   0.65605212  0.00189648  0.36198203
   0.83570000  0.16556000  0.06094000
   0.17061000  0.49746000  0.06032000
   0.50215000  0.49992000  0.06086000
   0.66930000  0.33358000  0.00050000
   0.66902898  0.33130422  0.35928265
   0.00239000  0.66441000  0.00051000
   0.00066447  0.65920783  0.35966185
   0.16894000  0.83304000  0.06062000
   0.50222000  0.83318000  0.06077000
   0.66882000  0.66655000  0.00068000
   0.67466788  0.66713995  0.35986142
   0.83620000  0.83206000  0.06086000
   0.66879000  0.99689000  0.12225000
   0.00127000  0.66476000  0.12046000
   0.50272000  0.83391000  0.18098000
   0.33662000  0.99784000  0.24172000
   0.00240000  0.33332000  0.24079000
   0.17564550  0.82975868  0.30256980
   0.83465078  0.83234658  0.30204992
   0.99962000  0.33431000  0.00199000
   0.00255681  0.32256014  0.36892121
   0.33922000  0.33072000  0.00000000
   0.33266821  0.33323409  0.36210438
   0.83779000  0.49999000  0.06135000
   0.33524000  0.67037000  0.00023000
   0.33538070  0.67864984  0.36823882
   0.15382346  0.51143243  0.44799124
Direct configuration=    18
   0.00245000  0.99865000  0.12117000
   0.16980000  0.16587000  0.18099000
   0.33623000  0.99852000  0.12110000
   0.50164000  0.16594000  0.18135000
   0.83615000  0.16559000  0.18099000
   0.00260000  0.33284000  0.12101000
   0.16994000  0.49925000  0.18104000
   0.33651000  0.33287000  0.12086000
   0.50180000  0.49937000  0.18123000
   0.66965000  0.33304000  0.12103000
   0.83626000  0.49963000  0.18117000
   0.16899000  0.83329000  0.18177000
   0.33582000  0.66689000  0.12095000
   0.66914000  0.66722000  0.12117000
   0.83680000  0.83220000  0.18114000
   0.00172000  0.99944000  0.24151000
   0.16781903  0.15803243  0.30191598
   0.50242363  0.16624437  0.30180889
   0.66988000  0.99924000  0.24142000
   0.83335897  0.16136058  0.30203670
   0.16594710  0.49941412  0.30228659
   0.33524000  0.33246000  0.24183000
   0.50400388  0.50116346  0.30294375
   0.66902000  0.33317000  0.24123000
   0.83484104  0.49570788  0.30175381
   0.00318000  0.66598000  0.24177000
   0.33605000  0.66588000  0.24146000
   0.50385223  0.83548891  0.30133008
   0.66918000  0.66674000  0.24131000
   0.00271000  0.99869000  0.00034000
   0.00804516  0.99015096  0.35891474
   0.16929000  0.16694000  0.06071000
   0.33657000  0.00075000  0.00067000
   0.33991814  0.01047266  0.36210592
   0.50343000  0.16520000  0.06105000
   0.66948000  0.99883000  0.00053000
   0.65600620  0.00174150  0.36205250
   0.83570000  0.16556000  0.06094000
   0.17061000  0.49746000  0.06032000
   0.50215000  0.49992000  0.06086000
   0.66930000  0.33358000  0.00050000
   0.66893858  0.33121799  0.35932668
   0.00239000  0.66441000  0.00051000
   0.00041327  0.65996097  0.35946274
   0.16894000  0.83304000  0.06062000
   0.50222000  0.83318000  0.06077000
   0.66882000  0.66655000  0.00068000
   0.67485615  0.66708128  0.35982877
   0.83620000  0.83206000  0.06086000
   0.66879000  0.99689000  0.12225000
   0.00127000  0.66476000  0.12046000
   0.50272000  0.83391000  0.18098000
   0.33662000  0.99784000  0.24172000
   0.00240000  0.33332000  0.24079000
   0.17567716  0.83017845  0.30248199
   0.83455702  0.83253514  0.30185550
   0.99962000  0.33431000  0.00199000
   0.00243683  0.32248224  0.36925815
   0.33922000  0.33072000  0.00000000
   0.33241408  0.33327582  0.36218812
   0.83779000  0.49999000  0.06135000
   0.33524000  0.67037000  0.00023000
   0.33554274  0.67902987  0.36808053
   0.15320709  0.51361485  0.44776725
Direct configuration=    19
   0.00245000  0.99865000  0.12117000
   0.16980000  0.16587000  0.18099000
   0.33623000  0.99852000  0.12110000
   0.50164000  0.16594000  0.18135000
   0.83615000  0.16559000  0.18099000
   0.00260000  0.33284000  0.12101000
   0.16994000  0.49925000  0.18104000
   0.33651000  0.33287000  0.12086000
   0.50180000  0.49937000  0.18123000
   0.66965000  0.33304000  0.12103000
   0.83626000  0.49963000  0.18117000
   0.16899000  0.83329000  0.18177000
   0.33582000  0.66689000  0.12095000
   0.66914000  0.66722000  0.12117000
   0.83680000  0.83220000  0.18114000
   0.00172000  0.99944000  0.24151000
   0.16767912  0.15867798  0.30197826
   0.50247849  0.16621299  0.30198407
   0.66988000  0.99924000  0.24142000
   0.83391000  0.16209377  0.30221760
   0.16563971  0.49956704  0.30237617
   0.33524000  0.33246000  0.24183000
   0.50410686  0.50101503  0.30301032
   0.66902000  0.33317000  0.24123000
   0.83543553  0.49575639  0.30186879
   0.00318000  0.66598000  0.24177000
   0.33605000  0.66588000  0.24146000
   0.50371562  0.83570751  0.30137546
   0.66918000  0.66674000  0.24131000
   0.00271000  0.99869000  0.00034000
   0.00821512  0.99047300  0.35891622
   0.16929000  0.16694000  0.06071000
   0.33657000  0.00075000  0.00067000
   0.33987476  0.01077074  0.36214038
   0.50343000  0.16520000  0.06105000
   0.66948000  0.99883000  0.00053000
   0.65602996  0.00166120  0.36198927
   0.83570000  0.16556000  0.06094000
   0.17061000  0.49746000  0.06032000
   0.50215000  0.49992000  0.06086000
   0.66930000  0.33358000  0.00050000
   0.66875806  0.33109474  0.35937373
   0.00239000  0.66441000  0.00051000
   0.00034899  0.66008796  0.35975028
   0.16894000  0.83304000  0.06062000
   0.50222000  0.83318000  0.06077000
   0.66882000  0.66655000  0.00068000
   0.67467746  0.66681137  0.35971453
   0.83620000  0.83206000  0.06086000
   0.66879000  0.99689000  0.12225000
   0.00127000  0.66476000  0.12046000
   0.50272000  0.83391000  0.18098000
   0.33662000  0.99784000  0.24172000
   0.00240000  0.33332000  0.24079000
   0.17494821  0.83045535  0.30240978
   0.83451860  0.83241407  0.30187339
   0.99962000  0.33431000  0.00199000
   0.00247885  0.32274799  0.36928479
   0.33922000  0.33072000  0.00000000
   0.33198944  0.33383886  0.36222064
   0.83779000  0.49999000  0.06135000
   0.33524000  0.67037000  0.00023000
   0.33563258  0.67912636  0.36803323
   0.15284803  0.51467536  0.44744001
Direct configuration=    20
   0.00245000  0.99865000  0.12117000
   0.16980000  0.16587000  0.18099000
   0.33623000  0.99852000  0.12110000
   0.50164000  0.16594000  0.18135000
   0.83615000  0.16559000  0.18099000
   0.00260000  0.33284000  0.12101000
   0.16994000  0.49925000  0.18104000
   0.33651000  0.33287000  0.12086000
   0.50180000  0.49937000  0.18123000
   0.66965000  0.33304000  0.12103000
   0.83626000  0.49963000  0.18117000
   0.16899000  0.83329000  0.18177000
   0.33582000  0.66689000  0.12095000
   0.66914000  0.66722000  0.12117000
   0.83680000  0.83220000  0.18114000
   0.00172000  0.99944000  0.24151000
   0.16762818  0.15891305  0.30200094
   0.50249847  0.16620157  0.30204786
   0.66988000  0.99924000  0.24142000
   0.83411065  0.16236074  0.30228347
   0.16552778  0.49962272  0.30240879
   0.33524000  0.33246000  0.24183000
   0.50414436  0.50096098  0.30303456
   0.66902000  0.33317000  0.24123000
   0.83565200  0.49577406  0.30191066
   0.00318000  0.66598000  0.24177000
   0.33605000  0.66588000  0.24146000
   0.50366587  0.83578711  0.30139199
   0.66918000  0.66674000  0.24131000
   0.00271000  0.99869000  0.00034000
   0.00827701  0.99059027  0.35891676
   0.16929000  0.16694000  0.06071000
   0.33657000  0.00075000  0.00067000
   0.33985896  0.01087928  0.36215293
   0.50343000  0.16520000  0.06105000
   0.66948000  0.99883000  0.00053000
   0.65603861  0.00163196  0.36196625
   0.83570000  0.16556000  0.06094000
   0.17061000  0.49746000  0.06032000
   0.50215000  0.49992000  0.06086000
   0.66930000  0.33358000  0.00050000
   0.66869233  0.33104986  0.35939087
   0.00239000  0.66441000  0.00051000
   0.00032558  0.66013420  0.35985498
   0.16894000  0.83304000  0.06062000
   0.50222000  0.83318000  0.06077000
   0.66882000  0.66655000  0.00068000
   0.67461240  0.66671309  0.35967294
   0.83620000  0.83206000  0.06086000
   0.66879000  0.99689000  0.12225000
   0.00127000  0.66476000  0.12046000
   0.50272000  0.83391000  0.18098000
   0.33662000  0.99784000  0.24172000
   0.00240000  0.33332000  0.24079000
   0.17468278  0.83055617  0.30238348
   0.83450461  0.83236999  0.30187990
   0.99962000  0.33431000  0.00199000
   0.00249415  0.32284475  0.36929449
   0.33922000  0.33072000  0.00000000
   0.33183481  0.33404388  0.36223249
   0.83779000  0.49999000  0.06135000
   0.33524000  0.67037000  0.00023000
   0.33566529  0.67916150  0.36801601
   0.15271729  0.51506153  0.44732086
Direct configuration=    21
   0.00245000  0.99865000  0.12117000
   0.16980000  0.16587000  0.18099000
   0.33623000  0.99852000  0.12110000
   0.50164000  0.16594000  0.18135000
   0.83615000  0.16559000  0.18099000
   0.00260000  0.33284000  0.12101000
   0.16994000  0.49925000  0.18104000
   0.33651000  0.33287000  0.12086000
   0.50180000  0.49937000  0.18123000
   0.66965000  0.33304000  0.12103000
   0.83626000  0.49963000  0.18117000
   0.16899000  0.83329000  0.18177000
   0.33582000  0.66689000  0.12095000
   0.66914000  0.66722000  0.12117000
   0.83680000  0.83220000  0.18114000
   0.00172000  0.99944000  0.24151000
   0.16760448  0.15923433  0.30199285
   0.50245702  0.16620856  0.30204772
   0.66988000  0.99924000  0.24142000
   0.83418598  0.16222321  0.30225083
   0.16561497  0.50004174  0.30239591
   0.33524000  0.33246000  0.24183000
   0.50408820  0.50095033  0.30295108
   0.66902000  0.33317000  0.24123000
   0.83558571  0.49592828  0.30195572
   0.00318000  0.66598000  0.24177000
   0.33605000  0.66588000  0.24146000
   0.50349266  0.83600231  0.30134879
   0.66918000  0.66674000  0.24131000
   0.00271000  0.99869000  0.00034000
   0.00844121  0.99111277  0.35894619
   0.16929000  0.16694000  0.06071000
   0.33657000  0.00075000  0.00067000
   0.33951991  0.01099758  0.36219929
   0.50343000  0.16520000  0.06105000
   0.66948000  0.99883000  0.00053000
   0.65632812  0.00160961  0.36193941
   0.83570000  0.16556000  0.06094000
   0.17061000  0.49746000  0.06032000
   0.50215000  0.49992000  0.06086000
   0.66930000  0.33358000  0.00050000
   0.66880082  0.33110743  0.35951575
   0.00239000  0.66441000  0.00051000
   0.00006351  0.66041901  0.36000889
   0.16894000  0.83304000  0.06062000
   0.50222000  0.83318000  0.06077000
   0.66882000  0.66655000  0.00068000
   0.67439161  0.66644915  0.35964270
   0.83620000  0.83206000  0.06086000
   0.66879000  0.99689000  0.12225000
   0.00127000  0.66476000  0.12046000
   0.50272000  0.83391000  0.18098000
   0.33662000  0.99784000  0.24172000
   0.00240000  0.33332000  0.24079000
   0.17448009  0.83061273  0.30237749
   0.83444625  0.83243233  0.30201891
   0.99962000  0.33431000  0.00199000
   0.00256141  0.32316828  0.36934768
   0.33922000  0.33072000  0.00000000
   0.33166115  0.33453016  0.36222931
   0.83779000  0.49999000  0.06135000
   0.33524000  0.67037000  0.00023000
   0.33567795  0.67939618  0.36796134
   0.15263984  0.51555255  0.44735981
Direct configuration=    22
   0.00245000  0.99865000  0.12117000
   0.16980000  0.16587000  0.18099000
   0.33623000  0.99852000  0.12110000
   0.50164000  0.16594000  0.18135000
   0.83615000  0.16559000  0.18099000
   0.00260000  0.33284000  0.12101000
   0.16994000  0.49925000  0.18104000
   0.33651000  0.33287000  0.12086000
   0.50180000  0.49937000  0.18123000
   0.66965000  0.33304000  0.12103000
   0.83626000  0.49963000  0.18117000
   0.16899000  0.83329000  0.18177000
   0.33582000  0.66689000  0.12095000
   0.66914000  0.66722000  0.12117000
   0.83680000  0.83220000  0.18114000
   0.00172000  0.99944000  0.24151000
   0.16756506  0.15976862  0.30197940
   0.50238809  0.16622018  0.30204749
   0.66988000  0.99924000  0.24142000
   0.83431127  0.16199449  0.30219655
   0.16575997  0.50073855  0.30237450
   0.33524000  0.33246000  0.24183000
   0.50399481  0.50093263  0.30281226
   0.66902000  0.33317000  0.24123000
   0.83547546  0.49618474  0.30203064
   0.00318000  0.66598000  0.24177000
   0.33605000  0.66588000  0.24146000
   0.50320461  0.83636018  0.30127694
   0.66918000  0.66674000  0.24131000
   0.00271000  0.99869000  0.00034000
   0.00871426  0.99198167  0.35899514
   0.16929000  0.16694000  0.06071000
   0.33657000  0.00075000  0.00067000
   0.33895608  0.01119431  0.36227636
   0.50343000  0.16520000  0.06105000
   0.66948000  0.99883000  0.00053000
   0.65680957  0.00157245  0.36189479
   0.83570000  0.16556000  0.06094000
   0.17061000  0.49746000  0.06032000
   0.50215000  0.49992000  0.06086000
   0.66930000  0.33358000  0.00050000
   0.66898124  0.33120316  0.35972341
   0.00239000  0.66441000  0.00051000
   0.99962769  0.66089264  0.36026483
   0.16894000  0.83304000  0.06062000
   0.50222000  0.83318000  0.06077000
   0.66882000  0.66655000  0.00068000
   0.67402445  0.66601024  0.35959243
   0.83620000  0.83206000  0.06086000
   0.66879000  0.99689000  0.12225000
   0.00127000  0.66476000  0.12046000
   0.50272000  0.83391000  0.18098000
   0.33662000  0.99784000  0.24172000
   0.00240000  0.33332000  0.24079000
   0.17414301  0.83070679  0.30236751
   0.83434920  0.83253602  0.30225007
   0.99962000  0.33431000  0.00199000
   0.00267326  0.32370629  0.36943614
   0.33922000  0.33072000  0.00000000
   0.33137234  0.33533883  0.36222402
   0.83779000  0.49999000  0.06135000
   0.33524000  0.67037000  0.00023000
   0.33569900  0.67978647  0.36787044
   0.15251105  0.51636911  0.44742460
Direct configuration=    23
   0.00245000  0.99865000  0.12117000
   0.16980000  0.16587000  0.18099000
   0.33623000  0.99852000  0.12110000
   0.50164000  0.16594000  0.18135000
   0.83615000  0.16559000  0.18099000
   0.00260000  0.33284000  0.12101000
   0.16994000  0.49925000  0.18104000
   0.33651000  0.33287000  0.12086000
   0.50180000  0.49937000  0.18123000
   0.66965000  0.33304000  0.12103000
   0.83626000  0.49963000  0.18117000
   0.16899000  0.83329000  0.18177000
   0.33582000  0.66689000  0.12095000
   0.66914000  0.66722000  0.12117000
   0.83680000  0.83220000  0.18114000
   0.00172000  0.99944000  0.24151000
   0.16758016  0.15956399  0.30198455
   0.50241449  0.16621573  0.30204758
   0.66988000  0.99924000  0.24142000
   0.83426329  0.16208208  0.30221734
   0.16570444  0.50047168  0.30238270
   0.33524000  0.33246000  0.24183000
   0.50403058  0.50093941  0.30286543
   0.66902000  0.33317000  0.24123000
   0.83551768  0.49608651  0.30200195
   0.00318000  0.66598000  0.24177000
   0.33605000  0.66588000  0.24146000
   0.50331493  0.83622312  0.30130446
   0.66918000  0.66674000  0.24131000
   0.00271000  0.99869000  0.00034000
   0.00860968  0.99164888  0.35897639
   0.16929000  0.16694000  0.06071000
   0.33657000  0.00075000  0.00067000
   0.33917202  0.01111897  0.36224684
   0.50343000  0.16520000  0.06105000
   0.66948000  0.99883000  0.00053000
   0.65662517  0.00158668  0.36191188
   0.83570000  0.16556000  0.06094000
   0.17061000  0.49746000  0.06032000
   0.50215000  0.49992000  0.06086000
   0.66930000  0.33358000  0.00050000
   0.66891214  0.33116650  0.35964388
   0.00239000  0.66441000  0.00051000
   0.99979461  0.66071124  0.36016681
   0.16894000  0.83304000  0.06062000
   0.50222000  0.83318000  0.06077000
   0.66882000  0.66655000  0.00068000
   0.67416507  0.66617834  0.35961169
   0.83620000  0.83206000  0.06086000
   0.66879000  0.99689000  0.12225000
   0.00127000  0.66476000  0.12046000
   0.50272000  0.83391000  0.18098000
   0.33662000  0.99784000  0.24172000
   0.00240000  0.33332000  0.24079000
   0.17427211  0.83067077  0.30237133
   0.83438637  0.83249631  0.30216154
   0.99962000  0.33431000  0.00199000
   0.00263042  0.32350023  0.36940226
   0.33922000  0.33072000  0.00000000
   0.33148295  0.33502912  0.36222605
   0.83779000  0.49999000  0.06135000
   0.33524000  0.67037000  0.00023000
   0.33569094  0.67963699  0.36790526
   0.15256038  0.51605637  0.44739978
Direct configuration=    24
   0.00245000  0.99865000  0.12117000
   0.16980000  0.16587000  0.18099000
   0.33623000  0.99852000  0.12110000
   0.50164000  0.16594000  0.18135000
   0.83615000  0.16559000  0.18099000
   0.00260000  0.33284000  0.12101000
   0.16994000  0.49925000  0.18104000
   0.33651000  0.33287000  0.12086000
   0.50180000  0.49937000  0.18123000
   0.66965000  0.33304000  0.12103000
   0.83626000  0.49963000  0.18117000
   0.16899000  0.83329000  0.18177000
   0.33582000  0.66689000  0.12095000
   0.66914000  0.66722000  0.12117000
   0.83680000  0.83220000  0.18114000
   0.00172000  0.99944000  0.24151000
   0.16759496  0.15936329  0.30198960
   0.50244038  0.16621137  0.30204767
   0.66988000  0.99924000  0.24142000
   0.83421623  0.16216800  0.30223773
   0.16564997  0.50020993  0.30239074
   0.33524000  0.33246000  0.24183000
   0.50406566  0.50094606  0.30291757
   0.66902000  0.33317000  0.24123000
   0.83555910  0.49599018  0.30197380
   0.00318000  0.66598000  0.24177000
   0.33605000  0.66588000  0.24146000
   0.50342313  0.83608869  0.30133144
   0.66918000  0.66674000  0.24131000
   0.00271000  0.99869000  0.00034000
   0.00850711  0.99132249  0.35895801
   0.16929000  0.16694000  0.06071000
   0.33657000  0.00075000  0.00067000
   0.33938382  0.01104507  0.36221789
   0.50343000  0.16520000  0.06105000
   0.66948000  0.99883000  0.00053000
   0.65644433  0.00160064  0.36192864
   0.83570000  0.16556000  0.06094000
   0.17061000  0.49746000  0.06032000
   0.50215000  0.49992000  0.06086000
   0.66930000  0.33358000  0.00050000
   0.66884437  0.33113054  0.35956587
   0.00239000  0.66441000  0.00051000
   0.99995832  0.66053333  0.36007067
   0.16894000  0.83304000  0.06062000
   0.50222000  0.83318000  0.06077000
   0.66882000  0.66655000  0.00068000
   0.67430299  0.66634321  0.35963057
   0.83620000  0.83206000  0.06086000
   0.66879000  0.99689000  0.12225000
   0.00127000  0.66476000  0.12046000
   0.50272000  0.83391000  0.18098000
   0.33662000  0.99784000  0.24172000
   0.00240000  0.33332000  0.24079000
   0.17439873  0.83063544  0.30237508
   0.83442282  0.83245736  0.30207470
   0.99962000  0.33431000  0.00199000
   0.00258840  0.32329814  0.36936903
   0.33922000  0.33072000  0.00000000
   0.33159144  0.33472535  0.36222803
   0.83779000  0.49999000  0.06135000
   0.33524000  0.67037000  0.00023000
   0.33568303  0.67949039  0.36793940
   0.15260876  0.51574965  0.44737545
Direct configuration=    25
   0.00245000  0.99865000  0.12117000
   0.16980000  0.16587000  0.18099000
   0.33623000  0.99852000  0.12110000
   0.50164000  0.16594000  0.18135000
   0.83615000  0.16559000  0.18099000
   0.00260000  0.33284000  0.12101000
   0.16994000  0.49925000  0.18104000
   0.33651000  0.33287000  0.12086000
   0.50180000  0.49937000  0.18123000
   0.66965000  0.33304000  0.12103000
   0.83626000  0.49963000  0.18117000
   0.16899000  0.83329000  0.18177000
   0.33582000  0.66689000  0.12095000
   0.66914000  0.66722000  0.12117000
   0.83680000  0.83220000  0.18114000
   0.00172000  0.99944000  0.24151000
   0.16759020  0.15942793  0.30198797
   0.50243204  0.16621277  0.30204764
   0.66988000  0.99924000  0.24142000
   0.83423138  0.16214033  0.30223117
   0.16566751  0.50029423  0.30238815
   0.33524000  0.33246000  0.24183000
   0.50405436  0.50094391  0.30290078
   0.66902000  0.33317000  0.24123000
   0.83554576  0.49602120  0.30198287
   0.00318000  0.66598000  0.24177000
   0.33605000  0.66588000  0.24146000
   0.50338828  0.83613198  0.30132275
   0.66918000  0.66674000  0.24131000
   0.00271000  0.99869000  0.00034000
   0.00854015  0.99142761  0.35896393
   0.16929000  0.16694000  0.06071000
   0.33657000  0.00075000  0.00067000
   0.33931561  0.01106887  0.36222721
   0.50343000  0.16520000  0.06105000
   0.66948000  0.99883000  0.00053000
   0.65650257  0.00159615  0.36192325
   0.83570000  0.16556000  0.06094000
   0.17061000  0.49746000  0.06032000
   0.50215000  0.49992000  0.06086000
   0.66930000  0.33358000  0.00050000
   0.66886620  0.33114212  0.35959099
   0.00239000  0.66441000  0.00051000
   0.99990560  0.66059062  0.36010163
   0.16894000  0.83304000  0.06062000
   0.50222000  0.83318000  0.06077000
   0.66882000  0.66655000  0.00068000
   0.67425857  0.66629012  0.35962449
   0.83620000  0.83206000  0.06086000
   0.66879000  0.99689000  0.12225000
   0.00127000  0.66476000  0.12046000
   0.50272000  0.83391000  0.18098000
   0.33662000  0.99784000  0.24172000
   0.00240000  0.33332000  0.24079000
   0.17435795  0.83064682  0.30237387
   0.83441108  0.83246990  0.30210267
   0.99962000  0.33431000  0.00199000
   0.00260193  0.32336322  0.36937974
   0.33922000  0.33072000  0.00000000
   0.33155650  0.33482318  0.36222739
   0.83779000  0.49999000  0.06135000
   0.33524000  0.67037000  0.00023000
   0.33568558  0.67953760  0.36792841
   0.15259318  0.51584843  0.44738329
Direct configuration=    26
   0.00245000  0.99865000  0.12117000
   0.16980000  0.16587000  0.18099000
   0.33623000  0.99852000  0.12110000
   0.50164000  0.16594000  0.18135000
   0.83615000  0.16559000  0.18099000
   0.00260000  0.33284000  0.12101000
   0.16994000  0.49925000  0.18104000
   0.33651000  0.33287000  0.12086000
   0.50180000  0.49937000  0.18123000
   0.66965000  0.33304000  0.12103000
   0.83626000  0.49963000  0.18117000
   0.16899000  0.83329000  0.18177000
   0.33582000  0.66689000  0.12095000
   0.66914000  0.66722000  0.12117000
   0.83680000  0.83220000  0.18114000
   0.00172000  0.99944000  0.24151000
   0.16771050  0.15940340  0.30194222
   0.50241277  0.16635977  0.30213057
   0.66988000  0.99924000  0.24142000
   0.83398902  0.16225281  0.30224027
   0.16550608  0.50046113  0.30237484
   0.33524000  0.33246000  0.24183000
   0.50405773  0.50092862  0.30289473
   0.66902000  0.33317000  0.24123000
   0.83539410  0.49596315  0.30196271
   0.00318000  0.66598000  0.24177000
   0.33605000  0.66588000  0.24146000
   0.50342044  0.83620041  0.30133644
   0.66918000  0.66674000  0.24131000
   0.00271000  0.99869000  0.00034000
   0.00874011  0.99174515  0.35901199
   0.16929000  0.16694000  0.06071000
   0.33657000  0.00075000  0.00067000
   0.33896820  0.01127494  0.36220797
   0.50343000  0.16520000  0.06105000
   0.66948000  0.99883000  0.00053000
   0.65661247  0.00173187  0.36187633
   0.83570000  0.16556000  0.06094000
   0.17061000  0.49746000  0.06032000
   0.50215000  0.49992000  0.06086000
   0.66930000  0.33358000  0.00050000
   0.66891312  0.33117460  0.35955744
   0.00239000  0.66441000  0.00051000
   0.99968659  0.66095427  0.36006055
   0.16894000  0.83304000  0.06062000
   0.50222000  0.83318000  0.06077000
   0.66882000  0.66655000  0.00068000
   0.67397611  0.66612311  0.35966672
   0.83620000  0.83206000  0.06086000
   0.66879000  0.99689000  0.12225000
   0.00127000  0.66476000  0.12046000
   0.50272000  0.83391000  0.18098000
   0.33662000  0.99784000  0.24172000
   0.00240000  0.33332000  0.24079000
   0.17448330  0.83085649  0.30240651
   0.83426808  0.83255289  0.30215925
   0.99962000  0.33431000  0.00199000
   0.00267341  0.32370155  0.36939041
   0.33922000  0.33072000  0.00000000
   0.33154080  0.33518278  0.36220689
   0.83779000  0.49999000  0.06135000
   0.33524000  0.67037000  0.00023000
   0.33565145  0.67976724  0.36791428
   0.15272087  0.51624355  0.44757220
