  62  62   0   0
  0.2752329E+02  0.8497000E-09  0.8519200E-09  0.2357370E-08  0.5000000E-15
  1.000000000000000E-004
  CAR 
 INCAR-For-OPT                           
      5.32011294    -45.85791499  301      0.82545141      1.00000000
    -45.858  0.0000E+00  0.0000E+00  0.0000E+00  0.0000E+00
    -45.687  0.0000E+00  0.0000E+00  0.0000E+00  0.0000E+00
    -45.517  0.0000E+00  0.0000E+00  0.0000E+00  0.0000E+00
    -45.346  0.0000E+00  0.0000E+00  0.0000E+00  0.0000E+00
    -45.176  0.0000E+00  0.0000E+00  0.0000E+00  0.0000E+00
    -45.005  0.0000E+00  0.0000E+00  0.0000E+00  0.0000E+00
    -44.834  0.0000E+00 -0.8902E-34  0.0000E+00 -0.1519E-34
    -44.664  0.0000E+00 -0.8272E-26  0.0000E+00 -0.1411E-26
    -44.493  0.0000E+00 -0.5724E-19  0.0000E+00 -0.9764E-20
    -44.323  0.0000E+00 -0.2842E-13  0.0000E+00 -0.4848E-14
    -44.152  0.0000E+00 -0.1064E-08  0.0000E+00 -0.1815E-09
    -43.981 -0.2339E-29 -0.2915E-05 -0.3990E-30 -0.4974E-06
    -43.811 -0.5346E-22 -0.5759E-03 -0.9120E-23 -0.9875E-04
    -43.640 -0.8970E-16 -0.5190E-02 -0.1530E-16 -0.9841E-03
    -43.470 -0.1145E-10  0.8318E-01 -0.1952E-11  0.1321E-01
    -43.299 -0.1107E-06  0.2240E+00 -0.1889E-07  0.5142E-01
    -43.128 -0.7768E-04  0.1281E+00 -0.1327E-04  0.7327E-01
    -42.958 -0.2864E-02  0.1178E+00 -0.5018E-03  0.9336E-01
    -42.787  0.2583E-01  0.4008E-01  0.3905E-02  0.1002E+00
    -42.617  0.8797E-01 -0.6820E-03  0.1891E-01  0.1001E+00
    -42.446  0.3371E-01 -0.4651E-03  0.2466E-01  0.1000E+00
    -42.275  0.2687E-01 -0.3259E-05  0.2925E-01  0.1000E+00
    -42.105  0.4465E-01 -0.5004E-07  0.3687E-01  0.1000E+00
    -41.934  0.1944E+00 -0.3053E-04  0.7003E-01  0.9999E-01
    -41.764  0.1129E+00 -0.9474E-03  0.8930E-01  0.9983E-01
    -41.593  0.6415E-01  0.7993E-02  0.1002E+00  0.1012E+00
    -41.422 -0.7015E-03  0.3861E-01  0.1001E+00  0.1078E+00
    -41.252 -0.7079E-03  0.1424E-01  0.1000E+00  0.1102E+00
    -41.081 -0.4304E-05 -0.1171E-02  0.1000E+00  0.1100E+00
    -40.911 -0.3965E-07 -0.7184E-04  0.1000E+00  0.1100E+00
    -40.740 -0.3900E-04 -0.1801E-06  0.9999E-01  0.1100E+00
    -40.570 -0.2261E-02 -0.2971E-10  0.9961E-01  0.1100E+00
    -40.399  0.1349E-01 -0.3432E-15  0.1019E+00  0.1100E+00
    -40.228  0.1134E+00 -0.1286E-12  0.1213E+00  0.1100E+00
    -40.058  0.5402E-01 -0.3015E-08  0.1305E+00  0.1100E+00
    -39.887 -0.2293E-02 -0.4881E-05  0.1301E+00  0.1100E+00
    -39.717 -0.4332E-03 -0.4829E-03  0.1300E+00  0.1099E+00
    -39.546 -0.2723E-05  0.7961E-03  0.1300E+00  0.1101E+00
    -39.375 -0.1206E-08  0.3630E-01  0.1300E+00  0.1162E+00
    -39.205 -0.3834E-13  0.5846E-01  0.1300E+00  0.1262E+00
    -39.034  0.0000E+00  0.2333E-01  0.1300E+00  0.1302E+00
    -38.864  0.0000E+00 -0.9549E-03  0.1300E+00  0.1300E+00
    -38.693  0.0000E+00 -0.2053E-03  0.1300E+00  0.1300E+00
    -38.522  0.0000E+00 -0.1057E-05  0.1300E+00  0.1300E+00
    -38.352  0.0000E+00 -0.3460E-09  0.1300E+00  0.1300E+00
    -38.181  0.0000E+00 -0.7875E-14  0.1300E+00  0.1300E+00
    -38.011  0.0000E+00  0.0000E+00  0.1300E+00  0.1300E+00
    -37.840  0.0000E+00  0.0000E+00  0.1300E+00  0.1300E+00
    -37.669  0.0000E+00  0.0000E+00  0.1300E+00  0.1300E+00
    -37.499  0.0000E+00  0.0000E+00  0.1300E+00  0.1300E+00
    -37.328  0.0000E+00  0.0000E+00  0.1300E+00  0.1300E+00
    -37.158  0.0000E+00  0.0000E+00  0.1300E+00  0.1300E+00
    -36.987  0.0000E+00  0.0000E+00  0.1300E+00  0.1300E+00
    -36.816  0.0000E+00  0.0000E+00  0.1300E+00  0.1300E+00
    -36.646  0.0000E+00  0.0000E+00  0.1300E+00  0.1300E+00
    -36.475  0.0000E+00  0.0000E+00  0.1300E+00  0.1300E+00
    -36.305  0.0000E+00  0.0000E+00  0.1300E+00  0.1300E+00
    -36.134  0.0000E+00  0.0000E+00  0.1300E+00  0.1300E+00
    -35.963  0.0000E+00  0.0000E+00  0.1300E+00  0.1300E+00
    -35.793  0.0000E+00  0.0000E+00  0.1300E+00  0.1300E+00
    -35.622  0.0000E+00  0.0000E+00  0.1300E+00  0.1300E+00
    -35.452  0.0000E+00  0.0000E+00  0.1300E+00  0.1300E+00
    -35.281  0.0000E+00  0.0000E+00  0.1300E+00  0.1300E+00
    -35.111  0.0000E+00  0.0000E+00  0.1300E+00  0.1300E+00
    -34.940  0.0000E+00  0.0000E+00  0.1300E+00  0.1300E+00
    -34.769  0.0000E+00  0.0000E+00  0.1300E+00  0.1300E+00
    -34.599  0.0000E+00  0.0000E+00  0.1300E+00  0.1300E+00
    -34.428  0.0000E+00  0.0000E+00  0.1300E+00  0.1300E+00
    -34.258  0.0000E+00  0.0000E+00  0.1300E+00  0.1300E+00
    -34.087  0.0000E+00  0.0000E+00  0.1300E+00  0.1300E+00
    -33.916  0.0000E+00  0.0000E+00  0.1300E+00  0.1300E+00
    -33.746  0.0000E+00  0.0000E+00  0.1300E+00  0.1300E+00
    -33.575  0.0000E+00  0.0000E+00  0.1300E+00  0.1300E+00
    -33.405  0.0000E+00  0.0000E+00  0.1300E+00  0.1300E+00
    -33.234  0.0000E+00  0.0000E+00  0.1300E+00  0.1300E+00
    -33.063  0.0000E+00  0.0000E+00  0.1300E+00  0.1300E+00
    -32.893  0.0000E+00  0.0000E+00  0.1300E+00  0.1300E+00
    -32.722  0.0000E+00  0.0000E+00  0.1300E+00  0.1300E+00
    -32.552  0.0000E+00  0.0000E+00  0.1300E+00  0.1300E+00
    -32.381  0.0000E+00  0.0000E+00  0.1300E+00  0.1300E+00
    -32.210  0.0000E+00  0.0000E+00  0.1300E+00  0.1300E+00
    -32.040  0.0000E+00  0.0000E+00  0.1300E+00  0.1300E+00
    -31.869  0.0000E+00  0.0000E+00  0.1300E+00  0.1300E+00
    -31.699  0.0000E+00  0.0000E+00  0.1300E+00  0.1300E+00
    -31.528  0.0000E+00  0.0000E+00  0.1300E+00  0.1300E+00
    -31.357  0.0000E+00  0.0000E+00  0.1300E+00  0.1300E+00
    -31.187  0.0000E+00  0.0000E+00  0.1300E+00  0.1300E+00
    -31.016  0.0000E+00  0.0000E+00  0.1300E+00  0.1300E+00
    -30.846  0.0000E+00  0.0000E+00  0.1300E+00  0.1300E+00
    -30.675  0.0000E+00  0.0000E+00  0.1300E+00  0.1300E+00
    -30.505  0.0000E+00  0.0000E+00  0.1300E+00  0.1300E+00
    -30.334  0.0000E+00  0.0000E+00  0.1300E+00  0.1300E+00
    -30.163  0.0000E+00  0.0000E+00  0.1300E+00  0.1300E+00
    -29.993  0.0000E+00  0.0000E+00  0.1300E+00  0.1300E+00
    -29.822  0.0000E+00  0.0000E+00  0.1300E+00  0.1300E+00
    -29.652  0.0000E+00  0.0000E+00  0.1300E+00  0.1300E+00
    -29.481  0.0000E+00  0.0000E+00  0.1300E+00  0.1300E+00
    -29.310  0.0000E+00  0.0000E+00  0.1300E+00  0.1300E+00
    -29.140  0.0000E+00  0.0000E+00  0.1300E+00  0.1300E+00
    -28.969  0.0000E+00  0.0000E+00  0.1300E+00  0.1300E+00
    -28.799  0.0000E+00  0.0000E+00  0.1300E+00  0.1300E+00
    -28.628  0.0000E+00  0.0000E+00  0.1300E+00  0.1300E+00
    -28.457  0.0000E+00  0.0000E+00  0.1300E+00  0.1300E+00
    -28.287  0.0000E+00  0.0000E+00  0.1300E+00  0.1300E+00
    -28.116  0.0000E+00  0.0000E+00  0.1300E+00  0.1300E+00
    -27.946  0.0000E+00  0.0000E+00  0.1300E+00  0.1300E+00
    -27.775  0.0000E+00  0.0000E+00  0.1300E+00  0.1300E+00
    -27.604  0.0000E+00  0.0000E+00  0.1300E+00  0.1300E+00
    -27.434  0.0000E+00  0.0000E+00  0.1300E+00  0.1300E+00
    -27.263  0.0000E+00  0.0000E+00  0.1300E+00  0.1300E+00
    -27.093  0.0000E+00  0.0000E+00  0.1300E+00  0.1300E+00
    -26.922  0.0000E+00  0.0000E+00  0.1300E+00  0.1300E+00
    -26.751  0.0000E+00  0.0000E+00  0.1300E+00  0.1300E+00
    -26.581  0.0000E+00  0.0000E+00  0.1300E+00  0.1300E+00
    -26.410  0.0000E+00  0.0000E+00  0.1300E+00  0.1300E+00
    -26.240  0.0000E+00  0.0000E+00  0.1300E+00  0.1300E+00
    -26.069  0.0000E+00  0.0000E+00  0.1300E+00  0.1300E+00
    -25.898  0.0000E+00  0.0000E+00  0.1300E+00  0.1300E+00
    -25.728  0.0000E+00  0.0000E+00  0.1300E+00  0.1300E+00
    -25.557  0.0000E+00  0.0000E+00  0.1300E+00  0.1300E+00
    -25.387  0.0000E+00  0.0000E+00  0.1300E+00  0.1300E+00
    -25.216  0.0000E+00  0.0000E+00  0.1300E+00  0.1300E+00
    -25.046  0.0000E+00  0.0000E+00  0.1300E+00  0.1300E+00
    -24.875  0.0000E+00  0.0000E+00  0.1300E+00  0.1300E+00
    -24.704  0.0000E+00  0.0000E+00  0.1300E+00  0.1300E+00
    -24.534  0.0000E+00  0.0000E+00  0.1300E+00  0.1300E+00
    -24.363  0.0000E+00  0.0000E+00  0.1300E+00  0.1300E+00
    -24.193  0.0000E+00  0.0000E+00  0.1300E+00  0.1300E+00
    -24.022  0.0000E+00  0.0000E+00  0.1300E+00  0.1300E+00
    -23.851  0.0000E+00  0.0000E+00  0.1300E+00  0.1300E+00
    -23.681  0.0000E+00  0.0000E+00  0.1300E+00  0.1300E+00
    -23.510  0.0000E+00  0.0000E+00  0.1300E+00  0.1300E+00
    -23.340  0.0000E+00  0.0000E+00  0.1300E+00  0.1300E+00
    -23.169  0.0000E+00  0.0000E+00  0.1300E+00  0.1300E+00
    -22.998  0.0000E+00  0.0000E+00  0.1300E+00  0.1300E+00
    -22.828  0.0000E+00  0.0000E+00  0.1300E+00  0.1300E+00
    -22.657  0.0000E+00  0.0000E+00  0.1300E+00  0.1300E+00
    -22.487  0.0000E+00  0.0000E+00  0.1300E+00  0.1300E+00
    -22.316  0.0000E+00  0.0000E+00  0.1300E+00  0.1300E+00
    -22.145  0.0000E+00  0.0000E+00  0.1300E+00  0.1300E+00
    -21.975  0.0000E+00  0.0000E+00  0.1300E+00  0.1300E+00
    -21.804  0.0000E+00  0.0000E+00  0.1300E+00  0.1300E+00
    -21.634  0.0000E+00  0.0000E+00  0.1300E+00  0.1300E+00
    -21.463  0.0000E+00  0.0000E+00  0.1300E+00  0.1300E+00
    -21.292  0.0000E+00  0.0000E+00  0.1300E+00  0.1300E+00
    -21.122  0.0000E+00  0.0000E+00  0.1300E+00  0.1300E+00
    -20.951  0.0000E+00  0.0000E+00  0.1300E+00  0.1300E+00
    -20.781  0.0000E+00  0.0000E+00  0.1300E+00  0.1300E+00
    -20.610  0.0000E+00  0.0000E+00  0.1300E+00  0.1300E+00
    -20.439  0.0000E+00  0.0000E+00  0.1300E+00  0.1300E+00
    -20.269  0.0000E+00  0.0000E+00  0.1300E+00  0.1300E+00
    -20.098  0.0000E+00  0.0000E+00  0.1300E+00  0.1300E+00
    -19.928  0.0000E+00  0.0000E+00  0.1300E+00  0.1300E+00
    -19.757  0.0000E+00  0.0000E+00  0.1300E+00  0.1300E+00
    -19.587  0.0000E+00  0.0000E+00  0.1300E+00  0.1300E+00
    -19.416  0.0000E+00  0.0000E+00  0.1300E+00  0.1300E+00
    -19.245  0.0000E+00  0.0000E+00  0.1300E+00  0.1300E+00
    -19.075  0.0000E+00  0.0000E+00  0.1300E+00  0.1300E+00
    -18.904  0.0000E+00  0.0000E+00  0.1300E+00  0.1300E+00
    -18.734  0.0000E+00  0.0000E+00  0.1300E+00  0.1300E+00
    -18.563  0.0000E+00  0.0000E+00  0.1300E+00  0.1300E+00
    -18.392  0.0000E+00  0.0000E+00  0.1300E+00  0.1300E+00
    -18.222  0.0000E+00  0.0000E+00  0.1300E+00  0.1300E+00
    -18.051  0.0000E+00  0.0000E+00  0.1300E+00  0.1300E+00
    -17.881  0.0000E+00  0.0000E+00  0.1300E+00  0.1300E+00
    -17.710  0.0000E+00  0.0000E+00  0.1300E+00  0.1300E+00
    -17.539  0.0000E+00  0.0000E+00  0.1300E+00  0.1300E+00
    -17.369  0.0000E+00  0.0000E+00  0.1300E+00  0.1300E+00
    -17.198  0.0000E+00  0.0000E+00  0.1300E+00  0.1300E+00
    -17.028  0.0000E+00  0.0000E+00  0.1300E+00  0.1300E+00
    -16.857  0.0000E+00  0.0000E+00  0.1300E+00  0.1300E+00
    -16.686  0.0000E+00  0.0000E+00  0.1300E+00  0.1300E+00
    -16.516  0.0000E+00  0.0000E+00  0.1300E+00  0.1300E+00
    -16.345  0.0000E+00  0.0000E+00  0.1300E+00  0.1300E+00
    -16.175  0.0000E+00  0.0000E+00  0.1300E+00  0.1300E+00
    -16.004  0.0000E+00  0.0000E+00  0.1300E+00  0.1300E+00
    -15.833  0.0000E+00  0.0000E+00  0.1300E+00  0.1300E+00
    -15.663  0.0000E+00  0.0000E+00  0.1300E+00  0.1300E+00
    -15.492  0.0000E+00  0.0000E+00  0.1300E+00  0.1300E+00
    -15.322  0.0000E+00  0.0000E+00  0.1300E+00  0.1300E+00
    -15.151  0.0000E+00  0.0000E+00  0.1300E+00  0.1300E+00
    -14.981  0.0000E+00  0.0000E+00  0.1300E+00  0.1300E+00
    -14.810  0.0000E+00  0.0000E+00  0.1300E+00  0.1300E+00
    -14.639  0.0000E+00  0.0000E+00  0.1300E+00  0.1300E+00
    -14.469  0.0000E+00  0.0000E+00  0.1300E+00  0.1300E+00
    -14.298  0.0000E+00  0.0000E+00  0.1300E+00  0.1300E+00
    -14.128  0.0000E+00  0.0000E+00  0.1300E+00  0.1300E+00
    -13.957  0.0000E+00  0.0000E+00  0.1300E+00  0.1300E+00
    -13.786  0.0000E+00  0.0000E+00  0.1300E+00  0.1300E+00
    -13.616  0.0000E+00  0.0000E+00  0.1300E+00  0.1300E+00
    -13.445  0.0000E+00  0.0000E+00  0.1300E+00  0.1300E+00
    -13.275  0.0000E+00  0.0000E+00  0.1300E+00  0.1300E+00
    -13.104  0.0000E+00  0.0000E+00  0.1300E+00  0.1300E+00
    -12.933  0.0000E+00  0.0000E+00  0.1300E+00  0.1300E+00
    -12.763  0.0000E+00  0.0000E+00  0.1300E+00  0.1300E+00
    -12.592  0.0000E+00  0.0000E+00  0.1300E+00  0.1300E+00
    -12.422  0.0000E+00  0.0000E+00  0.1300E+00  0.1300E+00
    -12.251  0.0000E+00  0.0000E+00  0.1300E+00  0.1300E+00
    -12.080  0.0000E+00  0.0000E+00  0.1300E+00  0.1300E+00
    -11.910  0.0000E+00  0.0000E+00  0.1300E+00  0.1300E+00
    -11.739  0.0000E+00  0.0000E+00  0.1300E+00  0.1300E+00
    -11.569  0.0000E+00  0.0000E+00  0.1300E+00  0.1300E+00
    -11.398  0.0000E+00  0.0000E+00  0.1300E+00  0.1300E+00
    -11.227  0.0000E+00  0.0000E+00  0.1300E+00  0.1300E+00
    -11.057  0.0000E+00  0.0000E+00  0.1300E+00  0.1300E+00
    -10.886  0.0000E+00  0.0000E+00  0.1300E+00  0.1300E+00
    -10.716  0.0000E+00  0.0000E+00  0.1300E+00  0.1300E+00
    -10.545  0.0000E+00  0.0000E+00  0.1300E+00  0.1300E+00
    -10.374  0.0000E+00  0.0000E+00  0.1300E+00  0.1300E+00
    -10.204  0.0000E+00  0.0000E+00  0.1300E+00  0.1300E+00
    -10.033  0.0000E+00  0.0000E+00  0.1300E+00  0.1300E+00
     -9.863  0.0000E+00  0.0000E+00  0.1300E+00  0.1300E+00
     -9.692  0.0000E+00  0.0000E+00  0.1300E+00  0.1300E+00
     -9.522  0.0000E+00  0.0000E+00  0.1300E+00  0.1300E+00
     -9.351  0.0000E+00  0.0000E+00  0.1300E+00  0.1300E+00
     -9.180  0.0000E+00  0.0000E+00  0.1300E+00  0.1300E+00
     -9.010  0.0000E+00  0.0000E+00  0.1300E+00  0.1300E+00
     -8.839  0.0000E+00  0.0000E+00  0.1300E+00  0.1300E+00
     -8.669 -0.1723E-34  0.0000E+00  0.1300E+00  0.1300E+00
     -8.498 -0.1330E-26 -0.1633E-30  0.1300E+00  0.1300E+00
     -8.327 -0.7546E-20 -0.3546E-23  0.1300E+00  0.1300E+00
     -8.157 -0.3005E-14 -0.5501E-17  0.1300E+00  0.1300E+00
     -7.986 -0.8699E-10 -0.6191E-12  0.1300E+00  0.1300E+00
     -7.816 -0.1701E-06 -0.4876E-08  0.1300E+00  0.1300E+00
     -7.645 -0.1970E-04 -0.2477E-05  0.1300E+00  0.1300E+00
     -7.474 -0.2844E-04 -0.6105E-04  0.1300E+00  0.1300E+00
     -7.304  0.1686E-02  0.3846E-03  0.1303E+00  0.1301E+00
     -7.133  0.5643E-02  0.3699E-02  0.1312E+00  0.1307E+00
     -6.963  0.3625E-02  0.5675E-02  0.1319E+00  0.1317E+00
     -6.792  0.3779E-02  0.1972E-02  0.1325E+00  0.1320E+00
     -6.621  0.9315E-02  0.7193E-02  0.1341E+00  0.1332E+00
     -6.451  0.1801E-02  0.6812E-02  0.1344E+00  0.1344E+00
     -6.280  0.5538E-02  0.6138E-03  0.1353E+00  0.1345E+00
     -6.110  0.1390E-01  0.8918E-02  0.1377E+00  0.1360E+00
     -5.939  0.1094E-01  0.1404E-01  0.1396E+00  0.1384E+00
     -5.768  0.1043E-01  0.8535E-02  0.1414E+00  0.1399E+00
     -5.598  0.1193E-01  0.1166E-01  0.1434E+00  0.1418E+00
     -5.427  0.4776E-02  0.1069E-01  0.1442E+00  0.1437E+00
     -5.257  0.1741E-01  0.3178E-02  0.1472E+00  0.1442E+00
     -5.086  0.1807E-01  0.1850E-01  0.1503E+00  0.1474E+00
     -4.915  0.1498E-01  0.1617E-01  0.1528E+00  0.1501E+00
     -4.745  0.1860E-01  0.1194E-01  0.1560E+00  0.1522E+00
     -4.574  0.2357E-01  0.1717E-01  0.1600E+00  0.1551E+00
     -4.404  0.2748E-01  0.1105E-01  0.1647E+00  0.1570E+00
     -4.233  0.3680E-01  0.2927E-01  0.1710E+00  0.1620E+00
     -4.063  0.5642E-01  0.2266E-01  0.1806E+00  0.1658E+00
     -3.892  0.8051E-01  0.2507E-01  0.1943E+00  0.1701E+00
     -3.721  0.1196E+00  0.2216E-01  0.2147E+00  0.1739E+00
     -3.551  0.1208E+00  0.2985E-01  0.2353E+00  0.1790E+00
     -3.380  0.1501E+00  0.4532E-01  0.2610E+00  0.1867E+00
     -3.210  0.1732E+00  0.6069E-01  0.2905E+00  0.1971E+00
     -3.039  0.1484E+00  0.6060E-01  0.3158E+00  0.2074E+00
     -2.868  0.1476E+00  0.7775E-01  0.3410E+00  0.2207E+00
     -2.698  0.2039E+00  0.7134E-01  0.3758E+00  0.2328E+00
     -2.527  0.2635E+00  0.9199E-01  0.4207E+00  0.2485E+00
     -2.357  0.2322E+00  0.9912E-01  0.4603E+00  0.2654E+00
     -2.186  0.2257E+00  0.1052E+00  0.4988E+00  0.2834E+00
     -2.015  0.2344E+00  0.1013E+00  0.5388E+00  0.3007E+00
     -1.845  0.2263E+00  0.1035E+00  0.5774E+00  0.3183E+00
     -1.674  0.2273E+00  0.1354E+00  0.6162E+00  0.3414E+00
     -1.504  0.2200E+00  0.1583E+00  0.6537E+00  0.3684E+00
     -1.333  0.1649E+00  0.1735E+00  0.6819E+00  0.3980E+00
     -1.162  0.1591E+00  0.1684E+00  0.7090E+00  0.4268E+00
     -0.992  0.1791E+00  0.1626E+00  0.7396E+00  0.4545E+00
     -0.821  0.2071E+00  0.1767E+00  0.7749E+00  0.4847E+00
     -0.651  0.2560E+00  0.1925E+00  0.8186E+00  0.5175E+00
     -0.480  0.3036E+00  0.1978E+00  0.8704E+00  0.5512E+00
     -0.309  0.3019E+00  0.2065E+00  0.9219E+00  0.5865E+00
     -0.139  0.2343E+00  0.1825E+00  0.9618E+00  0.6176E+00
      0.032  0.1633E+00  0.1595E+00  0.9897E+00  0.6448E+00
      0.202  0.1348E+00  0.1439E+00  0.1013E+01  0.6694E+00
      0.373  0.1330E+00  0.1290E+00  0.1035E+01  0.6914E+00
      0.543  0.1320E+00  0.1139E+00  0.1058E+01  0.7108E+00
      0.714  0.1058E+00  0.1045E+00  0.1076E+01  0.7286E+00
      0.885  0.8238E-01  0.1167E+00  0.1090E+01  0.7485E+00
      1.055  0.9793E-01  0.1418E+00  0.1107E+01  0.7727E+00
      1.226  0.1122E+00  0.1791E+00  0.1126E+01  0.8033E+00
      1.396  0.1044E+00  0.2017E+00  0.1144E+01  0.8377E+00
      1.567  0.1089E+00  0.2220E+00  0.1162E+01  0.8756E+00
      1.738  0.1090E+00  0.2292E+00  0.1181E+01  0.9147E+00
      1.908  0.9052E-01  0.2522E+00  0.1196E+01  0.9577E+00
      2.079  0.2398E-01  0.2989E+00  0.1200E+01  0.1009E+01
      2.249 -0.2012E-02  0.3211E+00  0.1200E+01  0.1063E+01
      2.420 -0.1534E-03  0.2912E+00  0.1200E+01  0.1113E+01
      2.591 -0.5917E-06  0.2509E+00  0.1200E+01  0.1156E+01
      2.761 -0.1816E-09  0.1806E+00  0.1200E+01  0.1187E+01
      2.932 -0.4534E-14  0.7477E-01  0.1200E+01  0.1199E+01
      3.102  0.0000E+00  0.4149E-02  0.1200E+01  0.1200E+01
      3.273  0.0000E+00 -0.1080E-02  0.1200E+01  0.1200E+01
      3.444  0.0000E+00 -0.3624E-04  0.1200E+01  0.1200E+01
      3.614  0.0000E+00 -0.1424E-06  0.1200E+01  0.1200E+01
      3.785  0.0000E+00 -0.5273E-10  0.1200E+01  0.1200E+01
      3.955  0.0000E+00 -0.1493E-14  0.1200E+01  0.1200E+01
      4.126  0.0000E+00  0.0000E+00  0.1200E+01  0.1200E+01
      4.297  0.0000E+00  0.0000E+00  0.1200E+01  0.1200E+01
      4.467  0.0000E+00  0.0000E+00  0.1200E+01  0.1200E+01
      4.638  0.0000E+00  0.0000E+00  0.1200E+01  0.1200E+01
      4.808  0.0000E+00  0.0000E+00  0.1200E+01  0.1200E+01
      4.979  0.0000E+00  0.0000E+00  0.1200E+01  0.1200E+01
      5.150  0.0000E+00  0.0000E+00  0.1200E+01  0.1200E+01
      5.320  0.0000E+00  0.0000E+00  0.1200E+01  0.1200E+01
