Generated by VASPKIT code               
   1.00000000000000     
     8.5326995849999996    0.0000000000000000    0.0000000000000000
    -0.0005193328000000    8.4969997247000002    0.0000000000000000
     0.0000000000000000    0.0000000000000000   23.5949993133999989
   Fe   Cr   Pb
    49    14     1
Selective dynamics
Direct
  0.0008600000000030  0.9999299999999991  0.2427100000000024   F   F   F
  0.1662676909295726  0.1657564420674262  0.3036950015381308   T   T   T
  0.5012014540550851  0.1667607938867803  0.3076416651958382   T   T   T
  0.6682199999999980  0.0010699999999986  0.2427199999999985   F   F   F
  0.8337411576645124  0.1694627155688835  0.3038108954633714   T   T   T
  0.0004399999999976  0.3349699999999984  0.2424000000000035   F   F   F
  0.1664046221641371  0.5025477657875612  0.3036273969216907   T   T   T
  0.3346900000000019  0.3330500000000001  0.2426699999999968   F   F   F
  0.5015630142738559  0.4971521373613044  0.3034930440918302   T   T   T
  0.8349508463773390  0.5042391655885510  0.3024065876886581   T   T   T
  0.1676191909935554  0.8342496693213874  0.3044900624008733   T   T   T
  0.3334199999999967  0.6655500000000032  0.2426099999999991   F   F   F
  0.8372483086502314  0.8322654383957939  0.3030512340970049   T   T   T
  0.0006399999999971  0.0011900000000011  0.0019899999999993   F   F   F
  0.9969651022593098  0.0058945545124232  0.3614729680940059   T   T   T
  0.1684300000000007  0.1696200000000019  0.0626900000000035   F   F   F
  0.3346000000000018  0.0029699999999977  0.0025400000000033   F   F   F
  0.3302775086933067  0.9981346333323486  0.3627235056917399   T   T   T
  0.5046299999999988  0.1685000000000016  0.0611999999999995   F   F   F
  0.8327200000000019  0.1666999999999987  0.0619299999999967   F   F   F
  0.0000399999999985  0.3346700000000027  0.0021300000000011   F   F   F
  0.9991426792739730  0.3328019289820219  0.3605920953621009   T   T   T
  0.1675699999999978  0.4989500000000007  0.0626800000000003   F   F   F
  0.5009900000000016  0.4989599999999967  0.0620600000000024   F   F   F
  0.8339300000000023  0.5023399999999967  0.0623500000000021   F   F   F
  0.0012100000000004  0.6678500000000014  0.0018799999999999   F   F   F
  0.9985381590535454  0.6654450073175298  0.3605721469112169   T   T   T
  0.1679200000000023  0.8346200000000010  0.0622800000000012   F   F   F
  0.3343699999999998  0.6666400000000010  0.0022499999999965   F   F   F
  0.3406640850982896  0.6640978344076132  0.3614632214426194   T   T   T
  0.5015199999999993  0.8356300000000019  0.0621700000000018   F   F   F
  0.6675299999999993  0.6670500000000033  0.0017500000000013   F   F   F
  0.6638439731081149  0.6667529302069042  0.3602729913987659   T   T   T
  0.8329299999999975  0.8358399999999975  0.0623500000000021   F   F   F
  0.0012100000000004  0.0009799999999984  0.1222500000000011   F   F   F
  0.1670000000000016  0.1681099999999986  0.1823899999999981   F   F   F
  0.3346999999999980  0.0022700000000029  0.1219200000000029   F   F   F
  0.5017399999999981  0.1671600000000026  0.1826300000000032   F   F   F
  0.8342099999999988  0.1663899999999998  0.1828300000000027   F   F   F
  0.1696400000000011  0.4986800000000002  0.1820900000000023   F   F   F
  0.5021899999999988  0.5008100000000013  0.1831699999999969   F   F   F
  0.6674099999999967  0.3339500000000015  0.1223299999999981   F   F   F
  0.8313399999999973  0.5025300000000001  0.1828300000000027   F   F   F
  0.0013199999999998  0.6679499999999976  0.1225299999999976   F   F   F
  0.1689799999999977  0.8350900000000010  0.1824299999999965   F   F   F
  0.3344600000000000  0.6670299999999969  0.1222300000000018   F   F   F
  0.4997100000000003  0.8353800000000007  0.1827800000000011   F   F   F
  0.6669800000000023  0.6683999999999983  0.1225900000000024   F   F   F
  0.8348799999999983  0.8340299999999985  0.1829400000000021   F   F   F
  0.3355800000000002  0.9986299999999986  0.2435299999999998   F   F   F
  0.6680100000000024  0.3326199999999986  0.2422899999999970   F   F   F
  0.0044800000000009  0.6673899999999975  0.2421700000000016   F   F   F
  0.4965551942851221  0.8355375593211889  0.3022033018190697   T   T   T
  0.6652100000000019  0.6735100000000003  0.2432700000000025   F   F   F
  0.6662000000000035  0.9968000000000004  0.0000000000000000   F   F   F
  0.6759332907724556  0.9895302896415288  0.3629901553454857   T   T   T
  0.3321299999999994  0.3338600000000014  0.0013500000000022   F   F   F
  0.3240760473186839  0.3393022685061879  0.3651225178136883   T   T   T
  0.6704000000000008  0.3367300000000029  0.0032100000000028   F   F   F
  0.6764632652733340  0.3427256102082765  0.3666711569564427   T   T   T
  0.6672799999999981  0.9999800000000008  0.1224599999999967   F   F   F
  0.9980600000000024  0.3349499999999992  0.1223499999999973   F   F   F
  0.3367500000000021  0.3323800000000006  0.1226100000000017   F   F   F
  0.4990880924196830  0.1593682753391974  0.4448791948364530   T   T   T
 
  0.00000000E+00  0.00000000E+00  0.00000000E+00
  0.00000000E+00  0.00000000E+00  0.00000000E+00
  0.00000000E+00  0.00000000E+00  0.00000000E+00
  0.00000000E+00  0.00000000E+00  0.00000000E+00
  0.00000000E+00  0.00000000E+00  0.00000000E+00
  0.00000000E+00  0.00000000E+00  0.00000000E+00
  0.00000000E+00  0.00000000E+00  0.00000000E+00
  0.00000000E+00  0.00000000E+00  0.00000000E+00
  0.00000000E+00  0.00000000E+00  0.00000000E+00
  0.00000000E+00  0.00000000E+00  0.00000000E+00
  0.00000000E+00  0.00000000E+00  0.00000000E+00
  0.00000000E+00  0.00000000E+00  0.00000000E+00
  0.00000000E+00  0.00000000E+00  0.00000000E+00
  0.00000000E+00  0.00000000E+00  0.00000000E+00
  0.00000000E+00  0.00000000E+00  0.00000000E+00
  0.00000000E+00  0.00000000E+00  0.00000000E+00
  0.00000000E+00  0.00000000E+00  0.00000000E+00
  0.00000000E+00  0.00000000E+00  0.00000000E+00
  0.00000000E+00  0.00000000E+00  0.00000000E+00
  0.00000000E+00  0.00000000E+00  0.00000000E+00
  0.00000000E+00  0.00000000E+00  0.00000000E+00
  0.00000000E+00  0.00000000E+00  0.00000000E+00
  0.00000000E+00  0.00000000E+00  0.00000000E+00
  0.00000000E+00  0.00000000E+00  0.00000000E+00
  0.00000000E+00  0.00000000E+00  0.00000000E+00
  0.00000000E+00  0.00000000E+00  0.00000000E+00
  0.00000000E+00  0.00000000E+00  0.00000000E+00
  0.00000000E+00  0.00000000E+00  0.00000000E+00
  0.00000000E+00  0.00000000E+00  0.00000000E+00
  0.00000000E+00  0.00000000E+00  0.00000000E+00
  0.00000000E+00  0.00000000E+00  0.00000000E+00
  0.00000000E+00  0.00000000E+00  0.00000000E+00
  0.00000000E+00  0.00000000E+00  0.00000000E+00
  0.00000000E+00  0.00000000E+00  0.00000000E+00
  0.00000000E+00  0.00000000E+00  0.00000000E+00
  0.00000000E+00  0.00000000E+00  0.00000000E+00
  0.00000000E+00  0.00000000E+00  0.00000000E+00
  0.00000000E+00  0.00000000E+00  0.00000000E+00
  0.00000000E+00  0.00000000E+00  0.00000000E+00
  0.00000000E+00  0.00000000E+00  0.00000000E+00
  0.00000000E+00  0.00000000E+00  0.00000000E+00
  0.00000000E+00  0.00000000E+00  0.00000000E+00
  0.00000000E+00  0.00000000E+00  0.00000000E+00
  0.00000000E+00  0.00000000E+00  0.00000000E+00
  0.00000000E+00  0.00000000E+00  0.00000000E+00
  0.00000000E+00  0.00000000E+00  0.00000000E+00
  0.00000000E+00  0.00000000E+00  0.00000000E+00
  0.00000000E+00  0.00000000E+00  0.00000000E+00
  0.00000000E+00  0.00000000E+00  0.00000000E+00
  0.00000000E+00  0.00000000E+00  0.00000000E+00
  0.00000000E+00  0.00000000E+00  0.00000000E+00
  0.00000000E+00  0.00000000E+00  0.00000000E+00
  0.00000000E+00  0.00000000E+00  0.00000000E+00
  0.00000000E+00  0.00000000E+00  0.00000000E+00
  0.00000000E+00  0.00000000E+00  0.00000000E+00
  0.00000000E+00  0.00000000E+00  0.00000000E+00
  0.00000000E+00  0.00000000E+00  0.00000000E+00
  0.00000000E+00  0.00000000E+00  0.00000000E+00
  0.00000000E+00  0.00000000E+00  0.00000000E+00
  0.00000000E+00  0.00000000E+00  0.00000000E+00
  0.00000000E+00  0.00000000E+00  0.00000000E+00
  0.00000000E+00  0.00000000E+00  0.00000000E+00
  0.00000000E+00  0.00000000E+00  0.00000000E+00
  0.00000000E+00  0.00000000E+00  0.00000000E+00
