   63   63  300    2
  0.2705886E+02  0.8504600E-09  0.8509100E-09  0.2355660E-08  0.5000000E-15
  1.000000000000000E-004
  CAR 
 INCAR-For-OPT                           
    566     10    372
 
  0.1276756E-14  0.1276756E-14  0.1276756E-14  0.6250000E-01
      1        -42.850046      -43.350866   1.000000   1.000000
      2        -42.815509      -43.334391   1.000000   1.000000
      3        -42.797118      -43.321437   1.000000   1.000000
      4        -42.780245      -43.305201   1.000000   1.000000
      5        -42.764990      -43.298167   1.000000   1.000000
      6        -42.735070      -43.276848   1.000000   1.000000
      7        -42.205021      -43.272690   1.000000   1.000000
      8        -42.153748      -43.264207   1.000000   1.000000
      9        -42.117019      -43.256910   1.000000   1.000000
     10        -42.077965      -43.240191   1.000000   1.000000
     11        -42.002795      -43.238196   1.000000   1.000000
     12        -41.985757      -43.231812   1.000000   1.000000
     13        -41.955736      -43.230093   1.000000   1.000000
     14        -41.940698      -43.197479   1.000000   1.000000
     15        -41.928001      -43.167847   1.000000   1.000000
     16        -41.854175      -43.161400   1.000000   1.000000
     17        -41.847095      -43.137122   1.000000   1.000000
     18        -41.820141      -43.123842   1.000000   1.000000
     19        -41.798639      -43.113451   1.000000   1.000000
     20        -41.762834      -43.057695   1.000000   1.000000
     21        -41.725800      -43.045705   1.000000   1.000000
     22        -41.719849      -42.920452   1.000000   1.000000
     23        -41.702802      -42.852889   1.000000   1.000000
     24        -41.677873      -42.745977   1.000000   1.000000
     25        -41.507546      -42.740956   1.000000   1.000000
     26        -41.446953      -42.735189   1.000000   1.000000
     27        -41.407103      -42.638602   1.000000   1.000000
     28        -41.083386      -42.590596   1.000000   1.000000
     29        -41.044700      -42.559993   1.000000   1.000000
     30        -41.032368      -42.498967   1.000000   1.000000
     31        -40.200839      -42.446169   1.000000   1.000000
     32        -40.145505      -42.304557   1.000000   1.000000
     33        -40.136199      -42.196924   1.000000   1.000000
     34        -40.126347      -42.145053   1.000000   1.000000
     35        -40.125285      -42.009713   1.000000   1.000000
     36        -40.107806      -41.825904   1.000000   1.000000
     37        -40.066950      -39.938240   1.000000   1.000000
     38        -40.051693      -39.869986   1.000000   1.000000
     39        -40.045567      -39.848799   1.000000   1.000000
     40        -40.042618      -39.765404   1.000000   1.000000
     41        -40.008459      -39.733199   1.000000   1.000000
     42        -39.990760      -39.652166   1.000000   1.000000
     43        -15.539726      -15.543818   1.000000   1.000000
     44        -15.524693      -15.532362   1.000000   1.000000
     45        -15.517159      -15.529769   1.000000   1.000000
     46        -15.512081      -15.526832   1.000000   1.000000
     47        -15.464456      -15.481404   1.000000   1.000000
     48         -7.889131       -7.871544   1.000000   1.000000
     49         -7.109083       -7.014921   1.000000   1.000000
     50         -6.085405       -5.991189   1.000000   1.000000
     51         -5.256010       -5.056394   1.000000   1.000000
     52         -5.195765       -5.016036   1.000000   1.000000
     53         -5.173920       -4.997652   1.000000   1.000000
     54         -5.097894       -4.968396   1.000000   1.000000
     55         -4.781833       -4.621562   1.000000   1.000000
     56         -4.627182       -4.340758   1.000000   1.000000
     57         -4.541823       -4.280947   1.000000   1.000000
     58         -4.496031       -4.240578   1.000000   1.000000
     59         -4.433121       -4.130145   1.000000   1.000000
     60         -4.113422       -3.659326   1.000000   1.000000
     61         -4.095202       -3.600525   1.000000   1.000000
     62         -4.054626       -3.563625   1.000000   1.000000
     63         -4.032476       -3.558756   1.000000   1.000000
     64         -4.006644       -3.484913   1.000000   1.000000
     65         -3.978650       -3.414833   1.000000   1.000000
     66         -3.931963       -3.401356   1.000000   1.000000
     67         -3.891989       -3.360377   1.000000   1.000000
     68         -3.816754       -3.114069   1.000000   1.000000
     69         -3.806031       -2.870334   1.000000   1.000000
     70         -3.680968       -2.865266   1.000000   1.000000
     71         -3.625626       -2.821191   1.000000   1.000000
     72         -3.617244       -2.787026   1.000000   1.000000
     73         -3.578490       -2.773996   1.000000   1.000000
     74         -3.518953       -2.731939   1.000000   1.000000
     75         -3.420993       -2.719419   1.000000   1.000000
     76         -3.388184       -2.666453   1.000000   1.000000
     77         -3.362312       -2.589803   1.000000   1.000000
     78         -3.348459       -2.483696   1.000000   1.000000
     79         -3.342229       -2.429897   1.000000   1.000000
     80         -3.332098       -2.379818   1.000000   1.000000
     81         -3.324851       -2.340358   1.000000   1.000000
     82         -3.310454       -2.314554   1.000000   1.000000
     83         -3.306394       -2.299123   1.000000   1.000000
     84         -3.280854       -2.242132   1.000000   1.000000
     85         -3.256285       -2.213212   1.000000   1.000000
     86         -3.251835       -2.185180   1.000000   1.000000
     87         -3.208534       -2.165100   1.000000   1.000000
     88         -3.193245       -2.146605   1.000000   1.000000
     89         -3.175498       -2.107979   1.000000   1.000000
     90         -3.160426       -2.087433   1.000000   1.000000
     91         -3.107906       -2.073319   1.000000   1.000000
     92         -3.066644       -2.062250   1.000000   1.000000
     93         -3.039313       -2.006734   1.000000   1.000000
     94         -3.015068       -1.998289   1.000000   1.000000
     95         -2.966474       -1.992007   1.000000   1.000000
     96         -2.961100       -1.968250   1.000000   1.000000
     97         -2.941471       -1.934676   1.000000   1.000000
     98         -2.922035       -1.906942   1.000000   1.000000
     99         -2.903748       -1.874023   1.000000   1.000000
    100         -2.893536       -1.826166   1.000000   1.000000
    101         -2.870342       -1.799342   1.000000   1.000000
    102         -2.847830       -1.760587   1.000000   1.000000
    103         -2.829076       -1.729488   1.000000   1.000000
    104         -2.819343       -1.711170   1.000000   1.000000
    105         -2.810895       -1.693529   1.000000   1.000000
    106         -2.800564       -1.615092   1.000000   1.000000
    107         -2.766895       -1.596575   1.000000   1.000000
    108         -2.739406       -1.549817   1.000000   1.000000
    109         -2.699015       -1.523717   1.000000   1.000000
    110         -2.664176       -1.500722   1.000000   1.000000
    111         -2.651589       -1.496796   1.000000   1.000000
    112         -2.638693       -1.487122   1.000000   1.000000
    113         -2.605539       -1.460936   1.000000   1.000000
    114         -2.551423       -1.441589   1.000000   1.000000
    115         -2.534863       -1.416263   1.000000   1.000000
    116         -2.522282       -1.409123   1.000000   1.000000
    117         -2.502448       -1.389973   1.000000   1.000000
    118         -2.496453       -1.375304   1.000000   1.000000
    119         -2.479215       -1.358118   1.000000   1.000000
    120         -2.473990       -1.321562   1.000000   1.000000
    121         -2.464074       -1.297207   1.000000   1.000000
    122         -2.447206       -1.294809   1.000000   1.000000
    123         -2.442961       -1.278139   1.000000   1.000000
    124         -2.437442       -1.256145   1.000000   1.000000
    125         -2.425224       -1.248245   1.000000   1.000000
    126         -2.421783       -1.226067   1.000000   1.000000
    127         -2.412861       -1.191200   1.000000   1.000000
    128         -2.407654       -1.189013   1.000000   1.000000
    129         -2.394742       -1.157946   1.000000   1.000000
    130         -2.388336       -1.150250   1.000000   1.000000
    131         -2.376417       -1.111000   1.000000   1.000000
    132         -2.364330       -1.094545   1.000000   1.000000
    133         -2.349715       -1.078977   1.000000   1.000000
    134         -2.329432       -1.066173   1.000000   1.000000
    135         -2.325070       -1.050823   1.000000   1.000000
    136         -2.312999       -1.033872   1.000000   1.000000
    137         -2.301546       -1.008936   1.000000   1.000000
    138         -2.295096       -0.998137   1.000000   1.000000
    139         -2.286359       -0.986229   1.000000   1.000000
    140         -2.274713       -0.967439   1.000000   1.000000
    141         -2.262494       -0.955974   1.000000   1.000000
    142         -2.248412       -0.948082   1.000000   1.000000
    143         -2.236232       -0.938266   1.000000   1.000000
    144         -2.210906       -0.907598   1.000000   1.000000
    145         -2.206571       -0.897932   1.000000   1.000000
    146         -2.198862       -0.895858   1.000000   1.000000
    147         -2.187047       -0.870533   1.000000   1.000000
    148         -2.178695       -0.866688   1.000000   1.000000
    149         -2.165748       -0.844283   1.000000   1.000000
    150         -2.155005       -0.824639   1.000000   1.000000
    151         -2.137047       -0.813637   1.000000   1.000000
    152         -2.131946       -0.785429   1.000000   1.000000
    153         -2.099571       -0.764987   1.000000   1.000000
    154         -2.094953       -0.745741   1.000000   1.000000
    155         -2.081369       -0.731956   1.000000   1.000000
    156         -2.073530       -0.718067   1.000000   1.000000
    157         -2.062924       -0.695538   1.000000   1.000000
    158         -2.058826       -0.683300   1.000000   1.000000
    159         -2.041969       -0.671498   1.000000   1.000000
    160         -2.036293       -0.659825   1.000000   1.000000
    161         -2.016292       -0.646765   1.000000   1.000000
    162         -1.996429       -0.635694   1.000000   1.000000
    163         -1.988283       -0.626003   1.000000   1.000000
    164         -1.971496       -0.615463   1.000000   1.000000
    165         -1.961430       -0.589245   1.000000   1.000000
    166         -1.940716       -0.583929   1.000000   1.000000
    167         -1.923893       -0.567892   1.000000   1.000000
    168         -1.922253       -0.552833   1.000000   1.000000
    169         -1.906046       -0.523273   1.000000   1.000000
    170         -1.876915       -0.515571   1.000000   1.000000
    171         -1.874126       -0.506819   1.000000   1.000000
    172         -1.861352       -0.483081   1.000000   1.000000
    173         -1.844240       -0.465609   1.000000   1.000000
    174         -1.830002       -0.438817   1.000000   1.000000
    175         -1.810053       -0.406309   1.000000   1.000000
    176         -1.804841       -0.383113   1.000000   1.000000
    177         -1.792802       -0.350459   1.000000   1.000000
    178         -1.779797       -0.342316   1.000000   1.000000
    179         -1.762303       -0.328353   1.000000   1.000000
    180         -1.744124       -0.312458   1.000000   1.000000
    181         -1.716540       -0.282316   1.000000   1.000000
    182         -1.694901       -0.273760   1.000000   1.000000
    183         -1.684727       -0.244531   1.000000   1.000000
    184         -1.672389       -0.221983   1.000000   1.000000
    185         -1.644985       -0.216677   1.000000   1.000000
    186         -1.614471       -0.198361   1.000000   1.000000
    187         -1.590398       -0.182233   1.000000   1.000000
    188         -1.566192       -0.169559   1.000000   1.000000
    189         -1.556731       -0.154677   1.000000   1.000000
    190         -1.551421       -0.104659   1.000000   1.000000
    191         -1.531378       -0.078173   1.000000   1.000000
    192         -1.508098       -0.061068   1.000000   1.000000
    193         -1.485857       -0.045401   1.000000   1.000000
    194         -1.462086       -0.033931   1.000000   1.000000
    195         -1.439284        0.007822   1.000000   1.000000
    196         -1.426641        0.024713   1.000000   1.000000
    197         -1.408682        0.045859   1.000000   1.000000
    198         -1.403061        0.071065   1.000000   1.000000
    199         -1.393799        0.073775   1.000000   1.000000
    200         -1.364047        0.108226   1.000000   1.000000
    201         -1.348384        0.130196   1.000000   1.000000
    202         -1.332537        0.138919   1.000000   1.000000
    203         -1.303920        0.165212   1.000000   1.000000
    204         -1.284779        0.201859   1.000000   1.000000
    205         -1.269062        0.213620   1.000000   1.000000
    206         -1.256026        0.247718   1.000000   1.000000
    207         -1.239450        0.254997   1.000000   1.000000
    208         -1.232313        0.271218   1.000000   1.000000
    209         -1.210470        0.279517   1.000000   1.000000
    210         -1.191612        0.287347   1.000000   1.000000
    211         -1.179152        0.326984   1.000000   1.000000
    212         -1.146990        0.348224   1.000000   1.000000
    213         -1.134311        0.353524   1.000000   1.000000
    214         -1.130121        0.367590   1.000000   1.000000
    215         -1.118743        0.374333   1.000000   1.000000
    216         -1.086178        0.400962   1.000000   1.000000
    217         -1.066346        0.449464   1.000000   1.000004
    218         -1.054329        0.463869   1.000000   1.000007
    219         -1.039711        0.494616   1.000000   1.000025
    220         -1.000553        0.524195   1.000000   1.000080
    221         -0.984713        0.554848   1.000000   1.000242
    222         -0.963449        0.588130   1.000000   1.000727
    223         -0.957725        0.589690   1.000000   1.000764
    224         -0.929757        0.613337   1.000000   1.001551
    225         -0.916200        0.627561   1.000000   1.002310
    226         -0.893425        0.659157   1.000000   1.005175
    227         -0.868412        0.698161   1.000000   1.011961
    228         -0.864829        0.719263   1.000000   1.017377
    229         -0.845229        0.759388   1.000000   1.029404
    230         -0.825064        0.796428   1.000000   1.035436
    231         -0.817897        0.815740   1.000000   1.031795
    232         -0.781368        0.819466   1.000000   1.030231
    233         -0.776216        0.896953   1.000000   0.892611
    234         -0.769356        0.932187   1.000000   0.747262
    235         -0.762525        0.967040   1.000000   0.563596
    236         -0.739702        0.990446   1.000000   0.431994
    237         -0.733635        1.022372   1.000000   0.263087
    238         -0.711149        1.058448   1.000000   0.111803
    239         -0.679394        1.066442   1.000000   0.085770
    240         -0.661143        1.091426   1.000000   0.022719
    241         -0.635738        1.117431   1.000000  -0.015832
    242         -0.630739        1.120692   1.000000  -0.018987
    243         -0.617346        1.145616   1.000000  -0.033318
    244         -0.609462        1.171314   1.000000  -0.034919
    245         -0.596513        1.203070   1.000000  -0.027734
    246         -0.574435        1.219096   1.000000  -0.022835
    247         -0.560770        1.232047   1.000000  -0.018927
    248         -0.538046        1.260252   1.000000  -0.011573
    249         -0.524862        1.271242   1.000000  -0.009289
    250         -0.514746        1.298769   1.000000  -0.005025
    251         -0.498476        1.323798   1.000000  -0.002667
    252         -0.484257        1.326069   1.000000  -0.002510
    253         -0.478529        1.339872   1.000000  -0.001714
    254         -0.473190        1.354026   1.000000  -0.001135
    255         -0.462888        1.373697   1.000000  -0.000618
    256         -0.442001        1.383435   1.000000  -0.000451
    257         -0.434848        1.404062   1.000000  -0.000224
    258         -0.420877        1.409043   1.000000  -0.000188
    259         -0.411058        1.424907   1.000000  -0.000106
    260         -0.401449        1.432756   1.000000  -0.000079
    261         -0.395948        1.458895   1.000000  -0.000029
    262         -0.377133        1.467652   1.000000  -0.000020
    263         -0.368980        1.484168   1.000000  -0.000010
    264         -0.362187        1.499182   1.000000  -0.000005
    265         -0.356092        1.509114   1.000000  -0.000003
    266         -0.343568        1.541000   1.000000  -0.000001
    267         -0.332310        1.542786   1.000000  -0.000001
    268         -0.322532        1.575495   1.000000  -0.000000
    269         -0.316830        1.598589   1.000000  -0.000000
    270         -0.307696        1.629826   1.000000  -0.000000
    271         -0.300704        1.656351   1.000000  -0.000000
    272         -0.291433        1.672022   1.000000  -0.000000
    273         -0.285978        1.696350   1.000000  -0.000000
    274         -0.263954        1.706511   1.000000  -0.000000
    275         -0.248398        1.732923   1.000000  -0.000000
    276         -0.242533        1.748814   1.000000  -0.000000
    277         -0.236449        1.757374   1.000000  -0.000000
    278         -0.225240        1.789427   1.000000  -0.000000
    279         -0.208862        1.792898   1.000000  -0.000000
    280         -0.200492        1.799673   1.000000  -0.000000
    281         -0.190232        1.815677   1.000000  -0.000000
    282         -0.179984        1.828038   1.000000  -0.000000
    283         -0.178718        1.838417   1.000000  -0.000000
    284         -0.169339        1.855451   1.000000  -0.000000
    285         -0.162580        1.872532   1.000000  -0.000000
    286         -0.149181        1.905641   1.000000  -0.000000
    287         -0.145540        1.913359   1.000000  -0.000000
    288         -0.124776        1.932389   1.000000  -0.000000
    289         -0.107790        1.947084   1.000000  -0.000000
    290         -0.092921        1.959344   1.000000  -0.000000
    291         -0.083095        1.988776   1.000000  -0.000000
    292         -0.078328        1.999916   1.000000  -0.000000
    293         -0.063187        2.014976   1.000000  -0.000000
    294         -0.057227        2.021421   1.000000  -0.000000
    295         -0.039512        2.044913   1.000000  -0.000000
    296         -0.027063        2.051964   1.000000  -0.000000
    297         -0.012376        2.059772   1.000000  -0.000000
    298          0.001187        2.074064   1.000000  -0.000000
    299          0.016150        2.079761   1.000000  -0.000000
    300          0.025278        2.107177   1.000000  -0.000000
    301          0.059981        2.119499   1.000000  -0.000000
    302          0.089073        2.130601   1.000000  -0.000000
    303          0.090780        2.141325   1.000000  -0.000000
    304          0.124309        2.148901   1.000000  -0.000000
    305          0.136240        2.162593   1.000000  -0.000000
    306          0.163509        2.165835   1.000000  -0.000000
    307          0.178565        2.187086   1.000000  -0.000000
    308          0.216879        2.199656   1.000000  -0.000000
    309          0.229570        2.208216   1.000000  -0.000000
    310          0.269728        2.214456   1.000000  -0.000000
    311          0.320964        2.225935   1.000000  -0.000000
    312          0.325133        2.249337   1.000000  -0.000000
    313          0.369823        2.263379   1.000000  -0.000000
    314          0.404691        2.274730   1.000000  -0.000000
    315          0.444100        2.288896   1.000003  -0.000000
    316          0.480010        2.290373   1.000014  -0.000000
    317          0.498684        2.302888   1.000030  -0.000000
    318          0.538833        2.305770   1.000137  -0.000000
    319          0.584362        2.317176   1.000646  -0.000000
    320          0.635913        2.325373   1.002889  -0.000000
    321          0.646248        2.334345   1.003772  -0.000000
    322          0.663361        2.338791   1.005713  -0.000000
    323          0.689870        2.352762   1.010165  -0.000000
    324          0.694509        2.359832   1.011146  -0.000000
    325          0.699356        2.367797   1.012236  -0.000000
    326          0.760825        2.385705   1.029805  -0.000000
    327          0.782466        2.402256   1.034551  -0.000000
    328          0.825391        2.404996   1.027054  -0.000000
    329          0.835932        2.419915   1.019053  -0.000000
    330          0.851860        2.429889   1.000300  -0.000000
    331          0.910060        2.431917   0.844543  -0.000000
    332          0.934008        2.440109   0.738453  -0.000000
    333          0.993514        2.447369   0.414920  -0.000000
    334          1.062335        2.453987   0.098788  -0.000000
    335          1.100834        2.469137   0.005833  -0.000000
    336          1.162541        2.474423  -0.035456  -0.000000
    337          1.173069        2.488903  -0.034708  -0.000000
    338          1.208381        2.494545  -0.026134  -0.000000
    339          1.258031        2.502832  -0.012076  -0.000000
    340          1.305612        2.511345  -0.004255  -0.000000
    341          1.328763        2.522687  -0.002333  -0.000000
    342          1.370510        2.537853  -0.000684  -0.000000
    343          1.374979        2.542347  -0.000594  -0.000000
    344          1.435734        2.571951  -0.000071  -0.000000
    345          1.479510        2.587945  -0.000012  -0.000000
    346          1.522889        2.590916  -0.000002  -0.000000
    347          1.570716        2.605687  -0.000000  -0.000000
    348          1.598378        2.615942  -0.000000  -0.000000
    349          1.632228        2.623638  -0.000000  -0.000000
    350          1.668868        2.634379  -0.000000  -0.000000
    351          1.738307        2.654248  -0.000000  -0.000000
    352          1.781443        2.663844  -0.000000  -0.000000
    353          1.800472        2.677785  -0.000000  -0.000000
    354          1.821613        2.679542  -0.000000  -0.000000
    355          1.866900        2.689480  -0.000000  -0.000000
    356          1.899084        2.700418  -0.000000  -0.000000
    357          1.923964        2.716442  -0.000000  -0.000000
    358          1.964355        2.741030  -0.000000  -0.000000
    359          1.986749        2.777273  -0.000000  -0.000000
    360          2.008837        2.788009  -0.000000  -0.000000
    361          2.037533        2.793852  -0.000000  -0.000000
    362          2.069208        2.836886  -0.000000  -0.000000
    363          2.103142        2.840859  -0.000000  -0.000000
    364          2.137837        2.872768  -0.000000  -0.000000
    365          2.184387        2.907832  -0.000000  -0.000000
    366          2.191242        2.938862  -0.000000  -0.000000
    367          2.246954        2.941723  -0.000000  -0.000000
    368          2.290715        2.994250  -0.000000  -0.000000
    369          2.312186        3.023836  -0.000000  -0.000000
    370          2.350727        3.037702  -0.000000  -0.000000
    371          2.367254        3.051488  -0.000000  -0.000000
    372          2.404062        3.070964  -0.000000  -0.000000
 
  0.2500000E+00  0.8382198E-14  0.1276756E-14  0.1250000E+00
      1        -42.850040      -43.350861   1.000000   1.000000
      2        -42.815510      -43.334386   1.000000   1.000000
      3        -42.797110      -43.321450   1.000000   1.000000
      4        -42.780239      -43.305200   1.000000   1.000000
      5        -42.764983      -43.298163   1.000000   1.000000
      6        -42.735074      -43.276835   1.000000   1.000000
      7        -42.205031      -43.272688   1.000000   1.000000
      8        -42.153751      -43.264199   1.000000   1.000000
      9        -42.117015      -43.256908   1.000000   1.000000
     10        -42.077959      -43.240187   1.000000   1.000000
     11        -42.002797      -43.238199   1.000000   1.000000
     12        -41.985756      -43.231805   1.000000   1.000000
     13        -41.955722      -43.230092   1.000000   1.000000
     14        -41.940701      -43.197475   1.000000   1.000000
     15        -41.927991      -43.167848   1.000000   1.000000
     16        -41.854169      -43.161395   1.000000   1.000000
     17        -41.847082      -43.137110   1.000000   1.000000
     18        -41.820138      -43.123839   1.000000   1.000000
     19        -41.798613      -43.113442   1.000000   1.000000
     20        -41.762845      -43.057691   1.000000   1.000000
     21        -41.725794      -43.045699   1.000000   1.000000
     22        -41.719846      -42.920451   1.000000   1.000000
     23        -41.702797      -42.852883   1.000000   1.000000
     24        -41.677878      -42.745974   1.000000   1.000000
     25        -41.507542      -42.740959   1.000000   1.000000
     26        -41.446951      -42.735190   1.000000   1.000000
     27        -41.407098      -42.638603   1.000000   1.000000
     28        -41.083385      -42.590593   1.000000   1.000000
     29        -41.044699      -42.559984   1.000000   1.000000
     30        -41.032362      -42.498977   1.000000   1.000000
     31        -40.200854      -42.446168   1.000000   1.000000
     32        -40.145491      -42.304539   1.000000   1.000000
     33        -40.136194      -42.196919   1.000000   1.000000
     34        -40.126338      -42.145048   1.000000   1.000000
     35        -40.125284      -42.009708   1.000000   1.000000
     36        -40.107803      -41.825897   1.000000   1.000000
     37        -40.066943      -39.938243   1.000000   1.000000
     38        -40.051685      -39.869975   1.000000   1.000000
     39        -40.045562      -39.848793   1.000000   1.000000
     40        -40.042621      -39.765406   1.000000   1.000000
     41        -40.008453      -39.733194   1.000000   1.000000
     42        -39.990754      -39.652161   1.000000   1.000000
     43        -15.539664      -15.543831   1.000000   1.000000
     44        -15.524707      -15.532311   1.000000   1.000000
     45        -15.517150      -15.529763   1.000000   1.000000
     46        -15.512093      -15.526840   1.000000   1.000000
     47        -15.464458      -15.481407   1.000000   1.000000
     48         -7.863418       -7.850926   1.000000   1.000000
     49         -6.986889       -6.888666   1.000000   1.000000
     50         -6.034981       -5.927966   1.000000   1.000000
     51         -5.920536       -5.800839   1.000000   1.000000
     52         -5.141737       -4.980846   1.000000   1.000000
     53         -5.087909       -4.901643   1.000000   1.000000
     54         -5.057616       -4.887225   1.000000   1.000000
     55         -4.686676       -4.502126   1.000000   1.000000
     56         -4.462326       -4.195577   1.000000   1.000000
     57         -4.411544       -4.125884   1.000000   1.000000
     58         -4.388690       -4.104733   1.000000   1.000000
     59         -4.379374       -4.068085   1.000000   1.000000
     60         -4.301183       -4.037350   1.000000   1.000000
     61         -4.123034       -3.775552   1.000000   1.000000
     62         -4.077655       -3.567696   1.000000   1.000000
     63         -3.959367       -3.389832   1.000000   1.000000
     64         -3.897052       -3.338178   1.000000   1.000000
     65         -3.886767       -3.307454   1.000000   1.000000
     66         -3.813656       -3.259346   1.000000   1.000000
     67         -3.796758       -3.183782   1.000000   1.000000
     68         -3.762339       -3.166328   1.000000   1.000000
     69         -3.735834       -3.102180   1.000000   1.000000
     70         -3.706664       -3.020093   1.000000   1.000000
     71         -3.650063       -2.843107   1.000000   1.000000
     72         -3.617828       -2.749839   1.000000   1.000000
     73         -3.583560       -2.703559   1.000000   1.000000
     74         -3.530228       -2.670200   1.000000   1.000000
     75         -3.500230       -2.609146   1.000000   1.000000
     76         -3.483008       -2.564991   1.000000   1.000000
     77         -3.477490       -2.538275   1.000000   1.000000
     78         -3.440069       -2.506639   1.000000   1.000000
     79         -3.422592       -2.488949   1.000000   1.000000
     80         -3.387152       -2.444331   1.000000   1.000000
     81         -3.364136       -2.409830   1.000000   1.000000
     82         -3.317807       -2.382037   1.000000   1.000000
     83         -3.277444       -2.356160   1.000000   1.000000
     84         -3.244799       -2.314262   1.000000   1.000000
     85         -3.219823       -2.283959   1.000000   1.000000
     86         -3.193868       -2.244964   1.000000   1.000000
     87         -3.186889       -2.188796   1.000000   1.000000
     88         -3.174323       -2.146396   1.000000   1.000000
     89         -3.148357       -2.116285   1.000000   1.000000
     90         -3.135400       -2.081426   1.000000   1.000000
     91         -3.116797       -2.067274   1.000000   1.000000
     92         -3.100715       -2.048243   1.000000   1.000000
     93         -3.093925       -2.020605   1.000000   1.000000
     94         -3.071784       -2.007874   1.000000   1.000000
     95         -3.013142       -1.975374   1.000000   1.000000
     96         -3.005325       -1.940378   1.000000   1.000000
     97         -2.984264       -1.927901   1.000000   1.000000
     98         -2.966149       -1.899329   1.000000   1.000000
     99         -2.936206       -1.882517   1.000000   1.000000
    100         -2.930413       -1.862038   1.000000   1.000000
    101         -2.910601       -1.842237   1.000000   1.000000
    102         -2.890829       -1.804379   1.000000   1.000000
    103         -2.876837       -1.752419   1.000000   1.000000
    104         -2.854409       -1.740745   1.000000   1.000000
    105         -2.831448       -1.712186   1.000000   1.000000
    106         -2.808941       -1.689454   1.000000   1.000000
    107         -2.786647       -1.636312   1.000000   1.000000
    108         -2.758593       -1.607685   1.000000   1.000000
    109         -2.694746       -1.580191   1.000000   1.000000
    110         -2.677587       -1.553117   1.000000   1.000000
    111         -2.659629       -1.546615   1.000000   1.000000
    112         -2.644652       -1.519051   1.000000   1.000000
    113         -2.633821       -1.484923   1.000000   1.000000
    114         -2.617602       -1.476684   1.000000   1.000000
    115         -2.598478       -1.453949   1.000000   1.000000
    116         -2.585565       -1.426782   1.000000   1.000000
    117         -2.575772       -1.408082   1.000000   1.000000
    118         -2.543258       -1.383842   1.000000   1.000000
    119         -2.528256       -1.352866   1.000000   1.000000
    120         -2.514519       -1.333251   1.000000   1.000000
    121         -2.502233       -1.319789   1.000000   1.000000
    122         -2.494879       -1.285944   1.000000   1.000000
    123         -2.480720       -1.256081   1.000000   1.000000
    124         -2.473768       -1.234442   1.000000   1.000000
    125         -2.454887       -1.230700   1.000000   1.000000
    126         -2.438958       -1.198832   1.000000   1.000000
    127         -2.429451       -1.174724   1.000000   1.000000
    128         -2.419433       -1.162682   1.000000   1.000000
    129         -2.407272       -1.149317   1.000000   1.000000
    130         -2.393882       -1.130067   1.000000   1.000000
    131         -2.385859       -1.122016   1.000000   1.000000
    132         -2.376088       -1.087323   1.000000   1.000000
    133         -2.356027       -1.073866   1.000000   1.000000
    134         -2.350950       -1.056654   1.000000   1.000000
    135         -2.326020       -1.047564   1.000000   1.000000
    136         -2.311691       -1.035514   1.000000   1.000000
    137         -2.304303       -1.004203   1.000000   1.000000
    138         -2.292962       -0.992951   1.000000   1.000000
    139         -2.274739       -0.981989   1.000000   1.000000
    140         -2.265806       -0.968824   1.000000   1.000000
    141         -2.253370       -0.950549   1.000000   1.000000
    142         -2.232915       -0.932704   1.000000   1.000000
    143         -2.219857       -0.910663   1.000000   1.000000
    144         -2.210910       -0.901209   1.000000   1.000000
    145         -2.204689       -0.888962   1.000000   1.000000
    146         -2.189320       -0.870581   1.000000   1.000000
    147         -2.182105       -0.861592   1.000000   1.000000
    148         -2.162646       -0.851666   1.000000   1.000000
    149         -2.153764       -0.827970   1.000000   1.000000
    150         -2.148184       -0.811970   1.000000   1.000000
    151         -2.125385       -0.799441   1.000000   1.000000
    152         -2.118136       -0.780442   1.000000   1.000000
    153         -2.105909       -0.750711   1.000000   1.000000
    154         -2.094827       -0.738531   1.000000   1.000000
    155         -2.076476       -0.730564   1.000000   1.000000
    156         -2.065356       -0.721399   1.000000   1.000000
    157         -2.048618       -0.689271   1.000000   1.000000
    158         -2.039118       -0.685365   1.000000   1.000000
    159         -2.022735       -0.667736   1.000000   1.000000
    160         -2.012499       -0.655486   1.000000   1.000000
    161         -1.991969       -0.635916   1.000000   1.000000
    162         -1.970517       -0.614552   1.000000   1.000000
    163         -1.963022       -0.596626   1.000000   1.000000
    164         -1.947792       -0.584488   1.000000   1.000000
    165         -1.931775       -0.574619   1.000000   1.000000
    166         -1.916899       -0.552470   1.000000   1.000000
    167         -1.905990       -0.535611   1.000000   1.000000
    168         -1.882544       -0.526193   1.000000   1.000000
    169         -1.868772       -0.485852   1.000000   1.000000
    170         -1.847640       -0.475409   1.000000   1.000000
    171         -1.836420       -0.443369   1.000000   1.000000
    172         -1.829849       -0.428468   1.000000   1.000000
    173         -1.807949       -0.417784   1.000000   1.000000
    174         -1.801552       -0.386115   1.000000   1.000000
    175         -1.777475       -0.378981   1.000000   1.000000
    176         -1.760668       -0.367836   1.000000   1.000000
    177         -1.748093       -0.338974   1.000000   1.000000
    178         -1.732872       -0.320992   1.000000   1.000000
    179         -1.714550       -0.314401   1.000000   1.000000
    180         -1.705120       -0.302692   1.000000   1.000000
    181         -1.693112       -0.280314   1.000000   1.000000
    182         -1.677855       -0.264414   1.000000   1.000000
    183         -1.662587       -0.251276   1.000000   1.000000
    184         -1.640612       -0.229492   1.000000   1.000000
    185         -1.625981       -0.203848   1.000000   1.000000
    186         -1.603922       -0.191221   1.000000   1.000000
    187         -1.596151       -0.174126   1.000000   1.000000
    188         -1.590698       -0.157151   1.000000   1.000000
    189         -1.571073       -0.142381   1.000000   1.000000
    190         -1.546595       -0.116502   1.000000   1.000000
    191         -1.540926       -0.095276   1.000000   1.000000
    192         -1.529216       -0.085782   1.000000   1.000000
    193         -1.503707       -0.076430   1.000000   1.000000
    194         -1.491035       -0.058620   1.000000   1.000000
    195         -1.483892       -0.036880   1.000000   1.000000
    196         -1.463361       -0.020400   1.000000   1.000000
    197         -1.456885        0.017230   1.000000   1.000000
    198         -1.437190        0.042463   1.000000   1.000000
    199         -1.405107        0.058235   1.000000   1.000000
    200         -1.384706        0.083465   1.000000   1.000000
    201         -1.372545        0.103951   1.000000   1.000000
    202         -1.356103        0.118318   1.000000   1.000000
    203         -1.334590        0.126945   1.000000   1.000000
    204         -1.314179        0.144531   1.000000   1.000000
    205         -1.301405        0.163883   1.000000   1.000000
    206         -1.284771        0.176861   1.000000   1.000000
    207         -1.273310        0.210957   1.000000   1.000000
    208         -1.255182        0.241790   1.000000   1.000000
    209         -1.250986        0.254332   1.000000   1.000000
    210         -1.214873        0.277447   1.000000   1.000000
    211         -1.204251        0.296733   1.000000   1.000000
    212         -1.185103        0.332882   1.000000   1.000000
    213         -1.164959        0.347081   1.000000   1.000000
    214         -1.146580        0.381777   1.000000   1.000000
    215         -1.137609        0.399505   1.000000   1.000000
    216         -1.118984        0.415870   1.000000   1.000001
    217         -1.087107        0.444991   1.000000   1.000003
    218         -1.066771        0.473338   1.000000   1.000010
    219         -1.044754        0.493882   1.000000   1.000024
    220         -1.035347        0.522108   1.000000   1.000074
    221         -1.002367        0.543888   1.000000   1.000165
    222         -0.984912        0.558329   1.000000   1.000273
    223         -0.958261        0.586291   1.000000   1.000686
    224         -0.922388        0.619540   1.000000   1.001850
    225         -0.907249        0.637984   1.000000   1.003051
    226         -0.893204        0.680732   1.000000   1.008413
    227         -0.867774        0.693559   1.000000   1.010940
    228         -0.850841        0.710706   1.000000   1.015043
    229         -0.842957        0.769583   1.000000   1.032069
    230         -0.813722        0.796970   1.000000   1.035420
    231         -0.784130        0.820147   1.000000   1.029910
    232         -0.768789        0.852132   1.000000   0.999903
    233         -0.749660        0.877492   1.000000   0.949858
    234         -0.744170        0.903031   1.000000   0.871255
    235         -0.727554        0.940613   1.000000   0.705606
    236         -0.704706        0.965166   1.000000   0.574054
    237         -0.677337        1.017734   1.000000   0.286059
    238         -0.674964        1.051923   1.000000   0.135165
    239         -0.665340        1.078925   1.000000   0.050846
    240         -0.653768        1.121400   1.000000  -0.019628
    241         -0.637454        1.128700   1.000000  -0.025369
    242         -0.628057        1.145582   1.000000  -0.033309
    243         -0.606975        1.171590   1.000000  -0.034888
    244         -0.591887        1.195197   1.000000  -0.029991
    245         -0.573734        1.223524   1.000000  -0.021478
    246         -0.558276        1.238302   1.000000  -0.017132
    247         -0.545046        1.256875   1.000000  -0.012344
    248         -0.527578        1.284707   1.000000  -0.006954
    249         -0.518290        1.302909   1.000000  -0.004547
    250         -0.508483        1.330784   1.000000  -0.002208
    251         -0.495732        1.334676   1.000000  -0.001983
    252         -0.489038        1.358496   1.000000  -0.000992
    253         -0.479786        1.388329   1.000000  -0.000384
    254         -0.464499        1.394965   1.000000  -0.000307
    255         -0.456128        1.411024   1.000000  -0.000176
    256         -0.451256        1.441144   1.000000  -0.000058
    257         -0.434495        1.458064   1.000000  -0.000030
    258         -0.426174        1.469619   1.000000  -0.000018
    259         -0.402050        1.484411   1.000000  -0.000010
    260         -0.396144        1.504560   1.000000  -0.000004
    261         -0.389070        1.523404   1.000000  -0.000002
    262         -0.372711        1.542701   1.000000  -0.000001
    263         -0.363658        1.566535   1.000000  -0.000000
    264         -0.356927        1.575353   1.000000  -0.000000
    265         -0.347371        1.584741   1.000000  -0.000000
    266         -0.341089        1.609580   1.000000  -0.000000
    267         -0.332467        1.615283   1.000000  -0.000000
    268         -0.323393        1.645240   1.000000  -0.000000
    269         -0.308815        1.653221   1.000000  -0.000000
    270         -0.292027        1.668407   1.000000  -0.000000
    271         -0.284078        1.690755   1.000000  -0.000000
    272         -0.272088        1.704432   1.000000  -0.000000
    273         -0.267172        1.716766   1.000000  -0.000000
    274         -0.246292        1.728560   1.000000  -0.000000
    275         -0.238257        1.764503   1.000000  -0.000000
    276         -0.224527        1.769836   1.000000  -0.000000
    277         -0.217049        1.777875   1.000000  -0.000000
    278         -0.200708        1.791948   1.000000  -0.000000
    279         -0.194492        1.802391   1.000000  -0.000000
    280         -0.185585        1.814362   1.000000  -0.000000
    281         -0.163737        1.820383   1.000000  -0.000000
    282         -0.160264        1.846060   1.000000  -0.000000
    283         -0.145581        1.862800   1.000000  -0.000000
    284         -0.134503        1.884156   1.000000  -0.000000
    285         -0.127074        1.898605   1.000000  -0.000000
    286         -0.115311        1.919433   1.000000  -0.000000
    287         -0.104384        1.926177   1.000000  -0.000000
    288         -0.089946        1.932995   1.000000  -0.000000
    289         -0.083170        1.946043   1.000000  -0.000000
    290         -0.070120        1.973452   1.000000  -0.000000
    291         -0.046747        1.982430   1.000000  -0.000000
    292         -0.041685        2.003863   1.000000  -0.000000
    293         -0.029617        2.020012   1.000000  -0.000000
    294         -0.014480        2.030934   1.000000  -0.000000
    295          0.004141        2.046808   1.000000  -0.000000
    296          0.020193        2.051730   1.000000  -0.000000
    297          0.049414        2.064384   1.000000  -0.000000
    298          0.065926        2.085220   1.000000  -0.000000
    299          0.074790        2.091649   1.000000  -0.000000
    300          0.090985        2.107535   1.000000  -0.000000
    301          0.117109        2.119941   1.000000  -0.000000
    302          0.135771        2.126448   1.000000  -0.000000
    303          0.156587        2.133750   1.000000  -0.000000
    304          0.166810        2.150811   1.000000  -0.000000
    305          0.199789        2.162023   1.000000  -0.000000
    306          0.214490        2.167182   1.000000  -0.000000
    307          0.230993        2.188686   1.000000  -0.000000
    308          0.261074        2.195429   1.000000  -0.000000
    309          0.294434        2.204395   1.000000  -0.000000
    310          0.319856        2.211564   1.000000  -0.000000
    311          0.337018        2.218757   1.000000  -0.000000
    312          0.365313        2.231630   1.000000  -0.000000
    313          0.402382        2.242809   1.000000  -0.000000
    314          0.436113        2.260863   1.000002  -0.000000
    315          0.457848        2.267817   1.000005  -0.000000
    316          0.479441        2.288554   1.000013  -0.000000
    317          0.530163        2.298390   1.000100  -0.000000
    318          0.546317        2.312555   1.000180  -0.000000
    319          0.573280        2.327980   1.000452  -0.000000
    320          0.601147        2.335300   1.001084  -0.000000
    321          0.636133        2.343411   1.002906  -0.000000
    322          0.650921        2.358038   1.004238  -0.000000
    323          0.675167        2.361737   1.007461  -0.000000
    324          0.695593        2.375224   1.011384  -0.000000
    325          0.730388        2.385283   1.020634  -0.000000
    326          0.745616        2.392868   1.025307  -0.000000
    327          0.800020        2.402217   1.035249  -0.000000
    328          0.831444        2.407752   1.022850  -0.000000
    329          0.885107        2.422093   0.929475  -0.000000
    330          0.922341        2.434142   0.792888  -0.000000
    331          0.952102        2.446477   0.645591  -0.000000
    332          1.013563        2.459982   0.307269  -0.000000
    333          1.041311        2.471519   0.177101  -0.000000
    334          1.073605        2.483675   0.064878  -0.000000
    335          1.124284        2.491603  -0.022082  -0.000000
    336          1.139259        2.501606  -0.031122  -0.000000
    337          1.176440        2.508146  -0.034219  -0.000000
    338          1.212794        2.516514  -0.024780  -0.000000
    339          1.227090        2.523541  -0.020399  -0.000000
    340          1.271178        2.529017  -0.009301  -0.000000
    341          1.301193        2.545932  -0.004741  -0.000000
    342          1.352185        2.557372  -0.001199  -0.000000
    343          1.397929        2.566368  -0.000277  -0.000000
    344          1.448070        2.571388  -0.000044  -0.000000
    345          1.475396        2.577889  -0.000015  -0.000000
    346          1.513414        2.590857  -0.000003  -0.000000
    347          1.572766        2.600581  -0.000000  -0.000000
    348          1.597030        2.614958  -0.000000  -0.000000
    349          1.639440        2.622489  -0.000000  -0.000000
    350          1.647721        2.637439  -0.000000  -0.000000
    351          1.686621        2.646777  -0.000000  -0.000000
    352          1.732732        2.655596  -0.000000  -0.000000
    353          1.776789        2.668283  -0.000000  -0.000000
    354          1.810398        2.672726  -0.000000  -0.000000
    355          1.847394        2.695057  -0.000000  -0.000000
    356          1.896671        2.709860  -0.000000  -0.000000
    357          1.925287        2.736078  -0.000000  -0.000000
    358          1.946800        2.751122  -0.000000  -0.000000
    359          1.960192        2.761408  -0.000000  -0.000000
    360          2.007215        2.775287  -0.000000  -0.000000
    361          2.018045        2.793814  -0.000000  -0.000000
    362          2.070204        2.806383  -0.000000  -0.000000
    363          2.085607        2.824592  -0.000000  -0.000000
    364          2.104255        2.845980  -0.000000  -0.000000
    365          2.159116        2.849868  -0.000000  -0.000000
    366          2.192260        2.866505  -0.000000  -0.000000
    367          2.233717        2.891597  -0.000000  -0.000000
    368          2.277483        2.899044  -0.000000  -0.000000
    369          2.299520        2.924544  -0.000000  -0.000000
    370          2.320276        2.967844  -0.000000  -0.000000
    371          2.360539        2.987898  -0.000000  -0.000000
    372          2.415598        3.010033  -0.000000  -0.000000
 
  0.5000000E+00  0.1276781E-14  0.1276756E-14  0.6250000E-01
      1        -42.850034      -43.350851   1.000000   1.000000
      2        -42.815509      -43.334378   1.000000   1.000000
      3        -42.797101      -43.321462   1.000000   1.000000
      4        -42.780230      -43.305197   1.000000   1.000000
      5        -42.764974      -43.298155   1.000000   1.000000
      6        -42.735074      -43.276818   1.000000   1.000000
      7        -42.205043      -43.272683   1.000000   1.000000
      8        -42.153750      -43.264190   1.000000   1.000000
      9        -42.116998      -43.256904   1.000000   1.000000
     10        -42.077972      -43.240177   1.000000   1.000000
     11        -42.002782      -43.238198   1.000000   1.000000
     12        -41.985751      -43.231796   1.000000   1.000000
     13        -41.955710      -43.230089   1.000000   1.000000
     14        -41.940696      -43.197468   1.000000   1.000000
     15        -41.927992      -43.167847   1.000000   1.000000
     16        -41.854168      -43.161387   1.000000   1.000000
     17        -41.847067      -43.137093   1.000000   1.000000
     18        -41.820126      -43.123834   1.000000   1.000000
     19        -41.798581      -43.113429   1.000000   1.000000
     20        -41.762834      -43.057687   1.000000   1.000000
     21        -41.725784      -43.045692   1.000000   1.000000
     22        -41.719835      -42.920446   1.000000   1.000000
     23        -41.702811      -42.852872   1.000000   1.000000
     24        -41.677879      -42.745966   1.000000   1.000000
     25        -41.507537      -42.740961   1.000000   1.000000
     26        -41.446947      -42.735195   1.000000   1.000000
     27        -41.407090      -42.638598   1.000000   1.000000
     28        -41.083381      -42.590603   1.000000   1.000000
     29        -41.044693      -42.559981   1.000000   1.000000
     30        -41.032352      -42.498977   1.000000   1.000000
     31        -40.200870      -42.446166   1.000000   1.000000
     32        -40.145473      -42.304519   1.000000   1.000000
     33        -40.136186      -42.196915   1.000000   1.000000
     34        -40.126324      -42.145034   1.000000   1.000000
     35        -40.125280      -42.009701   1.000000   1.000000
     36        -40.107798      -41.825883   1.000000   1.000000
     37        -40.066928      -39.938243   1.000000   1.000000
     38        -40.051674      -39.869962   1.000000   1.000000
     39        -40.045558      -39.848784   1.000000   1.000000
     40        -40.042621      -39.765404   1.000000   1.000000
     41        -40.008443      -39.733185   1.000000   1.000000
     42        -39.990745      -39.652152   1.000000   1.000000
     43        -15.539601      -15.543844   1.000000   1.000000
     44        -15.524721      -15.532261   1.000000   1.000000
     45        -15.517142      -15.529757   1.000000   1.000000
     46        -15.512105      -15.526848   1.000000   1.000000
     47        -15.464461      -15.481408   1.000000   1.000000
     48         -7.837212       -7.830097   1.000000   1.000000
     49         -6.671190       -6.557647   1.000000   1.000000
     50         -6.538815       -6.438002   1.000000   1.000000
     51         -5.768238       -5.645594   1.000000   1.000000
     52         -5.515039       -5.403740   1.000000   1.000000
     53         -4.840087       -4.602804   1.000000   1.000000
     54         -4.803033       -4.599200   1.000000   1.000000
     55         -4.767587       -4.565041   1.000000   1.000000
     56         -4.714358       -4.525377   1.000000   1.000000
     57         -4.556280       -4.340855   1.000000   1.000000
     58         -4.314514       -4.089767   1.000000   1.000000
     59         -4.179850       -3.860032   1.000000   1.000000
     60         -4.128958       -3.849981   1.000000   1.000000
     61         -4.048097       -3.814368   1.000000   1.000000
     62         -3.972076       -3.646166   1.000000   1.000000
     63         -3.935122       -3.213920   1.000000   1.000000
     64         -3.918695       -3.174628   1.000000   1.000000
     65         -3.734721       -3.125360   1.000000   1.000000
     66         -3.725328       -3.108183   1.000000   1.000000
     67         -3.695854       -3.067943   1.000000   1.000000
     68         -3.684557       -3.047514   1.000000   1.000000
     69         -3.663434       -3.002656   1.000000   1.000000
     70         -3.654389       -2.983948   1.000000   1.000000
     71         -3.642126       -2.954343   1.000000   1.000000
     72         -3.625116       -2.914083   1.000000   1.000000
     73         -3.611048       -2.837328   1.000000   1.000000
     74         -3.604930       -2.825299   1.000000   1.000000
     75         -3.579914       -2.767450   1.000000   1.000000
     76         -3.560586       -2.717566   1.000000   1.000000
     77         -3.550168       -2.676862   1.000000   1.000000
     78         -3.541924       -2.514567   1.000000   1.000000
     79         -3.504318       -2.453092   1.000000   1.000000
     80         -3.490169       -2.439528   1.000000   1.000000
     81         -3.429996       -2.368938   1.000000   1.000000
     82         -3.345347       -2.361580   1.000000   1.000000
     83         -3.289904       -2.334879   1.000000   1.000000
     84         -3.260563       -2.286707   1.000000   1.000000
     85         -3.234936       -2.236449   1.000000   1.000000
     86         -3.225092       -2.225322   1.000000   1.000000
     87         -3.204155       -2.190899   1.000000   1.000000
     88         -3.189677       -2.165807   1.000000   1.000000
     89         -3.163673       -2.141931   1.000000   1.000000
     90         -3.108487       -2.121041   1.000000   1.000000
     91         -3.098478       -2.072062   1.000000   1.000000
     92         -3.096301       -2.050347   1.000000   1.000000
     93         -3.068263       -2.034488   1.000000   1.000000
     94         -3.037703       -1.998685   1.000000   1.000000
     95         -3.030151       -1.979726   1.000000   1.000000
     96         -3.024561       -1.958989   1.000000   1.000000
     97         -2.995873       -1.916682   1.000000   1.000000
     98         -2.985880       -1.900909   1.000000   1.000000
     99         -2.965535       -1.885110   1.000000   1.000000
    100         -2.946967       -1.875628   1.000000   1.000000
    101         -2.909713       -1.827771   1.000000   1.000000
    102         -2.902332       -1.815801   1.000000   1.000000
    103         -2.882210       -1.809069   1.000000   1.000000
    104         -2.867348       -1.777348   1.000000   1.000000
    105         -2.839208       -1.731868   1.000000   1.000000
    106         -2.826144       -1.716390   1.000000   1.000000
    107         -2.808269       -1.694721   1.000000   1.000000
    108         -2.791464       -1.655486   1.000000   1.000000
    109         -2.782677       -1.648654   1.000000   1.000000
    110         -2.770982       -1.584699   1.000000   1.000000
    111         -2.718978       -1.561586   1.000000   1.000000
    112         -2.712778       -1.535091   1.000000   1.000000
    113         -2.680029       -1.527689   1.000000   1.000000
    114         -2.664976       -1.511171   1.000000   1.000000
    115         -2.647352       -1.497301   1.000000   1.000000
    116         -2.605158       -1.479282   1.000000   1.000000
    117         -2.580546       -1.460861   1.000000   1.000000
    118         -2.578913       -1.434885   1.000000   1.000000
    119         -2.567329       -1.398407   1.000000   1.000000
    120         -2.539861       -1.356643   1.000000   1.000000
    121         -2.537446       -1.328055   1.000000   1.000000
    122         -2.508152       -1.311881   1.000000   1.000000
    123         -2.506613       -1.287569   1.000000   1.000000
    124         -2.497391       -1.244605   1.000000   1.000000
    125         -2.485660       -1.217872   1.000000   1.000000
    126         -2.468785       -1.206471   1.000000   1.000000
    127         -2.455821       -1.191132   1.000000   1.000000
    128         -2.453670       -1.168115   1.000000   1.000000
    129         -2.438167       -1.148760   1.000000   1.000000
    130         -2.405760       -1.129582   1.000000   1.000000
    131         -2.398655       -1.115457   1.000000   1.000000
    132         -2.385390       -1.094758   1.000000   1.000000
    133         -2.378224       -1.078243   1.000000   1.000000
    134         -2.368183       -1.055973   1.000000   1.000000
    135         -2.339489       -1.046109   1.000000   1.000000
    136         -2.315916       -1.025223   1.000000   1.000000
    137         -2.301082       -0.997486   1.000000   1.000000
    138         -2.292527       -0.988414   1.000000   1.000000
    139         -2.282862       -0.971527   1.000000   1.000000
    140         -2.271359       -0.952332   1.000000   1.000000
    141         -2.254323       -0.942581   1.000000   1.000000
    142         -2.246683       -0.919635   1.000000   1.000000
    143         -2.232611       -0.911236   1.000000   1.000000
    144         -2.222346       -0.887727   1.000000   1.000000
    145         -2.205297       -0.875846   1.000000   1.000000
    146         -2.172800       -0.869524   1.000000   1.000000
    147         -2.162652       -0.832550   1.000000   1.000000
    148         -2.146737       -0.816227   1.000000   1.000000
    149         -2.132904       -0.798063   1.000000   1.000000
    150         -2.113974       -0.776550   1.000000   1.000000
    151         -2.100950       -0.754625   1.000000   1.000000
    152         -2.093964       -0.731289   1.000000   1.000000
    153         -2.072312       -0.728512   1.000000   1.000000
    154         -2.064827       -0.725517   1.000000   1.000000
    155         -2.036622       -0.689245   1.000000   1.000000
    156         -2.027252       -0.673609   1.000000   1.000000
    157         -2.015410       -0.657340   1.000000   1.000000
    158         -1.990441       -0.635174   1.000000   1.000000
    159         -1.974573       -0.610201   1.000000   1.000000
    160         -1.965595       -0.596946   1.000000   1.000000
    161         -1.954370       -0.586874   1.000000   1.000000
    162         -1.950347       -0.573679   1.000000   1.000000
    163         -1.939660       -0.541565   1.000000   1.000000
    164         -1.924991       -0.530342   1.000000   1.000000
    165         -1.907182       -0.513595   1.000000   1.000000
    166         -1.898732       -0.504768   1.000000   1.000000
    167         -1.879014       -0.479797   1.000000   1.000000
    168         -1.873799       -0.471317   1.000000   1.000000
    169         -1.871651       -0.463430   1.000000   1.000000
    170         -1.859327       -0.446635   1.000000   1.000000
    171         -1.837113       -0.439152   1.000000   1.000000
    172         -1.798290       -0.429754   1.000000   1.000000
    173         -1.793022       -0.404661   1.000000   1.000000
    174         -1.780753       -0.386214   1.000000   1.000000
    175         -1.770771       -0.373890   1.000000   1.000000
    176         -1.754936       -0.354829   1.000000   1.000000
    177         -1.737558       -0.348574   1.000000   1.000000
    178         -1.727393       -0.335957   1.000000   1.000000
    179         -1.713666       -0.317853   1.000000   1.000000
    180         -1.699954       -0.291018   1.000000   1.000000
    181         -1.680607       -0.278545   1.000000   1.000000
    182         -1.674646       -0.275203   1.000000   1.000000
    183         -1.662810       -0.256548   1.000000   1.000000
    184         -1.649761       -0.252977   1.000000   1.000000
    185         -1.643606       -0.220303   1.000000   1.000000
    186         -1.625713       -0.203367   1.000000   1.000000
    187         -1.618916       -0.170238   1.000000   1.000000
    188         -1.596299       -0.162477   1.000000   1.000000
    189         -1.580853       -0.157234   1.000000   1.000000
    190         -1.555430       -0.122826   1.000000   1.000000
    191         -1.541945       -0.109130   1.000000   1.000000
    192         -1.535922       -0.106760   1.000000   1.000000
    193         -1.520776       -0.088085   1.000000   1.000000
    194         -1.496957       -0.060857   1.000000   1.000000
    195         -1.483033       -0.058712   1.000000   1.000000
    196         -1.469020       -0.049078   1.000000   1.000000
    197         -1.453475       -0.002494   1.000000   1.000000
    198         -1.433057        0.007800   1.000000   1.000000
    199         -1.427597        0.011481   1.000000   1.000000
    200         -1.399764        0.036271   1.000000   1.000000
    201         -1.382513        0.082453   1.000000   1.000000
    202         -1.380912        0.095874   1.000000   1.000000
    203         -1.353383        0.110112   1.000000   1.000000
    204         -1.319442        0.126494   1.000000   1.000000
    205         -1.311650        0.141802   1.000000   1.000000
    206         -1.306973        0.175442   1.000000   1.000000
    207         -1.295793        0.193055   1.000000   1.000000
    208         -1.264173        0.206454   1.000000   1.000000
    209         -1.254192        0.218626   1.000000   1.000000
    210         -1.245902        0.241188   1.000000   1.000000
    211         -1.225639        0.271169   1.000000   1.000000
    212         -1.208770        0.279521   1.000000   1.000000
    213         -1.192629        0.291826   1.000000   1.000000
    214         -1.175414        0.343425   1.000000   1.000000
    215         -1.147755        0.384449   1.000000   1.000000
    216         -1.119596        0.420572   1.000000   1.000001
    217         -1.104395        0.433206   1.000000   1.000002
    218         -1.075790        0.474053   1.000000   1.000011
    219         -1.050651        0.489522   1.000000   1.000020
    220         -1.012332        0.519442   1.000000   1.000067
    221         -1.002615        0.548839   1.000000   1.000196
    222         -0.966453        0.568985   1.000000   1.000392
    223         -0.943406        0.596381   1.000000   1.000939
    224         -0.930284        0.612993   1.000000   1.001536
    225         -0.905234        0.638741   1.000000   1.003111
    226         -0.879439        0.665097   1.000000   1.005947
    227         -0.860485        0.706340   1.000000   1.013922
    228         -0.858779        0.727586   1.000000   1.019794
    229         -0.829895        0.764924   1.000000   1.030908
    230         -0.792340        0.799620   1.000000   1.035280
    231         -0.786671        0.811859   1.000000   1.033096
    232         -0.756795        0.829783   1.000000   1.024106
    233         -0.744317        0.867511   1.000000   0.972728
    234         -0.727429        0.890728   1.000000   0.912768
    235         -0.712189        0.955327   1.000000   0.628198
    236         -0.704208        0.959974   1.000000   0.602804
    237         -0.671173        1.007495   1.000000   0.338954
    238         -0.657509        1.053598   1.000000   0.128988
    239         -0.626476        1.082536   1.000000   0.042030
    240         -0.623212        1.116015   1.000000  -0.014356
    241         -0.615332        1.172417   1.000000  -0.034790
    242         -0.599603        1.177157   1.000000  -0.034102
    243         -0.593117        1.194269   1.000000  -0.030244
    244         -0.568906        1.218318   1.000000  -0.023075
    245         -0.551330        1.239239   1.000000  -0.016870
    246         -0.546120        1.255909   1.000000  -0.012570
    247         -0.543748        1.296316   1.000000  -0.005327
    248         -0.533642        1.317248   1.000000  -0.003169
    249         -0.524166        1.344199   1.000000  -0.001514
    250         -0.512563        1.355774   1.000000  -0.001077
    251         -0.501699        1.375645   1.000000  -0.000581
    252         -0.490779        1.406576   1.000000  -0.000205
    253         -0.480742        1.419604   1.000000  -0.000129
    254         -0.469823        1.436717   1.000000  -0.000068
    255         -0.460150        1.448646   1.000000  -0.000043
    256         -0.447405        1.482764   1.000000  -0.000011
    257         -0.439192        1.508829   1.000000  -0.000003
    258         -0.419405        1.524625   1.000000  -0.000002
    259         -0.416127        1.534001   1.000000  -0.000001
    260         -0.391293        1.554336   1.000000  -0.000000
    261         -0.388911        1.572039   1.000000  -0.000000
    262         -0.373208        1.582983   1.000000  -0.000000
    263         -0.358165        1.600947   1.000000  -0.000000
    264         -0.352176        1.631589   1.000000  -0.000000
    265         -0.344715        1.634421   1.000000  -0.000000
    266         -0.338330        1.659754   1.000000  -0.000000
    267         -0.327888        1.674911   1.000000  -0.000000
    268         -0.323093        1.686344   1.000000  -0.000000
    269         -0.295109        1.702941   1.000000  -0.000000
    270         -0.285483        1.714621   1.000000  -0.000000
    271         -0.274682        1.747992   1.000000  -0.000000
    272         -0.268803        1.755644   1.000000  -0.000000
    273         -0.261312        1.763097   1.000000  -0.000000
    274         -0.243354        1.789172   1.000000  -0.000000
    275         -0.223031        1.794953   1.000000  -0.000000
    276         -0.209770        1.796658   1.000000  -0.000000
    277         -0.203277        1.816680   1.000000  -0.000000
    278         -0.192734        1.827997   1.000000  -0.000000
    279         -0.184135        1.842414   1.000000  -0.000000
    280         -0.175378        1.862302   1.000000  -0.000000
    281         -0.168934        1.888620   1.000000  -0.000000
    282         -0.146748        1.902307   1.000000  -0.000000
    283         -0.140376        1.912356   1.000000  -0.000000
    284         -0.135794        1.923353   1.000000  -0.000000
    285         -0.108056        1.938854   1.000000  -0.000000
    286         -0.103767        1.947751   1.000000  -0.000000
    287         -0.095549        1.962195   1.000000  -0.000000
    288         -0.081400        1.977288   1.000000  -0.000000
    289         -0.056182        1.988296   1.000000  -0.000000
    290         -0.051338        1.993779   1.000000  -0.000000
    291         -0.010200        2.003717   1.000000  -0.000000
    292         -0.005209        2.012517   1.000000  -0.000000
    293          0.010463        2.021710   1.000000  -0.000000
    294          0.041965        2.029985   1.000000  -0.000000
    295          0.045260        2.040800   1.000000  -0.000000
    296          0.047841        2.045297   1.000000  -0.000000
    297          0.080185        2.052098   1.000000  -0.000000
    298          0.085684        2.061743   1.000000  -0.000000
    299          0.101872        2.081969   1.000000  -0.000000
    300          0.125713        2.091282   1.000000  -0.000000
    301          0.180269        2.105196   1.000000  -0.000000
    302          0.188674        2.115181   1.000000  -0.000000
    303          0.201358        2.118211   1.000000  -0.000000
    304          0.233758        2.121942   1.000000  -0.000000
    305          0.258049        2.143465   1.000000  -0.000000
    306          0.288137        2.144574   1.000000  -0.000000
    307          0.311818        2.154076   1.000000  -0.000000
    308          0.324267        2.166528   1.000000  -0.000000
    309          0.347608        2.195864   1.000000  -0.000000
    310          0.368749        2.202358   1.000000  -0.000000
    311          0.389130        2.205423   1.000000  -0.000000
    312          0.425220        2.217717   1.000001  -0.000000
    313          0.431758        2.233670   1.000002  -0.000000
    314          0.445214        2.257208   1.000003  -0.000000
    315          0.469789        2.265855   1.000009  -0.000000
    316          0.494357        2.274516   1.000025  -0.000000
    317          0.548970        2.281200   1.000197  -0.000000
    318          0.572420        2.289406   1.000439  -0.000000
    319          0.617465        2.301072   1.001745  -0.000000
    320          0.619052        2.316813   1.001825  -0.000000
    321          0.659335        2.324354   1.005196  -0.000000
    322          0.681850        2.337693   1.008615  -0.000000
    323          0.716321        2.347259   1.016555  -0.000000
    324          0.745701        2.359653   1.025333  -0.000000
    325          0.777225        2.392872   1.033694  -0.000000
    326          0.831043        2.405950   1.023161  -0.000000
    327          0.872140        2.418245   0.962653  -0.000000
    328          0.893964        2.425687   0.902506  -0.000000
    329          0.942724        2.434181   0.694837  -0.000000
    330          1.000132        2.444077   0.378528  -0.000000
    331          1.016684        2.450148   0.291351  -0.000000
    332          1.037816        2.469311   0.191940  -0.000000
    333          1.073342        2.483215   0.065606  -0.000000
    334          1.102484        2.494729   0.003231  -0.000000
    335          1.144851        2.502584  -0.033099  -0.000000
    336          1.161211        2.510743  -0.035453  -0.000000
    337          1.190209        2.513896  -0.031310  -0.000000
    338          1.222348        2.535474  -0.021837  -0.000000
    339          1.254152        2.545677  -0.012989  -0.000000
    340          1.276984        2.563785  -0.008232  -0.000000
    341          1.306298        2.569272  -0.004184  -0.000000
    342          1.353587        2.573461  -0.001150  -0.000000
    343          1.382627        2.582080  -0.000463  -0.000000
    344          1.427724        2.592915  -0.000096  -0.000000
    345          1.488587        2.601748  -0.000008  -0.000000
    346          1.493866        2.610227  -0.000007  -0.000000
    347          1.530857        2.611762  -0.000001  -0.000000
    348          1.575736        2.634254  -0.000000  -0.000000
    349          1.605787        2.636417  -0.000000  -0.000000
    350          1.630942        2.645775  -0.000000  -0.000000
    351          1.668103        2.649190  -0.000000  -0.000000
    352          1.694211        2.659989  -0.000000  -0.000000
    353          1.726214        2.675935  -0.000000  -0.000000
    354          1.777470        2.683635  -0.000000  -0.000000
    355          1.820393        2.699789  -0.000000  -0.000000
    356          1.860625        2.717061  -0.000000  -0.000000
    357          1.883528        2.728307  -0.000000  -0.000000
    358          1.931996        2.737089  -0.000000  -0.000000
    359          1.941354        2.760369  -0.000000  -0.000000
    360          1.978872        2.777285  -0.000000  -0.000000
    361          2.013540        2.791593  -0.000000  -0.000000
    362          2.065698        2.803814  -0.000000  -0.000000
    363          2.099633        2.838933  -0.000000  -0.000000
    364          2.106819        2.860420  -0.000000  -0.000000
    365          2.136765        2.868188  -0.000000  -0.000000
    366          2.189360        2.883670  -0.000000  -0.000000
    367          2.198131        2.910406  -0.000000  -0.000000
    368          2.234611        2.950120  -0.000000  -0.000000
    369          2.238851        2.976320  -0.000000  -0.000000
    370          2.294229        3.000877  -0.000000  -0.000000
    371          2.317509        3.004855  -0.000000  -0.000000
    372          2.386694        3.020966  -0.000000  -0.000000
 
  0.1276756E-14  0.2500000E+00  0.1276756E-14  0.1250000E+00
      1        -42.850037      -43.350858   1.000000   1.000000
      2        -42.815501      -43.334386   1.000000   1.000000
      3        -42.797111      -43.321399   1.000000   1.000000
      4        -42.780242      -43.305201   1.000000   1.000000
      5        -42.764987      -43.298162   1.000000   1.000000
      6        -42.735061      -43.276842   1.000000   1.000000
      7        -42.205009      -43.272684   1.000000   1.000000
      8        -42.153777      -43.264203   1.000000   1.000000
      9        -42.117016      -43.256904   1.000000   1.000000
     10        -42.077949      -43.240208   1.000000   1.000000
     11        -42.002846      -43.238186   1.000000   1.000000
     12        -41.985696      -43.231812   1.000000   1.000000
     13        -41.955757      -43.230085   1.000000   1.000000
     14        -41.940718      -43.197474   1.000000   1.000000
     15        -41.927929      -43.167838   1.000000   1.000000
     16        -41.854173      -43.161394   1.000000   1.000000
     17        -41.847073      -43.137116   1.000000   1.000000
     18        -41.820111      -43.123838   1.000000   1.000000
     19        -41.798642      -43.113445   1.000000   1.000000
     20        -41.762851      -43.057686   1.000000   1.000000
     21        -41.725792      -43.045697   1.000000   1.000000
     22        -41.719828      -42.920445   1.000000   1.000000
     23        -41.702797      -42.852885   1.000000   1.000000
     24        -41.677865      -42.745976   1.000000   1.000000
     25        -41.507539      -42.740946   1.000000   1.000000
     26        -41.446947      -42.735183   1.000000   1.000000
     27        -41.407097      -42.638593   1.000000   1.000000
     28        -41.083380      -42.590596   1.000000   1.000000
     29        -41.044694      -42.559985   1.000000   1.000000
     30        -41.032363      -42.498977   1.000000   1.000000
     31        -40.200786      -42.446160   1.000000   1.000000
     32        -40.145498      -42.304538   1.000000   1.000000
     33        -40.136194      -42.196916   1.000000   1.000000
     34        -40.126363      -42.145040   1.000000   1.000000
     35        -40.125277      -42.009707   1.000000   1.000000
     36        -40.107821      -41.825893   1.000000   1.000000
     37        -40.066938      -39.938229   1.000000   1.000000
     38        -40.051687      -39.869981   1.000000   1.000000
     39        -40.045563      -39.848795   1.000000   1.000000
     40        -40.042612      -39.765396   1.000000   1.000000
     41        -40.008452      -39.733194   1.000000   1.000000
     42        -39.990753      -39.652159   1.000000   1.000000
     43        -15.539667      -15.543829   1.000000   1.000000
     44        -15.524702      -15.532315   1.000000   1.000000
     45        -15.517149      -15.529761   1.000000   1.000000
     46        -15.512095      -15.526840   1.000000   1.000000
     47        -15.464459      -15.481407   1.000000   1.000000
     48         -7.863532       -7.851032   1.000000   1.000000
     49         -6.986193       -6.887918   1.000000   1.000000
     50         -6.032048       -5.929163   1.000000   1.000000
     51         -5.929657       -5.804331   1.000000   1.000000
     52         -5.145208       -4.984343   1.000000   1.000000
     53         -5.092506       -4.902031   1.000000   1.000000
     54         -5.035093       -4.872899   1.000000   1.000000
     55         -4.685202       -4.508515   1.000000   1.000000
     56         -4.466171       -4.179657   1.000000   1.000000
     57         -4.408397       -4.148708   1.000000   1.000000
     58         -4.398598       -4.093909   1.000000   1.000000
     59         -4.362344       -4.055211   1.000000   1.000000
     60         -4.302692       -4.040792   1.000000   1.000000
     61         -4.140582       -3.798156   1.000000   1.000000
     62         -4.075818       -3.570899   1.000000   1.000000
     63         -3.966729       -3.394057   1.000000   1.000000
     64         -3.911644       -3.337766   1.000000   1.000000
     65         -3.867993       -3.289865   1.000000   1.000000
     66         -3.826516       -3.258493   1.000000   1.000000
     67         -3.787592       -3.182342   1.000000   1.000000
     68         -3.756973       -3.163610   1.000000   1.000000
     69         -3.739983       -3.103685   1.000000   1.000000
     70         -3.696333       -3.016465   1.000000   1.000000
     71         -3.652786       -2.845152   1.000000   1.000000
     72         -3.621974       -2.793776   1.000000   1.000000
     73         -3.579994       -2.685291   1.000000   1.000000
     74         -3.537013       -2.640481   1.000000   1.000000
     75         -3.497150       -2.593220   1.000000   1.000000
     76         -3.490400       -2.571319   1.000000   1.000000
     77         -3.472797       -2.547607   1.000000   1.000000
     78         -3.437069       -2.492889   1.000000   1.000000
     79         -3.424745       -2.471409   1.000000   1.000000
     80         -3.380669       -2.449442   1.000000   1.000000
     81         -3.326486       -2.440567   1.000000   1.000000
     82         -3.311905       -2.391666   1.000000   1.000000
     83         -3.279779       -2.322412   1.000000   1.000000
     84         -3.242858       -2.317816   1.000000   1.000000
     85         -3.222539       -2.285816   1.000000   1.000000
     86         -3.211252       -2.212257   1.000000   1.000000
     87         -3.186782       -2.199413   1.000000   1.000000
     88         -3.174498       -2.166602   1.000000   1.000000
     89         -3.143173       -2.134570   1.000000   1.000000
     90         -3.120141       -2.100600   1.000000   1.000000
     91         -3.109760       -2.068003   1.000000   1.000000
     92         -3.099331       -2.044378   1.000000   1.000000
     93         -3.086751       -2.020521   1.000000   1.000000
     94         -3.078205       -1.989243   1.000000   1.000000
     95         -3.045777       -1.978416   1.000000   1.000000
     96         -3.007269       -1.955812   1.000000   1.000000
     97         -2.983267       -1.914373   1.000000   1.000000
     98         -2.966764       -1.898558   1.000000   1.000000
     99         -2.950584       -1.877475   1.000000   1.000000
    100         -2.942664       -1.860461   1.000000   1.000000
    101         -2.927559       -1.838228   1.000000   1.000000
    102         -2.901759       -1.819369   1.000000   1.000000
    103         -2.877075       -1.787506   1.000000   1.000000
    104         -2.834074       -1.764670   1.000000   1.000000
    105         -2.809991       -1.726358   1.000000   1.000000
    106         -2.804533       -1.677533   1.000000   1.000000
    107         -2.777161       -1.624243   1.000000   1.000000
    108         -2.750428       -1.599808   1.000000   1.000000
    109         -2.711903       -1.577371   1.000000   1.000000
    110         -2.685728       -1.554107   1.000000   1.000000
    111         -2.665390       -1.531195   1.000000   1.000000
    112         -2.654862       -1.517700   1.000000   1.000000
    113         -2.633922       -1.496339   1.000000   1.000000
    114         -2.611793       -1.476422   1.000000   1.000000
    115         -2.597691       -1.437925   1.000000   1.000000
    116         -2.579165       -1.418042   1.000000   1.000000
    117         -2.562752       -1.394400   1.000000   1.000000
    118         -2.543088       -1.380358   1.000000   1.000000
    119         -2.527437       -1.347347   1.000000   1.000000
    120         -2.520799       -1.326180   1.000000   1.000000
    121         -2.502696       -1.296983   1.000000   1.000000
    122         -2.495938       -1.284366   1.000000   1.000000
    123         -2.486706       -1.267862   1.000000   1.000000
    124         -2.476985       -1.244894   1.000000   1.000000
    125         -2.459796       -1.224133   1.000000   1.000000
    126         -2.454107       -1.212528   1.000000   1.000000
    127         -2.430276       -1.176163   1.000000   1.000000
    128         -2.417872       -1.165679   1.000000   1.000000
    129         -2.410957       -1.148633   1.000000   1.000000
    130         -2.406405       -1.139243   1.000000   1.000000
    131         -2.385538       -1.113721   1.000000   1.000000
    132         -2.376852       -1.094680   1.000000   1.000000
    133         -2.359575       -1.090056   1.000000   1.000000
    134         -2.353624       -1.060812   1.000000   1.000000
    135         -2.338910       -1.047316   1.000000   1.000000
    136         -2.324643       -1.032992   1.000000   1.000000
    137         -2.317450       -1.025258   1.000000   1.000000
    138         -2.301231       -1.005529   1.000000   1.000000
    139         -2.286646       -0.983612   1.000000   1.000000
    140         -2.272207       -0.964702   1.000000   1.000000
    141         -2.263556       -0.951704   1.000000   1.000000
    142         -2.244027       -0.939606   1.000000   1.000000
    143         -2.228833       -0.929969   1.000000   1.000000
    144         -2.219547       -0.911954   1.000000   1.000000
    145         -2.199392       -0.884039   1.000000   1.000000
    146         -2.185855       -0.873270   1.000000   1.000000
    147         -2.180491       -0.846720   1.000000   1.000000
    148         -2.166847       -0.835085   1.000000   1.000000
    149         -2.156160       -0.804268   1.000000   1.000000
    150         -2.140244       -0.796216   1.000000   1.000000
    151         -2.117527       -0.780730   1.000000   1.000000
    152         -2.106015       -0.762348   1.000000   1.000000
    153         -2.100512       -0.756200   1.000000   1.000000
    154         -2.082883       -0.743531   1.000000   1.000000
    155         -2.073282       -0.734235   1.000000   1.000000
    156         -2.061725       -0.718380   1.000000   1.000000
    157         -2.047999       -0.686673   1.000000   1.000000
    158         -2.034385       -0.681275   1.000000   1.000000
    159         -2.017017       -0.662351   1.000000   1.000000
    160         -2.007960       -0.656891   1.000000   1.000000
    161         -1.995920       -0.630643   1.000000   1.000000
    162         -1.973490       -0.611240   1.000000   1.000000
    163         -1.959675       -0.601613   1.000000   1.000000
    164         -1.940043       -0.592926   1.000000   1.000000
    165         -1.930394       -0.573403   1.000000   1.000000
    166         -1.924265       -0.569010   1.000000   1.000000
    167         -1.899563       -0.537939   1.000000   1.000000
    168         -1.882038       -0.505158   1.000000   1.000000
    169         -1.865695       -0.499011   1.000000   1.000000
    170         -1.856701       -0.480258   1.000000   1.000000
    171         -1.845504       -0.456023   1.000000   1.000000
    172         -1.823370       -0.427496   1.000000   1.000000
    173         -1.816135       -0.413243   1.000000   1.000000
    174         -1.799974       -0.394145   1.000000   1.000000
    175         -1.790037       -0.379098   1.000000   1.000000
    176         -1.766590       -0.367079   1.000000   1.000000
    177         -1.762139       -0.354797   1.000000   1.000000
    178         -1.742433       -0.338244   1.000000   1.000000
    179         -1.719451       -0.318107   1.000000   1.000000
    180         -1.705653       -0.291031   1.000000   1.000000
    181         -1.702726       -0.271655   1.000000   1.000000
    182         -1.671458       -0.255844   1.000000   1.000000
    183         -1.650932       -0.239611   1.000000   1.000000
    184         -1.630607       -0.218119   1.000000   1.000000
    185         -1.619949       -0.208055   1.000000   1.000000
    186         -1.598020       -0.184069   1.000000   1.000000
    187         -1.584839       -0.169211   1.000000   1.000000
    188         -1.576734       -0.137015   1.000000   1.000000
    189         -1.561110       -0.130400   1.000000   1.000000
    190         -1.548872       -0.114798   1.000000   1.000000
    191         -1.527522       -0.105227   1.000000   1.000000
    192         -1.519268       -0.094514   1.000000   1.000000
    193         -1.510825       -0.075455   1.000000   1.000000
    194         -1.493942       -0.059542   1.000000   1.000000
    195         -1.472901       -0.048393   1.000000   1.000000
    196         -1.467046       -0.004358   1.000000   1.000000
    197         -1.438607        0.006393   1.000000   1.000000
    198         -1.425394        0.035898   1.000000   1.000000
    199         -1.412208        0.047331   1.000000   1.000000
    200         -1.387367        0.075359   1.000000   1.000000
    201         -1.377971        0.090744   1.000000   1.000000
    202         -1.362563        0.104764   1.000000   1.000000
    203         -1.355494        0.119242   1.000000   1.000000
    204         -1.330960        0.157564   1.000000   1.000000
    205         -1.311996        0.174651   1.000000   1.000000
    206         -1.274324        0.204086   1.000000   1.000000
    207         -1.269315        0.224318   1.000000   1.000000
    208         -1.239366        0.243838   1.000000   1.000000
    209         -1.232237        0.249301   1.000000   1.000000
    210         -1.215214        0.277838   1.000000   1.000000
    211         -1.205719        0.293589   1.000000   1.000000
    212         -1.183249        0.329996   1.000000   1.000000
    213         -1.167400        0.340167   1.000000   1.000000
    214         -1.136148        0.350633   1.000000   1.000000
    215         -1.114088        0.384231   1.000000   1.000000
    216         -1.087271        0.400067   1.000000   1.000000
    217         -1.061940        0.431656   1.000000   1.000002
    218         -1.049530        0.468885   1.000000   1.000009
    219         -1.032572        0.484111   1.000000   1.000016
    220         -0.996769        0.518035   1.000000   1.000063
    221         -0.982708        0.564421   1.000000   1.000336
    222         -0.968365        0.575382   1.000000   1.000484
    223         -0.956444        0.586195   1.000000   1.000684
    224         -0.917303        0.614039   1.000000   1.001583
    225         -0.898398        0.633087   1.000000   1.002681
    226         -0.884726        0.661217   1.000000   1.005433
    227         -0.871561        0.716187   1.000000   1.016518
    228         -0.863723        0.762252   1.000000   1.030197
    229         -0.813902        0.783020   1.000000   1.034628
    230         -0.803769        0.792522   1.000000   1.035428
    231         -0.789043        0.855892   1.000000   0.994118
    232         -0.774332        0.868131   1.000000   0.971432
    233         -0.763402        0.909740   1.000000   0.845803
    234         -0.753826        0.934772   1.000000   0.734722
    235         -0.734029        0.950047   1.000000   0.656564
    236         -0.716447        0.980752   1.000000   0.486440
    237         -0.702213        0.998740   1.000000   0.386125
    238         -0.689586        1.026913   1.000000   0.241277
    239         -0.679694        1.045649   1.000000   0.159379
    240         -0.653979        1.078737   1.000000   0.051320
    241         -0.641958        1.114035   1.000000  -0.012182
    242         -0.628059        1.152302   1.000000  -0.034746
    243         -0.610587        1.182350   1.000000  -0.033128
    244         -0.599256        1.188654   1.000000  -0.031697
    245         -0.587358        1.235968   1.000000  -0.017793
    246         -0.565360        1.241923   1.000000  -0.016131
    247         -0.554552        1.271253   1.000000  -0.009287
    248         -0.543381        1.283415   1.000000  -0.007157
    249         -0.525100        1.295135   1.000000  -0.005477
    250         -0.511560        1.316954   1.000000  -0.003193
    251         -0.501395        1.327648   1.000000  -0.002405
    252         -0.488785        1.347771   1.000000  -0.001365
    253         -0.473915        1.367389   1.000000  -0.000755
    254         -0.458912        1.387855   1.000000  -0.000390
    255         -0.452684        1.409113   1.000000  -0.000188
    256         -0.435845        1.421977   1.000000  -0.000118
    257         -0.427388        1.458751   1.000000  -0.000029
    258         -0.414043        1.469986   1.000000  -0.000018
    259         -0.412217        1.490223   1.000000  -0.000008
    260         -0.391645        1.495401   1.000000  -0.000006
    261         -0.380624        1.519656   1.000000  -0.000002
    262         -0.377718        1.530602   1.000000  -0.000001
    263         -0.366375        1.550553   1.000000  -0.000000
    264         -0.360885        1.581372   1.000000  -0.000000
    265         -0.353604        1.589697   1.000000  -0.000000
    266         -0.334378        1.611697   1.000000  -0.000000
    267         -0.323362        1.624307   1.000000  -0.000000
    268         -0.321668        1.637919   1.000000  -0.000000
    269         -0.305467        1.653200   1.000000  -0.000000
    270         -0.294783        1.675987   1.000000  -0.000000
    271         -0.282291        1.691833   1.000000  -0.000000
    272         -0.274140        1.716066   1.000000  -0.000000
    273         -0.259703        1.732925   1.000000  -0.000000
    274         -0.249825        1.739210   1.000000  -0.000000
    275         -0.235703        1.758641   1.000000  -0.000000
    276         -0.228244        1.774952   1.000000  -0.000000
    277         -0.221135        1.784564   1.000000  -0.000000
    278         -0.203655        1.798401   1.000000  -0.000000
    279         -0.192142        1.816889   1.000000  -0.000000
    280         -0.184799        1.824393   1.000000  -0.000000
    281         -0.175995        1.843390   1.000000  -0.000000
    282         -0.157193        1.850827   1.000000  -0.000000
    283         -0.153497        1.873546   1.000000  -0.000000
    284         -0.140742        1.884009   1.000000  -0.000000
    285         -0.129224        1.896485   1.000000  -0.000000
    286         -0.117317        1.912270   1.000000  -0.000000
    287         -0.097149        1.925178   1.000000  -0.000000
    288         -0.083337        1.937802   1.000000  -0.000000
    289         -0.072624        1.949428   1.000000  -0.000000
    290         -0.054428        1.964374   1.000000  -0.000000
    291         -0.044247        1.967500   1.000000  -0.000000
    292         -0.028944        1.991904   1.000000  -0.000000
    293         -0.019489        2.010565   1.000000  -0.000000
    294         -0.003661        2.021338   1.000000  -0.000000
    295          0.006984        2.027381   1.000000  -0.000000
    296          0.008409        2.038534   1.000000  -0.000000
    297          0.032979        2.061804   1.000000  -0.000000
    298          0.052012        2.077654   1.000000  -0.000000
    299          0.073014        2.086316   1.000000  -0.000000
    300          0.085056        2.092574   1.000000  -0.000000
    301          0.107379        2.112358   1.000000  -0.000000
    302          0.128268        2.118770   1.000000  -0.000000
    303          0.147512        2.127682   1.000000  -0.000000
    304          0.165572        2.143095   1.000000  -0.000000
    305          0.192935        2.147939   1.000000  -0.000000
    306          0.230976        2.170753   1.000000  -0.000000
    307          0.247955        2.182077   1.000000  -0.000000
    308          0.270330        2.192695   1.000000  -0.000000
    309          0.294312        2.204305   1.000000  -0.000000
    310          0.324900        2.212618   1.000000  -0.000000
    311          0.346171        2.225581   1.000000  -0.000000
    312          0.374185        2.237600   1.000000  -0.000000
    313          0.385476        2.247511   1.000000  -0.000000
    314          0.414193        2.258412   1.000001  -0.000000
    315          0.464693        2.278325   1.000007  -0.000000
    316          0.468573        2.280371   1.000008  -0.000000
    317          0.507973        2.302062   1.000043  -0.000000
    318          0.533532        2.312862   1.000113  -0.000000
    319          0.576022        2.328219   1.000494  -0.000000
    320          0.612581        2.332771   1.001518  -0.000000
    321          0.643306        2.345609   1.003500  -0.000000
    322          0.660383        2.360224   1.005327  -0.000000
    323          0.685914        2.373045   1.009377  -0.000000
    324          0.705374        2.375955   1.013681  -0.000000
    325          0.730561        2.388854   1.020686  -0.000000
    326          0.769589        2.400067   1.032070  -0.000000
    327          0.801778        2.406476   1.035085  -0.000000
    328          0.845328        2.416518   1.009045  -0.000000
    329          0.866640        2.428034   0.974524  -0.000000
    330          0.906432        2.436230   0.858597  -0.000000
    331          0.937780        2.451891   0.719860  -0.000000
    332          0.994501        2.458428   0.409454  -0.000000
    333          1.014420        2.474081   0.302871  -0.000000
    334          1.066077        2.480050   0.086896  -0.000000
    335          1.107248        2.493195  -0.003708  -0.000000
    336          1.143024        2.506308  -0.032528  -0.000000
    337          1.147113        2.516741  -0.033712  -0.000000
    338          1.220732        2.519845  -0.022332  -0.000000
    339          1.246504        2.526742  -0.014909  -0.000000
    340          1.293698        2.537746  -0.005665  -0.000000
    341          1.316861        2.547706  -0.003201  -0.000000
    342          1.352892        2.559446  -0.001174  -0.000000
    343          1.417978        2.568341  -0.000137  -0.000000
    344          1.451163        2.582141  -0.000039  -0.000000
    345          1.463088        2.592917  -0.000024  -0.000000
    346          1.507088        2.604636  -0.000004  -0.000000
    347          1.542031        2.606311  -0.000001  -0.000000
    348          1.601071        2.614466  -0.000000  -0.000000
    349          1.661648        2.629310  -0.000000  -0.000000
    350          1.669825        2.633126  -0.000000  -0.000000
    351          1.700663        2.641653  -0.000000  -0.000000
    352          1.738325        2.653688  -0.000000  -0.000000
    353          1.757459        2.657560  -0.000000  -0.000000
    354          1.822202        2.675406  -0.000000  -0.000000
    355          1.856574        2.685129  -0.000000  -0.000000
    356          1.886115        2.693001  -0.000000  -0.000000
    357          1.924778        2.717604  -0.000000  -0.000000
    358          1.939191        2.739977  -0.000000  -0.000000
    359          1.971103        2.754991  -0.000000  -0.000000
    360          1.989069        2.778704  -0.000000  -0.000000
    361          2.030209        2.794059  -0.000000  -0.000000
    362          2.051304        2.802881  -0.000000  -0.000000
    363          2.099057        2.820229  -0.000000  -0.000000
    364          2.127965        2.843197  -0.000000  -0.000000
    365          2.181989        2.853071  -0.000000  -0.000000
    366          2.197715        2.872892  -0.000000  -0.000000
    367          2.243476        2.898024  -0.000000  -0.000000
    368          2.255264        2.912581  -0.000000  -0.000000
    369          2.284801        2.940985  -0.000000  -0.000000
    370          2.310919        2.967265  -0.000000  -0.000000
    371          2.343294        2.978914  -0.000000  -0.000000
    372          2.392666        3.007992  -0.000000  -0.000000
 
  0.2500000E+00  0.2500000E+00  0.1276756E-14  0.1250000E+00
      1        -42.850035      -43.350861   1.000000   1.000000
      2        -42.815501      -43.334388   1.000000   1.000000
      3        -42.797108      -43.321398   1.000000   1.000000
      4        -42.780232      -43.305205   1.000000   1.000000
      5        -42.764979      -43.298165   1.000000   1.000000
      6        -42.735059      -43.276824   1.000000   1.000000
      7        -42.205008      -43.272677   1.000000   1.000000
      8        -42.153773      -43.264191   1.000000   1.000000
      9        -42.117016      -43.256896   1.000000   1.000000
     10        -42.077945      -43.240206   1.000000   1.000000
     11        -42.002833      -43.238182   1.000000   1.000000
     12        -41.985702      -43.231801   1.000000   1.000000
     13        -41.955748      -43.230080   1.000000   1.000000
     14        -41.940717      -43.197463   1.000000   1.000000
     15        -41.927931      -43.167832   1.000000   1.000000
     16        -41.854172      -43.161396   1.000000   1.000000
     17        -41.847064      -43.137107   1.000000   1.000000
     18        -41.820109      -43.123828   1.000000   1.000000
     19        -41.798618      -43.113438   1.000000   1.000000
     20        -41.762839      -43.057685   1.000000   1.000000
     21        -41.725796      -43.045696   1.000000   1.000000
     22        -41.719836      -42.920446   1.000000   1.000000
     23        -41.702783      -42.852878   1.000000   1.000000
     24        -41.677861      -42.745977   1.000000   1.000000
     25        -41.507531      -42.740944   1.000000   1.000000
     26        -41.446938      -42.735180   1.000000   1.000000
     27        -41.407100      -42.638597   1.000000   1.000000
     28        -41.083374      -42.590591   1.000000   1.000000
     29        -41.044688      -42.559975   1.000000   1.000000
     30        -41.032360      -42.498979   1.000000   1.000000
     31        -40.200783      -42.446160   1.000000   1.000000
     32        -40.145483      -42.304522   1.000000   1.000000
     33        -40.136183      -42.196910   1.000000   1.000000
     34        -40.126351      -42.145034   1.000000   1.000000
     35        -40.125272      -42.009707   1.000000   1.000000
     36        -40.107816      -41.825881   1.000000   1.000000
     37        -40.066941      -39.938226   1.000000   1.000000
     38        -40.051677      -39.869967   1.000000   1.000000
     39        -40.045567      -39.848783   1.000000   1.000000
     40        -40.042608      -39.765390   1.000000   1.000000
     41        -40.008454      -39.733196   1.000000   1.000000
     42        -39.990756      -39.652162   1.000000   1.000000
     43        -15.539604      -15.543842   1.000000   1.000000
     44        -15.524716      -15.532264   1.000000   1.000000
     45        -15.517140      -15.529755   1.000000   1.000000
     46        -15.512107      -15.526848   1.000000   1.000000
     47        -15.464461      -15.481408   1.000000   1.000000
     48         -7.842354       -7.834232   1.000000   1.000000
     49         -6.860916       -6.758571   1.000000   1.000000
     50         -5.921658       -5.818816   1.000000   1.000000
     51         -5.887877       -5.742557   1.000000   1.000000
     52         -5.767204       -5.655089   1.000000   1.000000
     53         -5.054487       -4.890373   1.000000   1.000000
     54         -5.000288       -4.839510   1.000000   1.000000
     55         -4.951380       -4.767433   1.000000   1.000000
     56         -4.567612       -4.377630   1.000000   1.000000
     57         -4.288985       -3.990151   1.000000   1.000000
     58         -4.252159       -3.969844   1.000000   1.000000
     59         -4.166943       -3.937105   1.000000   1.000000
     60         -4.097633       -3.742323   1.000000   1.000000
     61         -4.009757       -3.607325   1.000000   1.000000
     62         -3.972331       -3.468545   1.000000   1.000000
     63         -3.936101       -3.442715   1.000000   1.000000
     64         -3.897455       -3.398105   1.000000   1.000000
     65         -3.871183       -3.374211   1.000000   1.000000
     66         -3.861303       -3.105082   1.000000   1.000000
     67         -3.803965       -3.092503   1.000000   1.000000
     68         -3.775267       -3.023994   1.000000   1.000000
     69         -3.699279       -2.966605   1.000000   1.000000
     70         -3.689980       -2.880041   1.000000   1.000000
     71         -3.653542       -2.814593   1.000000   1.000000
     72         -3.602179       -2.774016   1.000000   1.000000
     73         -3.596767       -2.744315   1.000000   1.000000
     74         -3.521729       -2.706376   1.000000   1.000000
     75         -3.464283       -2.672270   1.000000   1.000000
     76         -3.397756       -2.627399   1.000000   1.000000
     77         -3.378801       -2.594606   1.000000   1.000000
     78         -3.367086       -2.530250   1.000000   1.000000
     79         -3.355782       -2.505645   1.000000   1.000000
     80         -3.326005       -2.444535   1.000000   1.000000
     81         -3.321697       -2.420821   1.000000   1.000000
     82         -3.303366       -2.365510   1.000000   1.000000
     83         -3.297128       -2.331638   1.000000   1.000000
     84         -3.275924       -2.293593   1.000000   1.000000
     85         -3.257123       -2.256137   1.000000   1.000000
     86         -3.251051       -2.242776   1.000000   1.000000
     87         -3.238538       -2.214848   1.000000   1.000000
     88         -3.221772       -2.187139   1.000000   1.000000
     89         -3.204055       -2.159951   1.000000   1.000000
     90         -3.176050       -2.147907   1.000000   1.000000
     91         -3.169735       -2.128345   1.000000   1.000000
     92         -3.145069       -2.089150   1.000000   1.000000
     93         -3.129556       -2.071647   1.000000   1.000000
     94         -3.098322       -2.049023   1.000000   1.000000
     95         -3.087083       -2.011006   1.000000   1.000000
     96         -3.057905       -2.000536   1.000000   1.000000
     97         -3.048889       -1.959606   1.000000   1.000000
     98         -3.017488       -1.952034   1.000000   1.000000
     99         -3.006216       -1.907533   1.000000   1.000000
    100         -2.975171       -1.899344   1.000000   1.000000
    101         -2.941811       -1.864502   1.000000   1.000000
    102         -2.916245       -1.832502   1.000000   1.000000
    103         -2.885370       -1.812860   1.000000   1.000000
    104         -2.868662       -1.769059   1.000000   1.000000
    105         -2.827165       -1.731431   1.000000   1.000000
    106         -2.788306       -1.710779   1.000000   1.000000
    107         -2.770774       -1.670207   1.000000   1.000000
    108         -2.753466       -1.657919   1.000000   1.000000
    109         -2.736208       -1.631349   1.000000   1.000000
    110         -2.712158       -1.603026   1.000000   1.000000
    111         -2.704372       -1.541924   1.000000   1.000000
    112         -2.672460       -1.530174   1.000000   1.000000
    113         -2.665574       -1.489200   1.000000   1.000000
    114         -2.643331       -1.471575   1.000000   1.000000
    115         -2.624821       -1.461528   1.000000   1.000000
    116         -2.602751       -1.427716   1.000000   1.000000
    117         -2.586634       -1.413122   1.000000   1.000000
    118         -2.577830       -1.395727   1.000000   1.000000
    119         -2.564240       -1.360807   1.000000   1.000000
    120         -2.544423       -1.342783   1.000000   1.000000
    121         -2.528543       -1.328628   1.000000   1.000000
    122         -2.519406       -1.308588   1.000000   1.000000
    123         -2.503654       -1.277145   1.000000   1.000000
    124         -2.492100       -1.249365   1.000000   1.000000
    125         -2.481321       -1.238729   1.000000   1.000000
    126         -2.476143       -1.222316   1.000000   1.000000
    127         -2.450705       -1.205091   1.000000   1.000000
    128         -2.442061       -1.184619   1.000000   1.000000
    129         -2.435909       -1.166105   1.000000   1.000000
    130         -2.422234       -1.154900   1.000000   1.000000
    131         -2.409250       -1.129966   1.000000   1.000000
    132         -2.398017       -1.101678   1.000000   1.000000
    133         -2.383257       -1.092433   1.000000   1.000000
    134         -2.373709       -1.087392   1.000000   1.000000
    135         -2.359308       -1.063471   1.000000   1.000000
    136         -2.349348       -1.043614   1.000000   1.000000
    137         -2.336700       -1.025189   1.000000   1.000000
    138         -2.317564       -1.011620   1.000000   1.000000
    139         -2.299400       -0.986699   1.000000   1.000000
    140         -2.285481       -0.972923   1.000000   1.000000
    141         -2.264999       -0.948477   1.000000   1.000000
    142         -2.250772       -0.929041   1.000000   1.000000
    143         -2.228794       -0.921575   1.000000   1.000000
    144         -2.208032       -0.904265   1.000000   1.000000
    145         -2.194321       -0.877547   1.000000   1.000000
    146         -2.177737       -0.863151   1.000000   1.000000
    147         -2.157728       -0.842573   1.000000   1.000000
    148         -2.144604       -0.819322   1.000000   1.000000
    149         -2.126783       -0.784772   1.000000   1.000000
    150         -2.121612       -0.777999   1.000000   1.000000
    151         -2.107974       -0.768638   1.000000   1.000000
    152         -2.094769       -0.756163   1.000000   1.000000
    153         -2.088200       -0.729403   1.000000   1.000000
    154         -2.073551       -0.714927   1.000000   1.000000
    155         -2.064871       -0.706107   1.000000   1.000000
    156         -2.054123       -0.689342   1.000000   1.000000
    157         -2.040915       -0.666718   1.000000   1.000000
    158         -2.030316       -0.653256   1.000000   1.000000
    159         -2.018922       -0.633620   1.000000   1.000000
    160         -2.000395       -0.619414   1.000000   1.000000
    161         -1.974559       -0.593910   1.000000   1.000000
    162         -1.971686       -0.591468   1.000000   1.000000
    163         -1.950866       -0.568057   1.000000   1.000000
    164         -1.940797       -0.550810   1.000000   1.000000
    165         -1.928883       -0.545352   1.000000   1.000000
    166         -1.925114       -0.519136   1.000000   1.000000
    167         -1.904123       -0.509349   1.000000   1.000000
    168         -1.885938       -0.494901   1.000000   1.000000
    169         -1.872491       -0.482223   1.000000   1.000000
    170         -1.852655       -0.465156   1.000000   1.000000
    171         -1.840896       -0.444296   1.000000   1.000000
    172         -1.831370       -0.431630   1.000000   1.000000
    173         -1.819961       -0.423444   1.000000   1.000000
    174         -1.797750       -0.397453   1.000000   1.000000
    175         -1.784965       -0.387650   1.000000   1.000000
    176         -1.777746       -0.362389   1.000000   1.000000
    177         -1.757514       -0.350551   1.000000   1.000000
    178         -1.751706       -0.343156   1.000000   1.000000
    179         -1.731092       -0.315190   1.000000   1.000000
    180         -1.709736       -0.294452   1.000000   1.000000
    181         -1.692093       -0.276957   1.000000   1.000000
    182         -1.669865       -0.264490   1.000000   1.000000
    183         -1.653529       -0.247386   1.000000   1.000000
    184         -1.644637       -0.225132   1.000000   1.000000
    185         -1.636666       -0.205247   1.000000   1.000000
    186         -1.621769       -0.188454   1.000000   1.000000
    187         -1.598499       -0.175731   1.000000   1.000000
    188         -1.592277       -0.153238   1.000000   1.000000
    189         -1.573798       -0.130910   1.000000   1.000000
    190         -1.557268       -0.109465   1.000000   1.000000
    191         -1.527424       -0.082735   1.000000   1.000000
    192         -1.520242       -0.075671   1.000000   1.000000
    193         -1.508624       -0.058479   1.000000   1.000000
    194         -1.476352       -0.040691   1.000000   1.000000
    195         -1.473211       -0.027365   1.000000   1.000000
    196         -1.455199       -0.009651   1.000000   1.000000
    197         -1.441481        0.007991   1.000000   1.000000
    198         -1.430815        0.034651   1.000000   1.000000
    199         -1.422865        0.040281   1.000000   1.000000
    200         -1.408446        0.070387   1.000000   1.000000
    201         -1.393900        0.095958   1.000000   1.000000
    202         -1.366936        0.110163   1.000000   1.000000
    203         -1.359682        0.117862   1.000000   1.000000
    204         -1.327697        0.145637   1.000000   1.000000
    205         -1.298229        0.167537   1.000000   1.000000
    206         -1.282094        0.184701   1.000000   1.000000
    207         -1.267290        0.201812   1.000000   1.000000
    208         -1.248439        0.224615   1.000000   1.000000
    209         -1.207101        0.255124   1.000000   1.000000
    210         -1.200300        0.301319   1.000000   1.000000
    211         -1.175037        0.324625   1.000000   1.000000
    212         -1.161854        0.343641   1.000000   1.000000
    213         -1.155064        0.361792   1.000000   1.000000
    214         -1.132223        0.379264   1.000000   1.000000
    215         -1.110514        0.406209   1.000000   1.000000
    216         -1.093818        0.424208   1.000000   1.000001
    217         -1.059297        0.461617   1.000000   1.000006
    218         -1.040881        0.486953   1.000000   1.000018
    219         -1.026014        0.511059   1.000000   1.000048
    220         -0.991721        0.529098   1.000000   1.000096
    221         -0.971807        0.542938   1.000000   1.000159
    222         -0.953260        0.583777   1.000000   1.000634
    223         -0.937838        0.594097   1.000000   1.000875
    224         -0.925497        0.608517   1.000000   1.001349
    225         -0.884465        0.640384   1.000000   1.003247
    226         -0.867830        0.687240   1.000000   1.009636
    227         -0.845414        0.714591   1.000000   1.016081
    228         -0.834907        0.733059   1.000000   1.021444
    229         -0.810770        0.759875   1.000000   1.029541
    230         -0.797062        0.776306   1.000000   1.033520
    231         -0.781824        0.797334   1.000000   1.035407
    232         -0.751819        0.834849   1.000000   1.020025
    233         -0.733887        0.856941   1.000000   0.992409
    234         -0.716861        0.900227   1.000000   0.881311
    235         -0.701632        0.952085   1.000000   0.645684
    236         -0.679905        0.976822   1.000000   0.508610
    237         -0.668073        1.032184   1.000000   0.216867
    238         -0.656912        1.066420   1.000000   0.085838
    239         -0.651545        1.080161   1.000000   0.047764
    240         -0.641077        1.110140   1.000000  -0.007517
    241         -0.618724        1.125737   1.000000  -0.023225
    242         -0.609303        1.140836   1.000000  -0.031749
    243         -0.593542        1.177816   1.000000  -0.033990
    244         -0.581284        1.194684   1.000000  -0.030131
    245         -0.562225        1.202953   1.000000  -0.027769
    246         -0.542848        1.242636   1.000000  -0.015937
    247         -0.528411        1.257820   1.000000  -0.012125
    248         -0.524242        1.274666   1.000000  -0.008648
    249         -0.500250        1.311659   1.000000  -0.003658
    250         -0.490532        1.319036   1.000000  -0.003025
    251         -0.477047        1.359745   1.000000  -0.000955
    252         -0.469846        1.369442   1.000000  -0.000708
    253         -0.463173        1.399588   1.000000  -0.000262
    254         -0.450607        1.418831   1.000000  -0.000133
    255         -0.435219        1.442310   1.000000  -0.000055
    256         -0.422716        1.457116   1.000000  -0.000031
    257         -0.409989        1.469466   1.000000  -0.000019
    258         -0.405000        1.496113   1.000000  -0.000006
    259         -0.388846        1.521424   1.000000  -0.000002
    260         -0.378619        1.536396   1.000000  -0.000001
    261         -0.370922        1.564475   1.000000  -0.000000
    262         -0.359161        1.585820   1.000000  -0.000000
    263         -0.355305        1.593503   1.000000  -0.000000
    264         -0.342101        1.622112   1.000000  -0.000000
    265         -0.332090        1.630497   1.000000  -0.000000
    266         -0.318932        1.651128   1.000000  -0.000000
    267         -0.309116        1.656644   1.000000  -0.000000
    268         -0.305133        1.676712   1.000000  -0.000000
    269         -0.292685        1.691105   1.000000  -0.000000
    270         -0.285046        1.708207   1.000000  -0.000000
    271         -0.273908        1.727567   1.000000  -0.000000
    272         -0.267987        1.740704   1.000000  -0.000000
    273         -0.255297        1.747716   1.000000  -0.000000
    274         -0.239461        1.759855   1.000000  -0.000000
    275         -0.231123        1.780216   1.000000  -0.000000
    276         -0.218740        1.790257   1.000000  -0.000000
    277         -0.210680        1.802339   1.000000  -0.000000
    278         -0.200247        1.823993   1.000000  -0.000000
    279         -0.186411        1.826912   1.000000  -0.000000
    280         -0.182341        1.840716   1.000000  -0.000000
    281         -0.172234        1.863173   1.000000  -0.000000
    282         -0.152670        1.882096   1.000000  -0.000000
    283         -0.149865        1.893676   1.000000  -0.000000
    284         -0.127509        1.907183   1.000000  -0.000000
    285         -0.115995        1.924170   1.000000  -0.000000
    286         -0.111376        1.932109   1.000000  -0.000000
    287         -0.099302        1.941835   1.000000  -0.000000
    288         -0.081937        1.956169   1.000000  -0.000000
    289         -0.068307        1.961908   1.000000  -0.000000
    290         -0.056528        1.976256   1.000000  -0.000000
    291         -0.037883        1.994476   1.000000  -0.000000
    292         -0.025649        2.008793   1.000000  -0.000000
    293         -0.016146        2.029764   1.000000  -0.000000
    294          0.013937        2.042890   1.000000  -0.000000
    295          0.022454        2.054527   1.000000  -0.000000
    296          0.036522        2.075011   1.000000  -0.000000
    297          0.056792        2.082357   1.000000  -0.000000
    298          0.087282        2.085507   1.000000  -0.000000
    299          0.099145        2.096505   1.000000  -0.000000
    300          0.119192        2.101774   1.000000  -0.000000
    301          0.138815        2.111780   1.000000  -0.000000
    302          0.146888        2.127716   1.000000  -0.000000
    303          0.193270        2.136340   1.000000  -0.000000
    304          0.217487        2.147667   1.000000  -0.000000
    305          0.226869        2.156659   1.000000  -0.000000
    306          0.240294        2.167640   1.000000  -0.000000
    307          0.261360        2.175358   1.000000  -0.000000
    308          0.284546        2.187992   1.000000  -0.000000
    309          0.305157        2.196278   1.000000  -0.000000
    310          0.325654        2.213015   1.000000  -0.000000
    311          0.357455        2.217820   1.000000  -0.000000
    312          0.385035        2.238925   1.000000  -0.000000
    313          0.409288        2.245143   1.000001  -0.000000
    314          0.442516        2.250991   1.000003  -0.000000
    315          0.477857        2.261399   1.000013  -0.000000
    316          0.509664        2.279942   1.000046  -0.000000
    317          0.516868        2.290808   1.000060  -0.000000
    318          0.546015        2.297874   1.000178  -0.000000
    319          0.561856        2.316329   1.000308  -0.000000
    320          0.590055        2.332019   1.000772  -0.000000
    321          0.635471        2.337711   1.002856  -0.000000
    322          0.654212        2.342063   1.004594  -0.000000
    323          0.663547        2.352757   1.005738  -0.000000
    324          0.688987        2.367222   1.009985  -0.000000
    325          0.723933        2.374154   1.018718  -0.000000
    326          0.772856        2.392205   1.032812  -0.000000
    327          0.805469        2.397773   1.034573  -0.000000
    328          0.861082        2.405744   0.985237  -0.000000
    329          0.889105        2.423766   0.917736  -0.000000
    330          0.938168        2.426050   0.717921  -0.000000
    331          0.955911        2.437757   0.625029  -0.000000
    332          1.017155        2.461019   0.288975  -0.000000
    333          1.041833        2.467668   0.174928  -0.000000
    334          1.080869        2.472605   0.046030  -0.000000
    335          1.095621        2.484546   0.014752  -0.000000
    336          1.146560        2.494543  -0.033572  -0.000000
    337          1.185270        2.505729  -0.032496  -0.000000
    338          1.212183        2.513076  -0.024968  -0.000000
    339          1.260595        2.528900  -0.011496  -0.000000
    340          1.302910        2.533076  -0.004547  -0.000000
    341          1.336560        2.541558  -0.001881  -0.000000
    342          1.351832        2.552936  -0.001211  -0.000000
    343          1.406248        2.561772  -0.000208  -0.000000
    344          1.430635        2.569165  -0.000086  -0.000000
    345          1.469785        2.577275  -0.000018  -0.000000
    346          1.513909        2.589277  -0.000003  -0.000000
    347          1.528114        2.600045  -0.000001  -0.000000
    348          1.610410        2.610519  -0.000000  -0.000000
    349          1.637054        2.630375  -0.000000  -0.000000
    350          1.684501        2.657783  -0.000000  -0.000000
    351          1.722432        2.667300  -0.000000  -0.000000
    352          1.749829        2.686469  -0.000000  -0.000000
    353          1.788670        2.701224  -0.000000  -0.000000
    354          1.827117        2.711522  -0.000000  -0.000000
    355          1.840017        2.724483  -0.000000  -0.000000
    356          1.859300        2.737818  -0.000000  -0.000000
    357          1.909511        2.742369  -0.000000  -0.000000
    358          1.929234        2.757480  -0.000000  -0.000000
    359          1.952581        2.779171  -0.000000  -0.000000
    360          1.994300        2.782746  -0.000000  -0.000000
    361          2.038808        2.799045  -0.000000  -0.000000
    362          2.072138        2.821376  -0.000000  -0.000000
    363          2.098081        2.826048  -0.000000  -0.000000
    364          2.136151        2.848438  -0.000000  -0.000000
    365          2.182854        2.855362  -0.000000  -0.000000
    366          2.197618        2.861938  -0.000000  -0.000000
    367          2.230145        2.878209  -0.000000  -0.000000
    368          2.255438        2.895686  -0.000000  -0.000000
    369          2.300176        2.909116  -0.000000  -0.000000
    370          2.326785        2.924224  -0.000000  -0.000000
    371          2.363515        2.941434  -0.000000  -0.000000
    372          2.388203        2.969527  -0.000000  -0.000000
 
  0.5000000E+00  0.2500000E+00  0.1276756E-14  0.1250000E+00
      1        -42.850030      -43.350860   1.000000   1.000000
      2        -42.815495      -43.334385   1.000000   1.000000
      3        -42.797100      -43.321378   1.000000   1.000000
      4        -42.780225      -43.305196   1.000000   1.000000
      5        -42.764972      -43.298162   1.000000   1.000000
      6        -42.735051      -43.276816   1.000000   1.000000
      7        -42.205009      -43.272665   1.000000   1.000000
      8        -42.153761      -43.264180   1.000000   1.000000
      9        -42.116998      -43.256890   1.000000   1.000000
     10        -42.077948      -43.240209   1.000000   1.000000
     11        -42.002806      -43.238174   1.000000   1.000000
     12        -41.985699      -43.231791   1.000000   1.000000
     13        -41.955741      -43.230070   1.000000   1.000000
     14        -41.940711      -43.197456   1.000000   1.000000
     15        -41.927924      -43.167825   1.000000   1.000000
     16        -41.854167      -43.161392   1.000000   1.000000
     17        -41.847050      -43.137097   1.000000   1.000000
     18        -41.820099      -43.123820   1.000000   1.000000
     19        -41.798594      -43.113428   1.000000   1.000000
     20        -41.762847      -43.057679   1.000000   1.000000
     21        -41.725791      -43.045689   1.000000   1.000000
     22        -41.719829      -42.920439   1.000000   1.000000
     23        -41.702791      -42.852868   1.000000   1.000000
     24        -41.677852      -42.745973   1.000000   1.000000
     25        -41.507519      -42.740938   1.000000   1.000000
     26        -41.446930      -42.735178   1.000000   1.000000
     27        -41.407096      -42.638593   1.000000   1.000000
     28        -41.083367      -42.590591   1.000000   1.000000
     29        -41.044677      -42.559969   1.000000   1.000000
     30        -41.032354      -42.498965   1.000000   1.000000
     31        -40.200760      -42.446152   1.000000   1.000000
     32        -40.145469      -42.304512   1.000000   1.000000
     33        -40.136174      -42.196898   1.000000   1.000000
     34        -40.126354      -42.145033   1.000000   1.000000
     35        -40.125261      -42.009700   1.000000   1.000000
     36        -40.107810      -41.825873   1.000000   1.000000
     37        -40.066944      -39.938215   1.000000   1.000000
     38        -40.051666      -39.869955   1.000000   1.000000
     39        -40.045556      -39.848773   1.000000   1.000000
     40        -40.042600      -39.765382   1.000000   1.000000
     41        -40.008450      -39.733192   1.000000   1.000000
     42        -39.990752      -39.652158   1.000000   1.000000
     43        -15.539541      -15.543855   1.000000   1.000000
     44        -15.524730      -15.532214   1.000000   1.000000
     45        -15.517132      -15.529749   1.000000   1.000000
     46        -15.512120      -15.526856   1.000000   1.000000
     47        -15.464462      -15.481410   1.000000   1.000000
     48         -7.820797       -7.817116   1.000000   1.000000
     49         -6.536873       -6.421172   1.000000   1.000000
     50         -6.416501       -6.311730   1.000000   1.000000
     51         -5.648562       -5.520212   1.000000   1.000000
     52         -5.529422       -5.397777   1.000000   1.000000
     53         -5.497643       -5.365139   1.000000   1.000000
     54         -5.378467       -5.245598   1.000000   1.000000
     55         -4.726756       -4.554820   1.000000   1.000000
     56         -4.621138       -4.446003   1.000000   1.000000
     57         -4.462385       -4.223943   1.000000   1.000000
     58         -4.159955       -3.952066   1.000000   1.000000
     59         -4.079479       -3.737184   1.000000   1.000000
     60         -4.020883       -3.677279   1.000000   1.000000
     61         -3.875796       -3.438423   1.000000   1.000000
     62         -3.832128       -3.314520   1.000000   1.000000
     63         -3.811762       -3.202315   1.000000   1.000000
     64         -3.787457       -3.144882   1.000000   1.000000
     65         -3.751039       -3.109050   1.000000   1.000000
     66         -3.728578       -3.079139   1.000000   1.000000
     67         -3.703093       -3.019065   1.000000   1.000000
     68         -3.653900       -3.010188   1.000000   1.000000
     69         -3.644770       -2.952572   1.000000   1.000000
     70         -3.630672       -2.904841   1.000000   1.000000
     71         -3.612438       -2.869842   1.000000   1.000000
     72         -3.582274       -2.836158   1.000000   1.000000
     73         -3.559637       -2.810847   1.000000   1.000000
     74         -3.551647       -2.784457   1.000000   1.000000
     75         -3.527780       -2.711145   1.000000   1.000000
     76         -3.515558       -2.694144   1.000000   1.000000
     77         -3.498489       -2.656892   1.000000   1.000000
     78         -3.481530       -2.500731   1.000000   1.000000
     79         -3.465412       -2.475017   1.000000   1.000000
     80         -3.441827       -2.458794   1.000000   1.000000
     81         -3.380593       -2.435940   1.000000   1.000000
     82         -3.372444       -2.384315   1.000000   1.000000
     83         -3.292659       -2.354259   1.000000   1.000000
     84         -3.278316       -2.332336   1.000000   1.000000
     85         -3.249595       -2.308758   1.000000   1.000000
     86         -3.225997       -2.285982   1.000000   1.000000
     87         -3.202222       -2.266415   1.000000   1.000000
     88         -3.192072       -2.227603   1.000000   1.000000
     89         -3.181996       -2.216461   1.000000   1.000000
     90         -3.173135       -2.156683   1.000000   1.000000
     91         -3.163639       -2.136932   1.000000   1.000000
     92         -3.141981       -2.121109   1.000000   1.000000
     93         -3.131511       -2.098112   1.000000   1.000000
     94         -3.123747       -2.054390   1.000000   1.000000
     95         -3.098967       -2.034078   1.000000   1.000000
     96         -3.087304       -1.982031   1.000000   1.000000
     97         -3.075093       -1.967186   1.000000   1.000000
     98         -3.056707       -1.944791   1.000000   1.000000
     99         -3.038852       -1.910416   1.000000   1.000000
    100         -3.011235       -1.907803   1.000000   1.000000
    101         -2.976076       -1.868308   1.000000   1.000000
    102         -2.929856       -1.854920   1.000000   1.000000
    103         -2.911220       -1.816517   1.000000   1.000000
    104         -2.885504       -1.798478   1.000000   1.000000
    105         -2.861457       -1.736369   1.000000   1.000000
    106         -2.832904       -1.731905   1.000000   1.000000
    107         -2.813731       -1.708551   1.000000   1.000000
    108         -2.791376       -1.691225   1.000000   1.000000
    109         -2.771089       -1.647471   1.000000   1.000000
    110         -2.750981       -1.626396   1.000000   1.000000
    111         -2.736185       -1.600229   1.000000   1.000000
    112         -2.711623       -1.585343   1.000000   1.000000
    113         -2.683807       -1.577036   1.000000   1.000000
    114         -2.659819       -1.518983   1.000000   1.000000
    115         -2.651222       -1.505638   1.000000   1.000000
    116         -2.630401       -1.462441   1.000000   1.000000
    117         -2.592591       -1.436532   1.000000   1.000000
    118         -2.583056       -1.416677   1.000000   1.000000
    119         -2.562113       -1.390923   1.000000   1.000000
    120         -2.552128       -1.368623   1.000000   1.000000
    121         -2.546347       -1.335368   1.000000   1.000000
    122         -2.539926       -1.325830   1.000000   1.000000
    123         -2.519993       -1.293025   1.000000   1.000000
    124         -2.504336       -1.282936   1.000000   1.000000
    125         -2.494424       -1.261478   1.000000   1.000000
    126         -2.486670       -1.245582   1.000000   1.000000
    127         -2.469655       -1.212626   1.000000   1.000000
    128         -2.460990       -1.201864   1.000000   1.000000
    129         -2.451419       -1.182099   1.000000   1.000000
    130         -2.441719       -1.162335   1.000000   1.000000
    131         -2.424523       -1.144982   1.000000   1.000000
    132         -2.420148       -1.129713   1.000000   1.000000
    133         -2.397997       -1.092572   1.000000   1.000000
    134         -2.378665       -1.089461   1.000000   1.000000
    135         -2.370129       -1.069158   1.000000   1.000000
    136         -2.354269       -1.051923   1.000000   1.000000
    137         -2.344769       -1.031199   1.000000   1.000000
    138         -2.328747       -1.022756   1.000000   1.000000
    139         -2.313463       -0.989188   1.000000   1.000000
    140         -2.301625       -0.975797   1.000000   1.000000
    141         -2.276249       -0.971366   1.000000   1.000000
    142         -2.263734       -0.950627   1.000000   1.000000
    143         -2.249353       -0.932013   1.000000   1.000000
    144         -2.232517       -0.896205   1.000000   1.000000
    145         -2.218756       -0.871825   1.000000   1.000000
    146         -2.204181       -0.846587   1.000000   1.000000
    147         -2.185815       -0.831347   1.000000   1.000000
    148         -2.147374       -0.817325   1.000000   1.000000
    149         -2.144298       -0.782249   1.000000   1.000000
    150         -2.128721       -0.764196   1.000000   1.000000
    151         -2.119996       -0.744442   1.000000   1.000000
    152         -2.097188       -0.720782   1.000000   1.000000
    153         -2.083489       -0.701801   1.000000   1.000000
    154         -2.074557       -0.691871   1.000000   1.000000
    155         -2.052695       -0.678621   1.000000   1.000000
    156         -2.035592       -0.653077   1.000000   1.000000
    157         -2.017977       -0.638909   1.000000   1.000000
    158         -2.014406       -0.617939   1.000000   1.000000
    159         -1.997304       -0.607623   1.000000   1.000000
    160         -1.982621       -0.585639   1.000000   1.000000
    161         -1.972633       -0.567377   1.000000   1.000000
    162         -1.957831       -0.556747   1.000000   1.000000
    163         -1.946153       -0.538228   1.000000   1.000000
    164         -1.929442       -0.520967   1.000000   1.000000
    165         -1.920121       -0.506659   1.000000   1.000000
    166         -1.905261       -0.492528   1.000000   1.000000
    167         -1.891503       -0.480302   1.000000   1.000000
    168         -1.879917       -0.464512   1.000000   1.000000
    169         -1.868575       -0.446996   1.000000   1.000000
    170         -1.854907       -0.430525   1.000000   1.000000
    171         -1.844074       -0.408433   1.000000   1.000000
    172         -1.835418       -0.396077   1.000000   1.000000
    173         -1.820784       -0.388732   1.000000   1.000000
    174         -1.800173       -0.366965   1.000000   1.000000
    175         -1.789302       -0.354018   1.000000   1.000000
    176         -1.769190       -0.342671   1.000000   1.000000
    177         -1.758000       -0.328579   1.000000   1.000000
    178         -1.744474       -0.302915   1.000000   1.000000
    179         -1.739349       -0.290470   1.000000   1.000000
    180         -1.714994       -0.276736   1.000000   1.000000
    181         -1.695367       -0.262452   1.000000   1.000000
    182         -1.683885       -0.253022   1.000000   1.000000
    183         -1.667529       -0.241952   1.000000   1.000000
    184         -1.659481       -0.225066   1.000000   1.000000
    185         -1.636663       -0.210938   1.000000   1.000000
    186         -1.625586       -0.198602   1.000000   1.000000
    187         -1.606421       -0.183354   1.000000   1.000000
    188         -1.594437       -0.165677   1.000000   1.000000
    189         -1.587715       -0.144206   1.000000   1.000000
    190         -1.555367       -0.123636   1.000000   1.000000
    191         -1.543330       -0.102961   1.000000   1.000000
    192         -1.525148       -0.091330   1.000000   1.000000
    193         -1.509368       -0.077517   1.000000   1.000000
    194         -1.491486       -0.061485   1.000000   1.000000
    195         -1.479239       -0.045459   1.000000   1.000000
    196         -1.463876       -0.030097   1.000000   1.000000
    197         -1.451934        0.008675   1.000000   1.000000
    198         -1.430083        0.032628   1.000000   1.000000
    199         -1.415219        0.043606   1.000000   1.000000
    200         -1.395563        0.057060   1.000000   1.000000
    201         -1.382278        0.096692   1.000000   1.000000
    202         -1.372092        0.114284   1.000000   1.000000
    203         -1.355694        0.117986   1.000000   1.000000
    204         -1.328297        0.154152   1.000000   1.000000
    205         -1.311139        0.159647   1.000000   1.000000
    206         -1.266905        0.182104   1.000000   1.000000
    207         -1.241265        0.217834   1.000000   1.000000
    208         -1.221049        0.226624   1.000000   1.000000
    209         -1.211163        0.255402   1.000000   1.000000
    210         -1.174587        0.275806   1.000000   1.000000
    211         -1.170492        0.294766   1.000000   1.000000
    212         -1.149113        0.309052   1.000000   1.000000
    213         -1.124234        0.349522   1.000000   1.000000
    214         -1.112424        0.365365   1.000000   1.000000
    215         -1.085384        0.396746   1.000000   1.000000
    216         -1.069343        0.447678   1.000000   1.000003
    217         -1.050347        0.479922   1.000000   1.000014
    218         -1.017355        0.495301   1.000000   1.000026
    219         -0.988959        0.501918   1.000000   1.000034
    220         -0.973240        0.521911   1.000000   1.000073
    221         -0.951847        0.559689   1.000000   1.000286
    222         -0.930895        0.568639   1.000000   1.000387
    223         -0.908485        0.583395   1.000000   1.000626
    224         -0.897508        0.615732   1.000000   1.001661
    225         -0.867629        0.642793   1.000000   1.003455
    226         -0.851350        0.669321   1.000000   1.006550
    227         -0.832400        0.689381   1.000000   1.010065
    228         -0.811019        0.724911   1.000000   1.019004
    229         -0.793478        0.749785   1.000000   1.026581
    230         -0.785231        0.781863   1.000000   1.034465
    231         -0.758385        0.796137   1.000000   1.035442
    232         -0.727207        0.859194   1.000000   0.988591
    233         -0.723058        0.896998   1.000000   0.892458
    234         -0.707117        0.933652   1.000000   0.740182
    235         -0.695466        0.939263   1.000000   0.712428
    236         -0.670380        0.994011   1.000000   0.412165
    237         -0.663824        1.020435   1.000000   0.272602
    238         -0.651051        1.038131   1.000000   0.190583
    239         -0.631749        1.060946   1.000000   0.103360
    240         -0.617867        1.085598   1.000000   0.034999
    241         -0.604906        1.141752   1.000000  -0.032088
    242         -0.596172        1.164380   1.000000  -0.035422
    243         -0.577042        1.188679   1.000000  -0.031691
    244         -0.573447        1.198066   1.000000  -0.029189
    245         -0.555383        1.224281   1.000000  -0.021248
    246         -0.526309        1.253510   1.000000  -0.013144
    247         -0.522625        1.272851   1.000000  -0.008983
    248         -0.514508        1.292258   1.000000  -0.005857
    249         -0.500752        1.339213   1.000000  -0.001746
    250         -0.475876        1.359600   1.000000  -0.000959
    251         -0.471584        1.383334   1.000000  -0.000453
    252         -0.466093        1.406694   1.000000  -0.000205
    253         -0.456626        1.422508   1.000000  -0.000116
    254         -0.433471        1.445686   1.000000  -0.000048
    255         -0.428492        1.472157   1.000000  -0.000017
    256         -0.422196        1.490439   1.000000  -0.000008
    257         -0.413612        1.500963   1.000000  -0.000005
    258         -0.405970        1.523127   1.000000  -0.000002
    259         -0.395871        1.531559   1.000000  -0.000001
    260         -0.378081        1.558867   1.000000  -0.000000
    261         -0.372157        1.572319   1.000000  -0.000000
    262         -0.358363        1.594498   1.000000  -0.000000
    263         -0.346871        1.626603   1.000000  -0.000000
    264         -0.343333        1.639061   1.000000  -0.000000
    265         -0.326889        1.642484   1.000000  -0.000000
    266         -0.321930        1.674779   1.000000  -0.000000
    267         -0.313770        1.698237   1.000000  -0.000000
    268         -0.296873        1.708651   1.000000  -0.000000
    269         -0.290522        1.722349   1.000000  -0.000000
    270         -0.279364        1.732094   1.000000  -0.000000
    271         -0.272248        1.751677   1.000000  -0.000000
    272         -0.264148        1.760905   1.000000  -0.000000
    273         -0.243222        1.779503   1.000000  -0.000000
    274         -0.239215        1.792666   1.000000  -0.000000
    275         -0.227703        1.807209   1.000000  -0.000000
    276         -0.220248        1.828768   1.000000  -0.000000
    277         -0.216179        1.831114   1.000000  -0.000000
    278         -0.204415        1.854060   1.000000  -0.000000
    279         -0.186338        1.859504   1.000000  -0.000000
    280         -0.180101        1.878681   1.000000  -0.000000
    281         -0.163103        1.885656   1.000000  -0.000000
    282         -0.146642        1.896062   1.000000  -0.000000
    283         -0.136994        1.905679   1.000000  -0.000000
    284         -0.126508        1.917263   1.000000  -0.000000
    285         -0.110749        1.941139   1.000000  -0.000000
    286         -0.105251        1.953339   1.000000  -0.000000
    287         -0.076513        1.969581   1.000000  -0.000000
    288         -0.065018        1.979968   1.000000  -0.000000
    289         -0.047517        1.989570   1.000000  -0.000000
    290         -0.024604        2.003309   1.000000  -0.000000
    291         -0.017083        2.007271   1.000000  -0.000000
    292          0.001970        2.012736   1.000000  -0.000000
    293          0.006865        2.027973   1.000000  -0.000000
    294          0.036265        2.033973   1.000000  -0.000000
    295          0.067308        2.051033   1.000000  -0.000000
    296          0.078018        2.061694   1.000000  -0.000000
    297          0.088494        2.068892   1.000000  -0.000000
    298          0.099259        2.079842   1.000000  -0.000000
    299          0.118486        2.095527   1.000000  -0.000000
    300          0.143279        2.105355   1.000000  -0.000000
    301          0.160000        2.116034   1.000000  -0.000000
    302          0.177237        2.128938   1.000000  -0.000000
    303          0.210196        2.138328   1.000000  -0.000000
    304          0.240710        2.151295   1.000000  -0.000000
    305          0.256486        2.165400   1.000000  -0.000000
    306          0.275033        2.176890   1.000000  -0.000000
    307          0.296294        2.186764   1.000000  -0.000000
    308          0.317101        2.201026   1.000000  -0.000000
    309          0.350024        2.206805   1.000000  -0.000000
    310          0.371688        2.214946   1.000000  -0.000000
    311          0.397329        2.233846   1.000000  -0.000000
    312          0.418662        2.247698   1.000001  -0.000000
    313          0.433118        2.257484   1.000002  -0.000000
    314          0.450983        2.264778   1.000004  -0.000000
    315          0.485390        2.274505   1.000017  -0.000000
    316          0.502210        2.296916   1.000034  -0.000000
    317          0.531286        2.305419   1.000104  -0.000000
    318          0.551333        2.313531   1.000214  -0.000000
    319          0.574081        2.318913   1.000464  -0.000000
    320          0.603578        2.329066   1.001166  -0.000000
    321          0.620969        2.338527   1.001926  -0.000000
    322          0.647953        2.353076   1.003937  -0.000000
    323          0.675116        2.362521   1.007452  -0.000000
    324          0.709201        2.370156   1.014651  -0.000000
    325          0.769409        2.376300   1.032028  -0.000000
    326          0.801179        2.390187   1.035147  -0.000000
    327          0.869084        2.396341   0.969407  -0.000000
    328          0.887583        2.406468   0.922290  -0.000000
    329          0.912887        2.425756   0.833201  -0.000000
    330          0.982623        2.435469   0.475890  -0.000000
    331          0.995844        2.444843   0.402030  -0.000000
    332          1.022283        2.458661   0.263523  -0.000000
    333          1.053919        2.465698   0.127819  -0.000000
    334          1.103589        2.483609   0.001545  -0.000000
    335          1.126824        2.493520  -0.024040  -0.000000
    336          1.135422        2.502741  -0.029354  -0.000000
    337          1.211044        2.513401  -0.025318  -0.000000
    338          1.236031        2.520879  -0.017775  -0.000000
    339          1.277444        2.531842  -0.008152  -0.000000
    340          1.312414        2.546981  -0.003588  -0.000000
    341          1.340849        2.553913  -0.001667  -0.000000
    342          1.362757        2.557033  -0.000871  -0.000000
    343          1.408974        2.570575  -0.000189  -0.000000
    344          1.445891        2.575342  -0.000048  -0.000000
    345          1.476501        2.585290  -0.000014  -0.000000
    346          1.546254        2.597227  -0.000001  -0.000000
    347          1.558749        2.600946  -0.000000  -0.000000
    348          1.598750        2.608378  -0.000000  -0.000000
    349          1.613364        2.615892  -0.000000  -0.000000
    350          1.656545        2.626738  -0.000000  -0.000000
    351          1.689648        2.633808  -0.000000  -0.000000
    352          1.715897        2.649566  -0.000000  -0.000000
    353          1.748579        2.654181  -0.000000  -0.000000
    354          1.771115        2.662687  -0.000000  -0.000000
    355          1.832122        2.674977  -0.000000  -0.000000
    356          1.886744        2.692595  -0.000000  -0.000000
    357          1.916136        2.707937  -0.000000  -0.000000
    358          1.938197        2.744533  -0.000000  -0.000000
    359          1.961344        2.758572  -0.000000  -0.000000
    360          1.991263        2.787727  -0.000000  -0.000000
    361          2.058101        2.797824  -0.000000  -0.000000
    362          2.068980        2.811162  -0.000000  -0.000000
    363          2.093710        2.829521  -0.000000  -0.000000
    364          2.106253        2.843559  -0.000000  -0.000000
    365          2.156288        2.854336  -0.000000  -0.000000
    366          2.210686        2.867417  -0.000000  -0.000000
    367          2.231355        2.888686  -0.000000  -0.000000
    368          2.257540        2.912222  -0.000000  -0.000000
    369          2.295899        2.954572  -0.000000  -0.000000
    370          2.362712        2.973940  -0.000000  -0.000000
    371          2.390886        3.014722  -0.000000  -0.000000
    372          2.399259        3.029113  -0.000000  -0.000000
 
 -0.2500000E+00  0.2500000E+00  0.1276756E-14  0.1250000E+00
      1        -42.850034      -43.350860   1.000000   1.000000
      2        -42.815501      -43.334388   1.000000   1.000000
      3        -42.797109      -43.321397   1.000000   1.000000
      4        -42.780233      -43.305204   1.000000   1.000000
      5        -42.764979      -43.298164   1.000000   1.000000
      6        -42.735059      -43.276829   1.000000   1.000000
      7        -42.205022      -43.272675   1.000000   1.000000
      8        -42.153775      -43.264191   1.000000   1.000000
      9        -42.117006      -43.256898   1.000000   1.000000
     10        -42.077949      -43.240206   1.000000   1.000000
     11        -42.002832      -43.238183   1.000000   1.000000
     12        -41.985699      -43.231799   1.000000   1.000000
     13        -41.955753      -43.230078   1.000000   1.000000
     14        -41.940718      -43.197465   1.000000   1.000000
     15        -41.927925      -43.167835   1.000000   1.000000
     16        -41.854172      -43.161396   1.000000   1.000000
     17        -41.847067      -43.137107   1.000000   1.000000
     18        -41.820105      -43.123830   1.000000   1.000000
     19        -41.798611      -43.113436   1.000000   1.000000
     20        -41.762852      -43.057685   1.000000   1.000000
     21        -41.725794      -43.045695   1.000000   1.000000
     22        -41.719817      -42.920445   1.000000   1.000000
     23        -41.702792      -42.852876   1.000000   1.000000
     24        -41.677862      -42.745977   1.000000   1.000000
     25        -41.507529      -42.740942   1.000000   1.000000
     26        -41.446940      -42.735185   1.000000   1.000000
     27        -41.407099      -42.638597   1.000000   1.000000
     28        -41.083376      -42.590591   1.000000   1.000000
     29        -41.044686      -42.559979   1.000000   1.000000
     30        -41.032360      -42.498977   1.000000   1.000000
     31        -40.200784      -42.446159   1.000000   1.000000
     32        -40.145479      -42.304527   1.000000   1.000000
     33        -40.136185      -42.196906   1.000000   1.000000
     34        -40.126361      -42.145035   1.000000   1.000000
     35        -40.125271      -42.009704   1.000000   1.000000
     36        -40.107812      -41.825880   1.000000   1.000000
     37        -40.066940      -39.938225   1.000000   1.000000
     38        -40.051676      -39.869969   1.000000   1.000000
     39        -40.045566      -39.848782   1.000000   1.000000
     40        -40.042610      -39.765392   1.000000   1.000000
     41        -40.008453      -39.733196   1.000000   1.000000
     42        -39.990755      -39.652161   1.000000   1.000000
     43        -15.539604      -15.543842   1.000000   1.000000
     44        -15.524717      -15.532265   1.000000   1.000000
     45        -15.517140      -15.529755   1.000000   1.000000
     46        -15.512107      -15.526848   1.000000   1.000000
     47        -15.464461      -15.481408   1.000000   1.000000
     48         -7.842385       -7.834110   1.000000   1.000000
     49         -6.860367       -6.759541   1.000000   1.000000
     50         -5.935318       -5.817288   1.000000   1.000000
     51         -5.874098       -5.754341   1.000000   1.000000
     52         -5.766572       -5.639455   1.000000   1.000000
     53         -5.081567       -4.898719   1.000000   1.000000
     54         -4.999458       -4.849540   1.000000   1.000000
     55         -4.924502       -4.749222   1.000000   1.000000
     56         -4.573610       -4.377161   1.000000   1.000000
     57         -4.295517       -3.995391   1.000000   1.000000
     58         -4.227943       -3.969418   1.000000   1.000000
     59         -4.175088       -3.931232   1.000000   1.000000
     60         -4.087663       -3.761030   1.000000   1.000000
     61         -4.010035       -3.606262   1.000000   1.000000
     62         -3.976233       -3.486751   1.000000   1.000000
     63         -3.942041       -3.455510   1.000000   1.000000
     64         -3.904299       -3.389627   1.000000   1.000000
     65         -3.866052       -3.357018   1.000000   1.000000
     66         -3.849288       -3.092749   1.000000   1.000000
     67         -3.815075       -3.076733   1.000000   1.000000
     68         -3.782386       -3.012465   1.000000   1.000000
     69         -3.698995       -2.957182   1.000000   1.000000
     70         -3.690534       -2.888029   1.000000   1.000000
     71         -3.642167       -2.810060   1.000000   1.000000
     72         -3.606118       -2.782731   1.000000   1.000000
     73         -3.583457       -2.740184   1.000000   1.000000
     74         -3.536774       -2.711779   1.000000   1.000000
     75         -3.438538       -2.694382   1.000000   1.000000
     76         -3.410527       -2.665779   1.000000   1.000000
     77         -3.374126       -2.582470   1.000000   1.000000
     78         -3.360854       -2.532907   1.000000   1.000000
     79         -3.351967       -2.495293   1.000000   1.000000
     80         -3.346453       -2.433435   1.000000   1.000000
     81         -3.330727       -2.402796   1.000000   1.000000
     82         -3.306969       -2.368939   1.000000   1.000000
     83         -3.299548       -2.339536   1.000000   1.000000
     84         -3.292784       -2.319370   1.000000   1.000000
     85         -3.270064       -2.243939   1.000000   1.000000
     86         -3.253081       -2.231498   1.000000   1.000000
     87         -3.244283       -2.213117   1.000000   1.000000
     88         -3.224817       -2.181036   1.000000   1.000000
     89         -3.190819       -2.160901   1.000000   1.000000
     90         -3.169498       -2.133340   1.000000   1.000000
     91         -3.163477       -2.127649   1.000000   1.000000
     92         -3.145290       -2.102158   1.000000   1.000000
     93         -3.112815       -2.084629   1.000000   1.000000
     94         -3.100359       -2.032520   1.000000   1.000000
     95         -3.066931       -2.015704   1.000000   1.000000
     96         -3.060134       -1.995422   1.000000   1.000000
     97         -3.041029       -1.979859   1.000000   1.000000
     98         -3.031875       -1.942772   1.000000   1.000000
     99         -2.987678       -1.909559   1.000000   1.000000
    100         -2.973448       -1.900806   1.000000   1.000000
    101         -2.952570       -1.852486   1.000000   1.000000
    102         -2.925321       -1.842830   1.000000   1.000000
    103         -2.890976       -1.799556   1.000000   1.000000
    104         -2.864372       -1.750581   1.000000   1.000000
    105         -2.831341       -1.735887   1.000000   1.000000
    106         -2.796184       -1.704253   1.000000   1.000000
    107         -2.773437       -1.679046   1.000000   1.000000
    108         -2.745013       -1.660734   1.000000   1.000000
    109         -2.730014       -1.620264   1.000000   1.000000
    110         -2.722863       -1.590962   1.000000   1.000000
    111         -2.697155       -1.559769   1.000000   1.000000
    112         -2.682854       -1.524024   1.000000   1.000000
    113         -2.659559       -1.496154   1.000000   1.000000
    114         -2.637971       -1.470477   1.000000   1.000000
    115         -2.611217       -1.451963   1.000000   1.000000
    116         -2.602029       -1.429222   1.000000   1.000000
    117         -2.590475       -1.408205   1.000000   1.000000
    118         -2.578068       -1.395318   1.000000   1.000000
    119         -2.563357       -1.369602   1.000000   1.000000
    120         -2.545899       -1.342546   1.000000   1.000000
    121         -2.528971       -1.339456   1.000000   1.000000
    122         -2.514016       -1.315328   1.000000   1.000000
    123         -2.501409       -1.268980   1.000000   1.000000
    124         -2.483512       -1.252460   1.000000   1.000000
    125         -2.479228       -1.244565   1.000000   1.000000
    126         -2.468704       -1.231677   1.000000   1.000000
    127         -2.455137       -1.210604   1.000000   1.000000
    128         -2.449579       -1.191900   1.000000   1.000000
    129         -2.439306       -1.172236   1.000000   1.000000
    130         -2.427647       -1.137539   1.000000   1.000000
    131         -2.424559       -1.124631   1.000000   1.000000
    132         -2.408350       -1.113775   1.000000   1.000000
    133         -2.385991       -1.096582   1.000000   1.000000
    134         -2.379378       -1.071456   1.000000   1.000000
    135         -2.349435       -1.054805   1.000000   1.000000
    136         -2.340189       -1.041987   1.000000   1.000000
    137         -2.332443       -1.022260   1.000000   1.000000
    138         -2.317658       -1.006888   1.000000   1.000000
    139         -2.299862       -0.997409   1.000000   1.000000
    140         -2.278474       -0.970200   1.000000   1.000000
    141         -2.247765       -0.959284   1.000000   1.000000
    142         -2.243442       -0.923781   1.000000   1.000000
    143         -2.222035       -0.918334   1.000000   1.000000
    144         -2.215138       -0.896945   1.000000   1.000000
    145         -2.205689       -0.888377   1.000000   1.000000
    146         -2.193261       -0.859627   1.000000   1.000000
    147         -2.170412       -0.849599   1.000000   1.000000
    148         -2.164145       -0.819861   1.000000   1.000000
    149         -2.154731       -0.808758   1.000000   1.000000
    150         -2.132363       -0.786535   1.000000   1.000000
    151         -2.119011       -0.775572   1.000000   1.000000
    152         -2.099634       -0.749737   1.000000   1.000000
    153         -2.092023       -0.733497   1.000000   1.000000
    154         -2.076956       -0.722314   1.000000   1.000000
    155         -2.062025       -0.706363   1.000000   1.000000
    156         -2.044926       -0.690204   1.000000   1.000000
    157         -2.033283       -0.686008   1.000000   1.000000
    158         -2.022840       -0.645892   1.000000   1.000000
    159         -2.007241       -0.632079   1.000000   1.000000
    160         -2.002453       -0.618877   1.000000   1.000000
    161         -1.980905       -0.612792   1.000000   1.000000
    162         -1.967563       -0.579526   1.000000   1.000000
    163         -1.955118       -0.554292   1.000000   1.000000
    164         -1.946940       -0.542295   1.000000   1.000000
    165         -1.932598       -0.527760   1.000000   1.000000
    166         -1.911685       -0.514347   1.000000   1.000000
    167         -1.893883       -0.500641   1.000000   1.000000
    168         -1.877284       -0.492088   1.000000   1.000000
    169         -1.863591       -0.484941   1.000000   1.000000
    170         -1.848472       -0.470105   1.000000   1.000000
    171         -1.832223       -0.448673   1.000000   1.000000
    172         -1.829266       -0.442128   1.000000   1.000000
    173         -1.811645       -0.430228   1.000000   1.000000
    174         -1.790184       -0.403200   1.000000   1.000000
    175         -1.783270       -0.384281   1.000000   1.000000
    176         -1.762960       -0.373172   1.000000   1.000000
    177         -1.745440       -0.346825   1.000000   1.000000
    178         -1.726141       -0.337023   1.000000   1.000000
    179         -1.719448       -0.302080   1.000000   1.000000
    180         -1.703037       -0.287106   1.000000   1.000000
    181         -1.692548       -0.268836   1.000000   1.000000
    182         -1.668290       -0.259709   1.000000   1.000000
    183         -1.664281       -0.248948   1.000000   1.000000
    184         -1.661208       -0.220614   1.000000   1.000000
    185         -1.630183       -0.198620   1.000000   1.000000
    186         -1.610824       -0.180707   1.000000   1.000000
    187         -1.606606       -0.163298   1.000000   1.000000
    188         -1.589305       -0.153276   1.000000   1.000000
    189         -1.582304       -0.131808   1.000000   1.000000
    190         -1.556115       -0.121124   1.000000   1.000000
    191         -1.545299       -0.091432   1.000000   1.000000
    192         -1.540505       -0.084251   1.000000   1.000000
    193         -1.513095       -0.054538   1.000000   1.000000
    194         -1.504188       -0.039728   1.000000   1.000000
    195         -1.487923       -0.013652   1.000000   1.000000
    196         -1.476119        0.010119   1.000000   1.000000
    197         -1.459932        0.029102   1.000000   1.000000
    198         -1.433591        0.050874   1.000000   1.000000
    199         -1.428061        0.054840   1.000000   1.000000
    200         -1.408227        0.081523   1.000000   1.000000
    201         -1.383921        0.100535   1.000000   1.000000
    202         -1.373313        0.111634   1.000000   1.000000
    203         -1.345327        0.122348   1.000000   1.000000
    204         -1.323376        0.136381   1.000000   1.000000
    205         -1.308501        0.156313   1.000000   1.000000
    206         -1.288561        0.171183   1.000000   1.000000
    207         -1.265631        0.183953   1.000000   1.000000
    208         -1.252439        0.223096   1.000000   1.000000
    209         -1.217103        0.249325   1.000000   1.000000
    210         -1.203260        0.281008   1.000000   1.000000
    211         -1.193501        0.303647   1.000000   1.000000
    212         -1.154425        0.332216   1.000000   1.000000
    213         -1.141088        0.356502   1.000000   1.000000
    214         -1.118992        0.378612   1.000000   1.000000
    215         -1.081021        0.407360   1.000000   1.000001
    216         -1.061169        0.450688   1.000000   1.000004
    217         -1.052180        0.461853   1.000000   1.000006
    218         -1.027502        0.478765   1.000000   1.000013
    219         -0.991284        0.502923   1.000000   1.000035
    220         -0.980733        0.528596   1.000000   1.000094
    221         -0.966643        0.539983   1.000000   1.000143
    222         -0.939530        0.589614   1.000000   1.000762
    223         -0.917068        0.596244   1.000000   1.000935
    224         -0.904445        0.620332   1.000000   1.001892
    225         -0.893549        0.652122   1.000000   1.004365
    226         -0.862666        0.682923   1.000000   1.008812
    227         -0.851057        0.694832   1.000000   1.011216
    228         -0.828350        0.733549   1.000000   1.021593
    229         -0.823534        0.751071   1.000000   1.026970
    230         -0.800845        0.770862   1.000000   1.032367
    231         -0.774999        0.822511   1.000000   1.028709
    232         -0.760038        0.845386   1.000000   1.008973
    233         -0.740563        0.868004   1.000000   0.971699
    234         -0.723967        0.905250   1.000000   0.863054
    235         -0.707949        0.953483   1.000000   0.638171
    236         -0.690457        0.960599   1.000000   0.599366
    237         -0.666645        1.005872   1.000000   0.347576
    238         -0.655433        1.018988   1.000000   0.279782
    239         -0.648328        1.075847   1.000000   0.058812
    240         -0.624291        1.115396   1.000000  -0.013690
    241         -0.620501        1.140872   1.000000  -0.031763
    242         -0.607735        1.159280   1.000000  -0.035404
    243         -0.597116        1.168041   1.000000  -0.035226
    244         -0.583216        1.199037   1.000000  -0.028912
    245         -0.572609        1.211067   1.000000  -0.025311
    246         -0.559515        1.232817   1.000000  -0.018702
    247         -0.539934        1.256376   1.000000  -0.012461
    248         -0.527704        1.272907   1.000000  -0.008973
    249         -0.515661        1.296498   1.000000  -0.005304
    250         -0.506036        1.311953   1.000000  -0.003631
    251         -0.490983        1.343422   1.000000  -0.001548
    252         -0.477979        1.382033   1.000000  -0.000472
    253         -0.463721        1.402935   1.000000  -0.000233
    254         -0.458338        1.425569   1.000000  -0.000104
    255         -0.444766        1.439094   1.000000  -0.000062
    256         -0.440927        1.459491   1.000000  -0.000028
    257         -0.427865        1.472102   1.000000  -0.000017
    258         -0.413126        1.496341   1.000000  -0.000006
    259         -0.391217        1.520154   1.000000  -0.000002
    260         -0.382834        1.533973   1.000000  -0.000001
    261         -0.369027        1.562164   1.000000  -0.000000
    262         -0.368374        1.572364   1.000000  -0.000000
    263         -0.354606        1.598335   1.000000  -0.000000
    264         -0.345664        1.608849   1.000000  -0.000000
    265         -0.333888        1.632030   1.000000  -0.000000
    266         -0.321399        1.649904   1.000000  -0.000000
    267         -0.315987        1.665444   1.000000  -0.000000
    268         -0.310506        1.683484   1.000000  -0.000000
    269         -0.293924        1.704551   1.000000  -0.000000
    270         -0.291508        1.722145   1.000000  -0.000000
    271         -0.272443        1.734526   1.000000  -0.000000
    272         -0.268262        1.744217   1.000000  -0.000000
    273         -0.256977        1.748360   1.000000  -0.000000
    274         -0.236895        1.769720   1.000000  -0.000000
    275         -0.227717        1.783023   1.000000  -0.000000
    276         -0.219229        1.793535   1.000000  -0.000000
    277         -0.207494        1.805291   1.000000  -0.000000
    278         -0.204836        1.835382   1.000000  -0.000000
    279         -0.192943        1.840652   1.000000  -0.000000
    280         -0.181182        1.847902   1.000000  -0.000000
    281         -0.169267        1.860612   1.000000  -0.000000
    282         -0.158993        1.871417   1.000000  -0.000000
    283         -0.152301        1.885522   1.000000  -0.000000
    284         -0.136937        1.897567   1.000000  -0.000000
    285         -0.127865        1.923146   1.000000  -0.000000
    286         -0.112264        1.924545   1.000000  -0.000000
    287         -0.093499        1.946067   1.000000  -0.000000
    288         -0.066523        1.957676   1.000000  -0.000000
    289         -0.053029        1.969664   1.000000  -0.000000
    290         -0.036098        1.980077   1.000000  -0.000000
    291         -0.020204        1.996116   1.000000  -0.000000
    292         -0.008755        2.008631   1.000000  -0.000000
    293          0.001385        2.022130   1.000000  -0.000000
    294          0.021534        2.032892   1.000000  -0.000000
    295          0.027951        2.040373   1.000000  -0.000000
    296          0.041249        2.059490   1.000000  -0.000000
    297          0.051168        2.070921   1.000000  -0.000000
    298          0.076982        2.079719   1.000000  -0.000000
    299          0.100738        2.095872   1.000000  -0.000000
    300          0.113557        2.104420   1.000000  -0.000000
    301          0.130116        2.108549   1.000000  -0.000000
    302          0.141994        2.122199   1.000000  -0.000000
    303          0.171324        2.139170   1.000000  -0.000000
    304          0.212853        2.150440   1.000000  -0.000000
    305          0.237618        2.160513   1.000000  -0.000000
    306          0.255613        2.170876   1.000000  -0.000000
    307          0.283380        2.179954   1.000000  -0.000000
    308          0.293150        2.197762   1.000000  -0.000000
    309          0.329383        2.203473   1.000000  -0.000000
    310          0.339126        2.220424   1.000000  -0.000000
    311          0.372567        2.224770   1.000000  -0.000000
    312          0.381259        2.234835   1.000000  -0.000000
    313          0.420167        2.242051   1.000001  -0.000000
    314          0.438892        2.254288   1.000002  -0.000000
    315          0.459639        2.263589   1.000006  -0.000000
    316          0.477391        2.277270   1.000012  -0.000000
    317          0.509126        2.293048   1.000045  -0.000000
    318          0.542388        2.300936   1.000156  -0.000000
    319          0.572473        2.310461   1.000440  -0.000000
    320          0.589413        2.314415   1.000757  -0.000000
    321          0.623512        2.334659   1.002067  -0.000000
    322          0.640711        2.338500   1.003275  -0.000000
    323          0.665378        2.354149   1.005986  -0.000000
    324          0.711218        2.370326   1.015178  -0.000000
    325          0.752261        2.373154   1.027327  -0.000000
    326          0.789409        2.391493   1.035279  -0.000000
    327          0.840128        2.411352   1.014941  -0.000000
    328          0.853646        2.415054   0.997639  -0.000000
    329          0.872758        2.427064   0.961239  -0.000000
    330          0.902770        2.432569   0.872206  -0.000000
    331          0.971084        2.446803   0.540930  -0.000000
    332          0.999043        2.454353   0.384468  -0.000000
    333          1.018074        2.463833   0.284353  -0.000000
    334          1.050314        2.474073   0.141212  -0.000000
    335          1.102301        2.490981   0.003514  -0.000000
    336          1.146954        2.502468  -0.033673  -0.000000
    337          1.203064        2.511037  -0.027736  -0.000000
    338          1.223826        2.514597  -0.021386  -0.000000
    339          1.255822        2.533838  -0.012591  -0.000000
    340          1.326059        2.541526  -0.002511  -0.000000
    341          1.340925        2.554850  -0.001663  -0.000000
    342          1.384449        2.558375  -0.000436  -0.000000
    343          1.421534        2.562416  -0.000120  -0.000000
    344          1.463096        2.570482  -0.000024  -0.000000
    345          1.509459        2.583004  -0.000003  -0.000000
    346          1.539168        2.588395  -0.000001  -0.000000
    347          1.566618        2.596234  -0.000000  -0.000000
    348          1.581508        2.609634  -0.000000  -0.000000
    349          1.605703        2.629930  -0.000000  -0.000000
    350          1.651239        2.640908  -0.000000  -0.000000
    351          1.681846        2.659871  -0.000000  -0.000000
    352          1.727997        2.668512  -0.000000  -0.000000
    353          1.751723        2.685402  -0.000000  -0.000000
    354          1.771895        2.696710  -0.000000  -0.000000
    355          1.840349        2.715434  -0.000000  -0.000000
    356          1.891953        2.725445  -0.000000  -0.000000
    357          1.924100        2.737674  -0.000000  -0.000000
    358          1.962103        2.754820  -0.000000  -0.000000
    359          1.971869        2.768289  -0.000000  -0.000000
    360          1.999312        2.783809  -0.000000  -0.000000
    361          2.013012        2.800670  -0.000000  -0.000000
    362          2.078218        2.815844  -0.000000  -0.000000
    363          2.106889        2.825240  -0.000000  -0.000000
    364          2.113686        2.842697  -0.000000  -0.000000
    365          2.133316        2.861991  -0.000000  -0.000000
    366          2.172905        2.867245  -0.000000  -0.000000
    367          2.261431        2.884828  -0.000000  -0.000000
    368          2.272244        2.899202  -0.000000  -0.000000
    369          2.301419        2.909631  -0.000000  -0.000000
    370          2.316992        2.923525  -0.000000  -0.000000
    371          2.331274        2.945005  -0.000000  -0.000000
    372          2.383184        2.970768  -0.000000  -0.000000
 
  0.1276756E-14  0.5000000E+00  0.1276756E-14  0.6250000E-01
      1        -42.850036      -43.350855   1.000000   1.000000
      2        -42.815496      -43.334381   1.000000   1.000000
      3        -42.797110      -43.321327   1.000000   1.000000
      4        -42.780245      -43.305198   1.000000   1.000000
      5        -42.764988      -43.298157   1.000000   1.000000
      6        -42.735055      -43.276846   1.000000   1.000000
      7        -42.205012      -43.272683   1.000000   1.000000
      8        -42.153819      -43.264206   1.000000   1.000000
      9        -42.117009      -43.256906   1.000000   1.000000
     10        -42.077944      -43.240267   1.000000   1.000000
     11        -42.002870      -43.238181   1.000000   1.000000
     12        -41.985644      -43.231820   1.000000   1.000000
     13        -41.955785      -43.230083   1.000000   1.000000
     14        -41.940745      -43.197477   1.000000   1.000000
     15        -41.927886      -43.167836   1.000000   1.000000
     16        -41.854181      -43.161389   1.000000   1.000000
     17        -41.847052      -43.137116   1.000000   1.000000
     18        -41.820095      -43.123840   1.000000   1.000000
     19        -41.798652      -43.113445   1.000000   1.000000
     20        -41.762865      -43.057684   1.000000   1.000000
     21        -41.725786      -43.045695   1.000000   1.000000
     22        -41.719803      -42.920439   1.000000   1.000000
     23        -41.702800      -42.852886   1.000000   1.000000
     24        -41.677862      -42.745975   1.000000   1.000000
     25        -41.507540      -42.740940   1.000000   1.000000
     26        -41.446947      -42.735191   1.000000   1.000000
     27        -41.407092      -42.638582   1.000000   1.000000
     28        -41.083379      -42.590605   1.000000   1.000000
     29        -41.044691      -42.559992   1.000000   1.000000
     30        -41.032362      -42.498986   1.000000   1.000000
     31        -40.200688      -42.446162   1.000000   1.000000
     32        -40.145504      -42.304532   1.000000   1.000000
     33        -40.136198      -42.196918   1.000000   1.000000
     34        -40.126417      -42.145029   1.000000   1.000000
     35        -40.125276      -42.009700   1.000000   1.000000
     36        -40.107858      -41.825885   1.000000   1.000000
     37        -40.066938      -39.938224   1.000000   1.000000
     38        -40.051690      -39.869988   1.000000   1.000000
     39        -40.045551      -39.848798   1.000000   1.000000
     40        -40.042613      -39.765394   1.000000   1.000000
     41        -40.008448      -39.733189   1.000000   1.000000
     42        -39.990748      -39.652154   1.000000   1.000000
     43        -15.539607      -15.543841   1.000000   1.000000
     44        -15.524712      -15.532269   1.000000   1.000000
     45        -15.517139      -15.529752   1.000000   1.000000
     46        -15.512110      -15.526848   1.000000   1.000000
     47        -15.464461      -15.481409   1.000000   1.000000
     48         -7.837447       -7.830316   1.000000   1.000000
     49         -6.654446       -6.532910   1.000000   1.000000
     50         -6.558544       -6.466842   1.000000   1.000000
     51         -5.769739       -5.638839   1.000000   1.000000
     52         -5.517776       -5.413849   1.000000   1.000000
     53         -4.832892       -4.596010   1.000000   1.000000
     54         -4.792867       -4.581615   1.000000   1.000000
     55         -4.761772       -4.555733   1.000000   1.000000
     56         -4.719840       -4.537115   1.000000   1.000000
     57         -4.516172       -4.332349   1.000000   1.000000
     58         -4.351870       -4.120166   1.000000   1.000000
     59         -4.183368       -3.876993   1.000000   1.000000
     60         -4.127274       -3.821626   1.000000   1.000000
     61         -4.040134       -3.791228   1.000000   1.000000
     62         -3.981320       -3.681282   1.000000   1.000000
     63         -3.958787       -3.227624   1.000000   1.000000
     64         -3.910860       -3.178876   1.000000   1.000000
     65         -3.745128       -3.124293   1.000000   1.000000
     66         -3.725731       -3.087101   1.000000   1.000000
     67         -3.698380       -3.071993   1.000000   1.000000
     68         -3.693156       -3.055987   1.000000   1.000000
     69         -3.669043       -3.022458   1.000000   1.000000
     70         -3.646865       -2.962929   1.000000   1.000000
     71         -3.636153       -2.920607   1.000000   1.000000
     72         -3.621856       -2.900709   1.000000   1.000000
     73         -3.608722       -2.849494   1.000000   1.000000
     74         -3.600501       -2.802814   1.000000   1.000000
     75         -3.587944       -2.786973   1.000000   1.000000
     76         -3.557909       -2.756629   1.000000   1.000000
     77         -3.542775       -2.695657   1.000000   1.000000
     78         -3.534817       -2.446432   1.000000   1.000000
     79         -3.510788       -2.408171   1.000000   1.000000
     80         -3.491140       -2.390251   1.000000   1.000000
     81         -3.416185       -2.369202   1.000000   1.000000
     82         -3.318053       -2.341706   1.000000   1.000000
     83         -3.285145       -2.324706   1.000000   1.000000
     84         -3.256076       -2.286032   1.000000   1.000000
     85         -3.246874       -2.281989   1.000000   1.000000
     86         -3.210349       -2.246153   1.000000   1.000000
     87         -3.191165       -2.209911   1.000000   1.000000
     88         -3.158792       -2.192840   1.000000   1.000000
     89         -3.150097       -2.162042   1.000000   1.000000
     90         -3.125254       -2.143445   1.000000   1.000000
     91         -3.111449       -2.101421   1.000000   1.000000
     92         -3.065721       -2.088686   1.000000   1.000000
     93         -3.054534       -2.038086   1.000000   1.000000
     94         -3.040565       -1.999096   1.000000   1.000000
     95         -3.029294       -1.973421   1.000000   1.000000
     96         -3.008725       -1.945297   1.000000   1.000000
     97         -2.995629       -1.921014   1.000000   1.000000
     98         -2.979436       -1.893316   1.000000   1.000000
     99         -2.971535       -1.867881   1.000000   1.000000
    100         -2.953529       -1.854633   1.000000   1.000000
    101         -2.938675       -1.831668   1.000000   1.000000
    102         -2.915560       -1.811681   1.000000   1.000000
    103         -2.897461       -1.803337   1.000000   1.000000
    104         -2.881984       -1.774831   1.000000   1.000000
    105         -2.862236       -1.763513   1.000000   1.000000
    106         -2.823144       -1.715428   1.000000   1.000000
    107         -2.810299       -1.697628   1.000000   1.000000
    108         -2.797644       -1.687459   1.000000   1.000000
    109         -2.791547       -1.638703   1.000000   1.000000
    110         -2.758889       -1.594885   1.000000   1.000000
    111         -2.731918       -1.563449   1.000000   1.000000
    112         -2.730539       -1.532368   1.000000   1.000000
    113         -2.709628       -1.531047   1.000000   1.000000
    114         -2.687294       -1.512878   1.000000   1.000000
    115         -2.664279       -1.473941   1.000000   1.000000
    116         -2.623032       -1.457388   1.000000   1.000000
    117         -2.621101       -1.456651   1.000000   1.000000
    118         -2.574470       -1.433033   1.000000   1.000000
    119         -2.566455       -1.402268   1.000000   1.000000
    120         -2.544193       -1.383401   1.000000   1.000000
    121         -2.532168       -1.321606   1.000000   1.000000
    122         -2.522559       -1.285667   1.000000   1.000000
    123         -2.505557       -1.258340   1.000000   1.000000
    124         -2.493497       -1.241116   1.000000   1.000000
    125         -2.472405       -1.219813   1.000000   1.000000
    126         -2.459098       -1.196615   1.000000   1.000000
    127         -2.457129       -1.183843   1.000000   1.000000
    128         -2.445577       -1.165276   1.000000   1.000000
    129         -2.424808       -1.133499   1.000000   1.000000
    130         -2.415309       -1.127682   1.000000   1.000000
    131         -2.402771       -1.113704   1.000000   1.000000
    132         -2.397445       -1.109645   1.000000   1.000000
    133         -2.387071       -1.096165   1.000000   1.000000
    134         -2.370682       -1.077357   1.000000   1.000000
    135         -2.352795       -1.058263   1.000000   1.000000
    136         -2.349036       -1.028317   1.000000   1.000000
    137         -2.332833       -1.016325   1.000000   1.000000
    138         -2.307451       -1.004467   1.000000   1.000000
    139         -2.291329       -0.993236   1.000000   1.000000
    140         -2.266062       -0.950175   1.000000   1.000000
    141         -2.264127       -0.936385   1.000000   1.000000
    142         -2.255580       -0.928624   1.000000   1.000000
    143         -2.249138       -0.896271   1.000000   1.000000
    144         -2.208085       -0.885858   1.000000   1.000000
    145         -2.199742       -0.877089   1.000000   1.000000
    146         -2.156813       -0.845846   1.000000   1.000000
    147         -2.148973       -0.826552   1.000000   1.000000
    148         -2.134050       -0.800645   1.000000   1.000000
    149         -2.117629       -0.785747   1.000000   1.000000
    150         -2.109102       -0.773151   1.000000   1.000000
    151         -2.092978       -0.751485   1.000000   1.000000
    152         -2.073935       -0.750475   1.000000   1.000000
    153         -2.056248       -0.733494   1.000000   1.000000
    154         -2.049030       -0.726410   1.000000   1.000000
    155         -2.037974       -0.677757   1.000000   1.000000
    156         -2.033623       -0.669547   1.000000   1.000000
    157         -2.005315       -0.654273   1.000000   1.000000
    158         -2.002058       -0.633038   1.000000   1.000000
    159         -1.990065       -0.614259   1.000000   1.000000
    160         -1.980309       -0.598433   1.000000   1.000000
    161         -1.961726       -0.568427   1.000000   1.000000
    162         -1.959473       -0.557110   1.000000   1.000000
    163         -1.942360       -0.544184   1.000000   1.000000
    164         -1.918455       -0.533996   1.000000   1.000000
    165         -1.901135       -0.503501   1.000000   1.000000
    166         -1.898052       -0.494331   1.000000   1.000000
    167         -1.883122       -0.477091   1.000000   1.000000
    168         -1.879476       -0.473901   1.000000   1.000000
    169         -1.865805       -0.448826   1.000000   1.000000
    170         -1.846234       -0.441089   1.000000   1.000000
    171         -1.830422       -0.435529   1.000000   1.000000
    172         -1.825366       -0.423508   1.000000   1.000000
    173         -1.790439       -0.402426   1.000000   1.000000
    174         -1.789048       -0.393281   1.000000   1.000000
    175         -1.771852       -0.369294   1.000000   1.000000
    176         -1.765021       -0.362053   1.000000   1.000000
    177         -1.750048       -0.346665   1.000000   1.000000
    178         -1.722399       -0.341161   1.000000   1.000000
    179         -1.715801       -0.318526   1.000000   1.000000
    180         -1.700147       -0.300547   1.000000   1.000000
    181         -1.676899       -0.275790   1.000000   1.000000
    182         -1.669460       -0.268639   1.000000   1.000000
    183         -1.652460       -0.251322   1.000000   1.000000
    184         -1.634052       -0.241425   1.000000   1.000000
    185         -1.624202       -0.228812   1.000000   1.000000
    186         -1.617218       -0.202098   1.000000   1.000000
    187         -1.598064       -0.184849   1.000000   1.000000
    188         -1.575667       -0.174768   1.000000   1.000000
    189         -1.569921       -0.164996   1.000000   1.000000
    190         -1.561167       -0.158607   1.000000   1.000000
    191         -1.544666       -0.121058   1.000000   1.000000
    192         -1.517878       -0.113824   1.000000   1.000000
    193         -1.515913       -0.085103   1.000000   1.000000
    194         -1.496183       -0.069831   1.000000   1.000000
    195         -1.481574       -0.057440   1.000000   1.000000
    196         -1.458892       -0.029175   1.000000   1.000000
    197         -1.441704       -0.020983   1.000000   1.000000
    198         -1.423356       -0.012356   1.000000   1.000000
    199         -1.421395        0.023408   1.000000   1.000000
    200         -1.406233        0.050420   1.000000   1.000000
    201         -1.378043        0.058484   1.000000   1.000000
    202         -1.368341        0.083173   1.000000   1.000000
    203         -1.350555        0.098661   1.000000   1.000000
    204         -1.322185        0.128776   1.000000   1.000000
    205         -1.320357        0.140528   1.000000   1.000000
    206         -1.309572        0.168664   1.000000   1.000000
    207         -1.293048        0.208172   1.000000   1.000000
    208         -1.274576        0.212755   1.000000   1.000000
    209         -1.255309        0.221282   1.000000   1.000000
    210         -1.229960        0.249280   1.000000   1.000000
    211         -1.208181        0.293129   1.000000   1.000000
    212         -1.190400        0.302570   1.000000   1.000000
    213         -1.161312        0.306649   1.000000   1.000000
    214         -1.152646        0.318698   1.000000   1.000000
    215         -1.112831        0.347765   1.000000   1.000000
    216         -1.106077        0.389502   1.000000   1.000000
    217         -1.075302        0.411249   1.000000   1.000001
    218         -1.053129        0.485541   1.000000   1.000017
    219         -1.029841        0.507586   1.000000   1.000042
    220         -1.022470        0.534412   1.000000   1.000117
    221         -0.999629        0.543810   1.000000   1.000164
    222         -0.978898        0.566237   1.000000   1.000357
    223         -0.935787        0.578132   1.000000   1.000529
    224         -0.911360        0.615122   1.000000   1.001633
    225         -0.899238        0.652632   1.000000   1.004420
    226         -0.884395        0.691898   1.000000   1.010586
    227         -0.876739        0.694700   1.000000   1.011187
    228         -0.862831        0.737206   1.000000   1.022714
    229         -0.833029        0.773070   1.000000   1.032859
    230         -0.821429        0.816226   1.000000   1.031609
    231         -0.774863        0.817618   1.000000   1.031047
    232         -0.761798        0.861836   1.000000   0.983856
    233         -0.733839        0.878660   1.000000   0.946898
    234         -0.724461        0.940776   1.000000   0.704782
    235         -0.719664        0.950518   1.000000   0.654056
    236         -0.681985        0.998003   1.000000   0.390157
    237         -0.676745        1.042260   1.000000   0.173160
    238         -0.666601        1.098988   1.000000   0.008870
    239         -0.644738        1.118092   1.000000  -0.016499
    240         -0.630311        1.125004   1.000000  -0.022657
    241         -0.623460        1.143977   1.000000  -0.032835
    242         -0.604271        1.167925   1.000000  -0.035235
    243         -0.601404        1.176408   1.000000  -0.034224
    244         -0.580903        1.198846   1.000000  -0.028967
    245         -0.572097        1.210075   1.000000  -0.025616
    246         -0.547662        1.231047   1.000000  -0.019221
    247         -0.544480        1.275315   1.000000  -0.008530
    248         -0.541902        1.294254   1.000000  -0.005591
    249         -0.521433        1.323228   1.000000  -0.002708
    250         -0.518897        1.356872   1.000000  -0.001042
    251         -0.508222        1.374758   1.000000  -0.000598
    252         -0.493213        1.383890   1.000000  -0.000445
    253         -0.489765        1.410183   1.000000  -0.000181
    254         -0.468648        1.426700   1.000000  -0.000099
    255         -0.456975        1.445860   1.000000  -0.000048
    256         -0.446543        1.467587   1.000000  -0.000020
    257         -0.431862        1.471449   1.000000  -0.000017
    258         -0.424225        1.495219   1.000000  -0.000006
    259         -0.417592        1.523670   1.000000  -0.000002
    260         -0.402563        1.560217   1.000000  -0.000000
    261         -0.385993        1.579610   1.000000  -0.000000
    262         -0.378108        1.590536   1.000000  -0.000000
    263         -0.357613        1.601620   1.000000  -0.000000
    264         -0.344658        1.630104   1.000000  -0.000000
    265         -0.339361        1.643878   1.000000  -0.000000
    266         -0.337440        1.657836   1.000000  -0.000000
    267         -0.320540        1.691339   1.000000  -0.000000
    268         -0.315669        1.703347   1.000000  -0.000000
    269         -0.301375        1.714235   1.000000  -0.000000
    270         -0.295924        1.722820   1.000000  -0.000000
    271         -0.270719        1.727996   1.000000  -0.000000
    272         -0.257557        1.741411   1.000000  -0.000000
    273         -0.252960        1.772087   1.000000  -0.000000
    274         -0.246074        1.785222   1.000000  -0.000000
    275         -0.241192        1.815104   1.000000  -0.000000
    276         -0.225227        1.819021   1.000000  -0.000000
    277         -0.221444        1.831725   1.000000  -0.000000
    278         -0.193982        1.843833   1.000000  -0.000000
    279         -0.186585        1.865706   1.000000  -0.000000
    280         -0.171026        1.874454   1.000000  -0.000000
    281         -0.164658        1.884060   1.000000  -0.000000
    282         -0.144049        1.896090   1.000000  -0.000000
    283         -0.136142        1.904608   1.000000  -0.000000
    284         -0.112605        1.916036   1.000000  -0.000000
    285         -0.107818        1.928820   1.000000  -0.000000
    286         -0.097208        1.940182   1.000000  -0.000000
    287         -0.083205        1.953017   1.000000  -0.000000
    288         -0.067704        1.963679   1.000000  -0.000000
    289         -0.048031        1.978292   1.000000  -0.000000
    290         -0.032685        1.986183   1.000000  -0.000000
    291         -0.017867        1.994590   1.000000  -0.000000
    292          0.000093        2.010486   1.000000  -0.000000
    293          0.010122        2.017840   1.000000  -0.000000
    294          0.030978        2.022860   1.000000  -0.000000
    295          0.036015        2.034555   1.000000  -0.000000
    296          0.056484        2.041657   1.000000  -0.000000
    297          0.082931        2.048986   1.000000  -0.000000
    298          0.108741        2.054142   1.000000  -0.000000
    299          0.126082        2.071655   1.000000  -0.000000
    300          0.148551        2.076192   1.000000  -0.000000
    301          0.163704        2.099448   1.000000  -0.000000
    302          0.168838        2.103401   1.000000  -0.000000
    303          0.219888        2.121199   1.000000  -0.000000
    304          0.231679        2.124145   1.000000  -0.000000
    305          0.268031        2.145580   1.000000  -0.000000
    306          0.276463        2.154963   1.000000  -0.000000
    307          0.300967        2.156986   1.000000  -0.000000
    308          0.331184        2.166459   1.000000  -0.000000
    309          0.335839        2.179689   1.000000  -0.000000
    310          0.365385        2.186154   1.000000  -0.000000
    311          0.404681        2.201728   1.000000  -0.000000
    312          0.415359        2.213340   1.000001  -0.000000
    313          0.457804        2.229020   1.000005  -0.000000
    314          0.476483        2.244875   1.000012  -0.000000
    315          0.496484        2.253961   1.000027  -0.000000
    316          0.505763        2.260889   1.000039  -0.000000
    317          0.517156        2.280204   1.000061  -0.000000
    318          0.552104        2.289864   1.000220  -0.000000
    319          0.624134        2.302349   1.002103  -0.000000
    320          0.633019        2.311780   1.002676  -0.000000
    321          0.692701        2.336835   1.010756  -0.000000
    322          0.704430        2.341380   1.013448  -0.000000
    323          0.707442        2.357556   1.014200  -0.000000
    324          0.732210        2.386218   1.021186  -0.000000
    325          0.783446        2.394861   1.034684  -0.000000
    326          0.813508        2.397311   1.032582  -0.000000
    327          0.845075        2.419479   1.009353  -0.000000
    328          0.887433        2.429987   0.922735  -0.000000
    329          0.905155        2.449947   0.863412  -0.000000
    330          0.923950        2.458918   0.785672  -0.000000
    331          0.972216        2.460123   0.534563  -0.000000
    332          1.029514        2.472208   0.229105  -0.000000
    333          1.078034        2.483768   0.053109  -0.000000
    334          1.085567        2.498802   0.035068  -0.000000
    335          1.132106        2.503673  -0.027536  -0.000000
    336          1.161928        2.531888  -0.035458  -0.000000
    337          1.166177        2.534192  -0.035346  -0.000000
    338          1.212165        2.543195  -0.024973  -0.000000
    339          1.249629        2.551108  -0.014105  -0.000000
    340          1.304826        2.559485  -0.004339  -0.000000
    341          1.352586        2.576156  -0.001185  -0.000000
    342          1.380554        2.583181  -0.000496  -0.000000
    343          1.396152        2.595584  -0.000295  -0.000000
    344          1.411198        2.604073  -0.000174  -0.000000
    345          1.465183        2.608990  -0.000022  -0.000000
    346          1.519934        2.615644  -0.000002  -0.000000
    347          1.537139        2.623211  -0.000001  -0.000000
    348          1.618761        2.630481  -0.000000  -0.000000
    349          1.639556        2.637135  -0.000000  -0.000000
    350          1.648141        2.643152  -0.000000  -0.000000
    351          1.690695        2.650799  -0.000000  -0.000000
    352          1.705813        2.666548  -0.000000  -0.000000
    353          1.761974        2.673669  -0.000000  -0.000000
    354          1.766669        2.688825  -0.000000  -0.000000
    355          1.830311        2.694811  -0.000000  -0.000000
    356          1.870053        2.702927  -0.000000  -0.000000
    357          1.880660        2.708940  -0.000000  -0.000000
    358          1.913283        2.727242  -0.000000  -0.000000
    359          1.942808        2.730723  -0.000000  -0.000000
    360          1.971840        2.771234  -0.000000  -0.000000
    361          2.021440        2.788650  -0.000000  -0.000000
    362          2.039476        2.810482  -0.000000  -0.000000
    363          2.069454        2.839408  -0.000000  -0.000000
    364          2.091780        2.859373  -0.000000  -0.000000
    365          2.126432        2.876390  -0.000000  -0.000000
    366          2.158917        2.896659  -0.000000  -0.000000
    367          2.181456        2.931463  -0.000000  -0.000000
    368          2.249093        2.941908  -0.000000  -0.000000
    369          2.285074        2.971669  -0.000000  -0.000000
    370          2.287810        2.995928  -0.000000  -0.000000
    371          2.310828        3.007940  -0.000000  -0.000000
    372          2.366334        3.043309  -0.000000  -0.000000
 
  0.2500000E+00  0.5000000E+00  0.1276756E-14  0.1250000E+00
      1        -42.850035      -43.350860   1.000000   1.000000
      2        -42.815500      -43.334387   1.000000   1.000000
      3        -42.797105      -43.321340   1.000000   1.000000
      4        -42.780229      -43.305198   1.000000   1.000000
      5        -42.764975      -43.298163   1.000000   1.000000
      6        -42.735058      -43.276823   1.000000   1.000000
      7        -42.205003      -43.272672   1.000000   1.000000
      8        -42.153804      -43.264186   1.000000   1.000000
      9        -42.117002      -43.256897   1.000000   1.000000
     10        -42.077927      -43.240259   1.000000   1.000000
     11        -42.002855      -43.238181   1.000000   1.000000
     12        -41.985653      -43.231800   1.000000   1.000000
     13        -41.955777      -43.230078   1.000000   1.000000
     14        -41.940748      -43.197462   1.000000   1.000000
     15        -41.927880      -43.167835   1.000000   1.000000
     16        -41.854180      -43.161394   1.000000   1.000000
     17        -41.847050      -43.137105   1.000000   1.000000
     18        -41.820088      -43.123828   1.000000   1.000000
     19        -41.798632      -43.113435   1.000000   1.000000
     20        -41.762857      -43.057684   1.000000   1.000000
     21        -41.725791      -43.045693   1.000000   1.000000
     22        -41.719816      -42.920444   1.000000   1.000000
     23        -41.702787      -42.852872   1.000000   1.000000
     24        -41.677864      -42.745980   1.000000   1.000000
     25        -41.507526      -42.740938   1.000000   1.000000
     26        -41.446938      -42.735182   1.000000   1.000000
     27        -41.407098      -42.638592   1.000000   1.000000
     28        -41.083374      -42.590584   1.000000   1.000000
     29        -41.044683      -42.559976   1.000000   1.000000
     30        -41.032357      -42.498981   1.000000   1.000000
     31        -40.200704      -42.446164   1.000000   1.000000
     32        -40.145475      -42.304524   1.000000   1.000000
     33        -40.136181      -42.196906   1.000000   1.000000
     34        -40.126401      -42.145032   1.000000   1.000000
     35        -40.125270      -42.009703   1.000000   1.000000
     36        -40.107842      -41.825879   1.000000   1.000000
     37        -40.066944      -39.938224   1.000000   1.000000
     38        -40.051671      -39.869964   1.000000   1.000000
     39        -40.045559      -39.848778   1.000000   1.000000
     40        -40.042613      -39.765392   1.000000   1.000000
     41        -40.008451      -39.733194   1.000000   1.000000
     42        -39.990754      -39.652160   1.000000   1.000000
     43        -15.539544      -15.543854   1.000000   1.000000
     44        -15.524726      -15.532218   1.000000   1.000000
     45        -15.517130      -15.529747   1.000000   1.000000
     46        -15.512122      -15.526856   1.000000   1.000000
     47        -15.464463      -15.481410   1.000000   1.000000
     48         -7.820916       -7.817227   1.000000   1.000000
     49         -6.520052       -6.396292   1.000000   1.000000
     50         -6.437161       -6.341339   1.000000   1.000000
     51         -5.644490       -5.512976   1.000000   1.000000
     52         -5.525239       -5.398668   1.000000   1.000000
     53         -5.506910       -5.357294   1.000000   1.000000
     54         -5.373534       -5.257566   1.000000   1.000000
     55         -4.729491       -4.547950   1.000000   1.000000
     56         -4.618653       -4.448581   1.000000   1.000000
     57         -4.428218       -4.215451   1.000000   1.000000
     58         -4.201595       -3.964377   1.000000   1.000000
     59         -4.059560       -3.715086   1.000000   1.000000
     60         -4.045147       -3.706092   1.000000   1.000000
     61         -3.881456       -3.419093   1.000000   1.000000
     62         -3.826881       -3.320020   1.000000   1.000000
     63         -3.808110       -3.206272   1.000000   1.000000
     64         -3.776075       -3.145772   1.000000   1.000000
     65         -3.756670       -3.116238   1.000000   1.000000
     66         -3.721698       -3.073875   1.000000   1.000000
     67         -3.699340       -3.019512   1.000000   1.000000
     68         -3.667545       -2.997110   1.000000   1.000000
     69         -3.650305       -2.965198   1.000000   1.000000
     70         -3.624664       -2.897871   1.000000   1.000000
     71         -3.607724       -2.863927   1.000000   1.000000
     72         -3.575540       -2.851612   1.000000   1.000000
     73         -3.560181       -2.807447   1.000000   1.000000
     74         -3.543797       -2.790724   1.000000   1.000000
     75         -3.537060       -2.751439   1.000000   1.000000
     76         -3.527274       -2.698590   1.000000   1.000000
     77         -3.509651       -2.639560   1.000000   1.000000
     78         -3.477455       -2.481463   1.000000   1.000000
     79         -3.455019       -2.433813   1.000000   1.000000
     80         -3.444457       -2.425045   1.000000   1.000000
     81         -3.377435       -2.396471   1.000000   1.000000
     82         -3.364706       -2.377323   1.000000   1.000000
     83         -3.285306       -2.362354   1.000000   1.000000
     84         -3.271140       -2.330112   1.000000   1.000000
     85         -3.253079       -2.323078   1.000000   1.000000
     86         -3.222125       -2.298034   1.000000   1.000000
     87         -3.204695       -2.260366   1.000000   1.000000
     88         -3.195612       -2.233471   1.000000   1.000000
     89         -3.185378       -2.206361   1.000000   1.000000
     90         -3.168496       -2.196275   1.000000   1.000000
     91         -3.153645       -2.161897   1.000000   1.000000
     92         -3.143384       -2.109628   1.000000   1.000000
     93         -3.123185       -2.098959   1.000000   1.000000
     94         -3.101672       -2.086487   1.000000   1.000000
     95         -3.085962       -2.045895   1.000000   1.000000
     96         -3.076494       -2.024242   1.000000   1.000000
     97         -3.059842       -1.977964   1.000000   1.000000
     98         -3.049137       -1.953967   1.000000   1.000000
     99         -3.037121       -1.904323   1.000000   1.000000
    100         -3.003434       -1.881700   1.000000   1.000000
    101         -2.965190       -1.859876   1.000000   1.000000
    102         -2.935546       -1.846074   1.000000   1.000000
    103         -2.923364       -1.820281   1.000000   1.000000
    104         -2.895756       -1.760704   1.000000   1.000000
    105         -2.884818       -1.744811   1.000000   1.000000
    106         -2.860683       -1.727904   1.000000   1.000000
    107         -2.841746       -1.710832   1.000000   1.000000
    108         -2.818500       -1.682091   1.000000   1.000000
    109         -2.789303       -1.662296   1.000000   1.000000
    110         -2.746591       -1.638580   1.000000   1.000000
    111         -2.728546       -1.620453   1.000000   1.000000
    112         -2.716584       -1.602518   1.000000   1.000000
    113         -2.695553       -1.554325   1.000000   1.000000
    114         -2.669743       -1.535952   1.000000   1.000000
    115         -2.649307       -1.503052   1.000000   1.000000
    116         -2.626293       -1.476387   1.000000   1.000000
    117         -2.612166       -1.434851   1.000000   1.000000
    118         -2.593015       -1.416986   1.000000   1.000000
    119         -2.577491       -1.375555   1.000000   1.000000
    120         -2.558233       -1.340949   1.000000   1.000000
    121         -2.553536       -1.329549   1.000000   1.000000
    122         -2.539420       -1.313169   1.000000   1.000000
    123         -2.520547       -1.288563   1.000000   1.000000
    124         -2.507076       -1.270666   1.000000   1.000000
    125         -2.495741       -1.258133   1.000000   1.000000
    126         -2.488731       -1.238050   1.000000   1.000000
    127         -2.470116       -1.215340   1.000000   1.000000
    128         -2.466395       -1.195646   1.000000   1.000000
    129         -2.446796       -1.186412   1.000000   1.000000
    130         -2.441175       -1.159721   1.000000   1.000000
    131         -2.434182       -1.152798   1.000000   1.000000
    132         -2.413276       -1.143674   1.000000   1.000000
    133         -2.395764       -1.104966   1.000000   1.000000
    134         -2.384215       -1.085149   1.000000   1.000000
    135         -2.375620       -1.063309   1.000000   1.000000
    136         -2.359979       -1.042674   1.000000   1.000000
    137         -2.341955       -1.038904   1.000000   1.000000
    138         -2.335876       -1.023370   1.000000   1.000000
    139         -2.317326       -0.993473   1.000000   1.000000
    140         -2.301480       -0.986937   1.000000   1.000000
    141         -2.287413       -0.970111   1.000000   1.000000
    142         -2.264275       -0.944769   1.000000   1.000000
    143         -2.231437       -0.919268   1.000000   1.000000
    144         -2.226135       -0.903576   1.000000   1.000000
    145         -2.192983       -0.891585   1.000000   1.000000
    146         -2.186622       -0.856756   1.000000   1.000000
    147         -2.179030       -0.825641   1.000000   1.000000
    148         -2.156285       -0.790056   1.000000   1.000000
    149         -2.135480       -0.781610   1.000000   1.000000
    150         -2.113155       -0.770361   1.000000   1.000000
    151         -2.109701       -0.740166   1.000000   1.000000
    152         -2.100907       -0.728775   1.000000   1.000000
    153         -2.090205       -0.707266   1.000000   1.000000
    154         -2.075034       -0.684396   1.000000   1.000000
    155         -2.051986       -0.677789   1.000000   1.000000
    156         -2.039711       -0.666722   1.000000   1.000000
    157         -2.033796       -0.636622   1.000000   1.000000
    158         -2.012800       -0.619560   1.000000   1.000000
    159         -2.011090       -0.604920   1.000000   1.000000
    160         -1.992680       -0.586675   1.000000   1.000000
    161         -1.985409       -0.574841   1.000000   1.000000
    162         -1.958241       -0.555782   1.000000   1.000000
    163         -1.945584       -0.539582   1.000000   1.000000
    164         -1.926610       -0.520549   1.000000   1.000000
    165         -1.915794       -0.511235   1.000000   1.000000
    166         -1.911976       -0.485979   1.000000   1.000000
    167         -1.891830       -0.474202   1.000000   1.000000
    168         -1.885935       -0.452596   1.000000   1.000000
    169         -1.871773       -0.433434   1.000000   1.000000
    170         -1.842549       -0.419907   1.000000   1.000000
    171         -1.832525       -0.413043   1.000000   1.000000
    172         -1.818788       -0.397920   1.000000   1.000000
    173         -1.807219       -0.379310   1.000000   1.000000
    174         -1.799471       -0.355893   1.000000   1.000000
    175         -1.785226       -0.343565   1.000000   1.000000
    176         -1.773233       -0.330999   1.000000   1.000000
    177         -1.759873       -0.321805   1.000000   1.000000
    178         -1.748843       -0.308103   1.000000   1.000000
    179         -1.728443       -0.299424   1.000000   1.000000
    180         -1.712574       -0.293286   1.000000   1.000000
    181         -1.700548       -0.274414   1.000000   1.000000
    182         -1.674355       -0.252274   1.000000   1.000000
    183         -1.654201       -0.231568   1.000000   1.000000
    184         -1.649742       -0.220563   1.000000   1.000000
    185         -1.629151       -0.209238   1.000000   1.000000
    186         -1.612754       -0.201702   1.000000   1.000000
    187         -1.599570       -0.176192   1.000000   1.000000
    188         -1.586165       -0.163854   1.000000   1.000000
    189         -1.580599       -0.151960   1.000000   1.000000
    190         -1.557654       -0.135720   1.000000   1.000000
    191         -1.548715       -0.122215   1.000000   1.000000
    192         -1.530672       -0.091047   1.000000   1.000000
    193         -1.515315       -0.081413   1.000000   1.000000
    194         -1.485923       -0.073864   1.000000   1.000000
    195         -1.481407       -0.050983   1.000000   1.000000
    196         -1.457948       -0.034725   1.000000   1.000000
    197         -1.450798       -0.013005   1.000000   1.000000
    198         -1.427635        0.013338   1.000000   1.000000
    199         -1.410283        0.027897   1.000000   1.000000
    200         -1.393082        0.047373   1.000000   1.000000
    201         -1.376269        0.091006   1.000000   1.000000
    202         -1.354253        0.124434   1.000000   1.000000
    203         -1.341532        0.137816   1.000000   1.000000
    204         -1.318122        0.157012   1.000000   1.000000
    205         -1.303525        0.179046   1.000000   1.000000
    206         -1.276014        0.200672   1.000000   1.000000
    207         -1.261377        0.214534   1.000000   1.000000
    208         -1.236372        0.236807   1.000000   1.000000
    209         -1.212579        0.254021   1.000000   1.000000
    210         -1.180410        0.272570   1.000000   1.000000
    211         -1.157856        0.309994   1.000000   1.000000
    212         -1.145326        0.323181   1.000000   1.000000
    213         -1.115617        0.356247   1.000000   1.000000
    214         -1.111973        0.367671   1.000000   1.000000
    215         -1.083115        0.400112   1.000000   1.000000
    216         -1.064965        0.431343   1.000000   1.000002
    217         -1.039571        0.463642   1.000000   1.000007
    218         -1.013497        0.471867   1.000000   1.000010
    219         -0.990384        0.505416   1.000000   1.000039
    220         -0.973551        0.519880   1.000000   1.000068
    221         -0.958543        0.541179   1.000000   1.000149
    222         -0.931631        0.550100   1.000000   1.000205
    223         -0.916961        0.595415   1.000000   1.000911
    224         -0.898702        0.611817   1.000000   1.001485
    225         -0.876056        0.642493   1.000000   1.003428
    226         -0.854034        0.675746   1.000000   1.007556
    227         -0.838819        0.711169   1.000000   1.015165
    228         -0.819807        0.723949   1.000000   1.018722
    229         -0.793327        0.741127   1.000000   1.023923
    230         -0.789676        0.774411   1.000000   1.033142
    231         -0.767555        0.835090   1.000000   1.019812
    232         -0.749660        0.883080   1.000000   0.935152
    233         -0.721081        0.906709   1.000000   0.857546
    234         -0.700253        0.950764   1.000000   0.652745
    235         -0.682568        0.968888   1.000000   0.553258
    236         -0.665254        0.994904   1.000000   0.407222
    237         -0.658784        1.021631   1.000000   0.266715
    238         -0.643133        1.047267   1.000000   0.152974
    239         -0.624641        1.076232   1.000000   0.057794
    240         -0.619340        1.108182   1.000000  -0.004971
    241         -0.598403        1.117224   1.000000  -0.015621
    242         -0.586860        1.149433   1.000000  -0.034237
    243         -0.574156        1.176660   1.000000  -0.034183
    244         -0.558867        1.194210   1.000000  -0.030260
    245         -0.552192        1.224714   1.000000  -0.021116
    246         -0.534184        1.245826   1.000000  -0.015086
    247         -0.520940        1.254409   1.000000  -0.012927
    248         -0.510120        1.296746   1.000000  -0.005273
    249         -0.501793        1.323930   1.000000  -0.002658
    250         -0.488790        1.347789   1.000000  -0.001364
    251         -0.474262        1.378715   1.000000  -0.000526
    252         -0.466496        1.411224   1.000000  -0.000174
    253         -0.461021        1.434522   1.000000  -0.000074
    254         -0.450408        1.448374   1.000000  -0.000043
    255         -0.435827        1.463930   1.000000  -0.000023
    256         -0.430752        1.483265   1.000000  -0.000010
    257         -0.413265        1.505850   1.000000  -0.000004
    258         -0.409251        1.513636   1.000000  -0.000003
    259         -0.400001        1.545548   1.000000  -0.000001
    260         -0.385024        1.560471   1.000000  -0.000000
    261         -0.376087        1.567802   1.000000  -0.000000
    262         -0.364106        1.594486   1.000000  -0.000000
    263         -0.352022        1.604445   1.000000  -0.000000
    264         -0.343692        1.638236   1.000000  -0.000000
    265         -0.338903        1.651817   1.000000  -0.000000
    266         -0.331785        1.673167   1.000000  -0.000000
    267         -0.317932        1.688303   1.000000  -0.000000
    268         -0.306490        1.705477   1.000000  -0.000000
    269         -0.299952        1.712618   1.000000  -0.000000
    270         -0.282847        1.738045   1.000000  -0.000000
    271         -0.270930        1.749552   1.000000  -0.000000
    272         -0.258159        1.764702   1.000000  -0.000000
    273         -0.243374        1.787394   1.000000  -0.000000
    274         -0.235272        1.796392   1.000000  -0.000000
    275         -0.227181        1.807601   1.000000  -0.000000
    276         -0.214900        1.820725   1.000000  -0.000000
    277         -0.204772        1.835572   1.000000  -0.000000
    278         -0.192004        1.852472   1.000000  -0.000000
    279         -0.186623        1.864984   1.000000  -0.000000
    280         -0.171128        1.877897   1.000000  -0.000000
    281         -0.152901        1.897974   1.000000  -0.000000
    282         -0.147108        1.903558   1.000000  -0.000000
    283         -0.135417        1.908705   1.000000  -0.000000
    284         -0.121994        1.922741   1.000000  -0.000000
    285         -0.113795        1.931078   1.000000  -0.000000
    286         -0.085978        1.941342   1.000000  -0.000000
    287         -0.071559        1.951432   1.000000  -0.000000
    288         -0.043841        1.968316   1.000000  -0.000000
    289         -0.039270        1.971401   1.000000  -0.000000
    290         -0.023278        1.985975   1.000000  -0.000000
    291         -0.016082        1.994758   1.000000  -0.000000
    292          0.013369        2.005624   1.000000  -0.000000
    293          0.026706        2.020634   1.000000  -0.000000
    294          0.040700        2.037892   1.000000  -0.000000
    295          0.054953        2.046222   1.000000  -0.000000
    296          0.067913        2.058505   1.000000  -0.000000
    297          0.097656        2.077202   1.000000  -0.000000
    298          0.111247        2.088821   1.000000  -0.000000
    299          0.130107        2.093590   1.000000  -0.000000
    300          0.148517        2.109581   1.000000  -0.000000
    301          0.167409        2.119978   1.000000  -0.000000
    302          0.182222        2.137063   1.000000  -0.000000
    303          0.202253        2.146972   1.000000  -0.000000
    304          0.241512        2.154385   1.000000  -0.000000
    305          0.270734        2.162472   1.000000  -0.000000
    306          0.281700        2.180427   1.000000  -0.000000
    307          0.305291        2.189910   1.000000  -0.000000
    308          0.327789        2.194238   1.000000  -0.000000
    309          0.342746        2.207085   1.000000  -0.000000
    310          0.364030        2.219165   1.000000  -0.000000
    311          0.385772        2.228766   1.000000  -0.000000
    312          0.407801        2.244175   1.000001  -0.000000
    313          0.425804        2.253303   1.000001  -0.000000
    314          0.456285        2.259262   1.000005  -0.000000
    315          0.475334        2.267683   1.000011  -0.000000
    316          0.498133        2.289942   1.000029  -0.000000
    317          0.518530        2.298103   1.000064  -0.000000
    318          0.562574        2.304651   1.000316  -0.000000
    319          0.582016        2.315135   1.000599  -0.000000
    320          0.601599        2.316113   1.001099  -0.000000
    321          0.631359        2.331497   1.002560  -0.000000
    322          0.641326        2.350087   1.003327  -0.000000
    323          0.698374        2.359171   1.012009  -0.000000
    324          0.724708        2.371819   1.018944  -0.000000
    325          0.767137        2.384694   1.031473  -0.000000
    326          0.792389        2.392291   1.035424  -0.000000
    327          0.865964        2.411330   0.975894  -0.000000
    328          0.885771        2.423989   0.927576  -0.000000
    329          0.922320        2.439933   0.792979  -0.000000
    330          0.940689        2.452611   0.705224  -0.000000
    331          0.958667        2.457695   0.609985  -0.000000
    332          1.019177        2.466776   0.278840  -0.000000
    333          1.041966        2.479935   0.174374  -0.000000
    334          1.060042        2.490462   0.106385  -0.000000
    335          1.135993        2.502593  -0.029640  -0.000000
    336          1.171214        2.504846  -0.034930  -0.000000
    337          1.195963        2.517762  -0.029780  -0.000000
    338          1.224286        2.526279  -0.021247  -0.000000
    339          1.254221        2.536076  -0.012972  -0.000000
    340          1.315635        2.545612  -0.003304  -0.000000
    341          1.350788        2.553190  -0.001249  -0.000000
    342          1.373311        2.554020  -0.000626  -0.000000
    343          1.429236        2.570492  -0.000090  -0.000000
    344          1.447418        2.576956  -0.000045  -0.000000
    345          1.495729        2.588322  -0.000006  -0.000000
    346          1.521061        2.594051  -0.000002  -0.000000
    347          1.572215        2.600913  -0.000000  -0.000000
    348          1.608729        2.608553  -0.000000  -0.000000
    349          1.632832        2.619868  -0.000000  -0.000000
    350          1.665446        2.625362  -0.000000  -0.000000
    351          1.702792        2.640926  -0.000000  -0.000000
    352          1.738041        2.648790  -0.000000  -0.000000
    353          1.756471        2.655805  -0.000000  -0.000000
    354          1.792457        2.668999  -0.000000  -0.000000
    355          1.825152        2.678062  -0.000000  -0.000000
    356          1.888027        2.687446  -0.000000  -0.000000
    357          1.911031        2.706648  -0.000000  -0.000000
    358          1.922153        2.732628  -0.000000  -0.000000
    359          1.971374        2.752381  -0.000000  -0.000000
    360          2.006819        2.782536  -0.000000  -0.000000
    361          2.031111        2.798433  -0.000000  -0.000000
    362          2.047498        2.808777  -0.000000  -0.000000
    363          2.078289        2.827707  -0.000000  -0.000000
    364          2.101545        2.833395  -0.000000  -0.000000
    365          2.153930        2.844766  -0.000000  -0.000000
    366          2.212120        2.876077  -0.000000  -0.000000
    367          2.233965        2.885416  -0.000000  -0.000000
    368          2.261682        2.908934  -0.000000  -0.000000
    369          2.295482        2.939327  -0.000000  -0.000000
    370          2.312263        3.002254  -0.000000  -0.000000
    371          2.354724        3.015863  -0.000000  -0.000000
    372          2.400586        3.039560  -0.000000  -0.000000
 
  0.5000000E+00  0.5000000E+00  0.1276756E-14  0.6250000E-01
      1        -42.850037      -43.350855   1.000000   1.000000
      2        -42.815506      -43.334381   1.000000   1.000000
      3        -42.797104      -43.321354   1.000000   1.000000
      4        -42.780237      -43.305199   1.000000   1.000000
      5        -42.764981      -43.298158   1.000000   1.000000
      6        -42.735066      -43.276832   1.000000   1.000000
      7        -42.205016      -43.272683   1.000000   1.000000
      8        -42.153807      -43.264197   1.000000   1.000000
      9        -42.117001      -43.256905   1.000000   1.000000
     10        -42.077957      -43.240264   1.000000   1.000000
     11        -42.002849      -43.238189   1.000000   1.000000
     12        -41.985668      -43.231809   1.000000   1.000000
     13        -41.955767      -43.230088   1.000000   1.000000
     14        -41.940749      -43.197471   1.000000   1.000000
     15        -41.927897      -43.167842   1.000000   1.000000
     16        -41.854182      -43.161389   1.000000   1.000000
     17        -41.847051      -43.137100   1.000000   1.000000
     18        -41.820099      -43.123837   1.000000   1.000000
     19        -41.798615      -43.113433   1.000000   1.000000
     20        -41.762854      -43.057687   1.000000   1.000000
     21        -41.725786      -43.045695   1.000000   1.000000
     22        -41.719835      -42.920446   1.000000   1.000000
     23        -41.702801      -42.852879   1.000000   1.000000
     24        -41.677873      -42.745976   1.000000   1.000000
     25        -41.507540      -42.740955   1.000000   1.000000
     26        -41.446947      -42.735192   1.000000   1.000000
     27        -41.407092      -42.638595   1.000000   1.000000
     28        -41.083380      -42.590609   1.000000   1.000000
     29        -41.044694      -42.559979   1.000000   1.000000
     30        -41.032357      -42.498991   1.000000   1.000000
     31        -40.200721      -42.446167   1.000000   1.000000
     32        -40.145486      -42.304524   1.000000   1.000000
     33        -40.136192      -42.196921   1.000000   1.000000
     34        -40.126410      -42.145027   1.000000   1.000000
     35        -40.125282      -42.009696   1.000000   1.000000
     36        -40.107853      -41.825880   1.000000   1.000000
     37        -40.066939      -39.938237   1.000000   1.000000
     38        -40.051682      -39.869973   1.000000   1.000000
     39        -40.045550      -39.848793   1.000000   1.000000
     40        -40.042623      -39.765401   1.000000   1.000000
     41        -40.008446      -39.733188   1.000000   1.000000
     42        -39.990748      -39.652154   1.000000   1.000000
     43        -15.539482      -15.543867   1.000000   1.000000
     44        -15.524740      -15.532167   1.000000   1.000000
     45        -15.517121      -15.529741   1.000000   1.000000
     46        -15.512135      -15.526865   1.000000   1.000000
     47        -15.464465      -15.481412   1.000000   1.000000
     48         -7.803982       -7.803917   1.000000   1.000000
     49         -6.176810       -6.029274   1.000000   1.000000
     50         -6.150215       -6.021761   1.000000   1.000000
     51         -6.068024       -5.969043   1.000000   1.000000
     52         -5.986416       -5.893453   1.000000   1.000000
     53         -5.314647       -5.163559   1.000000   1.000000
     54         -5.256024       -5.114248   1.000000   1.000000
     55         -5.213139       -5.088142   1.000000   1.000000
     56         -4.927469       -4.816302   1.000000   1.000000
     57         -4.198278       -3.927946   1.000000   1.000000
     58         -4.126959       -3.880095   1.000000   1.000000
     59         -4.082490       -3.840385   1.000000   1.000000
     60         -3.833411       -3.496305   1.000000   1.000000
     61         -3.811035       -3.044693   1.000000   1.000000
     62         -3.779844       -3.012638   1.000000   1.000000
     63         -3.637857       -2.988451   1.000000   1.000000
     64         -3.617846       -2.975706   1.000000   1.000000
     65         -3.614369       -2.950791   1.000000   1.000000
     66         -3.605027       -2.927139   1.000000   1.000000
     67         -3.597985       -2.915750   1.000000   1.000000
     68         -3.586567       -2.910927   1.000000   1.000000
     69         -3.574689       -2.897221   1.000000   1.000000
     70         -3.560275       -2.845514   1.000000   1.000000
     71         -3.551272       -2.815835   1.000000   1.000000
     72         -3.530213       -2.767162   1.000000   1.000000
     73         -3.508536       -2.763370   1.000000   1.000000
     74         -3.499018       -2.736218   1.000000   1.000000
     75         -3.488254       -2.683226   1.000000   1.000000
     76         -3.456108       -2.678883   1.000000   1.000000
     77         -3.455318       -2.646298   1.000000   1.000000
     78         -3.432698       -2.638980   1.000000   1.000000
     79         -3.426663       -2.620748   1.000000   1.000000
     80         -3.410267       -2.597537   1.000000   1.000000
     81         -3.402215       -2.578222   1.000000   1.000000
     82         -3.386226       -2.556485   1.000000   1.000000
     83         -3.374365       -2.537419   1.000000   1.000000
     84         -3.364232       -2.516185   1.000000   1.000000
     85         -3.343384       -2.425345   1.000000   1.000000
     86         -3.331579       -2.376595   1.000000   1.000000
     87         -3.317620       -2.339661   1.000000   1.000000
     88         -3.301260       -2.267586   1.000000   1.000000
     89         -3.276955       -2.238446   1.000000   1.000000
     90         -3.254880       -2.190387   1.000000   1.000000
     91         -3.242238       -2.155785   1.000000   1.000000
     92         -3.232906       -2.138844   1.000000   1.000000
     93         -3.211932       -2.107083   1.000000   1.000000
     94         -3.204316       -2.092199   1.000000   1.000000
     95         -3.129910       -2.033733   1.000000   1.000000
     96         -3.123815       -2.013271   1.000000   1.000000
     97         -3.066790       -1.953988   1.000000   1.000000
     98         -3.037627       -1.937132   1.000000   1.000000
     99         -3.022308       -1.920894   1.000000   1.000000
    100         -3.001783       -1.905347   1.000000   1.000000
    101         -2.948515       -1.878852   1.000000   1.000000
    102         -2.933987       -1.820436   1.000000   1.000000
    103         -2.917661       -1.816543   1.000000   1.000000
    104         -2.902077       -1.792811   1.000000   1.000000
    105         -2.857638       -1.784426   1.000000   1.000000
    106         -2.849694       -1.761798   1.000000   1.000000
    107         -2.848816       -1.734048   1.000000   1.000000
    108         -2.834769       -1.700160   1.000000   1.000000
    109         -2.800692       -1.691295   1.000000   1.000000
    110         -2.767060       -1.667974   1.000000   1.000000
    111         -2.744086       -1.644058   1.000000   1.000000
    112         -2.726997       -1.639343   1.000000   1.000000
    113         -2.696395       -1.579060   1.000000   1.000000
    114         -2.677431       -1.565784   1.000000   1.000000
    115         -2.652586       -1.532336   1.000000   1.000000
    116         -2.640303       -1.494876   1.000000   1.000000
    117         -2.631055       -1.487343   1.000000   1.000000
    118         -2.617186       -1.435307   1.000000   1.000000
    119         -2.598783       -1.401328   1.000000   1.000000
    120         -2.588233       -1.387874   1.000000   1.000000
    121         -2.573797       -1.347220   1.000000   1.000000
    122         -2.546085       -1.338712   1.000000   1.000000
    123         -2.542408       -1.322092   1.000000   1.000000
    124         -2.527243       -1.306669   1.000000   1.000000
    125         -2.514899       -1.280281   1.000000   1.000000
    126         -2.500517       -1.266999   1.000000   1.000000
    127         -2.497122       -1.251523   1.000000   1.000000
    128         -2.480407       -1.238713   1.000000   1.000000
    129         -2.476374       -1.231780   1.000000   1.000000
    130         -2.457725       -1.197565   1.000000   1.000000
    131         -2.442197       -1.165719   1.000000   1.000000
    132         -2.428132       -1.149342   1.000000   1.000000
    133         -2.416035       -1.120659   1.000000   1.000000
    134         -2.410300       -1.100729   1.000000   1.000000
    135         -2.403020       -1.075209   1.000000   1.000000
    136         -2.381627       -1.066889   1.000000   1.000000
    137         -2.364780       -1.053835   1.000000   1.000000
    138         -2.357972       -1.040576   1.000000   1.000000
    139         -2.340737       -1.024141   1.000000   1.000000
    140         -2.316775       -1.005627   1.000000   1.000000
    141         -2.303766       -0.967907   1.000000   1.000000
    142         -2.286551       -0.959328   1.000000   1.000000
    143         -2.274200       -0.944666   1.000000   1.000000
    144         -2.259446       -0.914204   1.000000   1.000000
    145         -2.232755       -0.884930   1.000000   1.000000
    146         -2.217205       -0.846219   1.000000   1.000000
    147         -2.199968       -0.807471   1.000000   1.000000
    148         -2.187371       -0.792487   1.000000   1.000000
    149         -2.173848       -0.763604   1.000000   1.000000
    150         -2.144430       -0.754198   1.000000   1.000000
    151         -2.123523       -0.729820   1.000000   1.000000
    152         -2.116062       -0.720876   1.000000   1.000000
    153         -2.106641       -0.708255   1.000000   1.000000
    154         -2.094752       -0.677762   1.000000   1.000000
    155         -2.063519       -0.668541   1.000000   1.000000
    156         -2.054694       -0.653422   1.000000   1.000000
    157         -2.035460       -0.620939   1.000000   1.000000
    158         -2.023879       -0.610476   1.000000   1.000000
    159         -2.004419       -0.595397   1.000000   1.000000
    160         -1.989662       -0.584636   1.000000   1.000000
    161         -1.976787       -0.573604   1.000000   1.000000
    162         -1.968751       -0.557367   1.000000   1.000000
    163         -1.957115       -0.537602   1.000000   1.000000
    164         -1.930007       -0.528559   1.000000   1.000000
    165         -1.920307       -0.487798   1.000000   1.000000
    166         -1.912482       -0.471834   1.000000   1.000000
    167         -1.883119       -0.454525   1.000000   1.000000
    168         -1.873269       -0.441835   1.000000   1.000000
    169         -1.872230       -0.424583   1.000000   1.000000
    170         -1.852996       -0.395369   1.000000   1.000000
    171         -1.844590       -0.370863   1.000000   1.000000
    172         -1.825948       -0.367684   1.000000   1.000000
    173         -1.815592       -0.344095   1.000000   1.000000
    174         -1.791554       -0.313299   1.000000   1.000000
    175         -1.790787       -0.308747   1.000000   1.000000
    176         -1.767480       -0.295101   1.000000   1.000000
    177         -1.761981       -0.277536   1.000000   1.000000
    178         -1.728985       -0.265016   1.000000   1.000000
    179         -1.725138       -0.256749   1.000000   1.000000
    180         -1.714101       -0.249430   1.000000   1.000000
    181         -1.705587       -0.238397   1.000000   1.000000
    182         -1.692998       -0.211646   1.000000   1.000000
    183         -1.672963       -0.203667   1.000000   1.000000
    184         -1.649734       -0.190876   1.000000   1.000000
    185         -1.631366       -0.177028   1.000000   1.000000
    186         -1.625775       -0.165032   1.000000   1.000000
    187         -1.614737       -0.152954   1.000000   1.000000
    188         -1.596329       -0.129624   1.000000   1.000000
    189         -1.585436       -0.106824   1.000000   1.000000
    190         -1.580673       -0.104257   1.000000   1.000000
    191         -1.554256       -0.091018   1.000000   1.000000
    192         -1.540490       -0.078968   1.000000   1.000000
    193         -1.512515       -0.068097   1.000000   1.000000
    194         -1.480332       -0.050980   1.000000   1.000000
    195         -1.456498       -0.042469   1.000000   1.000000
    196         -1.439352       -0.026009   1.000000   1.000000
    197         -1.428160       -0.024694   1.000000   1.000000
    198         -1.412890        0.000945   1.000000   1.000000
    199         -1.399759        0.006465   1.000000   1.000000
    200         -1.375183        0.020124   1.000000   1.000000
    201         -1.355288        0.057362   1.000000   1.000000
    202         -1.343694        0.077733   1.000000   1.000000
    203         -1.322998        0.098841   1.000000   1.000000
    204         -1.306158        0.130651   1.000000   1.000000
    205         -1.289733        0.139541   1.000000   1.000000
    206         -1.270984        0.186768   1.000000   1.000000
    207         -1.238186        0.223948   1.000000   1.000000
    208         -1.186109        0.246446   1.000000   1.000000
    209         -1.168040        0.287661   1.000000   1.000000
    210         -1.159259        0.317204   1.000000   1.000000
    211         -1.144631        0.327602   1.000000   1.000000
    212         -1.123415        0.377063   1.000000   1.000000
    213         -1.105165        0.393644   1.000000   1.000000
    214         -1.072116        0.399622   1.000000   1.000000
    215         -1.047284        0.415933   1.000000   1.000001
    216         -1.038609        0.453364   1.000000   1.000004
    217         -1.010508        0.474735   1.000000   1.000011
    218         -0.970668        0.489160   1.000000   1.000020
    219         -0.964539        0.503598   1.000000   1.000036
    220         -0.956962        0.510354   1.000000   1.000047
    221         -0.940193        0.531812   1.000000   1.000106
    222         -0.910166        0.554540   1.000000   1.000240
    223         -0.887729        0.578351   1.000000   1.000533
    224         -0.884287        0.617382   1.000000   1.001741
    225         -0.852896        0.659760   1.000000   1.005249
    226         -0.833349        0.678320   1.000000   1.007990
    227         -0.789745        0.695513   1.000000   1.011366
    228         -0.771616        0.715400   1.000000   1.016302
    229         -0.770799        0.774090   1.000000   1.033075
    230         -0.745735        0.786011   1.000000   1.034987
    231         -0.722165        0.818653   1.000000   1.030600
    232         -0.714571        0.834289   1.000000   1.020514
    233         -0.699837        0.876939   1.000000   0.951238
    234         -0.692533        0.902507   1.000000   0.873163
    235         -0.667668        0.986482   1.000000   0.454187
    236         -0.651841        1.012566   1.000000   0.312410
    237         -0.644347        1.052237   1.000000   0.133997
    238         -0.625853        1.082215   1.000000   0.042791
    239         -0.617101        1.112827   1.000000  -0.010790
    240         -0.608875        1.118182   1.000000  -0.016589
    241         -0.584768        1.145240   1.000000  -0.033212
    242         -0.559667        1.174812   1.000000  -0.034468
    243         -0.546896        1.182316   1.000000  -0.033135
    244         -0.537082        1.227896   1.000000  -0.020157
    245         -0.530120        1.235972   1.000000  -0.017792
    246         -0.517985        1.256017   1.000000  -0.012545
    247         -0.485606        1.285208   1.000000  -0.006877
    248         -0.480384        1.301639   1.000000  -0.004690
    249         -0.475253        1.309574   1.000000  -0.003856
    250         -0.465553        1.343012   1.000000  -0.001567
    251         -0.450344        1.390439   1.000000  -0.000358
    252         -0.437947        1.410774   1.000000  -0.000177
    253         -0.424397        1.427690   1.000000  -0.000096
    254         -0.421573        1.441492   1.000000  -0.000057
    255         -0.416988        1.466791   1.000000  -0.000021
    256         -0.405509        1.487478   1.000000  -0.000009
    257         -0.392320        1.494952   1.000000  -0.000006
    258         -0.387629        1.506182   1.000000  -0.000004
    259         -0.386139        1.521482   1.000000  -0.000002
    260         -0.371479        1.558294   1.000000  -0.000000
    261         -0.363675        1.576532   1.000000  -0.000000
    262         -0.352815        1.592712   1.000000  -0.000000
    263         -0.348580        1.604320   1.000000  -0.000000
    264         -0.316246        1.626112   1.000000  -0.000000
    265         -0.313567        1.640379   1.000000  -0.000000
    266         -0.304163        1.653176   1.000000  -0.000000
    267         -0.288789        1.663060   1.000000  -0.000000
    268         -0.280686        1.687504   1.000000  -0.000000
    269         -0.275418        1.707207   1.000000  -0.000000
    270         -0.269613        1.724411   1.000000  -0.000000
    271         -0.265407        1.733341   1.000000  -0.000000
    272         -0.258853        1.753253   1.000000  -0.000000
    273         -0.245802        1.772743   1.000000  -0.000000
    274         -0.242131        1.785945   1.000000  -0.000000
    275         -0.220591        1.793524   1.000000  -0.000000
    276         -0.217728        1.803258   1.000000  -0.000000
    277         -0.201494        1.812382   1.000000  -0.000000
    278         -0.196749        1.841679   1.000000  -0.000000
    279         -0.186550        1.860493   1.000000  -0.000000
    280         -0.174993        1.874924   1.000000  -0.000000
    281         -0.164492        1.894844   1.000000  -0.000000
    282         -0.153506        1.914372   1.000000  -0.000000
    283         -0.140114        1.936947   1.000000  -0.000000
    284         -0.119484        1.961890   1.000000  -0.000000
    285         -0.104719        1.963077   1.000000  -0.000000
    286         -0.099750        1.977401   1.000000  -0.000000
    287         -0.068306        1.989200   1.000000  -0.000000
    288         -0.056392        2.000857   1.000000  -0.000000
    289         -0.037625        2.006460   1.000000  -0.000000
    290         -0.032413        2.034242   1.000000  -0.000000
    291         -0.022272        2.042599   1.000000  -0.000000
    292          0.002672        2.050199   1.000000  -0.000000
    293          0.019130        2.063129   1.000000  -0.000000
    294          0.024250        2.075441   1.000000  -0.000000
    295          0.053599        2.084319   1.000000  -0.000000
    296          0.067930        2.088820   1.000000  -0.000000
    297          0.105015        2.103741   1.000000  -0.000000
    298          0.121061        2.117117   1.000000  -0.000000
    299          0.134019        2.123771   1.000000  -0.000000
    300          0.142856        2.142586   1.000000  -0.000000
    301          0.171176        2.153051   1.000000  -0.000000
    302          0.187456        2.154762   1.000000  -0.000000
    303          0.203474        2.175001   1.000000  -0.000000
    304          0.224847        2.181077   1.000000  -0.000000
    305          0.259990        2.195740   1.000000  -0.000000
    306          0.276580        2.201814   1.000000  -0.000000
    307          0.289584        2.212242   1.000000  -0.000000
    308          0.307124        2.218617   1.000000  -0.000000
    309          0.359325        2.230804   1.000000  -0.000000
    310          0.367849        2.242530   1.000000  -0.000000
    311          0.386618        2.244191   1.000000  -0.000000
    312          0.402118        2.261384   1.000000  -0.000000
    313          0.431677        2.268490   1.000002  -0.000000
    314          0.446165        2.277009   1.000003  -0.000000
    315          0.478208        2.287981   1.000013  -0.000000
    316          0.505393        2.291496   1.000039  -0.000000
    317          0.539395        2.308032   1.000140  -0.000000
    318          0.571296        2.329801   1.000423  -0.000000
    319          0.600714        2.337549   1.001070  -0.000000
    320          0.612300        2.349128   1.001506  -0.000000
    321          0.627846        2.360668   1.002328  -0.000000
    322          0.679619        2.364425   1.008216  -0.000000
    323          0.693769        2.382875   1.010985  -0.000000
    324          0.735441        2.397914   1.022172  -0.000000
    325          0.759095        2.413584   1.029321  -0.000000
    326          0.818674        2.419386   1.030590  -0.000000
    327          0.830718        2.427042   1.023409  -0.000000
    328          0.888103        2.429525   0.920748  -0.000000
    329          0.947028        2.444691   0.672503  -0.000000
    330          0.963058        2.457963   0.585768  -0.000000
    331          0.994628        2.473497   0.408749  -0.000000
    332          1.020489        2.487370   0.272332  -0.000000
    333          1.070543        2.491261   0.073526  -0.000000
    334          1.084428        2.492724   0.037639  -0.000000
    335          1.144860        2.496208  -0.033102  -0.000000
    336          1.163796        2.500729  -0.035438  -0.000000
    337          1.207010        2.511189  -0.026551  -0.000000
    338          1.248840        2.523705  -0.014306  -0.000000
    339          1.265392        2.534506  -0.010462  -0.000000
    340          1.305858        2.540850  -0.004229  -0.000000
    341          1.314070        2.542187  -0.003440  -0.000000
    342          1.368138        2.549019  -0.000737  -0.000000
    343          1.387929        2.557144  -0.000389  -0.000000
    344          1.452258        2.563102  -0.000037  -0.000000
    345          1.497859        2.569891  -0.000006  -0.000000
    346          1.522232        2.574027  -0.000002  -0.000000
    347          1.529702        2.586028  -0.000001  -0.000000
    348          1.598216        2.599796  -0.000000  -0.000000
    349          1.630263        2.610722  -0.000000  -0.000000
    350          1.662492        2.612069  -0.000000  -0.000000
    351          1.719263        2.619948  -0.000000  -0.000000
    352          1.750670        2.624154  -0.000000  -0.000000
    353          1.803041        2.633670  -0.000000  -0.000000
    354          1.839970        2.635428  -0.000000  -0.000000
    355          1.858113        2.646101  -0.000000  -0.000000
    356          1.916863        2.657140  -0.000000  -0.000000
    357          1.922899        2.664752  -0.000000  -0.000000
    358          1.932642        2.674380  -0.000000  -0.000000
    359          1.966204        2.680594  -0.000000  -0.000000
    360          1.997590        2.698640  -0.000000  -0.000000
    361          2.015263        2.713832  -0.000000  -0.000000
    362          2.050288        2.746766  -0.000000  -0.000000
    363          2.081516        2.756565  -0.000000  -0.000000
    364          2.147759        2.778865  -0.000000  -0.000000
    365          2.163393        2.793286  -0.000000  -0.000000
    366          2.200715        2.857950  -0.000000  -0.000000
    367          2.246406        2.869383  -0.000000  -0.000000
    368          2.281856        2.910321  -0.000000  -0.000000
    369          2.304841        2.976874  -0.000000  -0.000000
    370          2.329247        3.021365  -0.000000  -0.000000
    371          2.391190        3.029434  -0.000000  -0.000000
    372          2.430835        3.089754  -0.000000  -0.000000
