  64  64   0   0
  0.2663607E+02  0.8504600E-09  0.8509100E-09  0.2355660E-08  0.5000000E-15
  1.000000000000000E-004
  CAR 
 INCAR-For-OPT                           
      5.34541966    -45.64555918  301      0.99740639      1.00000000
    -45.646  0.0000E+00  0.0000E+00  0.0000E+00  0.0000E+00
    -45.476  0.0000E+00  0.0000E+00  0.0000E+00  0.0000E+00
    -45.306  0.0000E+00  0.0000E+00  0.0000E+00  0.0000E+00
    -45.136  0.0000E+00  0.0000E+00  0.0000E+00  0.0000E+00
    -44.966  0.0000E+00  0.0000E+00  0.0000E+00  0.0000E+00
    -44.796  0.0000E+00  0.0000E+00  0.0000E+00  0.0000E+00
    -44.626  0.0000E+00 -0.1733E-33  0.0000E+00 -0.2946E-34
    -44.456  0.0000E+00 -0.1457E-25  0.0000E+00 -0.2477E-26
    -44.286  0.0000E+00 -0.9402E-19  0.0000E+00 -0.1598E-19
    -44.116 -0.3379E-29 -0.4508E-13 -0.5744E-30 -0.7662E-14
    -43.946 -0.6685E-22 -0.1698E-08 -0.1136E-22 -0.2886E-09
    -43.776 -0.9549E-16 -0.4879E-05 -0.1623E-16 -0.8296E-06
    -43.606 -0.1030E-10 -0.1012E-02 -0.1751E-11 -0.1728E-03
    -43.436 -0.7937E-07 -0.6250E-02 -0.1349E-07 -0.1235E-02
    -43.266 -0.4162E-04  0.1342E+00 -0.7088E-05  0.2157E-01
    -43.096 -0.1120E-02  0.2230E+00 -0.1975E-03  0.5948E-01
    -42.926  0.1020E-01  0.1167E+00  0.1537E-02  0.7932E-01
    -42.756  0.4275E-01  0.6528E-01  0.8804E-02  0.9041E-01
    -42.586  0.8151E-02  0.7752E-01  0.1019E-01  0.1036E+00
    -42.416 -0.1970E-02  0.5039E-01  0.9854E-02  0.1122E+00
    -42.246  0.3054E-02  0.2216E-01  0.1037E-01  0.1159E+00
    -42.076  0.5116E-01  0.3332E-01  0.1907E-01  0.1216E+00
    -41.906  0.9150E-01  0.2573E-01  0.3462E-01  0.1260E+00
    -41.736  0.1453E+00  0.1811E-01  0.5931E-01  0.1290E+00
    -41.566  0.1286E+00  0.6365E-02  0.8117E-01  0.1301E+00
    -41.396  0.4265E-01 -0.6495E-03  0.8842E-01  0.1300E+00
    -41.226  0.1054E-01 -0.2469E-04  0.9021E-01  0.1300E+00
    -41.056 -0.1175E-02 -0.3934E-07  0.9001E-01  0.1300E+00
    -40.886 -0.5479E-04 -0.4098E-11  0.9000E-01  0.1300E+00
    -40.716 -0.1742E-05 -0.8022E-12  0.9000E-01  0.1300E+00
    -40.546 -0.3253E-03 -0.1156E-07  0.8994E-01  0.1300E+00
    -40.376 -0.2925E-02 -0.1113E-04  0.8945E-01  0.1300E+00
    -40.207  0.4157E-01 -0.5308E-03  0.9651E-01  0.1299E+00
    -40.037  0.1678E+00  0.3725E-02  0.1250E+00  0.1305E+00
    -39.867  0.9224E-01  0.2058E-01  0.1407E+00  0.1340E+00
    -39.697 -0.3401E-02  0.2729E-01  0.1401E+00  0.1387E+00
    -39.527 -0.7879E-03  0.8643E-02  0.1400E+00  0.1401E+00
    -39.357 -0.4344E-05 -0.8264E-03  0.1400E+00  0.1400E+00
    -39.187 -0.1644E-08 -0.3978E-04  0.1400E+00  0.1400E+00
    -39.017 -0.4593E-13 -0.8084E-07  0.1400E+00  0.1400E+00
    -38.847  0.0000E+00 -0.1076E-10  0.1400E+00  0.1400E+00
    -38.677  0.0000E+00 -0.1002E-15  0.1400E+00  0.1400E+00
    -38.507  0.0000E+00  0.0000E+00  0.1400E+00  0.1400E+00
    -38.337  0.0000E+00  0.0000E+00  0.1400E+00  0.1400E+00
    -38.167  0.0000E+00  0.0000E+00  0.1400E+00  0.1400E+00
    -37.997  0.0000E+00  0.0000E+00  0.1400E+00  0.1400E+00
    -37.827  0.0000E+00  0.0000E+00  0.1400E+00  0.1400E+00
    -37.657  0.0000E+00  0.0000E+00  0.1400E+00  0.1400E+00
    -37.487  0.0000E+00  0.0000E+00  0.1400E+00  0.1400E+00
    -37.317  0.0000E+00  0.0000E+00  0.1400E+00  0.1400E+00
    -37.147  0.0000E+00  0.0000E+00  0.1400E+00  0.1400E+00
    -36.977  0.0000E+00  0.0000E+00  0.1400E+00  0.1400E+00
    -36.807  0.0000E+00  0.0000E+00  0.1400E+00  0.1400E+00
    -36.637  0.0000E+00  0.0000E+00  0.1400E+00  0.1400E+00
    -36.467  0.0000E+00  0.0000E+00  0.1400E+00  0.1400E+00
    -36.297  0.0000E+00  0.0000E+00  0.1400E+00  0.1400E+00
    -36.127  0.0000E+00  0.0000E+00  0.1400E+00  0.1400E+00
    -35.957  0.0000E+00  0.0000E+00  0.1400E+00  0.1400E+00
    -35.787  0.0000E+00  0.0000E+00  0.1400E+00  0.1400E+00
    -35.617  0.0000E+00  0.0000E+00  0.1400E+00  0.1400E+00
    -35.447  0.0000E+00  0.0000E+00  0.1400E+00  0.1400E+00
    -35.277  0.0000E+00  0.0000E+00  0.1400E+00  0.1400E+00
    -35.107  0.0000E+00  0.0000E+00  0.1400E+00  0.1400E+00
    -34.937  0.0000E+00  0.0000E+00  0.1400E+00  0.1400E+00
    -34.767  0.0000E+00  0.0000E+00  0.1400E+00  0.1400E+00
    -34.598  0.0000E+00  0.0000E+00  0.1400E+00  0.1400E+00
    -34.428  0.0000E+00  0.0000E+00  0.1400E+00  0.1400E+00
    -34.258  0.0000E+00  0.0000E+00  0.1400E+00  0.1400E+00
    -34.088  0.0000E+00  0.0000E+00  0.1400E+00  0.1400E+00
    -33.918  0.0000E+00  0.0000E+00  0.1400E+00  0.1400E+00
    -33.748  0.0000E+00  0.0000E+00  0.1400E+00  0.1400E+00
    -33.578  0.0000E+00  0.0000E+00  0.1400E+00  0.1400E+00
    -33.408  0.0000E+00  0.0000E+00  0.1400E+00  0.1400E+00
    -33.238  0.0000E+00  0.0000E+00  0.1400E+00  0.1400E+00
    -33.068  0.0000E+00  0.0000E+00  0.1400E+00  0.1400E+00
    -32.898  0.0000E+00  0.0000E+00  0.1400E+00  0.1400E+00
    -32.728  0.0000E+00  0.0000E+00  0.1400E+00  0.1400E+00
    -32.558  0.0000E+00  0.0000E+00  0.1400E+00  0.1400E+00
    -32.388  0.0000E+00  0.0000E+00  0.1400E+00  0.1400E+00
    -32.218  0.0000E+00  0.0000E+00  0.1400E+00  0.1400E+00
    -32.048  0.0000E+00  0.0000E+00  0.1400E+00  0.1400E+00
    -31.878  0.0000E+00  0.0000E+00  0.1400E+00  0.1400E+00
    -31.708  0.0000E+00  0.0000E+00  0.1400E+00  0.1400E+00
    -31.538  0.0000E+00  0.0000E+00  0.1400E+00  0.1400E+00
    -31.368  0.0000E+00  0.0000E+00  0.1400E+00  0.1400E+00
    -31.198  0.0000E+00  0.0000E+00  0.1400E+00  0.1400E+00
    -31.028  0.0000E+00  0.0000E+00  0.1400E+00  0.1400E+00
    -30.858  0.0000E+00  0.0000E+00  0.1400E+00  0.1400E+00
    -30.688  0.0000E+00  0.0000E+00  0.1400E+00  0.1400E+00
    -30.518  0.0000E+00  0.0000E+00  0.1400E+00  0.1400E+00
    -30.348  0.0000E+00  0.0000E+00  0.1400E+00  0.1400E+00
    -30.178  0.0000E+00  0.0000E+00  0.1400E+00  0.1400E+00
    -30.008  0.0000E+00  0.0000E+00  0.1400E+00  0.1400E+00
    -29.838  0.0000E+00  0.0000E+00  0.1400E+00  0.1400E+00
    -29.668  0.0000E+00  0.0000E+00  0.1400E+00  0.1400E+00
    -29.498  0.0000E+00  0.0000E+00  0.1400E+00  0.1400E+00
    -29.328  0.0000E+00  0.0000E+00  0.1400E+00  0.1400E+00
    -29.158  0.0000E+00  0.0000E+00  0.1400E+00  0.1400E+00
    -28.989  0.0000E+00  0.0000E+00  0.1400E+00  0.1400E+00
    -28.819  0.0000E+00  0.0000E+00  0.1400E+00  0.1400E+00
    -28.649  0.0000E+00  0.0000E+00  0.1400E+00  0.1400E+00
    -28.479  0.0000E+00  0.0000E+00  0.1400E+00  0.1400E+00
    -28.309  0.0000E+00  0.0000E+00  0.1400E+00  0.1400E+00
    -28.139  0.0000E+00  0.0000E+00  0.1400E+00  0.1400E+00
    -27.969  0.0000E+00  0.0000E+00  0.1400E+00  0.1400E+00
    -27.799  0.0000E+00  0.0000E+00  0.1400E+00  0.1400E+00
    -27.629  0.0000E+00  0.0000E+00  0.1400E+00  0.1400E+00
    -27.459  0.0000E+00  0.0000E+00  0.1400E+00  0.1400E+00
    -27.289  0.0000E+00  0.0000E+00  0.1400E+00  0.1400E+00
    -27.119  0.0000E+00  0.0000E+00  0.1400E+00  0.1400E+00
    -26.949  0.0000E+00  0.0000E+00  0.1400E+00  0.1400E+00
    -26.779  0.0000E+00  0.0000E+00  0.1400E+00  0.1400E+00
    -26.609  0.0000E+00  0.0000E+00  0.1400E+00  0.1400E+00
    -26.439  0.0000E+00  0.0000E+00  0.1400E+00  0.1400E+00
    -26.269  0.0000E+00  0.0000E+00  0.1400E+00  0.1400E+00
    -26.099  0.0000E+00  0.0000E+00  0.1400E+00  0.1400E+00
    -25.929  0.0000E+00  0.0000E+00  0.1400E+00  0.1400E+00
    -25.759  0.0000E+00  0.0000E+00  0.1400E+00  0.1400E+00
    -25.589  0.0000E+00  0.0000E+00  0.1400E+00  0.1400E+00
    -25.419  0.0000E+00  0.0000E+00  0.1400E+00  0.1400E+00
    -25.249  0.0000E+00  0.0000E+00  0.1400E+00  0.1400E+00
    -25.079  0.0000E+00  0.0000E+00  0.1400E+00  0.1400E+00
    -24.909  0.0000E+00  0.0000E+00  0.1400E+00  0.1400E+00
    -24.739  0.0000E+00  0.0000E+00  0.1400E+00  0.1400E+00
    -24.569  0.0000E+00  0.0000E+00  0.1400E+00  0.1400E+00
    -24.399  0.0000E+00  0.0000E+00  0.1400E+00  0.1400E+00
    -24.229  0.0000E+00  0.0000E+00  0.1400E+00  0.1400E+00
    -24.059  0.0000E+00  0.0000E+00  0.1400E+00  0.1400E+00
    -23.889  0.0000E+00  0.0000E+00  0.1400E+00  0.1400E+00
    -23.719  0.0000E+00  0.0000E+00  0.1400E+00  0.1400E+00
    -23.549  0.0000E+00  0.0000E+00  0.1400E+00  0.1400E+00
    -23.379  0.0000E+00  0.0000E+00  0.1400E+00  0.1400E+00
    -23.210  0.0000E+00  0.0000E+00  0.1400E+00  0.1400E+00
    -23.040  0.0000E+00  0.0000E+00  0.1400E+00  0.1400E+00
    -22.870  0.0000E+00  0.0000E+00  0.1400E+00  0.1400E+00
    -22.700  0.0000E+00  0.0000E+00  0.1400E+00  0.1400E+00
    -22.530  0.0000E+00  0.0000E+00  0.1400E+00  0.1400E+00
    -22.360  0.0000E+00  0.0000E+00  0.1400E+00  0.1400E+00
    -22.190  0.0000E+00  0.0000E+00  0.1400E+00  0.1400E+00
    -22.020  0.0000E+00  0.0000E+00  0.1400E+00  0.1400E+00
    -21.850  0.0000E+00  0.0000E+00  0.1400E+00  0.1400E+00
    -21.680  0.0000E+00  0.0000E+00  0.1400E+00  0.1400E+00
    -21.510  0.0000E+00  0.0000E+00  0.1400E+00  0.1400E+00
    -21.340  0.0000E+00  0.0000E+00  0.1400E+00  0.1400E+00
    -21.170  0.0000E+00  0.0000E+00  0.1400E+00  0.1400E+00
    -21.000  0.0000E+00  0.0000E+00  0.1400E+00  0.1400E+00
    -20.830  0.0000E+00  0.0000E+00  0.1400E+00  0.1400E+00
    -20.660  0.0000E+00  0.0000E+00  0.1400E+00  0.1400E+00
    -20.490  0.0000E+00  0.0000E+00  0.1400E+00  0.1400E+00
    -20.320  0.0000E+00  0.0000E+00  0.1400E+00  0.1400E+00
    -20.150  0.0000E+00  0.0000E+00  0.1400E+00  0.1400E+00
    -19.980  0.0000E+00  0.0000E+00  0.1400E+00  0.1400E+00
    -19.810  0.0000E+00  0.0000E+00  0.1400E+00  0.1400E+00
    -19.640  0.0000E+00  0.0000E+00  0.1400E+00  0.1400E+00
    -19.470  0.0000E+00  0.0000E+00  0.1400E+00  0.1400E+00
    -19.300  0.0000E+00  0.0000E+00  0.1400E+00  0.1400E+00
    -19.130  0.0000E+00  0.0000E+00  0.1400E+00  0.1400E+00
    -18.960  0.0000E+00  0.0000E+00  0.1400E+00  0.1400E+00
    -18.790  0.0000E+00  0.0000E+00  0.1400E+00  0.1400E+00
    -18.620  0.0000E+00  0.0000E+00  0.1400E+00  0.1400E+00
    -18.450  0.0000E+00  0.0000E+00  0.1400E+00  0.1400E+00
    -18.280  0.0000E+00  0.0000E+00  0.1400E+00  0.1400E+00
    -18.110  0.0000E+00  0.0000E+00  0.1400E+00  0.1400E+00
    -17.940  0.0000E+00  0.0000E+00  0.1400E+00  0.1400E+00
    -17.770  0.0000E+00  0.0000E+00  0.1400E+00  0.1400E+00
    -17.601  0.0000E+00  0.0000E+00  0.1400E+00  0.1400E+00
    -17.431  0.0000E+00  0.0000E+00  0.1400E+00  0.1400E+00
    -17.261  0.0000E+00  0.0000E+00  0.1400E+00  0.1400E+00
    -17.091  0.0000E+00  0.0000E+00  0.1400E+00  0.1400E+00
    -16.921  0.0000E+00  0.0000E+00  0.1400E+00  0.1400E+00
    -16.751 -0.2383E-32 -0.1166E-30  0.1400E+00  0.1400E+00
    -16.581 -0.1474E-24 -0.4009E-23  0.1400E+00  0.1400E+00
    -16.411 -0.6893E-18 -0.1051E-16  0.1400E+00  0.1400E+00
    -16.241 -0.2333E-12 -0.2009E-11  0.1400E+00  0.1400E+00
    -16.071 -0.5962E-08 -0.2945E-07  0.1400E+00  0.1400E+00
    -15.901 -0.1077E-04 -0.3082E-04  0.1400E+00  0.1400E+00
    -15.731 -0.1159E-02 -0.1822E-02  0.1398E+00  0.1397E+00
    -15.561  0.4344E-02  0.1244E-01  0.1405E+00  0.1418E+00
    -15.391  0.7360E-01  0.7637E-01  0.1530E+00  0.1548E+00
    -15.221  0.2389E-01  0.1299E-01  0.1571E+00  0.1570E+00
    -15.051 -0.2532E-02 -0.1860E-02  0.1567E+00  0.1567E+00
    -14.881 -0.7615E-04 -0.3264E-04  0.1567E+00  0.1567E+00
    -14.711 -0.1147E-06 -0.3222E-07  0.1567E+00  0.1567E+00
    -14.541 -0.1219E-10 -0.2264E-11  0.1567E+00  0.1567E+00
    -14.371 -0.9145E-16 -0.1306E-16  0.1567E+00  0.1567E+00
    -14.201  0.0000E+00  0.0000E+00  0.1567E+00  0.1567E+00
    -14.031  0.0000E+00  0.0000E+00  0.1567E+00  0.1567E+00
    -13.861  0.0000E+00  0.0000E+00  0.1567E+00  0.1567E+00
    -13.691  0.0000E+00  0.0000E+00  0.1567E+00  0.1567E+00
    -13.521  0.0000E+00  0.0000E+00  0.1567E+00  0.1567E+00
    -13.351  0.0000E+00  0.0000E+00  0.1567E+00  0.1567E+00
    -13.181  0.0000E+00  0.0000E+00  0.1567E+00  0.1567E+00
    -13.011  0.0000E+00  0.0000E+00  0.1567E+00  0.1567E+00
    -12.841  0.0000E+00  0.0000E+00  0.1567E+00  0.1567E+00
    -12.671  0.0000E+00  0.0000E+00  0.1567E+00  0.1567E+00
    -12.501  0.0000E+00  0.0000E+00  0.1567E+00  0.1567E+00
    -12.331  0.0000E+00  0.0000E+00  0.1567E+00  0.1567E+00
    -12.161  0.0000E+00  0.0000E+00  0.1567E+00  0.1567E+00
    -11.992  0.0000E+00  0.0000E+00  0.1567E+00  0.1567E+00
    -11.822  0.0000E+00  0.0000E+00  0.1567E+00  0.1567E+00
    -11.652  0.0000E+00  0.0000E+00  0.1567E+00  0.1567E+00
    -11.482  0.0000E+00  0.0000E+00  0.1567E+00  0.1567E+00
    -11.312  0.0000E+00  0.0000E+00  0.1567E+00  0.1567E+00
    -11.142  0.0000E+00  0.0000E+00  0.1567E+00  0.1567E+00
    -10.972  0.0000E+00  0.0000E+00  0.1567E+00  0.1567E+00
    -10.802  0.0000E+00  0.0000E+00  0.1567E+00  0.1567E+00
    -10.632  0.0000E+00  0.0000E+00  0.1567E+00  0.1567E+00
    -10.462  0.0000E+00  0.0000E+00  0.1567E+00  0.1567E+00
    -10.292  0.0000E+00  0.0000E+00  0.1567E+00  0.1567E+00
    -10.122  0.0000E+00  0.0000E+00  0.1567E+00  0.1567E+00
     -9.952  0.0000E+00  0.0000E+00  0.1567E+00  0.1567E+00
     -9.782  0.0000E+00  0.0000E+00  0.1567E+00  0.1567E+00
     -9.612  0.0000E+00  0.0000E+00  0.1567E+00  0.1567E+00
     -9.442  0.0000E+00  0.0000E+00  0.1567E+00  0.1567E+00
     -9.272  0.0000E+00  0.0000E+00  0.1567E+00  0.1567E+00
     -9.102  0.0000E+00  0.0000E+00  0.1567E+00  0.1567E+00
     -8.932  0.0000E+00 -0.1984E-38  0.1567E+00  0.1567E+00
     -8.762 -0.1651E-35 -0.1000E-29  0.1567E+00  0.1567E+00
     -8.592 -0.1787E-27 -0.2119E-22  0.1567E+00  0.1567E+00
     -8.422 -0.1509E-20 -0.3377E-16  0.1567E+00  0.1567E+00
     -8.252 -0.9777E-15 -0.4142E-11  0.1567E+00  0.1567E+00
     -8.082 -0.5165E-10 -0.3756E-07  0.1567E+00  0.1567E+00
     -7.912 -0.2141E-06 -0.2308E-04  0.1567E+00  0.1567E+00
     -7.742 -0.6300E-04 -0.6092E-03  0.1567E+00  0.1566E+00
     -7.572 -0.5418E-03  0.6598E-02  0.1566E+00  0.1577E+00
     -7.402  0.1012E-01  0.1380E-01  0.1583E+00  0.1600E+00
     -7.232  0.1057E-01 -0.7740E-04  0.1601E+00  0.1600E+00
     -7.062  0.1308E-02  0.2496E-03  0.1603E+00  0.1601E+00
     -6.892  0.6182E-02  0.4144E-02  0.1614E+00  0.1608E+00
     -6.722  0.3330E-02  0.5621E-02  0.1619E+00  0.1617E+00
     -6.552  0.5554E-02  0.2270E-02  0.1629E+00  0.1621E+00
     -6.383  0.8315E-02  0.8330E-02  0.1643E+00  0.1635E+00
     -6.213  0.1038E-02  0.5107E-02  0.1645E+00  0.1644E+00
     -6.043  0.7838E-02  0.2188E-02  0.1658E+00  0.1648E+00
     -5.873  0.1539E-01  0.1158E-01  0.1684E+00  0.1667E+00
     -5.703  0.9794E-02  0.1344E-01  0.1701E+00  0.1690E+00
     -5.533  0.1132E-01  0.9464E-02  0.1720E+00  0.1706E+00
     -5.363  0.1019E-01  0.1219E-01  0.1737E+00  0.1727E+00
     -5.193  0.6517E-02  0.6613E-02  0.1748E+00  0.1738E+00
     -5.023  0.2135E-01  0.7737E-02  0.1785E+00  0.1751E+00
     -4.853  0.1342E-01  0.2092E-01  0.1807E+00  0.1787E+00
     -4.683  0.1724E-01  0.1132E-01  0.1837E+00  0.1806E+00
     -4.513  0.1846E-01  0.1837E-01  0.1868E+00  0.1837E+00
     -4.343  0.2627E-01  0.1321E-01  0.1913E+00  0.1860E+00
     -4.173  0.2791E-01  0.1753E-01  0.1960E+00  0.1890E+00
     -4.003  0.4508E-01  0.2705E-01  0.2037E+00  0.1936E+00
     -3.833  0.5972E-01  0.2400E-01  0.2138E+00  0.1976E+00
     -3.663  0.9421E-01  0.2446E-01  0.2298E+00  0.2018E+00
     -3.493  0.1253E+00  0.1875E-01  0.2511E+00  0.2050E+00
     -3.323  0.1203E+00  0.3566E-01  0.2716E+00  0.2110E+00
     -3.153  0.1630E+00  0.3880E-01  0.2993E+00  0.2176E+00
     -2.983  0.1698E+00  0.6138E-01  0.3282E+00  0.2281E+00
     -2.813  0.1495E+00  0.7011E-01  0.3536E+00  0.2400E+00
     -2.643  0.1533E+00  0.7377E-01  0.3796E+00  0.2525E+00
     -2.473  0.2198E+00  0.6855E-01  0.4170E+00  0.2642E+00
     -2.303  0.2630E+00  0.1065E+00  0.4617E+00  0.2823E+00
     -2.133  0.2237E+00  0.1254E+00  0.4997E+00  0.3036E+00
     -1.963  0.2380E+00  0.1304E+00  0.5402E+00  0.3257E+00
     -1.793  0.2386E+00  0.1270E+00  0.5807E+00  0.3473E+00
     -1.623  0.2253E+00  0.1115E+00  0.6190E+00  0.3663E+00
     -1.453  0.2170E+00  0.1327E+00  0.6559E+00  0.3888E+00
     -1.283  0.1948E+00  0.1586E+00  0.6890E+00  0.4158E+00
     -1.113  0.1740E+00  0.1669E+00  0.7186E+00  0.4441E+00
     -0.943  0.1607E+00  0.1967E+00  0.7459E+00  0.4776E+00
     -0.773  0.1693E+00  0.1905E+00  0.7747E+00  0.5100E+00
     -0.604  0.2088E+00  0.2001E+00  0.8102E+00  0.5440E+00
     -0.434  0.2793E+00  0.2080E+00  0.8577E+00  0.5793E+00
     -0.264  0.3220E+00  0.2060E+00  0.9124E+00  0.6143E+00
     -0.094  0.2905E+00  0.2021E+00  0.9618E+00  0.6487E+00
      0.076  0.2169E+00  0.1821E+00  0.9986E+00  0.6796E+00
      0.246  0.1602E+00  0.1635E+00  0.1026E+01  0.7074E+00
      0.416  0.1304E+00  0.1461E+00  0.1048E+01  0.7323E+00
      0.586  0.1186E+00  0.1361E+00  0.1068E+01  0.7554E+00
      0.756  0.1069E+00  0.1213E+00  0.1086E+01  0.7760E+00
      0.926  0.9285E-01  0.1181E+00  0.1102E+01  0.7961E+00
      1.096  0.1003E+00  0.1165E+00  0.1119E+01  0.8159E+00
      1.266  0.1018E+00  0.1372E+00  0.1136E+01  0.8392E+00
      1.436  0.9573E-01  0.1547E+00  0.1153E+01  0.8655E+00
      1.606  0.8982E-01  0.1810E+00  0.1168E+01  0.8963E+00
      1.776  0.9137E-01  0.2174E+00  0.1184E+01  0.9332E+00
      1.946  0.1058E+00  0.2510E+00  0.1202E+01  0.9759E+00
      2.116  0.1156E+00  0.2818E+00  0.1221E+01  0.1024E+01
      2.286  0.1137E+00  0.3007E+00  0.1241E+01  0.1075E+01
      2.456  0.9030E-01  0.3108E+00  0.1256E+01  0.1128E+01
      2.626  0.2644E-01  0.3477E+00  0.1260E+01  0.1187E+01
      2.796 -0.1869E-02  0.2516E+00  0.1260E+01  0.1230E+01
      2.966 -0.1979E-03  0.1567E+00  0.1260E+01  0.1256E+01
      3.136 -0.8479E-06  0.2559E-01  0.1260E+01  0.1261E+01
      3.306 -0.2617E-09 -0.3153E-02  0.1260E+01  0.1260E+01
      3.476 -0.6117E-14 -0.1516E-03  0.1260E+01  0.1260E+01
      3.646  0.0000E+00 -0.5170E-06  0.1260E+01  0.1260E+01
      3.816  0.0000E+00 -0.1490E-09  0.1260E+01  0.1260E+01
      3.986  0.0000E+00 -0.3533E-14  0.1260E+01  0.1260E+01
      4.156  0.0000E+00  0.0000E+00  0.1260E+01  0.1260E+01
      4.326  0.0000E+00  0.0000E+00  0.1260E+01  0.1260E+01
      4.496  0.0000E+00  0.0000E+00  0.1260E+01  0.1260E+01
      4.666  0.0000E+00  0.0000E+00  0.1260E+01  0.1260E+01
      4.836  0.0000E+00  0.0000E+00  0.1260E+01  0.1260E+01
      5.005  0.0000E+00  0.0000E+00  0.1260E+01  0.1260E+01
      5.175  0.0000E+00  0.0000E+00  0.1260E+01  0.1260E+01
      5.345  0.0000E+00  0.0000E+00  0.1260E+01  0.1260E+01
