INCAR-For-OPT                           
           1
     8.504600    0.000000    0.000000
    -0.001099    8.509100    0.000000
     0.000000    0.000000   23.556600
   Cr   Pb   Fe
    14     1    49
Direct configuration=     1
   0.99760000  0.00330000  0.24221000
   0.66561000  0.99834000  0.00060000
   0.67354000  0.00891000  0.36928000
   0.83467000  0.16589000  0.18209000
   0.99866000  0.33404000  0.12198000
   0.33421000  0.33147000  0.00101000
   0.33492000  0.32166000  0.36417000
   0.83220000  0.50025000  0.06275000
   0.83124000  0.50129000  0.30440000
   0.33512000  0.67037000  0.00000000
   0.32602000  0.66962000  0.36813000
   0.33145000  0.66488000  0.12292000
   0.50213000  0.83338000  0.29914000
   0.67111000  0.66550000  0.12148000
   0.49733000  0.50821000  0.43641000
   0.99950000  0.00032000  0.00103000
   0.99727000  0.99707000  0.36119000
   0.16670000  0.16592000  0.06160000
   0.99930000  0.00013000  0.12183000
   0.16670000  0.16692000  0.18170000
   0.16533000  0.16232000  0.30410000
   0.33368000  0.99986000  0.00108000
   0.34279000  0.99186000  0.35940000
   0.50008000  0.16606000  0.06164000
   0.33365000  0.99945000  0.12194000
   0.50013000  0.16657000  0.18176000
   0.33374000  0.99994000  0.24252000
   0.50427000  0.16482000  0.30294000
   0.83412000  0.16807000  0.06130000
   0.66767000  0.99972000  0.12168000
   0.66792000  0.00032000  0.24233000
   0.83459000  0.16873000  0.30381000
   0.00033000  0.33346000  0.00076000
   0.00197000  0.33211000  0.36112000
   0.16704000  0.50116000  0.06077000
   0.16627000  0.49940000  0.18238000
   0.00000000  0.33319000  0.24260000
   0.16689000  0.49939000  0.30485000
   0.49811000  0.50186000  0.06112000
   0.33328000  0.33434000  0.12148000
   0.50051000  0.50053000  0.18145000
   0.33392000  0.33269000  0.24229000
   0.49886000  0.50205000  0.30517000
   0.66687000  0.33418000  0.00129000
   0.66605000  0.33550000  0.36105000
   0.66670000  0.33332000  0.12177000
   0.83466000  0.49916000  0.18181000
   0.66748000  0.33291000  0.24234000
   0.99949000  0.66581000  0.00112000
   0.00140000  0.66980000  0.36156000
   0.16773000  0.83295000  0.06141000
   0.00149000  0.66672000  0.12196000
   0.16592000  0.83389000  0.18235000
   0.99950000  0.66635000  0.24245000
   0.16581000  0.83274000  0.30351000
   0.49825000  0.83185000  0.06189000
   0.50064000  0.83335000  0.18189000
   0.33424000  0.66627000  0.24239000
   0.66521000  0.66629000  0.00100000
   0.65532000  0.67335000  0.36185000
   0.83382000  0.83268000  0.06128000
   0.83390000  0.83311000  0.18191000
   0.66721000  0.66675000  0.24221000
   0.83053000  0.83175000  0.30433000
Direct configuration=     2
   0.99760000  0.00330000  0.24221000
   0.66561000  0.99834000  0.00060000
   0.67040896  0.00596436  0.36955273
   0.83467000  0.16589000  0.18209000
   0.99866000  0.33404000  0.12198000
   0.33421000  0.33147000  0.00101000
   0.33239113  0.31945273  0.36342196
   0.83220000  0.50025000  0.06275000
   0.83112032  0.50108016  0.30453774
   0.33512000  0.67037000  0.00000000
   0.32019163  0.67362040  0.36620699
   0.33145000  0.66488000  0.12292000
   0.50457200  0.83591351  0.30039497
   0.67111000  0.66550000  0.12148000
   0.50243844  0.50480795  0.44001470
   0.99950000  0.00032000  0.00103000
   0.99822642  0.99711768  0.36088039
   0.16670000  0.16592000  0.06160000
   0.99930000  0.00013000  0.12183000
   0.16670000  0.16692000  0.18170000
   0.16520478  0.16238881  0.30408172
   0.33368000  0.99986000  0.00108000
   0.34190562  0.99191957  0.35944454
   0.50008000  0.16606000  0.06164000
   0.33365000  0.99945000  0.12194000
   0.50013000  0.16657000  0.18176000
   0.33374000  0.99994000  0.24252000
   0.50313062  0.16618259  0.30273030
   0.83412000  0.16807000  0.06130000
   0.66767000  0.99972000  0.12168000
   0.66792000  0.00032000  0.24233000
   0.83470161  0.16872943  0.30352589
   0.00033000  0.33346000  0.00076000
   0.00206973  0.33237411  0.36130335
   0.16704000  0.50116000  0.06077000
   0.16627000  0.49940000  0.18238000
   0.00000000  0.33319000  0.24260000
   0.16709552  0.49953518  0.30474065
   0.49811000  0.50186000  0.06112000
   0.33328000  0.33434000  0.12148000
   0.50051000  0.50053000  0.18145000
   0.33392000  0.33269000  0.24229000
   0.49916414  0.50196090  0.30478862
   0.66687000  0.33418000  0.00129000
   0.66718479  0.33495183  0.36085126
   0.66670000  0.33332000  0.12177000
   0.83466000  0.49916000  0.18181000
   0.66748000  0.33291000  0.24234000
   0.99949000  0.66581000  0.00112000
   0.00118283  0.66935880  0.36174235
   0.16773000  0.83295000  0.06141000
   0.00149000  0.66672000  0.12196000
   0.16592000  0.83389000  0.18235000
   0.99950000  0.66635000  0.24245000
   0.16606496  0.83292641  0.30350130
   0.49825000  0.83185000  0.06189000
   0.50064000  0.83335000  0.18189000
   0.33424000  0.66627000  0.24239000
   0.66521000  0.66629000  0.00100000
   0.65785349  0.67539494  0.36113740
   0.83382000  0.83268000  0.06128000
   0.83390000  0.83311000  0.18191000
   0.66721000  0.66675000  0.24221000
   0.83175441  0.83158497  0.30385488
Direct configuration=     3
   0.99760000  0.00330000  0.24221000
   0.66561000  0.99834000  0.00060000
   0.66791572  0.00361875  0.36976990
   0.83467000  0.16589000  0.18209000
   0.99866000  0.33404000  0.12198000
   0.33421000  0.33147000  0.00101000
   0.33037740  0.31769509  0.36282630
   0.83220000  0.50025000  0.06275000
   0.83102502  0.50091306  0.30464742
   0.33512000  0.67037000  0.00000000
   0.31555051  0.67680591  0.36467570
   0.33145000  0.66488000  0.12292000
   0.50651657  0.83793093  0.30139430
   0.67111000  0.66550000  0.12148000
   0.50650628  0.50209890  0.44288511
   0.99950000  0.00032000  0.00103000
   0.99898801  0.99715565  0.36063385
   0.16670000  0.16592000  0.06160000
   0.99930000  0.00013000  0.12183000
   0.16670000  0.16692000  0.18170000
   0.16510506  0.16244360  0.30406715
   0.33368000  0.99986000  0.00108000
   0.34120139  0.99196700  0.35948002
   0.50008000  0.16606000  0.06164000
   0.33365000  0.99945000  0.12194000
   0.50013000  0.16657000  0.18176000
   0.33374000  0.99994000  0.24252000
   0.50222334  0.16726762  0.30256332
   0.83412000  0.16807000  0.06130000
   0.66767000  0.99972000  0.12168000
   0.66792000  0.00032000  0.24233000
   0.83479048  0.16872898  0.30329966
   0.00033000  0.33346000  0.00076000
   0.00214915  0.33258442  0.36144935
   0.16704000  0.50116000  0.06077000
   0.16627000  0.49940000  0.18238000
   0.00000000  0.33319000  0.24260000
   0.16725918  0.49965078  0.30465358
   0.49811000  0.50186000  0.06112000
   0.33328000  0.33434000  0.12148000
   0.50051000  0.50053000  0.18145000
   0.33392000  0.33269000  0.24229000
   0.49940633  0.50188995  0.30448492
   0.66687000  0.33418000  0.00129000
   0.66808841  0.33451532  0.36069301
   0.66670000  0.33332000  0.12177000
   0.83466000  0.49916000  0.18181000
   0.66748000  0.33291000  0.24234000
   0.99949000  0.66581000  0.00112000
   0.00100990  0.66900747  0.36188756
   0.16773000  0.83295000  0.06141000
   0.00149000  0.66672000  0.12196000
   0.16592000  0.83389000  0.18235000
   0.99950000  0.66635000  0.24245000
   0.16626798  0.83307485  0.30349437
   0.49825000  0.83185000  0.06189000
   0.50064000  0.83335000  0.18189000
   0.33424000  0.66627000  0.24239000
   0.66521000  0.66629000  0.00100000
   0.65987091  0.67702332  0.36056996
   0.83382000  0.83268000  0.06128000
   0.83390000  0.83311000  0.18191000
   0.66721000  0.66675000  0.24221000
   0.83272940  0.83145355  0.30347655
Direct configuration=     4
   0.99760000  0.00330000  0.24221000
   0.66561000  0.99834000  0.00060000
   0.66811477  0.00380601  0.36975257
   0.83467000  0.16589000  0.18209000
   0.99866000  0.33404000  0.12198000
   0.33421000  0.33147000  0.00101000
   0.33053816  0.31783541  0.36287385
   0.83220000  0.50025000  0.06275000
   0.83103262  0.50092640  0.30463866
   0.33512000  0.67037000  0.00000000
   0.31592102  0.67655160  0.36479795
   0.33145000  0.66488000  0.12292000
   0.50636133  0.83776988  0.30131452
   0.67111000  0.66550000  0.12148000
   0.50618153  0.50231518  0.44265596
   0.99950000  0.00032000  0.00103000
   0.99892721  0.99715262  0.36065353
   0.16670000  0.16592000  0.06160000
   0.99930000  0.00013000  0.12183000
   0.16670000  0.16692000  0.18170000
   0.16511302  0.16243923  0.30406832
   0.33368000  0.99986000  0.00108000
   0.34125761  0.99196322  0.35947718
   0.50008000  0.16606000  0.06164000
   0.33365000  0.99945000  0.12194000
   0.50013000  0.16657000  0.18176000
   0.33374000  0.99994000  0.24252000
   0.50229577  0.16718100  0.30257665
   0.83412000  0.16807000  0.06130000
   0.66767000  0.99972000  0.12168000
   0.66792000  0.00032000  0.24233000
   0.83478338  0.16872901  0.30331772
   0.00033000  0.33346000  0.00076000
   0.00214281  0.33256763  0.36143769
   0.16704000  0.50116000  0.06077000
   0.16627000  0.49940000  0.18238000
   0.00000000  0.33319000  0.24260000
   0.16724612  0.49964156  0.30466053
   0.49811000  0.50186000  0.06112000
   0.33328000  0.33434000  0.12148000
   0.50051000  0.50053000  0.18145000
   0.33392000  0.33269000  0.24229000
   0.49938699  0.50189562  0.30450917
   0.66687000  0.33418000  0.00129000
   0.66801627  0.33455017  0.36070564
   0.66670000  0.33332000  0.12177000
   0.83466000  0.49916000  0.18181000
   0.66748000  0.33291000  0.24234000
   0.99949000  0.66581000  0.00112000
   0.00102370  0.66903552  0.36187597
   0.16773000  0.83295000  0.06141000
   0.00149000  0.66672000  0.12196000
   0.16592000  0.83389000  0.18235000
   0.99950000  0.66635000  0.24245000
   0.16625177  0.83306300  0.30349492
   0.49825000  0.83185000  0.06189000
   0.50064000  0.83335000  0.18189000
   0.33424000  0.66627000  0.24239000
   0.66521000  0.66629000  0.00100000
   0.65970985  0.67689332  0.36061526
   0.83382000  0.83268000  0.06128000
   0.83390000  0.83311000  0.18191000
   0.66721000  0.66675000  0.24221000
   0.83265156  0.83146404  0.30350676
Direct configuration=     5
   0.99760000  0.00330000  0.24221000
   0.66561000  0.99834000  0.00060000
   0.66582108  0.00175346  0.36977224
   0.83467000  0.16589000  0.18209000
   0.99866000  0.33404000  0.12198000
   0.33421000  0.33147000  0.00101000
   0.33016245  0.31885074  0.36313847
   0.83220000  0.50025000  0.06275000
   0.83112087  0.50066810  0.30468839
   0.33512000  0.67037000  0.00000000
   0.31629779  0.67473058  0.36513174
   0.33145000  0.66488000  0.12292000
   0.50823109  0.83944486  0.30198962
   0.67111000  0.66550000  0.12148000
   0.50838312  0.50191120  0.44313903
   0.99950000  0.00032000  0.00103000
   0.99969871  0.99734768  0.36042475
   0.16670000  0.16592000  0.06160000
   0.99930000  0.00013000  0.12183000
   0.16670000  0.16692000  0.18170000
   0.16428628  0.16203754  0.30379280
   0.33368000  0.99986000  0.00108000
   0.34008563  0.99251866  0.35951549
   0.50008000  0.16606000  0.06164000
   0.33365000  0.99945000  0.12194000
   0.50013000  0.16657000  0.18176000
   0.33374000  0.99994000  0.24252000
   0.50222591  0.16773755  0.30247611
   0.83412000  0.16807000  0.06130000
   0.66767000  0.99972000  0.12168000
   0.66792000  0.00032000  0.24233000
   0.83448211  0.16791437  0.30342729
   0.00033000  0.33346000  0.00076000
   0.00201431  0.33284883  0.36149695
   0.16704000  0.50116000  0.06077000
   0.16627000  0.49940000  0.18238000
   0.00000000  0.33319000  0.24260000
   0.16665085  0.49920540  0.30435251
   0.49811000  0.50186000  0.06112000
   0.33328000  0.33434000  0.12148000
   0.50051000  0.50053000  0.18145000
   0.33392000  0.33269000  0.24229000
   0.49962902  0.50245882  0.30493100
   0.66687000  0.33418000  0.00129000
   0.66827052  0.33463091  0.36065945
   0.66670000  0.33332000  0.12177000
   0.83466000  0.49916000  0.18181000
   0.66748000  0.33291000  0.24234000
   0.99949000  0.66581000  0.00112000
   0.00052436  0.66859145  0.36192705
   0.16773000  0.83295000  0.06141000
   0.00149000  0.66672000  0.12196000
   0.16592000  0.83389000  0.18235000
   0.99950000  0.66635000  0.24245000
   0.16546355  0.83453480  0.30295698
   0.49825000  0.83185000  0.06189000
   0.50064000  0.83335000  0.18189000
   0.33424000  0.66627000  0.24239000
   0.66521000  0.66629000  0.00100000
   0.65968789  0.67599857  0.36087431
   0.83382000  0.83268000  0.06128000
   0.83390000  0.83311000  0.18191000
   0.66721000  0.66675000  0.24221000
   0.83412688  0.83219579  0.30310820
Direct configuration=     6
   0.99760000  0.00330000  0.24221000
   0.66561000  0.99834000  0.00060000
   0.66318821  0.99939740  0.36979482
   0.83467000  0.16589000  0.18209000
   0.99866000  0.33404000  0.12198000
   0.33421000  0.33147000  0.00101000
   0.32973117  0.32001622  0.36344223
   0.83220000  0.50025000  0.06275000
   0.83122216  0.50037160  0.30474546
   0.33512000  0.67037000  0.00000000
   0.31673028  0.67264029  0.36551489
   0.33145000  0.66488000  0.12292000
   0.51037734  0.84136753  0.30276456
   0.67111000  0.66550000  0.12148000
   0.51091027  0.50144748  0.44369353
   0.99950000  0.00032000  0.00103000
   0.00058430  0.99757158  0.36016214
   0.16670000  0.16592000  0.06160000
   0.99930000  0.00013000  0.12183000
   0.16670000  0.16692000  0.18170000
   0.16333728  0.16157645  0.30347654
   0.33368000  0.99986000  0.00108000
   0.33874035  0.99315624  0.35955947
   0.50008000  0.16606000  0.06164000
   0.33365000  0.99945000  0.12194000
   0.50013000  0.16657000  0.18176000
   0.33374000  0.99994000  0.24252000
   0.50214571  0.16837639  0.30236070
   0.83412000  0.16807000  0.06130000
   0.66767000  0.99972000  0.12168000
   0.66792000  0.00032000  0.24233000
   0.83413629  0.16697926  0.30355306
   0.00033000  0.33346000  0.00076000
   0.00186680  0.33317161  0.36156497
   0.16704000  0.50116000  0.06077000
   0.16627000  0.49940000  0.18238000
   0.00000000  0.33319000  0.24260000
   0.16596756  0.49870475  0.30399893
   0.49811000  0.50186000  0.06112000
   0.33328000  0.33434000  0.12148000
   0.50051000  0.50053000  0.18145000
   0.33392000  0.33269000  0.24229000
   0.49990684  0.50310531  0.30541520
   0.66687000  0.33418000  0.00129000
   0.66856237  0.33472359  0.36060643
   0.66670000  0.33332000  0.12177000
   0.83466000  0.49916000  0.18181000
   0.66748000  0.33291000  0.24234000
   0.99949000  0.66581000  0.00112000
   0.99995118  0.66808173  0.36198570
   0.16773000  0.83295000  0.06141000
   0.00149000  0.66672000  0.12196000
   0.16592000  0.83389000  0.18235000
   0.99950000  0.66635000  0.24245000
   0.16455877  0.83622424  0.30233950
   0.49825000  0.83185000  0.06189000
   0.50064000  0.83335000  0.18189000
   0.33424000  0.66627000  0.24239000
   0.66521000  0.66629000  0.00100000
   0.65966268  0.67497152  0.36117167
   0.83382000  0.83268000  0.06128000
   0.83390000  0.83311000  0.18191000
   0.66721000  0.66675000  0.24221000
   0.83582036  0.83303575  0.30265071
Direct configuration=     7
   0.99760000  0.00330000  0.24221000
   0.66561000  0.99834000  0.00060000
   0.66278132  0.99903329  0.36979832
   0.83467000  0.16589000  0.18209000
   0.99866000  0.33404000  0.12198000
   0.33421000  0.33147000  0.00101000
   0.32966452  0.32019633  0.36348917
   0.83220000  0.50025000  0.06275000
   0.83123781  0.50032578  0.30475428
   0.33512000  0.67037000  0.00000000
   0.31679711  0.67231725  0.36557411
   0.33145000  0.66488000  0.12292000
   0.51070902  0.84166466  0.30288432
   0.67111000  0.66550000  0.12148000
   0.51130082  0.50137582  0.44377923
   0.99950000  0.00032000  0.00103000
   0.00072116  0.99760618  0.36012156
   0.16670000  0.16592000  0.06160000
   0.99930000  0.00013000  0.12183000
   0.16670000  0.16692000  0.18170000
   0.16319062  0.16150519  0.30342767
   0.33368000  0.99986000  0.00108000
   0.33853245  0.99325477  0.35956627
   0.50008000  0.16606000  0.06164000
   0.33365000  0.99945000  0.12194000
   0.50013000  0.16657000  0.18176000
   0.33374000  0.99994000  0.24252000
   0.50213332  0.16847512  0.30234286
   0.83412000  0.16807000  0.06130000
   0.66767000  0.99972000  0.12168000
   0.66792000  0.00032000  0.24233000
   0.83408284  0.16683475  0.30357250
   0.00033000  0.33346000  0.00076000
   0.00184400  0.33322149  0.36157548
   0.16704000  0.50116000  0.06077000
   0.16627000  0.49940000  0.18238000
   0.00000000  0.33319000  0.24260000
   0.16586197  0.49862738  0.30394429
   0.49811000  0.50186000  0.06112000
   0.33328000  0.33434000  0.12148000
   0.50051000  0.50053000  0.18145000
   0.33392000  0.33269000  0.24229000
   0.49994977  0.50320522  0.30549003
   0.66687000  0.33418000  0.00129000
   0.66860747  0.33473792  0.36059824
   0.66670000  0.33332000  0.12177000
   0.83466000  0.49916000  0.18181000
   0.66748000  0.33291000  0.24234000
   0.99949000  0.66581000  0.00112000
   0.99986261  0.66800295  0.36199476
   0.16773000  0.83295000  0.06141000
   0.00149000  0.66672000  0.12196000
   0.16592000  0.83389000  0.18235000
   0.99950000  0.66635000  0.24245000
   0.16441894  0.83648533  0.30224407
   0.49825000  0.83185000  0.06189000
   0.50064000  0.83335000  0.18189000
   0.33424000  0.66627000  0.24239000
   0.66521000  0.66629000  0.00100000
   0.65965878  0.67481280  0.36121763
   0.83382000  0.83268000  0.06128000
   0.83390000  0.83311000  0.18191000
   0.66721000  0.66675000  0.24221000
   0.83608207  0.83316556  0.30258001
Direct configuration=     8
   0.99760000  0.00330000  0.24221000
   0.66561000  0.99834000  0.00060000
   0.66191159  0.99767507  0.36974466
   0.83467000  0.16589000  0.18209000
   0.99866000  0.33404000  0.12198000
   0.33421000  0.33147000  0.00101000
   0.32931209  0.32090736  0.36377896
   0.83220000  0.50025000  0.06275000
   0.83127236  0.50022952  0.30472705
   0.33512000  0.67037000  0.00000000
   0.31717001  0.67112755  0.36588852
   0.33145000  0.66488000  0.12292000
   0.51097826  0.84189533  0.30323968
   0.67111000  0.66550000  0.12148000
   0.51332714  0.50113442  0.44391189
   0.99950000  0.00032000  0.00103000
   0.00084180  0.99797405  0.36030510
   0.16670000  0.16592000  0.06160000
   0.99930000  0.00013000  0.12183000
   0.16670000  0.16692000  0.18170000
   0.16336218  0.16261633  0.30330775
   0.33368000  0.99986000  0.00108000
   0.33665432  0.99398960  0.35953673
   0.50008000  0.16606000  0.06164000
   0.33365000  0.99945000  0.12194000
   0.50013000  0.16657000  0.18176000
   0.33374000  0.99994000  0.24252000
   0.50175587  0.16911445  0.30251842
   0.83412000  0.16807000  0.06130000
   0.66767000  0.99972000  0.12168000
   0.66792000  0.00032000  0.24233000
   0.83339109  0.16650097  0.30379323
   0.00033000  0.33346000  0.00076000
   0.00171507  0.33330108  0.36154087
   0.16704000  0.50116000  0.06077000
   0.16627000  0.49940000  0.18238000
   0.00000000  0.33319000  0.24260000
   0.16580795  0.49879182  0.30386291
   0.49811000  0.50186000  0.06112000
   0.33328000  0.33434000  0.12148000
   0.50051000  0.50053000  0.18145000
   0.33392000  0.33269000  0.24229000
   0.49985635  0.50358666  0.30568584
   0.66687000  0.33418000  0.00129000
   0.66883718  0.33444339  0.36060053
   0.66670000  0.33332000  0.12177000
   0.83466000  0.49916000  0.18181000
   0.66748000  0.33291000  0.24234000
   0.99949000  0.66581000  0.00112000
   0.99938093  0.66790326  0.36171566
   0.16773000  0.83295000  0.06141000
   0.00149000  0.66672000  0.12196000
   0.16592000  0.83389000  0.18235000
   0.99950000  0.66635000  0.24245000
   0.16567870  0.83513804  0.30238534
   0.49825000  0.83185000  0.06189000
   0.50064000  0.83335000  0.18189000
   0.33424000  0.66627000  0.24239000
   0.66521000  0.66629000  0.00100000
   0.66050904  0.67391031  0.36138156
   0.83382000  0.83268000  0.06128000
   0.83390000  0.83311000  0.18191000
   0.66721000  0.66675000  0.24221000
   0.83581381  0.83272316  0.30272242
Direct configuration=     9
   0.99760000  0.00330000  0.24221000
   0.66561000  0.99834000  0.00060000
   0.66065932  0.99571948  0.36966741
   0.83467000  0.16589000  0.18209000
   0.99866000  0.33404000  0.12198000
   0.33421000  0.33147000  0.00101000
   0.32880466  0.32193112  0.36419620
   0.83220000  0.50025000  0.06275000
   0.83132209  0.50009093  0.30468784
   0.33512000  0.67037000  0.00000000
   0.31770693  0.66941461  0.36634121
   0.33145000  0.66488000  0.12292000
   0.51136592  0.84222747  0.30375133
   0.67111000  0.66550000  0.12148000
   0.51624467  0.50078684  0.44410289
   0.99950000  0.00032000  0.00103000
   0.00101550  0.99850371  0.36056938
   0.16670000  0.16592000  0.06160000
   0.99930000  0.00013000  0.12183000
   0.16670000  0.16692000  0.18170000
   0.16360919  0.16421616  0.30313509
   0.33368000  0.99986000  0.00108000
   0.33395015  0.99504764  0.35949420
   0.50008000  0.16606000  0.06164000
   0.33365000  0.99945000  0.12194000
   0.50013000  0.16657000  0.18176000
   0.33374000  0.99994000  0.24252000
   0.50121241  0.17003497  0.30277119
   0.83412000  0.16807000  0.06130000
   0.66767000  0.99972000  0.12168000
   0.66792000  0.00032000  0.24233000
   0.83239509  0.16602038  0.30411106
   0.00033000  0.33346000  0.00076000
   0.00152942  0.33341568  0.36149105
   0.16704000  0.50116000  0.06077000
   0.16627000  0.49940000  0.18238000
   0.00000000  0.33319000  0.24260000
   0.16573018  0.49902860  0.30374573
   0.49811000  0.50186000  0.06112000
   0.33328000  0.33434000  0.12148000
   0.50051000  0.50053000  0.18145000
   0.33392000  0.33269000  0.24229000
   0.49972185  0.50413585  0.30596776
   0.66687000  0.33418000  0.00129000
   0.66916793  0.33401931  0.36060384
   0.66670000  0.33332000  0.12177000
   0.83466000  0.49916000  0.18181000
   0.66748000  0.33291000  0.24234000
   0.99949000  0.66581000  0.00112000
   0.99868741  0.66775972  0.36131382
   0.16773000  0.83295000  0.06141000
   0.00149000  0.66672000  0.12196000
   0.16592000  0.83389000  0.18235000
   0.99950000  0.66635000  0.24245000
   0.16749254  0.83319817  0.30258874
   0.49825000  0.83185000  0.06189000
   0.50064000  0.83335000  0.18189000
   0.33424000  0.66627000  0.24239000
   0.66521000  0.66629000  0.00100000
   0.66173326  0.67261090  0.36161758
   0.83382000  0.83268000  0.06128000
   0.83390000  0.83311000  0.18191000
   0.66721000  0.66675000  0.24221000
   0.83542756  0.83208619  0.30292746
Direct configuration=    10
   0.99760000  0.00330000  0.24221000
   0.66561000  0.99834000  0.00060000
   0.66029998  0.99532081  0.36967336
   0.83467000  0.16589000  0.18209000
   0.99866000  0.33404000  0.12198000
   0.33421000  0.33147000  0.00101000
   0.32863713  0.32209530  0.36450496
   0.83220000  0.50025000  0.06275000
   0.83117052  0.49980491  0.30456666
   0.33512000  0.67037000  0.00000000
   0.31822374  0.66909127  0.36674009
   0.33145000  0.66488000  0.12292000
   0.51031785  0.84150041  0.30376737
   0.67111000  0.66550000  0.12148000
   0.51815695  0.50033067  0.44430904
   0.99950000  0.00032000  0.00103000
   0.00143170  0.99868315  0.36036627
   0.16670000  0.16592000  0.06160000
   0.99930000  0.00013000  0.12183000
   0.16670000  0.16692000  0.18170000
   0.16319820  0.16407874  0.30319250
   0.33368000  0.99986000  0.00108000
   0.33248849  0.99603247  0.35967108
   0.50008000  0.16606000  0.06164000
   0.33365000  0.99945000  0.12194000
   0.50013000  0.16657000  0.18176000
   0.33374000  0.99994000  0.24252000
   0.50092215  0.16970049  0.30298029
   0.83412000  0.16807000  0.06130000
   0.66767000  0.99972000  0.12168000
   0.66792000  0.00032000  0.24233000
   0.83276478  0.16575725  0.30410087
   0.00033000  0.33346000  0.00076000
   0.00141353  0.33323473  0.36147591
   0.16704000  0.50116000  0.06077000
   0.16627000  0.49940000  0.18238000
   0.00000000  0.33319000  0.24260000
   0.16618891  0.49909425  0.30386972
   0.49811000  0.50186000  0.06112000
   0.33328000  0.33434000  0.12148000
   0.50051000  0.50053000  0.18145000
   0.33392000  0.33269000  0.24229000
   0.49963613  0.50384559  0.30584546
   0.66687000  0.33418000  0.00129000
   0.66928760  0.33363576  0.36068182
   0.66670000  0.33332000  0.12177000
   0.83466000  0.49916000  0.18181000
   0.66748000  0.33291000  0.24234000
   0.99949000  0.66581000  0.00112000
   0.99822605  0.66776290  0.36121071
   0.16773000  0.83295000  0.06141000
   0.00149000  0.66672000  0.12196000
   0.16592000  0.83389000  0.18235000
   0.99950000  0.66635000  0.24245000
   0.16719583  0.83311455  0.30287359
   0.49825000  0.83185000  0.06189000
   0.50064000  0.83335000  0.18189000
   0.33424000  0.66627000  0.24239000
   0.66521000  0.66629000  0.00100000
   0.66309900  0.67188932  0.36166913
   0.83382000  0.83268000  0.06128000
   0.83390000  0.83311000  0.18191000
   0.66721000  0.66675000  0.24221000
   0.83561730  0.83218621  0.30306960
Direct configuration=    11
   0.99760000  0.00330000  0.24221000
   0.66561000  0.99834000  0.00060000
   0.65989494  0.99487144  0.36968006
   0.83467000  0.16589000  0.18209000
   0.99866000  0.33404000  0.12198000
   0.33421000  0.33147000  0.00101000
   0.32844830  0.32228036  0.36485299
   0.83220000  0.50025000  0.06275000
   0.83099967  0.49948251  0.30443007
   0.33512000  0.67037000  0.00000000
   0.31880627  0.66872681  0.36718971
   0.33145000  0.66488000  0.12292000
   0.50913649  0.84068088  0.30378544
   0.67111000  0.66550000  0.12148000
   0.52031242  0.49981649  0.44454141
   0.99950000  0.00032000  0.00103000
   0.00190084  0.99888540  0.36013732
   0.16670000  0.16592000  0.06160000
   0.99930000  0.00013000  0.12183000
   0.16670000  0.16692000  0.18170000
   0.16273495  0.16392385  0.30325722
   0.33368000  0.99986000  0.00108000
   0.33084094  0.99714256  0.35987045
   0.50008000  0.16606000  0.06164000
   0.33365000  0.99945000  0.12194000
   0.50013000  0.16657000  0.18176000
   0.33374000  0.99994000  0.24252000
   0.50059498  0.16932347  0.30321597
   0.83412000  0.16807000  0.06130000
   0.66767000  0.99972000  0.12168000
   0.66792000  0.00032000  0.24233000
   0.83318148  0.16546067  0.30408938
   0.00033000  0.33346000  0.00076000
   0.00128290  0.33303076  0.36145884
   0.16704000  0.50116000  0.06077000
   0.16627000  0.49940000  0.18238000
   0.00000000  0.33319000  0.24260000
   0.16670599  0.49916826  0.30400948
   0.49811000  0.50186000  0.06112000
   0.33328000  0.33434000  0.12148000
   0.50051000  0.50053000  0.18145000
   0.33392000  0.33269000  0.24229000
   0.49953951  0.50351840  0.30570760
   0.66687000  0.33418000  0.00129000
   0.66942248  0.33320342  0.36076971
   0.66670000  0.33332000  0.12177000
   0.83466000  0.49916000  0.18181000
   0.66748000  0.33291000  0.24234000
   0.99949000  0.66581000  0.00112000
   0.99770602  0.66776647  0.36109450
   0.16773000  0.83295000  0.06141000
   0.00149000  0.66672000  0.12196000
   0.16592000  0.83389000  0.18235000
   0.99950000  0.66635000  0.24245000
   0.16686138  0.83302029  0.30319467
   0.49825000  0.83185000  0.06189000
   0.50064000  0.83335000  0.18189000
   0.33424000  0.66627000  0.24239000
   0.66521000  0.66629000  0.00100000
   0.66463843  0.67107596  0.36172724
   0.83382000  0.83268000  0.06128000
   0.83390000  0.83311000  0.18191000
   0.66721000  0.66675000  0.24221000
   0.83583118  0.83229895  0.30322982
Direct configuration=    12
   0.99760000  0.00330000  0.24221000
   0.66561000  0.99834000  0.00060000
   0.65939561  0.99449794  0.36963641
   0.83467000  0.16589000  0.18209000
   0.99866000  0.33404000  0.12198000
   0.33421000  0.33147000  0.00101000
   0.32860039  0.32191558  0.36515488
   0.83220000  0.50025000  0.06275000
   0.83120094  0.49909621  0.30433980
   0.33512000  0.67037000  0.00000000
   0.31930189  0.66877610  0.36776272
   0.33145000  0.66488000  0.12292000
   0.50858272  0.84022015  0.30367593
   0.67111000  0.66550000  0.12148000
   0.52245832  0.49916876  0.44483701
   0.99950000  0.00032000  0.00103000
   0.00224931  0.99873366  0.36028643
   0.16670000  0.16592000  0.06160000
   0.99930000  0.00013000  0.12183000
   0.16670000  0.16692000  0.18170000
   0.16302514  0.16429238  0.30310703
   0.33368000  0.99986000  0.00108000
   0.33036808  0.99801734  0.36032007
   0.50008000  0.16606000  0.06164000
   0.33365000  0.99945000  0.12194000
   0.50013000  0.16657000  0.18176000
   0.33374000  0.99994000  0.24252000
   0.50036351  0.16896669  0.30324339
   0.83412000  0.16807000  0.06130000
   0.66767000  0.99972000  0.12168000
   0.66792000  0.00032000  0.24233000
   0.83285041  0.16564637  0.30387337
   0.00033000  0.33346000  0.00076000
   0.00110979  0.33291367  0.36150884
   0.16704000  0.50116000  0.06077000
   0.16627000  0.49940000  0.18238000
   0.00000000  0.33319000  0.24260000
   0.16691513  0.49913111  0.30420683
   0.49811000  0.50186000  0.06112000
   0.33328000  0.33434000  0.12148000
   0.50051000  0.50053000  0.18145000
   0.33392000  0.33269000  0.24229000
   0.49978759  0.50300009  0.30571429
   0.66687000  0.33418000  0.00129000
   0.66957108  0.33255655  0.36063880
   0.66670000  0.33332000  0.12177000
   0.83466000  0.49916000  0.18181000
   0.66748000  0.33291000  0.24234000
   0.99949000  0.66581000  0.00112000
   0.99724452  0.66739613  0.36126698
   0.16773000  0.83295000  0.06141000
   0.00149000  0.66672000  0.12196000
   0.16592000  0.83389000  0.18235000
   0.99950000  0.66635000  0.24245000
   0.16653985  0.83285869  0.30309494
   0.49825000  0.83185000  0.06189000
   0.50064000  0.83335000  0.18189000
   0.33424000  0.66627000  0.24239000
   0.66521000  0.66629000  0.00100000
   0.66574206  0.67018167  0.36151189
   0.83382000  0.83268000  0.06128000
   0.83390000  0.83311000  0.18191000
   0.66721000  0.66675000  0.24221000
   0.83519390  0.83249739  0.30298040
Direct configuration=    13
   0.99760000  0.00330000  0.24221000
   0.66561000  0.99834000  0.00060000
   0.65909561  0.99427353  0.36961018
   0.83467000  0.16589000  0.18209000
   0.99866000  0.33404000  0.12198000
   0.33421000  0.33147000  0.00101000
   0.32869177  0.32169642  0.36533625
   0.83220000  0.50025000  0.06275000
   0.83132186  0.49886411  0.30428557
   0.33512000  0.67037000  0.00000000
   0.31959966  0.66880572  0.36810699
   0.33145000  0.66488000  0.12292000
   0.50825000  0.83994333  0.30361014
   0.67111000  0.66550000  0.12148000
   0.52374762  0.49877958  0.44501461
   0.99950000  0.00032000  0.00103000
   0.00245867  0.99864249  0.36037602
   0.16670000  0.16592000  0.06160000
   0.99930000  0.00013000  0.12183000
   0.16670000  0.16692000  0.18170000
   0.16319950  0.16451381  0.30301679
   0.33368000  0.99986000  0.00108000
   0.33008397  0.99854292  0.36059022
   0.50008000  0.16606000  0.06164000
   0.33365000  0.99945000  0.12194000
   0.50013000  0.16657000  0.18176000
   0.33374000  0.99994000  0.24252000
   0.50022443  0.16875234  0.30325986
   0.83412000  0.16807000  0.06130000
   0.66767000  0.99972000  0.12168000
   0.66792000  0.00032000  0.24233000
   0.83265150  0.16575794  0.30374359
   0.00033000  0.33346000  0.00076000
   0.00100579  0.33284331  0.36153887
   0.16704000  0.50116000  0.06077000
   0.16627000  0.49940000  0.18238000
   0.00000000  0.33319000  0.24260000
   0.16704078  0.49910879  0.30432540
   0.49811000  0.50186000  0.06112000
   0.33328000  0.33434000  0.12148000
   0.50051000  0.50053000  0.18145000
   0.33392000  0.33269000  0.24229000
   0.49993664  0.50268867  0.30571831
   0.66687000  0.33418000  0.00129000
   0.66966036  0.33216790  0.36056015
   0.66670000  0.33332000  0.12177000
   0.83466000  0.49916000  0.18181000
   0.66748000  0.33291000  0.24234000
   0.99949000  0.66581000  0.00112000
   0.99696724  0.66717362  0.36137060
   0.16773000  0.83295000  0.06141000
   0.00149000  0.66672000  0.12196000
   0.16592000  0.83389000  0.18235000
   0.99950000  0.66635000  0.24245000
   0.16634667  0.83276160  0.30303502
   0.49825000  0.83185000  0.06189000
   0.50064000  0.83335000  0.18189000
   0.33424000  0.66627000  0.24239000
   0.66521000  0.66629000  0.00100000
   0.66640514  0.66964437  0.36138251
   0.83382000  0.83268000  0.06128000
   0.83390000  0.83311000  0.18191000
   0.66721000  0.66675000  0.24221000
   0.83481101  0.83261662  0.30283055
Direct configuration=    14
   0.99760000  0.00330000  0.24221000
   0.66561000  0.99834000  0.00060000
   0.65919458  0.99434757  0.36961883
   0.83467000  0.16589000  0.18209000
   0.99866000  0.33404000  0.12198000
   0.33421000  0.33147000  0.00101000
   0.32866162  0.32176872  0.36527641
   0.83220000  0.50025000  0.06275000
   0.83128197  0.49894068  0.30430346
   0.33512000  0.67037000  0.00000000
   0.31950142  0.66879595  0.36799341
   0.33145000  0.66488000  0.12292000
   0.50835977  0.84003466  0.30363184
   0.67111000  0.66550000  0.12148000
   0.52332226  0.49890798  0.44495602
   0.99950000  0.00032000  0.00103000
   0.00238960  0.99867257  0.36034646
   0.16670000  0.16592000  0.06160000
   0.99930000  0.00013000  0.12183000
   0.16670000  0.16692000  0.18170000
   0.16314198  0.16444076  0.30304656
   0.33368000  0.99986000  0.00108000
   0.33017770  0.99836952  0.36050109
   0.50008000  0.16606000  0.06164000
   0.33365000  0.99945000  0.12194000
   0.50013000  0.16657000  0.18176000
   0.33374000  0.99994000  0.24252000
   0.50027031  0.16882306  0.30325443
   0.83412000  0.16807000  0.06130000
   0.66767000  0.99972000  0.12168000
   0.66792000  0.00032000  0.24233000
   0.83271712  0.16572113  0.30378641
   0.00033000  0.33346000  0.00076000
   0.00104010  0.33286652  0.36152896
   0.16704000  0.50116000  0.06077000
   0.16627000  0.49940000  0.18238000
   0.00000000  0.33319000  0.24260000
   0.16699933  0.49911615  0.30428628
   0.49811000  0.50186000  0.06112000
   0.33328000  0.33434000  0.12148000
   0.50051000  0.50053000  0.18145000
   0.33392000  0.33269000  0.24229000
   0.49988747  0.50279141  0.30571698
   0.66687000  0.33418000  0.00129000
   0.66963090  0.33229612  0.36058610
   0.66670000  0.33332000  0.12177000
   0.83466000  0.49916000  0.18181000
   0.66748000  0.33291000  0.24234000
   0.99949000  0.66581000  0.00112000
   0.99705872  0.66724703  0.36133642
   0.16773000  0.83295000  0.06141000
   0.00149000  0.66672000  0.12196000
   0.16592000  0.83389000  0.18235000
   0.99950000  0.66635000  0.24245000
   0.16641041  0.83279363  0.30305479
   0.49825000  0.83185000  0.06189000
   0.50064000  0.83335000  0.18189000
   0.33424000  0.66627000  0.24239000
   0.66521000  0.66629000  0.00100000
   0.66618638  0.66982163  0.36142519
   0.83382000  0.83268000  0.06128000
   0.83390000  0.83311000  0.18191000
   0.66721000  0.66675000  0.24221000
   0.83493733  0.83257729  0.30287999
Direct configuration=    15
   0.99760000  0.00330000  0.24221000
   0.66561000  0.99834000  0.00060000
   0.65890647  0.99402942  0.36949668
   0.83467000  0.16589000  0.18209000
   0.99866000  0.33404000  0.12198000
   0.33421000  0.33147000  0.00101000
   0.32920705  0.32141479  0.36542809
   0.83220000  0.50025000  0.06275000
   0.83173814  0.49892039  0.30427140
   0.33512000  0.67037000  0.00000000
   0.31955555  0.66906086  0.36828791
   0.33145000  0.66488000  0.12292000
   0.50847136  0.84027114  0.30361536
   0.67111000  0.66550000  0.12148000
   0.52450794  0.49845271  0.44499505
   0.99950000  0.00032000  0.00103000
   0.00253094  0.99829380  0.36034450
   0.16670000  0.16592000  0.06160000
   0.99930000  0.00013000  0.12183000
   0.16670000  0.16692000  0.18170000
   0.16325870  0.16444585  0.30310315
   0.33368000  0.99986000  0.00108000
   0.33048305  0.99825749  0.36051340
   0.50008000  0.16606000  0.06164000
   0.33365000  0.99945000  0.12194000
   0.50013000  0.16657000  0.18176000
   0.33374000  0.99994000  0.24252000
   0.50018477  0.16890967  0.30310634
   0.83412000  0.16807000  0.06130000
   0.66767000  0.99972000  0.12168000
   0.66792000  0.00032000  0.24233000
   0.83276139  0.16539774  0.30379916
   0.00033000  0.33346000  0.00076000
   0.00090955  0.33274384  0.36153515
   0.16704000  0.50116000  0.06077000
   0.16627000  0.49940000  0.18238000
   0.00000000  0.33319000  0.24260000
   0.16689756  0.49923961  0.30440093
   0.49811000  0.50186000  0.06112000
   0.33328000  0.33434000  0.12148000
   0.50051000  0.50053000  0.18145000
   0.33392000  0.33269000  0.24229000
   0.49970226  0.50277196  0.30584798
   0.66687000  0.33418000  0.00129000
   0.66957330  0.33190123  0.36050372
   0.66670000  0.33332000  0.12177000
   0.83466000  0.49916000  0.18181000
   0.66748000  0.33291000  0.24234000
   0.99949000  0.66581000  0.00112000
   0.99684684  0.66736447  0.36137787
   0.16773000  0.83295000  0.06141000
   0.00149000  0.66672000  0.12196000
   0.16592000  0.83389000  0.18235000
   0.99950000  0.66635000  0.24245000
   0.16676111  0.83278736  0.30311468
   0.49825000  0.83185000  0.06189000
   0.50064000  0.83335000  0.18189000
   0.33424000  0.66627000  0.24239000
   0.66521000  0.66629000  0.00100000
   0.66602805  0.66945408  0.36126632
   0.83382000  0.83268000  0.06128000
   0.83390000  0.83311000  0.18191000
   0.66721000  0.66675000  0.24221000
   0.83523528  0.83259489  0.30282029
Direct configuration=    16
   0.99760000  0.00330000  0.24221000
   0.66561000  0.99834000  0.00060000
   0.65860612  0.99369777  0.36936934
   0.83467000  0.16589000  0.18209000
   0.99866000  0.33404000  0.12198000
   0.33421000  0.33147000  0.00101000
   0.32977565  0.32104583  0.36558620
   0.83220000  0.50025000  0.06275000
   0.83221370  0.49889924  0.30423798
   0.33512000  0.67037000  0.00000000
   0.31961198  0.66933703  0.36859492
   0.33145000  0.66488000  0.12292000
   0.50858769  0.84051767  0.30359818
   0.67111000  0.66550000  0.12148000
   0.52574399  0.49797811  0.44503574
   0.99950000  0.00032000  0.00103000
   0.00267828  0.99789893  0.36034246
   0.16670000  0.16592000  0.06160000
   0.99930000  0.00013000  0.12183000
   0.16670000  0.16692000  0.18170000
   0.16338038  0.16445115  0.30316213
   0.33368000  0.99986000  0.00108000
   0.33080136  0.99814071  0.36052623
   0.50008000  0.16606000  0.06164000
   0.33365000  0.99945000  0.12194000
   0.50013000  0.16657000  0.18176000
   0.33374000  0.99994000  0.24252000
   0.50009559  0.16899996  0.30295197
   0.83412000  0.16807000  0.06130000
   0.66767000  0.99972000  0.12168000
   0.66792000  0.00032000  0.24233000
   0.83280755  0.16506062  0.30381246
   0.00033000  0.33346000  0.00076000
   0.00077345  0.33261595  0.36154159
   0.16704000  0.50116000  0.06077000
   0.16627000  0.49940000  0.18238000
   0.00000000  0.33319000  0.24260000
   0.16679146  0.49936832  0.30452045
   0.49811000  0.50186000  0.06112000
   0.33328000  0.33434000  0.12148000
   0.50051000  0.50053000  0.18145000
   0.33392000  0.33269000  0.24229000
   0.49950918  0.50275168  0.30598454
   0.66687000  0.33418000  0.00129000
   0.66951324  0.33148957  0.36041784
   0.66670000  0.33332000  0.12177000
   0.83466000  0.49916000  0.18181000
   0.66748000  0.33291000  0.24234000
   0.99949000  0.66581000  0.00112000
   0.99662597  0.66748690  0.36142109
   0.16773000  0.83295000  0.06141000
   0.00149000  0.66672000  0.12196000
   0.16592000  0.83389000  0.18235000
   0.99950000  0.66635000  0.24245000
   0.16712670  0.83278082  0.30317712
   0.49825000  0.83185000  0.06189000
   0.50064000  0.83335000  0.18189000
   0.33424000  0.66627000  0.24239000
   0.66521000  0.66629000  0.00100000
   0.66586300  0.66907091  0.36110069
   0.83382000  0.83268000  0.06128000
   0.83390000  0.83311000  0.18191000
   0.66721000  0.66675000  0.24221000
   0.83554589  0.83261325  0.30275805
Direct configuration=    17
   0.99760000  0.00330000  0.24221000
   0.66561000  0.99834000  0.00060000
   0.65873656  0.99354899  0.36921610
   0.83467000  0.16589000  0.18209000
   0.99866000  0.33404000  0.12198000
   0.33421000  0.33147000  0.00101000
   0.33003781  0.32078762  0.36562974
   0.83220000  0.50025000  0.06275000
   0.83184052  0.49876309  0.30425517
   0.33512000  0.67037000  0.00000000
   0.31975984  0.66951233  0.36873513
   0.33145000  0.66488000  0.12292000
   0.50860812  0.84026827  0.30362462
   0.67111000  0.66550000  0.12148000
   0.52670737  0.49767942  0.44502473
   0.99950000  0.00032000  0.00103000
   0.00291489  0.99751512  0.36033403
   0.16670000  0.16592000  0.06160000
   0.99930000  0.00013000  0.12183000
   0.16670000  0.16692000  0.18170000
   0.16327958  0.16444608  0.30328182
   0.33368000  0.99986000  0.00108000
   0.33125837  0.99796361  0.36043230
   0.50008000  0.16606000  0.06164000
   0.33365000  0.99945000  0.12194000
   0.50013000  0.16657000  0.18176000
   0.33374000  0.99994000  0.24252000
   0.50039496  0.16886926  0.30293501
   0.83412000  0.16807000  0.06130000
   0.66767000  0.99972000  0.12168000
   0.66792000  0.00032000  0.24233000
   0.83308422  0.16496319  0.30384853
   0.00033000  0.33346000  0.00076000
   0.00063328  0.33241239  0.36154001
   0.16704000  0.50116000  0.06077000
   0.16627000  0.49940000  0.18238000
   0.00000000  0.33319000  0.24260000
   0.16719321  0.49929247  0.30465487
   0.49811000  0.50186000  0.06112000
   0.33328000  0.33434000  0.12148000
   0.50051000  0.50053000  0.18145000
   0.33392000  0.33269000  0.24229000
   0.49922716  0.50277915  0.30593588
   0.66687000  0.33418000  0.00129000
   0.66971834  0.33117662  0.36028212
   0.66670000  0.33332000  0.12177000
   0.83466000  0.49916000  0.18181000
   0.66748000  0.33291000  0.24234000
   0.99949000  0.66581000  0.00112000
   0.99655470  0.66792716  0.36146899
   0.16773000  0.83295000  0.06141000
   0.00149000  0.66672000  0.12196000
   0.16592000  0.83389000  0.18235000
   0.99950000  0.66635000  0.24245000
   0.16729756  0.83251694  0.30322751
   0.49825000  0.83185000  0.06189000
   0.50064000  0.83335000  0.18189000
   0.33424000  0.66627000  0.24239000
   0.66521000  0.66629000  0.00100000
   0.66586916  0.66919018  0.36101901
   0.83382000  0.83268000  0.06128000
   0.83390000  0.83311000  0.18191000
   0.66721000  0.66675000  0.24221000
   0.83556406  0.83243479  0.30279908
Direct configuration=    18
   0.99760000  0.00330000  0.24221000
   0.66561000  0.99834000  0.00060000
   0.65878359  0.99349534  0.36916085
   0.83467000  0.16589000  0.18209000
   0.99866000  0.33404000  0.12198000
   0.33421000  0.33147000  0.00101000
   0.33013233  0.32069452  0.36564543
   0.83220000  0.50025000  0.06275000
   0.83170597  0.49871399  0.30426137
   0.33512000  0.67037000  0.00000000
   0.31981315  0.66957554  0.36878569
   0.33145000  0.66488000  0.12292000
   0.50861548  0.84017835  0.30363416
   0.67111000  0.66550000  0.12148000
   0.52705474  0.49757172  0.44502077
   0.99950000  0.00032000  0.00103000
   0.00300020  0.99737673  0.36033099
   0.16670000  0.16592000  0.06160000
   0.99930000  0.00013000  0.12183000
   0.16670000  0.16692000  0.18170000
   0.16324323  0.16444425  0.30332498
   0.33368000  0.99986000  0.00108000
   0.33142315  0.99789975  0.36039843
   0.50008000  0.16606000  0.06164000
   0.33365000  0.99945000  0.12194000
   0.50013000  0.16657000  0.18176000
   0.33374000  0.99994000  0.24252000
   0.50050291  0.16882213  0.30292889
   0.83412000  0.16807000  0.06130000
   0.66767000  0.99972000  0.12168000
   0.66792000  0.00032000  0.24233000
   0.83318398  0.16492806  0.30386153
   0.00033000  0.33346000  0.00076000
   0.00058274  0.33233900  0.36153944
   0.16704000  0.50116000  0.06077000
   0.16627000  0.49940000  0.18238000
   0.00000000  0.33319000  0.24260000
   0.16733807  0.49926512  0.30470334
   0.49811000  0.50186000  0.06112000
   0.33328000  0.33434000  0.12148000
   0.50051000  0.50053000  0.18145000
   0.33392000  0.33269000  0.24229000
   0.49912547  0.50278905  0.30591834
   0.66687000  0.33418000  0.00129000
   0.66979229  0.33106378  0.36023318
   0.66670000  0.33332000  0.12177000
   0.83466000  0.49916000  0.18181000
   0.66748000  0.33291000  0.24234000
   0.99949000  0.66581000  0.00112000
   0.99652900  0.66808590  0.36148626
   0.16773000  0.83295000  0.06141000
   0.00149000  0.66672000  0.12196000
   0.16592000  0.83389000  0.18235000
   0.99950000  0.66635000  0.24245000
   0.16735917  0.83242180  0.30324568
   0.49825000  0.83185000  0.06189000
   0.50064000  0.83335000  0.18189000
   0.33424000  0.66627000  0.24239000
   0.66521000  0.66629000  0.00100000
   0.66587139  0.66923319  0.36098955
   0.83382000  0.83268000  0.06128000
   0.83390000  0.83311000  0.18191000
   0.66721000  0.66675000  0.24221000
   0.83557062  0.83237044  0.30281388
Direct configuration=    19
   0.99760000  0.00330000  0.24221000
   0.66561000  0.99834000  0.00060000
   0.65924849  0.99351675  0.36911705
   0.83467000  0.16589000  0.18209000
   0.99866000  0.33404000  0.12198000
   0.33421000  0.33147000  0.00101000
   0.33036668  0.32061039  0.36563373
   0.83220000  0.50025000  0.06275000
   0.83153056  0.49867164  0.30431783
   0.33512000  0.67037000  0.00000000
   0.32011917  0.66941857  0.36886282
   0.33145000  0.66488000  0.12292000
   0.50856947  0.83982904  0.30355263
   0.67111000  0.66550000  0.12148000
   0.52772529  0.49741529  0.44492390
   0.99950000  0.00032000  0.00103000
   0.00331182  0.99698437  0.36038274
   0.16670000  0.16592000  0.06160000
   0.99930000  0.00013000  0.12183000
   0.16670000  0.16692000  0.18170000
   0.16335364  0.16433452  0.30331202
   0.33368000  0.99986000  0.00108000
   0.33176502  0.99773562  0.36033315
   0.50008000  0.16606000  0.06164000
   0.33365000  0.99945000  0.12194000
   0.50013000  0.16657000  0.18176000
   0.33374000  0.99994000  0.24252000
   0.50064525  0.16868011  0.30293282
   0.83412000  0.16807000  0.06130000
   0.66767000  0.99972000  0.12168000
   0.66792000  0.00032000  0.24233000
   0.83338287  0.16477127  0.30377654
   0.00033000  0.33346000  0.00076000
   0.00041294  0.33238052  0.36154951
   0.16704000  0.50116000  0.06077000
   0.16627000  0.49940000  0.18238000
   0.00000000  0.33319000  0.24260000
   0.16718579  0.49919578  0.30476733
   0.49811000  0.50186000  0.06112000
   0.33328000  0.33434000  0.12148000
   0.50051000  0.50053000  0.18145000
   0.33392000  0.33269000  0.24229000
   0.49919083  0.50270390  0.30586618
   0.66687000  0.33418000  0.00129000
   0.66992583  0.33108614  0.36018547
   0.66670000  0.33332000  0.12177000
   0.83466000  0.49916000  0.18181000
   0.66748000  0.33291000  0.24234000
   0.99949000  0.66581000  0.00112000
   0.99662661  0.66831743  0.36152651
   0.16773000  0.83295000  0.06141000
   0.00149000  0.66672000  0.12196000
   0.16592000  0.83389000  0.18235000
   0.99950000  0.66635000  0.24245000
   0.16727111  0.83225945  0.30318603
   0.49825000  0.83185000  0.06189000
   0.50064000  0.83335000  0.18189000
   0.33424000  0.66627000  0.24239000
   0.66521000  0.66629000  0.00100000
   0.66588996  0.66936763  0.36105817
   0.83382000  0.83268000  0.06128000
   0.83390000  0.83311000  0.18191000
   0.66721000  0.66675000  0.24221000
   0.83546623  0.83235538  0.30273833
