srun: ROUTE: split_hostlist: hl=b10r3n09 tree_width 0
 running on    4 total cores
 distrk:  each k-point on    1 cores,    4 groups
 distr:  one band on    1 cores,    1 groups
 HIP runtime initialized ...    4 DCUs will be used
 Created    4 streams on each DCU
 vasp.6.3.2 27Jun22 (build Mar 15 2023 15:45:48) complex                        
  
 POSCAR found type information on POSCAR PbCrFe
 POSCAR found :  3 types and      63 ions
 Reading from existing POTCAR
 -----------------------------------------------------------------------------
|                                                                             |
|           W    W    AA    RRRRR   N    N  II  N    N   GGGG   !!!           |
|           W    W   A  A   R    R  NN   N  II  NN   N  G    G  !!!           |
|           W    W  A    A  R    R  N N  N  II  N N  N  G       !!!           |
|           W WW W  AAAAAA  RRRRR   N  N N  II  N  N N  G  GGG   !            |
|           WW  WW  A    A  R   R   N   NN  II  N   NN  G    G                |
|           W    W  A    A  R    R  N    N  II  N    N   GGGG   !!!           |
|                                                                             |
|     You use a magnetic or noncollinear calculation, but did not specify     |
|     the initial magnetic moment with the MAGMOM tag. Note that a            |
|     default of 1 will be used for all atoms. This ferromagnetic setup       |
|     may break the symmetry of the crystal, in particular it may rule        |
|     out finding an antiferromagnetic solution. Thence, we recommend         |
|     setting the initial magnetic moment manually or verifying carefully     |
|     that this magnetic setup is desired.                                    |
|                                                                             |
 -----------------------------------------------------------------------------

 scaLAPACK will be used selectively (only on CPU)
 Reading from existing POTCAR
 LDA part: xc-table for Pade appr. of Perdew
 POSCAR found type information on POSCAR PbCrFe
 POSCAR found :  3 types and      63 ions
 Optimize memory usage for KPAR
 POSCAR, INCAR and KPOINTS ok, starting setup
 FFT: planning ... GRIDC
 FFT: planning ... GRID_SOFT
 FFT: planning ... GRID
 WAVECAR not read
 WARNING: chargedensity file is incomplete
 WARNING: random wavefunctions but no delay for mixing, default for NELMDL
 entering main loop
       N       E                     dE             d eps       ncg     rms          rms(c)
DAV:   1     0.552745947131E+04    0.55275E+04   -0.23778E+05 12512   0.144E+03
DAV:   2    -0.633927954928E+02   -0.55909E+04   -0.53941E+04 11808   0.421E+02
DAV:   3    -0.517491189793E+03   -0.45410E+03   -0.40165E+03 12202   0.162E+02
DAV:   4    -0.577348642088E+03   -0.59857E+02   -0.56110E+02 20808   0.454E+01
DAV:   5    -0.580633352730E+03   -0.32847E+01   -0.31306E+01 19336   0.108E+01    0.919E+01
RMM:   6    -0.682138962481E+03   -0.10151E+03   -0.25418E+02 16444   0.292E+01    0.129E+02
RMM:   7    -0.644554648514E+03    0.37584E+02   -0.95640E+01 14655   0.172E+01    0.126E+02
RMM:   8    -0.568640108571E+03    0.75915E+02   -0.25319E+01 13093   0.112E+01    0.961E+01
RMM:   9    -0.543068782283E+03    0.25571E+02   -0.15779E+01 12386   0.106E+01    0.826E+01
RMM:  10    -0.511121883100E+03    0.31947E+02   -0.36927E+01 14429   0.145E+01    0.548E+01
RMM:  11    -0.495836945463E+03    0.15285E+02   -0.67064E+01 16215   0.203E+01    0.458E+01
RMM:  12    -0.490063407280E+03    0.57735E+01   -0.16190E+01 13194   0.946E+00    0.342E+01
RMM:  13    -0.490675585336E+03   -0.61218E+00   -0.79634E+00 16360   0.320E+00    0.333E+01
RMM:  14    -0.491044143081E+03   -0.36856E+00   -0.15829E+00 18393   0.152E+00    0.331E+01
RMM:  15    -0.492763521720E+03   -0.17194E+01   -0.14577E+00 14231   0.270E+00    0.316E+01
RMM:  16    -0.495021642655E+03   -0.22581E+01   -0.23070E+00 16784   0.228E+00    0.301E+01
RMM:  17    -0.498963735245E+03   -0.39421E+01   -0.79070E+00 20094   0.532E+00    0.253E+01
RMM:  18    -0.500762376077E+03   -0.17986E+01   -0.68712E+00 19248   0.382E+00    0.196E+01
RMM:  19    -0.501381027185E+03   -0.61865E+00   -0.35367E+00 18103   0.244E+00    0.163E+01
RMM:  20    -0.501727111075E+03   -0.34608E+00   -0.14285E+00 18315   0.143E+00    0.160E+01
RMM:  21    -0.502307816116E+03   -0.58071E+00   -0.17042E+00 17621   0.177E+00    0.144E+01
RMM:  22    -0.503158881452E+03   -0.85107E+00   -0.26380E+00 18367   0.212E+00    0.138E+01
RMM:  23    -0.503152288704E+03    0.65927E-02   -0.11585E+00 18379   0.122E+00    0.121E+01
RMM:  24    -0.503415880240E+03   -0.26359E+00   -0.98415E-01 17664   0.129E+00    0.108E+01
RMM:  25    -0.503730541877E+03   -0.31466E+00   -0.13010E+00 18253   0.119E+00    0.958E+00
RMM:  26    -0.503925498228E+03   -0.19496E+00   -0.56793E-01 18776   0.809E-01    0.947E+00
RMM:  27    -0.504060915355E+03   -0.13542E+00   -0.38759E-01 19538   0.547E-01    0.975E+00
RMM:  28    -0.503694495909E+03    0.36642E+00   -0.15724E-01 15123   0.688E-01    0.103E+01
RMM:  29    -0.504320011669E+03   -0.62552E+00   -0.52603E-01 18759   0.119E+00    0.965E+00
RMM:  30    -0.504996282828E+03   -0.67627E+00   -0.12833E+00 20017   0.137E+00    0.785E+00
RMM:  31    -0.505292960572E+03   -0.29668E+00   -0.16738E+00 20344   0.143E+00    0.551E+00
RMM:  32    -0.505274316960E+03    0.18644E-01   -0.71611E-01 19143   0.866E-01    0.505E+00
RMM:  33    -0.505317378639E+03   -0.43062E-01   -0.16029E-01 16541   0.636E-01    0.447E+00
RMM:  34    -0.505287194938E+03    0.30184E-01   -0.11982E-01 16469   0.476E-01    0.427E+00
RMM:  35    -0.505304979150E+03   -0.17784E-01   -0.12183E-01 16872   0.509E-01    0.320E+00
RMM:  36    -0.505356366612E+03   -0.51387E-01   -0.24962E-01 19532   0.712E-01    0.200E+00
RMM:  37    -0.505348028475E+03    0.83381E-02   -0.71475E-02 17951   0.337E-01    0.208E+00
RMM:  38    -0.505377194744E+03   -0.29166E-01   -0.88463E-02 17585   0.418E-01    0.143E+00
RMM:  39    -0.505391303388E+03   -0.14109E-01   -0.83746E-02 17421   0.316E-01    0.124E+00
RMM:  40    -0.505393847926E+03   -0.25445E-02   -0.30053E-02 17889   0.241E-01    0.107E+00
RMM:  41    -0.505399267405E+03   -0.54195E-02   -0.32833E-02 17804   0.230E-01    0.775E-01
RMM:  42    -0.505401801836E+03   -0.25344E-02   -0.18542E-02 17608   0.176E-01    0.639E-01
RMM:  43    -0.505404031492E+03   -0.22297E-02   -0.12443E-02 18351   0.120E-01    0.601E-01
RMM:  44    -0.505405641093E+03   -0.16096E-02   -0.86762E-03 18387   0.965E-02    0.565E-01
RMM:  45    -0.505407486404E+03   -0.18453E-02   -0.11165E-02 17629   0.146E-01    0.339E-01
RMM:  46    -0.505408348661E+03   -0.86226E-03   -0.78216E-03 17860   0.869E-02    0.331E-01
RMM:  47    -0.505408976054E+03   -0.62739E-03   -0.42263E-03 18330   0.766E-02    0.310E-01
RMM:  48    -0.505409851502E+03   -0.87545E-03   -0.64029E-03 17949   0.856E-02    0.223E-01
RMM:  49    -0.505410163728E+03   -0.31223E-03   -0.16722E-03 18235   0.514E-02    0.167E-01
RMM:  50    -0.505410501319E+03   -0.33759E-03   -0.21078E-03 17503   0.514E-02    0.149E-01
RMM:  51    -0.505410638235E+03   -0.13692E-03   -0.11897E-03 17578   0.354E-02    0.135E-01
RMM:  52    -0.505410747131E+03   -0.10890E-03   -0.90933E-04 16729   0.420E-02    0.105E-01
RMM:  53    -0.505410878498E+03   -0.13137E-03   -0.94229E-04 17075   0.329E-02    0.698E-02
RMM:  54    -0.505410940499E+03   -0.62001E-04   -0.40213E-04 17024   0.245E-02    0.644E-02
RMM:  55    -0.505410966199E+03   -0.25700E-04   -0.36271E-04 15860   0.216E-02    0.571E-02
RMM:  56    -0.505411014453E+03   -0.48254E-04   -0.25081E-04 14864   0.186E-02    0.432E-02
RMM:  57    -0.505411039598E+03   -0.25145E-04   -0.16471E-04 13255   0.141E-02    0.324E-02
RMM:  58    -0.505411057512E+03   -0.17914E-04   -0.11939E-04 13115   0.143E-02    0.228E-02
RMM:  59    -0.505411070354E+03   -0.12842E-04   -0.98124E-05 11498   0.117E-02    0.188E-02
RMM:  60    -0.505411078592E+03   -0.82376E-05   -0.67365E-05 10528   0.114E-02
   1 F= -.50541108E+03 E0= -.50541462E+03  d E =-.505411E+03  mag=    92.9071
 BRION: g(F)=  0.225E+00 g(S)=  0.000E+00
 bond charge predicted
       N       E                     dE             d eps       ncg     rms          rms(c)
DAV:   1    -0.504647022856E+03    0.76405E+00   -0.64763E+01 14192   0.235E+01    0.528E+00
RMM:   2    -0.505596947956E+03   -0.94993E+00   -0.69004E+00 13890   0.592E+00    0.655E+00
RMM:   3    -0.505907991363E+03   -0.31104E+00   -0.17525E+00 18859   0.229E+00    0.773E+00
RMM:   4    -0.505527684806E+03    0.38031E+00   -0.16618E-01 15659   0.809E-01    0.259E+00
RMM:   5    -0.505550287918E+03   -0.22603E-01   -0.66339E-02 18256   0.395E-01    0.221E+00
RMM:   6    -0.505567945027E+03   -0.17657E-01   -0.33063E-02 18006   0.263E-01    0.166E+00
RMM:   7    -0.505583645299E+03   -0.15700E-01   -0.25810E-02 17024   0.238E-01    0.108E+00
RMM:   8    -0.505585810098E+03   -0.21648E-02   -0.17464E-02 18069   0.172E-01    0.836E-01
RMM:   9    -0.505586025395E+03   -0.21530E-03   -0.81024E-03 19116   0.109E-01    0.724E-01
RMM:  10    -0.505586290114E+03   -0.26472E-03   -0.72653E-03 17553   0.114E-01    0.498E-01
RMM:  11    -0.505586845567E+03   -0.55545E-03   -0.71045E-03 17572   0.103E-01    0.361E-01
RMM:  12    -0.505587079926E+03   -0.23436E-03   -0.29357E-03 18592   0.623E-02    0.308E-01
RMM:  13    -0.505587268084E+03   -0.18816E-03   -0.15524E-03 17780   0.504E-02    0.247E-01
RMM:  14    -0.505587638693E+03   -0.37061E-03   -0.12183E-03 16736   0.453E-02    0.245E-01
RMM:  15    -0.505587635106E+03    0.35873E-05   -0.52493E-04 17532   0.290E-02    0.197E-01
RMM:  16    -0.505587585778E+03    0.49328E-04   -0.36019E-04 15224   0.307E-02    0.112E-01
RMM:  17    -0.505587640573E+03   -0.54795E-04   -0.26502E-04 15700   0.192E-02    0.952E-02
RMM:  18    -0.505587660025E+03   -0.19452E-04   -0.96345E-05 11388   0.137E-02    0.754E-02
RMM:  19    -0.505587664292E+03   -0.42672E-05   -0.72423E-05 10840   0.131E-02
   2 F= -.50558766E+03 E0= -.50559221E+03  d E =-.176586E+00  mag=    92.5165
 BRION: g(F)=  0.805E-01 g(S)=  0.000E+00 retain N=  1 mean eig= 1.84
 eig:   1.836
 bond charge predicted
       N       E                     dE             d eps       ncg     rms          rms(c)
DAV:   1    -0.504300316178E+03    0.12873E+01   -0.93793E+01 15379   0.302E+01    0.693E+00
RMM:   2    -0.505675706957E+03   -0.13754E+01   -0.11069E+01 13844   0.675E+00    0.730E+00
RMM:   3    -0.506514323522E+03   -0.83862E+00   -0.22920E+00 17688   0.261E+00    0.111E+01
RMM:   4    -0.505627607496E+03    0.88672E+00   -0.31934E-01 14913   0.113E+00    0.308E+00
RMM:   5    -0.505664088372E+03   -0.36481E-01   -0.14337E-01 18180   0.541E-01    0.255E+00
RMM:   6    -0.505670617458E+03   -0.65291E-02   -0.61164E-02 18701   0.332E-01    0.189E+00
RMM:   7    -0.505686994781E+03   -0.16377E-01   -0.37497E-02 18173   0.252E-01    0.140E+00
RMM:   8    -0.505693111364E+03   -0.61166E-02   -0.31190E-02 17680   0.234E-01    0.889E-01
RMM:   9    -0.505693619139E+03   -0.50778E-03   -0.14870E-02 19095   0.143E-01    0.772E-01
RMM:  10    -0.505693798942E+03   -0.17980E-03   -0.81866E-03 18849   0.117E-01    0.611E-01
RMM:  11    -0.505694219561E+03   -0.42062E-03   -0.67169E-03 18091   0.104E-01    0.460E-01
RMM:  12    -0.505694501898E+03   -0.28234E-03   -0.35819E-03 18607   0.731E-02    0.384E-01
RMM:  13    -0.505694816720E+03   -0.31482E-03   -0.18175E-03 18290   0.544E-02    0.303E-01
RMM:  14    -0.505695325845E+03   -0.50913E-03   -0.12876E-03 16710   0.522E-02    0.233E-01
RMM:  15    -0.505695439317E+03   -0.11347E-03   -0.68811E-04 17878   0.311E-02    0.202E-01
RMM:  16    -0.505695450962E+03   -0.11645E-04   -0.29206E-04 15489   0.247E-02    0.152E-01
RMM:  17    -0.505695517253E+03   -0.66291E-04   -0.29245E-04 15812   0.251E-02    0.109E-01
RMM:  18    -0.505695526477E+03   -0.92241E-05   -0.12757E-04 13571   0.165E-02    0.824E-02
RMM:  19    -0.505695528160E+03   -0.16830E-05   -0.76162E-05 11493   0.141E-02
   3 F= -.50569553E+03 E0= -.50570155E+03  d E =-.107864E+00  mag=    92.0487
 BRION: g(F)=  0.225E-01 g(S)=  0.000E+00 retain N=  1 mean eig= 2.26
 eig:   2.260
 bond charge predicted
       N       E                     dE             d eps       ncg     rms          rms(c)
DAV:   1    -0.505436454449E+03    0.25907E+00   -0.17701E+01 15400   0.133E+01    0.242E+00
RMM:   2    -0.505678135986E+03   -0.24168E+00   -0.22165E+00 13613   0.282E+00    0.204E+00
RMM:   3    -0.505862599234E+03   -0.18446E+00   -0.46835E-01 17260   0.109E+00    0.451E+00
RMM:   4    -0.505711833140E+03    0.15077E+00   -0.44153E-02 13884   0.470E-01    0.121E+00
RMM:   5    -0.505717979692E+03   -0.61466E-02   -0.17181E-02 18168   0.211E-01    0.101E+00
RMM:   6    -0.505721682324E+03   -0.37026E-02   -0.69002E-03 17756   0.123E-01    0.760E-01
RMM:   7    -0.505724918531E+03   -0.32362E-02   -0.60894E-03 16597   0.118E-01    0.426E-01
RMM:   8    -0.505725002969E+03   -0.84438E-04   -0.30978E-03 18552   0.689E-02    0.327E-01
RMM:   9    -0.505725044197E+03   -0.41228E-04   -0.13414E-03 18873   0.468E-02    0.278E-01
RMM:  10    -0.505725141687E+03   -0.97490E-04   -0.13452E-03 17357   0.509E-02    0.196E-01
RMM:  11    -0.505725287000E+03   -0.14531E-03   -0.10871E-03 17495   0.423E-02    0.160E-01
RMM:  12    -0.505725341871E+03   -0.54871E-04   -0.40572E-04 17602   0.244E-02    0.140E-01
RMM:  13    -0.505725411654E+03   -0.69783E-04   -0.22231E-04 14657   0.194E-02    0.118E-01
RMM:  14    -0.505725522793E+03   -0.11114E-03   -0.26621E-04 15501   0.245E-02    0.833E-02
RMM:  15    -0.505725545198E+03   -0.22405E-04   -0.14710E-04 13893   0.148E-02    0.714E-02
RMM:  16    -0.505725549710E+03   -0.45116E-05   -0.63949E-05 10754   0.127E-02
   4 F= -.50572555E+03 E0= -.50573205E+03  d E =-.300215E-01  mag=    91.8565
 BRION: g(F)=  0.138E-01 g(S)=  0.000E+00 retain N=  2 mean eig= 4.34
 eig:   3.285  5.394
 bond charge predicted
       N       E                     dE             d eps       ncg     rms          rms(c)
DAV:   1    -0.505056094883E+03    0.66945E+00   -0.48244E+01 14568   0.201E+01    0.444E+00
RMM:   2    -0.505628255750E+03   -0.57216E+00   -0.50777E+00 14055   0.455E+00    0.367E+00
RMM:   3    -0.506184376945E+03   -0.55612E+00   -0.10865E+00 18150   0.178E+00    0.798E+00
RMM:   4    -0.505718118592E+03    0.46626E+00   -0.13419E-01 13957   0.773E-01    0.223E+00
RMM:   5    -0.505740515904E+03   -0.22397E-01   -0.54775E-02 17080   0.370E-01    0.174E+00
RMM:   6    -0.505753153550E+03   -0.12638E-01   -0.24887E-02 17410   0.238E-01    0.122E+00
RMM:   7    -0.505760269345E+03   -0.71158E-02   -0.15644E-02 17269   0.180E-01    0.736E-01
RMM:   8    -0.505761359815E+03   -0.10905E-02   -0.92887E-03 18411   0.118E-01    0.562E-01
RMM:   9    -0.505761328192E+03    0.31624E-04   -0.45179E-03 18497   0.814E-02    0.459E-01
RMM:  10    -0.505761376851E+03   -0.48659E-04   -0.32313E-03 17946   0.688E-02    0.356E-01
RMM:  11    -0.505761561330E+03   -0.18448E-03   -0.22253E-03 17758   0.553E-02    0.310E-01
RMM:  12    -0.505761668884E+03   -0.10755E-03   -0.12431E-03 17903   0.428E-02    0.264E-01
RMM:  13    -0.505761938462E+03   -0.26958E-03   -0.12107E-03 16734   0.491E-02    0.181E-01
RMM:  14    -0.505762185659E+03   -0.24720E-03   -0.11775E-03 16981   0.458E-02    0.131E-01
RMM:  15    -0.505762243726E+03   -0.58067E-04   -0.43321E-04 17036   0.241E-02    0.119E-01
RMM:  16    -0.505762280920E+03   -0.37195E-04   -0.23068E-04 14334   0.202E-02    0.926E-02
RMM:  17    -0.505762313671E+03   -0.32751E-04   -0.22656E-04 14725   0.200E-02    0.721E-02
RMM:  18    -0.505762309646E+03    0.40248E-05   -0.92040E-05 11572   0.129E-02
   5 F= -.50576231E+03 E0= -.50576940E+03  d E =-.367599E-01  mag=    91.6119
 BRION: g(F)=  0.538E-02 g(S)=  0.000E+00 retain N=  1 mean eig= 4.78
 eig:   4.783
 bond charge predicted
       N       E                     dE             d eps       ncg     rms          rms(c)
DAV:   1    -0.505610607410E+03    0.15171E+00   -0.11990E+01 14030   0.923E+00    0.205E+00
RMM:   2    -0.505734768403E+03   -0.12416E+00   -0.11241E+00 14069   0.207E+00    0.152E+00
RMM:   3    -0.505878931288E+03   -0.14416E+00   -0.25102E-01 18011   0.833E-01    0.392E+00
RMM:   4    -0.505763096486E+03    0.11583E+00   -0.27158E-02 13261   0.372E-01    0.104E+00
RMM:   5    -0.505769727925E+03   -0.66314E-02   -0.10576E-02 16455   0.177E-01    0.806E-01
RMM:   6    -0.505773165870E+03   -0.34379E-02   -0.45152E-03 16161   0.113E-01    0.513E-01
RMM:   7    -0.505774346415E+03   -0.11805E-02   -0.28015E-03 16319   0.834E-02    0.286E-01
RMM:   8    -0.505774408169E+03   -0.61754E-04   -0.12957E-03 18518   0.464E-02    0.252E-01
RMM:   9    -0.505774307805E+03    0.10036E-03   -0.62959E-04 17723   0.337E-02    0.195E-01
RMM:  10    -0.505774248677E+03    0.59128E-04   -0.71893E-04 16249   0.373E-02    0.134E-01
RMM:  11    -0.505774283409E+03   -0.34732E-04   -0.40623E-04 16236   0.247E-02    0.120E-01
RMM:  12    -0.505774306284E+03   -0.22876E-04   -0.18498E-04 14918   0.192E-02    0.975E-02
RMM:  13    -0.505774358201E+03   -0.51917E-04   -0.20614E-04 14866   0.210E-02    0.728E-02
RMM:  14    -0.505774401896E+03   -0.43695E-04   -0.17486E-04 14725   0.190E-02    0.559E-02
RMM:  15    -0.505774408135E+03   -0.62393E-05   -0.71476E-05 10871   0.112E-02
   6 F= -.50577441E+03 E0= -.50578169E+03  d E =-.120985E-01  mag=    91.5168
 BRION: g(F)=  0.301E-02 g(S)=  0.000E+00 retain N=  1 mean eig= 7.09
 eig:   7.085
 bond charge predicted
       N       E                     dE             d eps       ncg     rms          rms(c)
DAV:   1    -0.505548915870E+03    0.22549E+00   -0.18723E+01 13536   0.109E+01    0.254E+00
RMM:   2    -0.505723092725E+03   -0.17418E+00   -0.15523E+00 14012   0.246E+00    0.192E+00
RMM:   3    -0.505937422463E+03   -0.21433E+00   -0.35665E-01 18450   0.990E-01    0.479E+00
RMM:   4    -0.505766503031E+03    0.17092E+00   -0.38400E-02 13330   0.439E-01    0.131E+00
RMM:   5    -0.505777658666E+03   -0.11156E-01   -0.16121E-02 16324   0.218E-01    0.971E-01
RMM:   6    -0.505782396111E+03   -0.47374E-02   -0.70307E-03 16063   0.144E-01    0.599E-01
RMM:   7    -0.505783774706E+03   -0.13786E-02   -0.41058E-03 16684   0.100E-01    0.335E-01
RMM:   8    -0.505783889109E+03   -0.11440E-03   -0.19297E-03 18611   0.545E-02    0.303E-01
RMM:   9    -0.505783691260E+03    0.19785E-03   -0.91233E-04 17594   0.409E-02    0.230E-01
RMM:  10    -0.505783554248E+03    0.13701E-03   -0.97506E-04 16158   0.425E-02    0.160E-01
RMM:  11    -0.505783575702E+03   -0.21454E-04   -0.50944E-04 17046   0.269E-02    0.146E-01
RMM:  12    -0.505783585689E+03   -0.99872E-05   -0.25452E-04 15583   0.228E-02    0.114E-01
RMM:  13    -0.505783649888E+03   -0.64199E-04   -0.30300E-04 15625   0.259E-02    0.820E-02
RMM:  14    -0.505783695220E+03   -0.45333E-04   -0.20022E-04 14826   0.195E-02    0.672E-02
RMM:  15    -0.505783701967E+03   -0.67464E-05   -0.82117E-05 11544   0.126E-02
   7 F= -.50578370E+03 E0= -.50579124E+03  d E =-.929383E-02  mag=    91.4221
 BRION: g(F)=  0.136E-02 g(S)=  0.000E+00 retain N=  1 mean eig= 7.19
 eig:   7.189
 bond charge predicted
       N       E                     dE             d eps       ncg     rms          rms(c)
DAV:   1    -0.505766908226E+03    0.16787E-01   -0.16254E+00 13528   0.309E+00    0.737E-01
RMM:   2    -0.505780335256E+03   -0.13427E-01   -0.11811E-01 14212   0.706E-01    0.542E-01
RMM:   3    -0.505799821321E+03   -0.19486E-01   -0.29028E-02 18322   0.295E-01    0.143E+00
RMM:   4    -0.505784358659E+03    0.15463E-01   -0.32509E-03 12758   0.131E-01    0.337E-01
RMM:   5    -0.505785664443E+03   -0.13058E-02   -0.12437E-03 16052   0.616E-02    0.201E-01
RMM:   6    -0.505785955348E+03   -0.29091E-03   -0.47599E-04 15725   0.386E-02    0.149E-01
RMM:   7    -0.505785933956E+03    0.21392E-04   -0.19229E-04 15507   0.244E-02    0.962E-02
RMM:   8    -0.505785930011E+03    0.39457E-05   -0.76596E-05 11683   0.126E-02
   8 F= -.50578593E+03 E0= -.50579358E+03  d E =-.222804E-02  mag=    91.4166
 BRION: g(F)=  0.115E-02 g(S)=  0.000E+00 retain N=  1 mean eig= 5.87
 eig:   5.866
 bond charge predicted
       N       E                     dE             d eps       ncg     rms          rms(c)
DAV:   1    -0.505741900772E+03    0.44033E-01   -0.42432E+00 13101   0.512E+00    0.118E+00
RMM:   2    -0.505774257788E+03   -0.32357E-01   -0.27620E-01 14192   0.116E+00    0.903E-01
RMM:   3    -0.505825485228E+03   -0.51227E-01   -0.76752E-02 18379   0.490E-01    0.235E+00
RMM:   4    -0.505784751705E+03    0.40734E-01   -0.81046E-03 12939   0.211E-01    0.561E-01
RMM:   5    -0.505787997758E+03   -0.32461E-02   -0.32071E-03 16036   0.101E-01    0.352E-01
RMM:   6    -0.505788811161E+03   -0.81340E-03   -0.13426E-03 15671   0.653E-02    0.273E-01
RMM:   7    -0.505788695964E+03    0.11520E-03   -0.59372E-04 15962   0.433E-02    0.177E-01
RMM:   8    -0.505788636941E+03    0.59024E-04   -0.24825E-04 17720   0.230E-02    0.154E-01
RMM:   9    -0.505788508660E+03    0.12828E-03   -0.25202E-04 14587   0.253E-02    0.103E-01
RMM:  10    -0.505788459766E+03    0.48894E-04   -0.34779E-04 14741   0.289E-02    0.641E-02
RMM:  11    -0.505788472249E+03   -0.12482E-04   -0.92194E-05 12770   0.137E-02    0.563E-02
RMM:  12    -0.505788487121E+03   -0.14873E-04   -0.44209E-05  9473   0.119E-02    0.386E-02
RMM:  13    -0.505788495461E+03   -0.83398E-05   -0.25071E-05  8065   0.975E-03
   9 F= -.50578850E+03 E0= -.50579622E+03  d E =-.256545E-02  mag=    91.4083
 BRION: g(F)=  0.478E-03 g(S)=  0.000E+00 retain N=  1 mean eig= 5.49
 eig:   5.492
 bond charge predicted
       N       E                     dE             d eps       ncg     rms          rms(c)
DAV:   1    -0.505780351213E+03    0.81359E-02   -0.79166E-01 13096   0.217E+00    0.524E-01
RMM:   2    -0.505786560949E+03   -0.62097E-02   -0.54310E-02 14465   0.517E-01    0.379E-01
RMM:   3    -0.505788876347E+03   -0.23154E-02   -0.11894E-02 17613   0.202E-01    0.287E-01
RMM:   4    -0.505791304329E+03   -0.24280E-02   -0.18950E-03 16579   0.821E-02    0.565E-01
RMM:   5    -0.505789314462E+03    0.19899E-02   -0.45471E-04 12484   0.504E-02    0.117E-01
RMM:   6    -0.505789436263E+03   -0.12180E-03   -0.23635E-04 14730   0.278E-02    0.850E-02
RMM:   7    -0.505789436341E+03   -0.77795E-07   -0.92751E-05 12532   0.163E-02
  10 F= -.50578944E+03 E0= -.50579723E+03  d E =-.940880E-03  mag=    91.4094
 BRION: g(F)=  0.399E-03 g(S)=  0.000E+00
 BRIONS problems: POTIM should be increased
 retain N=  1 mean eig=11.01
 eig:  11.014
 bond charge predicted
       N       E                     dE             d eps       ncg     rms          rms(c)
DAV:   1    -0.505740055032E+03    0.49381E-01   -0.44634E+00 12937   0.517E+00    0.123E+00
RMM:   2    -0.505775086882E+03   -0.35032E-01   -0.30322E-01 14472   0.125E+00    0.917E-01
RMM:   3    -0.505815335676E+03   -0.40249E-01   -0.74575E-02 18656   0.505E-01    0.198E+00
RMM:   4    -0.505787513490E+03    0.27822E-01   -0.78338E-03 13773   0.200E-01    0.639E-01
RMM:   5    -0.505790388531E+03   -0.28750E-02   -0.27561E-03 15834   0.100E-01    0.358E-01
RMM:   6    -0.505791128705E+03   -0.74017E-03   -0.13160E-03 15169   0.667E-02    0.277E-01
RMM:   7    -0.505790978783E+03    0.14992E-03   -0.57303E-04 15886   0.445E-02    0.178E-01
RMM:   8    -0.505790902270E+03    0.76513E-04   -0.24371E-04 17561   0.239E-02    0.154E-01
RMM:   9    -0.505790745332E+03    0.15694E-03   -0.29297E-04 14148   0.283E-02    0.979E-02
RMM:  10    -0.505790702169E+03    0.43164E-04   -0.38618E-04 14317   0.308E-02    0.620E-02
RMM:  11    -0.505790713275E+03   -0.11106E-04   -0.87646E-05 12660   0.141E-02    0.542E-02
RMM:  12    -0.505790726957E+03   -0.13682E-04   -0.37935E-05  8918   0.118E-02    0.369E-02
RMM:  13    -0.505790734649E+03   -0.76916E-05   -0.22705E-05  7742   0.991E-03
  11 F= -.50579073E+03 E0= -.50579857E+03  d E =-.129831E-02  mag=    91.4126
 BRION: g(F)=  0.129E-03 g(S)=  0.000E+00
 BRIONS problems: POTIM should be increased
 retain N=  1 mean eig= 8.02
 eig:   8.018
 bond charge predicted
       N       E                     dE             d eps       ncg     rms          rms(c)
DAV:   1    -0.505790162969E+03    0.56399E-03   -0.74755E-02 13288   0.618E-01    0.158E-01
RMM:   2    -0.505790624525E+03   -0.46156E-03   -0.39418E-03 14506   0.157E-01    0.117E-01
RMM:   3    -0.505791106579E+03   -0.48205E-03   -0.10403E-03 18566   0.641E-02    0.205E-01
RMM:   4    -0.505790838736E+03    0.26784E-03   -0.17902E-04 13178   0.257E-02    0.836E-02
RMM:   5    -0.505790881793E+03   -0.43057E-04   -0.51134E-05 10111   0.142E-02    0.403E-02
RMM:   6    -0.505790887420E+03   -0.56268E-05   -0.17397E-05  7337   0.107E-02
  12 F= -.50579089E+03 E0= -.50579874E+03  d E =-.152771E-03  mag=    91.4131
 BRION: g(F)=  0.800E-04 g(S)=  0.000E+00 retain N=  2 mean eig= 7.06
 eig:   7.064  7.064
 bond charge predicted
       N       E                     dE             d eps       ncg     rms          rms(c)
DAV:   1    -0.505788798631E+03    0.20832E-02   -0.27689E-01 12526   0.110E+00    0.285E-01
RMM:   2    -0.505790287829E+03   -0.14892E-02   -0.12021E-02 14113   0.274E-01    0.226E-01
RMM:   3    -0.505793025298E+03   -0.27375E-02   -0.36926E-03 18833   0.114E-01    0.549E-01
RMM:   4    -0.505790875376E+03    0.21499E-02   -0.44149E-04 12304   0.486E-02    0.146E-01
RMM:   5    -0.505791110811E+03   -0.23543E-03   -0.22404E-04 14567   0.272E-02    0.101E-01
RMM:   6    -0.505791132745E+03   -0.21934E-04   -0.88950E-05 12407   0.186E-02    0.612E-02
RMM:   7    -0.505791135396E+03   -0.26509E-05   -0.36446E-05  9061   0.116E-02
  13 F= -.50579114E+03 E0= -.50579900E+03  d E =-.247976E-03  mag=    91.4155
 BRION: g(F)=  0.531E-04 g(S)=  0.000E+00 retain N=  1 mean eig= 4.42
 eig:   4.425
 reached required accuracy - stopping structural energy minimisation
 PROFILE, used timers:     294
