ni3al                                   
           1
     8.526200    0.000000    0.000000
    -0.001766    8.504600    0.000000
     0.000000    0.000000   23.555800
   Pb   Cr   Fe
     1    13    49
Direct configuration=     1
   0.82105721  0.83967410  0.43960497
   0.99962000  0.33431000  0.00199000
   0.00184692  0.33192235  0.36144904
   0.32336539  0.67979197  0.35996448
   0.66879000  0.99689000  0.12225000
   0.17747647  0.82413127  0.30610742
   0.83297655  0.83342614  0.30269148
   0.33662000  0.99784000  0.24172000
   0.00240000  0.33332000  0.24079000
   0.00127000  0.66476000  0.12046000
   0.33922000  0.33072000  0.00000000
   0.33524000  0.67037000  0.00023000
   0.50272000  0.83391000  0.18098000
   0.83779000  0.49999000  0.06135000
   0.66882000  0.66655000  0.00068000
   0.50222000  0.83318000  0.06077000
   0.16894000  0.83304000  0.06062000
   0.00419747  0.65826537  0.35946364
   0.00239000  0.66441000  0.00051000
   0.67707644  0.33143594  0.36090903
   0.66930000  0.33358000  0.00050000
   0.50215000  0.49992000  0.06086000
   0.83620000  0.83206000  0.06086000
   0.66090099  0.66254754  0.35906077
   0.66948000  0.99883000  0.00053000
   0.65706885  0.01207845  0.36011382
   0.33997043  0.99344603  0.36204668
   0.50343000  0.16520000  0.06105000
   0.16929000  0.16694000  0.06071000
   0.33657000  0.00075000  0.00067000
   0.00271000  0.99869000  0.00034000
   0.00560480  0.00128050  0.35881738
   0.83570000  0.16556000  0.06094000
   0.17061000  0.49746000  0.06032000
   0.49952935  0.16981559  0.30241735
   0.66988000  0.99924000  0.24142000
   0.66965000  0.33304000  0.12103000
   0.83626000  0.49963000  0.18117000
   0.16899000  0.83329000  0.18177000
   0.33582000  0.66689000  0.12095000
   0.66914000  0.66722000  0.12117000
   0.83680000  0.83220000  0.18114000
   0.00172000  0.99944000  0.24151000
   0.16894547  0.16900594  0.30485642
   0.00260000  0.33284000  0.12101000
   0.16994000  0.49925000  0.18104000
   0.50164000  0.16594000  0.18135000
   0.83615000  0.16559000  0.18099000
   0.16980000  0.16587000  0.18099000
   0.33623000  0.99852000  0.12110000
   0.00245000  0.99865000  0.12117000
   0.33651000  0.33287000  0.12086000
   0.50180000  0.49937000  0.18123000
   0.16938284  0.49345982  0.30510961
   0.84006462  0.16947955  0.30412405
   0.49482384  0.49897587  0.30448624
   0.33524000  0.33246000  0.24183000
   0.83847861  0.49470284  0.30397440
   0.66902000  0.33317000  0.24123000
   0.33605000  0.66588000  0.24146000
   0.00318000  0.66598000  0.24177000
   0.66918000  0.66674000  0.24131000
   0.49896662  0.83120407  0.30361984
Direct configuration=     2
   0.82238070  0.83905703  0.43903727
   0.99962000  0.33431000  0.00199000
   0.00217961  0.33183789  0.36244095
   0.32502048  0.67783760  0.36036649
   0.66879000  0.99689000  0.12225000
   0.17316109  0.82752679  0.30469386
   0.83335424  0.83313619  0.30314285
   0.33662000  0.99784000  0.24172000
   0.00240000  0.33332000  0.24079000
   0.00127000  0.66476000  0.12046000
   0.33922000  0.33072000  0.00000000
   0.33524000  0.67037000  0.00023000
   0.50272000  0.83391000  0.18098000
   0.83779000  0.49999000  0.06135000
   0.66882000  0.66655000  0.00068000
   0.50222000  0.83318000  0.06077000
   0.16894000  0.83304000  0.06062000
   0.00297360  0.65883901  0.36041179
   0.00239000  0.66441000  0.00051000
   0.67661157  0.33182913  0.36123833
   0.66930000  0.33358000  0.00050000
   0.50215000  0.49992000  0.06086000
   0.83620000  0.83206000  0.06086000
   0.66118635  0.66156780  0.35937690
   0.66948000  0.99883000  0.00053000
   0.65684528  0.01212902  0.35998409
   0.33957897  0.99463252  0.36227002
   0.50343000  0.16520000  0.06105000
   0.16929000  0.16694000  0.06071000
   0.33657000  0.00075000  0.00067000
   0.00271000  0.99869000  0.00034000
   0.00646182  0.00036260  0.35929623
   0.83570000  0.16556000  0.06094000
   0.17061000  0.49746000  0.06032000
   0.49918626  0.17036299  0.30203035
   0.66988000  0.99924000  0.24142000
   0.66965000  0.33304000  0.12103000
   0.83626000  0.49963000  0.18117000
   0.16899000  0.83329000  0.18177000
   0.33582000  0.66689000  0.12095000
   0.66914000  0.66722000  0.12117000
   0.83680000  0.83220000  0.18114000
   0.00172000  0.99944000  0.24151000
   0.17136975  0.16831137  0.30442104
   0.00260000  0.33284000  0.12101000
   0.16994000  0.49925000  0.18104000
   0.50164000  0.16594000  0.18135000
   0.83615000  0.16559000  0.18099000
   0.16980000  0.16587000  0.18099000
   0.33623000  0.99852000  0.12110000
   0.00245000  0.99865000  0.12117000
   0.33651000  0.33287000  0.12086000
   0.50180000  0.49937000  0.18123000
   0.17105798  0.49390598  0.30458634
   0.83774088  0.16687055  0.30339816
   0.49511433  0.49705155  0.30409574
   0.33524000  0.33246000  0.24183000
   0.83667359  0.49763009  0.30325292
   0.66902000  0.33317000  0.24123000
   0.33605000  0.66588000  0.24146000
   0.00318000  0.66598000  0.24177000
   0.66918000  0.66674000  0.24131000
   0.50189164  0.83270961  0.30297862
Direct configuration=     3
   0.82437102  0.83818472  0.43837335
   0.99962000  0.33431000  0.00199000
   0.00168100  0.33149947  0.36343692
   0.32830218  0.67521772  0.36088470
   0.66879000  0.99689000  0.12225000
   0.16808770  0.83273732  0.30273217
   0.83379671  0.83262379  0.30375539
   0.33662000  0.99784000  0.24172000
   0.00240000  0.33332000  0.24079000
   0.00127000  0.66476000  0.12046000
   0.33922000  0.33072000  0.00000000
   0.33524000  0.67037000  0.00023000
   0.50272000  0.83391000  0.18098000
   0.83779000  0.49999000  0.06135000
   0.66882000  0.66655000  0.00068000
   0.50222000  0.83318000  0.06077000
   0.16894000  0.83304000  0.06062000
   0.00265003  0.65916922  0.36125192
   0.00239000  0.66441000  0.00051000
   0.67657812  0.33257205  0.36134819
   0.66930000  0.33358000  0.00050000
   0.50215000  0.49992000  0.06086000
   0.83620000  0.83206000  0.06086000
   0.66034200  0.65953426  0.35974057
   0.66948000  0.99883000  0.00053000
   0.65607185  0.01251392  0.35986393
   0.33867626  0.99530738  0.36219054
   0.50343000  0.16520000  0.06105000
   0.16929000  0.16694000  0.06071000
   0.33657000  0.00075000  0.00067000
   0.00271000  0.99869000  0.00034000
   0.00866148  0.00000076  0.35960482
   0.83570000  0.16556000  0.06094000
   0.17061000  0.49746000  0.06032000
   0.49884550  0.17106512  0.30172724
   0.66988000  0.99924000  0.24142000
   0.66965000  0.33304000  0.12103000
   0.83626000  0.49963000  0.18117000
   0.16899000  0.83329000  0.18177000
   0.33582000  0.66689000  0.12095000
   0.66914000  0.66722000  0.12117000
   0.83680000  0.83220000  0.18114000
   0.00172000  0.99944000  0.24151000
   0.17380918  0.16764262  0.30398136
   0.00260000  0.33284000  0.12101000
   0.16994000  0.49925000  0.18104000
   0.50164000  0.16594000  0.18135000
   0.83615000  0.16559000  0.18099000
   0.16980000  0.16587000  0.18099000
   0.33623000  0.99852000  0.12110000
   0.00245000  0.99865000  0.12117000
   0.33651000  0.33287000  0.12086000
   0.50180000  0.49937000  0.18123000
   0.17221275  0.49478045  0.30399323
   0.83585647  0.16486438  0.30285231
   0.49585518  0.49484303  0.30371944
   0.33524000  0.33246000  0.24183000
   0.83511536  0.49996356  0.30273266
   0.66902000  0.33317000  0.24123000
   0.33605000  0.66588000  0.24146000
   0.00318000  0.66598000  0.24177000
   0.66918000  0.66674000  0.24131000
   0.50392469  0.83433462  0.30240167
Direct configuration=     4
   0.82540341  0.83777621  0.43807673
   0.99962000  0.33431000  0.00199000
   0.00107014  0.33125441  0.36371190
   0.33068578  0.67385962  0.36119383
   0.66879000  0.99689000  0.12225000
   0.16643302  0.83490959  0.30193272
   0.83368362  0.83240244  0.30404298
   0.33662000  0.99784000  0.24172000
   0.00240000  0.33332000  0.24079000
   0.00127000  0.66476000  0.12046000
   0.33922000  0.33072000  0.00000000
   0.33524000  0.67037000  0.00023000
   0.50272000  0.83391000  0.18098000
   0.83779000  0.49999000  0.06135000
   0.66882000  0.66655000  0.00068000
   0.50222000  0.83318000  0.06077000
   0.16894000  0.83304000  0.06062000
   0.00351837  0.65931507  0.36130814
   0.00239000  0.66441000  0.00051000
   0.67677067  0.33304292  0.36129768
   0.66930000  0.33358000  0.00050000
   0.50215000  0.49992000  0.06086000
   0.83620000  0.83206000  0.06086000
   0.65923642  0.65822951  0.35992734
   0.66948000  0.99883000  0.00053000
   0.65559683  0.01280551  0.35986925
   0.33781167  0.99504479  0.36195168
   0.50343000  0.16520000  0.06105000
   0.16929000  0.16694000  0.06071000
   0.33657000  0.00075000  0.00067000
   0.00271000  0.99869000  0.00034000
   0.01021862  0.00039622  0.35958930
   0.83570000  0.16556000  0.06094000
   0.17061000  0.49746000  0.06032000
   0.49867377  0.17135310  0.30171959
   0.66988000  0.99924000  0.24142000
   0.66965000  0.33304000  0.12103000
   0.83626000  0.49963000  0.18117000
   0.16899000  0.83329000  0.18177000
   0.33582000  0.66689000  0.12095000
   0.66914000  0.66722000  0.12117000
   0.83680000  0.83220000  0.18114000
   0.00172000  0.99944000  0.24151000
   0.17434602  0.16796467  0.30382601
   0.00260000  0.33284000  0.12101000
   0.16994000  0.49925000  0.18104000
   0.50164000  0.16594000  0.18135000
   0.83615000  0.16559000  0.18099000
   0.16980000  0.16587000  0.18099000
   0.33623000  0.99852000  0.12110000
   0.00245000  0.99865000  0.12117000
   0.33651000  0.33287000  0.12086000
   0.50180000  0.49937000  0.18123000
   0.17206638  0.49528853  0.30374385
   0.83575475  0.16460917  0.30283752
   0.49630535  0.49397096  0.30354533
   0.33524000  0.33246000  0.24183000
   0.83503302  0.50024464  0.30273137
   0.66902000  0.33317000  0.24123000
   0.33605000  0.66588000  0.24146000
   0.00318000  0.66598000  0.24177000
   0.66918000  0.66674000  0.24131000
   0.50390756  0.83470938  0.30226892
Direct configuration=     5
   0.82723446  0.83706744  0.43748499
   0.99962000  0.33431000  0.00199000
  -0.00001168  0.33087506  0.36398852
   0.33545625  0.67146300  0.36177455
   0.66879000  0.99689000  0.12225000
   0.16502908  0.83729717  0.30093300
   0.83283373  0.83219524  0.30448295
   0.33662000  0.99784000  0.24172000
   0.00240000  0.33332000  0.24079000
   0.00127000  0.66476000  0.12046000
   0.33922000  0.33072000  0.00000000
   0.33524000  0.67037000  0.00023000
   0.50272000  0.83391000  0.18098000
   0.83779000  0.49999000  0.06135000
   0.66882000  0.66655000  0.00068000
   0.50222000  0.83318000  0.06077000
   0.16894000  0.83304000  0.06062000
   0.00617126  0.66001526  0.36102926
   0.00239000  0.66441000  0.00051000
   0.67713192  0.33389458  0.36124952
   0.66930000  0.33358000  0.00050000
   0.50215000  0.49992000  0.06086000
   0.83620000  0.83206000  0.06086000
   0.65700102  0.65594800  0.36029324
   0.66948000  0.99883000  0.00053000
   0.65496671  0.01322571  0.35992586
   0.33567664  0.99383461  0.36144214
   0.50343000  0.16520000  0.06105000
   0.16929000  0.16694000  0.06071000
   0.33657000  0.00075000  0.00067000
   0.00271000  0.99869000  0.00034000
   0.01297525  0.00161526  0.35950427
   0.83570000  0.16556000  0.06094000
   0.17061000  0.49746000  0.06032000
   0.49832479  0.17162628  0.30182750
   0.66988000  0.99924000  0.24142000
   0.66965000  0.33304000  0.12103000
   0.83626000  0.49963000  0.18117000
   0.16899000  0.83329000  0.18177000
   0.33582000  0.66689000  0.12095000
   0.66914000  0.66722000  0.12117000
   0.83680000  0.83220000  0.18114000
   0.00172000  0.99944000  0.24151000
   0.17447403  0.16954927  0.30356307
   0.00260000  0.33284000  0.12101000
   0.16994000  0.49925000  0.18104000
   0.50164000  0.16594000  0.18135000
   0.83615000  0.16559000  0.18099000
   0.16980000  0.16587000  0.18099000
   0.33623000  0.99852000  0.12110000
   0.00245000  0.99865000  0.12117000
   0.33651000  0.33287000  0.12086000
   0.50180000  0.49937000  0.18123000
   0.17136265  0.49619695  0.30335008
   0.83614207  0.16447779  0.30299498
   0.49692842  0.49269111  0.30317618
   0.33524000  0.33246000  0.24183000
   0.83552415  0.50028688  0.30288931
   0.66902000  0.33317000  0.24123000
   0.33605000  0.66588000  0.24146000
   0.00318000  0.66598000  0.24177000
   0.66918000  0.66674000  0.24131000
   0.50326240  0.83488132  0.30216312
Direct configuration=     6
   0.82826210  0.83665418  0.43710643
   0.99962000  0.33431000  0.00199000
  -0.00034665  0.33081125  0.36413121
   0.33798567  0.67015413  0.36206028
   0.66879000  0.99689000  0.12225000
   0.16488861  0.83786349  0.30057887
   0.83222734  0.83215687  0.30466516
   0.33662000  0.99784000  0.24172000
   0.00240000  0.33332000  0.24079000
   0.00127000  0.66476000  0.12046000
   0.33922000  0.33072000  0.00000000
   0.33524000  0.67037000  0.00023000
   0.50272000  0.83391000  0.18098000
   0.83779000  0.49999000  0.06135000
   0.66882000  0.66655000  0.00068000
   0.50222000  0.83318000  0.06077000
   0.16894000  0.83304000  0.06062000
   0.00776140  0.66079863  0.36086692
   0.00239000  0.66441000  0.00051000
   0.67721619  0.33430975  0.36130114
   0.66930000  0.33358000  0.00050000
   0.50215000  0.49992000  0.06086000
   0.83620000  0.83206000  0.06086000
   0.65613273  0.65487642  0.36050332
   0.66948000  0.99883000  0.00053000
   0.65482718  0.01328767  0.35994437
   0.33430863  0.99296057  0.36124692
   0.50343000  0.16520000  0.06105000
   0.16929000  0.16694000  0.06071000
   0.33657000  0.00075000  0.00067000
   0.00271000  0.99869000  0.00034000
   0.01417928  0.00236417  0.35952782
   0.83570000  0.16556000  0.06094000
   0.17061000  0.49746000  0.06032000
   0.49805913  0.17160223  0.30188783
   0.66988000  0.99924000  0.24142000
   0.66965000  0.33304000  0.12103000
   0.83626000  0.49963000  0.18117000
   0.16899000  0.83329000  0.18177000
   0.33582000  0.66689000  0.12095000
   0.66914000  0.66722000  0.12117000
   0.83680000  0.83220000  0.18114000
   0.00172000  0.99944000  0.24151000
   0.17439665  0.17054125  0.30339867
   0.00260000  0.33284000  0.12101000
   0.16994000  0.49925000  0.18104000
   0.50164000  0.16594000  0.18135000
   0.83615000  0.16559000  0.18099000
   0.16980000  0.16587000  0.18099000
   0.33623000  0.99852000  0.12110000
   0.00245000  0.99865000  0.12117000
   0.33651000  0.33287000  0.12086000
   0.50180000  0.49937000  0.18123000
   0.17127921  0.49664200  0.30315089
   0.83616088  0.16426073  0.30305160
   0.49710002  0.49205354  0.30293688
   0.33524000  0.33246000  0.24183000
   0.83575010  0.50052628  0.30293752
   0.66902000  0.33317000  0.24123000
   0.33605000  0.66588000  0.24146000
   0.00318000  0.66598000  0.24177000
   0.66918000  0.66674000  0.24131000
   0.50312501  0.83488722  0.30210989
Direct configuration=     7
   0.82966960  0.83603867  0.43662259
   0.99962000  0.33431000  0.00199000
  -0.00062507  0.33091375  0.36430235
   0.34114269  0.66853199  0.36239974
   0.66879000  0.99689000  0.12225000
   0.16510909  0.83818136  0.30026241
   0.83156221  0.83213631  0.30483504
   0.33662000  0.99784000  0.24172000
   0.00240000  0.33332000  0.24079000
   0.00127000  0.66476000  0.12046000
   0.33922000  0.33072000  0.00000000
   0.33524000  0.67037000  0.00023000
   0.50272000  0.83391000  0.18098000
   0.83779000  0.49999000  0.06135000
   0.66882000  0.66655000  0.00068000
   0.50222000  0.83318000  0.06077000
   0.16894000  0.83304000  0.06062000
   0.00994219  0.66206979  0.36063035
   0.00239000  0.66441000  0.00051000
   0.67725757  0.33481756  0.36137938
   0.66930000  0.33358000  0.00050000
   0.50215000  0.49992000  0.06086000
   0.83620000  0.83206000  0.06086000
   0.65529349  0.65351447  0.36074252
   0.66948000  0.99883000  0.00053000
   0.65475439  0.01322972  0.35995759
   0.33240197  0.99162225  0.36106104
   0.50343000  0.16520000  0.06105000
   0.16929000  0.16694000  0.06071000
   0.33657000  0.00075000  0.00067000
   0.00271000  0.99869000  0.00034000
   0.01556118  0.00352454  0.35957462
   0.83570000  0.16556000  0.06094000
   0.17061000  0.49746000  0.06032000
   0.49765523  0.17140643  0.30199504
   0.66988000  0.99924000  0.24142000
   0.66965000  0.33304000  0.12103000
   0.83626000  0.49963000  0.18117000
   0.16899000  0.83329000  0.18177000
   0.33582000  0.66689000  0.12095000
   0.66914000  0.66722000  0.12117000
   0.83680000  0.83220000  0.18114000
   0.00172000  0.99944000  0.24151000
   0.17417533  0.17165195  0.30319991
   0.00260000  0.33284000  0.12101000
   0.16994000  0.49925000  0.18104000
   0.50164000  0.16594000  0.18135000
   0.83615000  0.16559000  0.18099000
   0.16980000  0.16587000  0.18099000
   0.33623000  0.99852000  0.12110000
   0.00245000  0.99865000  0.12117000
   0.33651000  0.33287000  0.12086000
   0.50180000  0.49937000  0.18123000
   0.17141973  0.49718454  0.30292348
   0.83606461  0.16403307  0.30313646
   0.49732898  0.49130301  0.30263942
   0.33524000  0.33246000  0.24183000
   0.83605527  0.50088700  0.30302285
   0.66902000  0.33317000  0.24123000
   0.33605000  0.66588000  0.24146000
   0.00318000  0.66598000  0.24177000
   0.66918000  0.66674000  0.24131000
   0.50302940  0.83480923  0.30207913
Direct configuration=     8
   0.83017119  0.83579221  0.43649013
   0.99962000  0.33431000  0.00199000
  -0.00057231  0.33112239  0.36433195
   0.34197470  0.66811702  0.36246987
   0.66879000  0.99689000  0.12225000
   0.16542616  0.83799108  0.30025924
   0.83151041  0.83217708  0.30482691
   0.33662000  0.99784000  0.24172000
   0.00240000  0.33332000  0.24079000
   0.00127000  0.66476000  0.12046000
   0.33922000  0.33072000  0.00000000
   0.33524000  0.67037000  0.00023000
   0.50272000  0.83391000  0.18098000
   0.83779000  0.49999000  0.06135000
   0.66882000  0.66655000  0.00068000
   0.50222000  0.83318000  0.06077000
   0.16894000  0.83304000  0.06062000
   0.01066945  0.66262664  0.36054753
   0.00239000  0.66441000  0.00051000
   0.67721012  0.33493119  0.36140386
   0.66930000  0.33358000  0.00050000
   0.50215000  0.49992000  0.06086000
   0.83620000  0.83206000  0.06086000
   0.65533261  0.65315176  0.36078710
   0.66948000  0.99883000  0.00053000
   0.65482696  0.01305665  0.35996073
   0.33178125  0.99107740  0.36108184
   0.50343000  0.16520000  0.06105000
   0.16929000  0.16694000  0.06071000
   0.33657000  0.00075000  0.00067000
   0.00271000  0.99869000  0.00034000
   0.01578284  0.00403792  0.35961371
   0.83570000  0.16556000  0.06094000
   0.17061000  0.49746000  0.06032000
   0.49747219  0.17123589  0.30204852
   0.66988000  0.99924000  0.24142000
   0.66965000  0.33304000  0.12103000
   0.83626000  0.49963000  0.18117000
   0.16899000  0.83329000  0.18177000
   0.33582000  0.66689000  0.12095000
   0.66914000  0.66722000  0.12117000
   0.83680000  0.83220000  0.18114000
   0.00172000  0.99944000  0.24151000
   0.17405427  0.17180981  0.30315108
   0.00260000  0.33284000  0.12101000
   0.16994000  0.49925000  0.18104000
   0.50164000  0.16594000  0.18135000
   0.83615000  0.16559000  0.18099000
   0.16980000  0.16587000  0.18099000
   0.33623000  0.99852000  0.12110000
   0.00245000  0.99865000  0.12117000
   0.33651000  0.33287000  0.12086000
   0.50180000  0.49937000  0.18123000
   0.17166782  0.49727879  0.30289291
   0.83596343  0.16404200  0.30316725
   0.49741785  0.49113671  0.30256590
   0.33524000  0.33246000  0.24183000
   0.83619006  0.50098549  0.30305965
   0.66902000  0.33317000  0.24123000
   0.33605000  0.66588000  0.24146000
   0.00318000  0.66598000  0.24177000
   0.66918000  0.66674000  0.24131000
   0.50306558  0.83471889  0.30209844
Direct configuration=     9
   0.83093366  0.83540460  0.43635190
   0.99962000  0.33431000  0.00199000
  -0.00038748  0.33158294  0.36435082
   0.34327572  0.66746653  0.36256934
   0.66879000  0.99689000  0.12225000
   0.16593386  0.83765369  0.30026635
   0.83159865  0.83228811  0.30477661
   0.33662000  0.99784000  0.24172000
   0.00240000  0.33332000  0.24079000
   0.00127000  0.66476000  0.12046000
   0.33922000  0.33072000  0.00000000
   0.33524000  0.67037000  0.00023000
   0.50272000  0.83391000  0.18098000
   0.83779000  0.49999000  0.06135000
   0.66882000  0.66655000  0.00068000
   0.50222000  0.83318000  0.06077000
   0.16894000  0.83304000  0.06062000
   0.01187347  0.66356290  0.36041596
   0.00239000  0.66441000  0.00051000
   0.67707922  0.33506694  0.36143408
   0.66930000  0.33358000  0.00050000
   0.50215000  0.49992000  0.06086000
   0.83620000  0.83206000  0.06086000
   0.65562013  0.65261916  0.36082751
   0.66948000  0.99883000  0.00053000
   0.65498825  0.01265090  0.35996976
   0.33081290  0.99015745  0.36118626
   0.50343000  0.16520000  0.06105000
   0.16929000  0.16694000  0.06071000
   0.33657000  0.00075000  0.00067000
   0.00271000  0.99869000  0.00034000
   0.01597665  0.00494500  0.35968431
   0.83570000  0.16556000  0.06094000
   0.17061000  0.49746000  0.06032000
   0.49714610  0.17090625  0.30215626
   0.66988000  0.99924000  0.24142000
   0.66965000  0.33304000  0.12103000
   0.83626000  0.49963000  0.18117000
   0.16899000  0.83329000  0.18177000
   0.33582000  0.66689000  0.12095000
   0.66914000  0.66722000  0.12117000
   0.83680000  0.83220000  0.18114000
   0.00172000  0.99944000  0.24151000
   0.17387286  0.17191800  0.30307400
   0.00260000  0.33284000  0.12101000
   0.16994000  0.49925000  0.18104000
   0.50164000  0.16594000  0.18135000
   0.83615000  0.16559000  0.18099000
   0.16980000  0.16587000  0.18099000
   0.33623000  0.99852000  0.12110000
   0.00245000  0.99865000  0.12117000
   0.33651000  0.33287000  0.12086000
   0.50180000  0.49937000  0.18123000
   0.17218621  0.49734946  0.30288147
   0.83579045  0.16413835  0.30321524
   0.49762666  0.49088484  0.30245971
   0.33524000  0.33246000  0.24183000
   0.83647268  0.50111776  0.30311483
   0.66902000  0.33317000  0.24123000
   0.33605000  0.66588000  0.24146000
   0.00318000  0.66598000  0.24177000
   0.66918000  0.66674000  0.24131000
   0.50317510  0.83456015  0.30214144
Direct configuration=    10
   0.83132350  0.83520091  0.43632033
   0.99962000  0.33431000  0.00199000
  -0.00022218  0.33187188  0.36433918
   0.34376047  0.66723167  0.36260925
   0.66879000  0.99689000  0.12225000
   0.16605879  0.83761970  0.30025217
   0.83176897  0.83236153  0.30473182
   0.33662000  0.99784000  0.24172000
   0.00240000  0.33332000  0.24079000
   0.00127000  0.66476000  0.12046000
   0.33922000  0.33072000  0.00000000
   0.33524000  0.67037000  0.00023000
   0.50272000  0.83391000  0.18098000
   0.83779000  0.49999000  0.06135000
   0.66882000  0.66655000  0.00068000
   0.50222000  0.83318000  0.06077000
   0.16894000  0.83304000  0.06062000
   0.01235316  0.66390969  0.36035740
   0.00239000  0.66441000  0.00051000
   0.67699099  0.33508986  0.36143268
   0.66930000  0.33358000  0.00050000
   0.50215000  0.49992000  0.06086000
   0.83620000  0.83206000  0.06086000
   0.65590701  0.65246488  0.36081621
   0.66948000  0.99883000  0.00053000
   0.65510362  0.01238744  0.35996362
   0.33046894  0.98973724  0.36126805
   0.50343000  0.16520000  0.06105000
   0.16929000  0.16694000  0.06071000
   0.33657000  0.00075000  0.00067000
   0.00271000  0.99869000  0.00034000
   0.01593875  0.00537436  0.35973336
   0.83570000  0.16556000  0.06094000
   0.17061000  0.49746000  0.06032000
   0.49701920  0.17075751  0.30221648
   0.66988000  0.99924000  0.24142000
   0.66965000  0.33304000  0.12103000
   0.83626000  0.49963000  0.18117000
   0.16899000  0.83329000  0.18177000
   0.33582000  0.66689000  0.12095000
   0.66914000  0.66722000  0.12117000
   0.83680000  0.83220000  0.18114000
   0.00172000  0.99944000  0.24151000
   0.17384661  0.17179559  0.30304965
   0.00260000  0.33284000  0.12101000
   0.16994000  0.49925000  0.18104000
   0.50164000  0.16594000  0.18135000
   0.83615000  0.16559000  0.18099000
   0.16980000  0.16587000  0.18099000
   0.33623000  0.99852000  0.12110000
   0.00245000  0.99865000  0.12117000
   0.33651000  0.33287000  0.12086000
   0.50180000  0.49937000  0.18123000
   0.17244667  0.49730787  0.30291477
   0.83573377  0.16421822  0.30323470
   0.49778007  0.49082704  0.30243903
   0.33524000  0.33246000  0.24183000
   0.83664963  0.50113484  0.30313043
   0.66902000  0.33317000  0.24123000
   0.33605000  0.66588000  0.24146000
   0.00318000  0.66598000  0.24177000
   0.66918000  0.66674000  0.24131000
   0.50322696  0.83450593  0.30217334
Direct configuration=    11
   0.83222539  0.83474859  0.43629095
   0.99962000  0.33431000  0.00199000
   0.00018394  0.33257098  0.36430429
   0.34486235  0.66669739  0.36270731
   0.66879000  0.99689000  0.12225000
   0.16627490  0.83766118  0.30020505
   0.83227691  0.83253575  0.30461979
   0.33662000  0.99784000  0.24172000
   0.00240000  0.33332000  0.24079000
   0.00127000  0.66476000  0.12046000
   0.33922000  0.33072000  0.00000000
   0.33524000  0.67037000  0.00023000
   0.50272000  0.83391000  0.18098000
   0.83779000  0.49999000  0.06135000
   0.66882000  0.66655000  0.00068000
   0.50222000  0.83318000  0.06077000
   0.16894000  0.83304000  0.06062000
   0.01348579  0.66466330  0.36022874
   0.00239000  0.66441000  0.00051000
   0.67677687  0.33509959  0.36142837
   0.66930000  0.33358000  0.00050000
   0.50215000  0.49992000  0.06086000
   0.83620000  0.83206000  0.06086000
   0.65674116  0.65218349  0.36077457
   0.66948000  0.99883000  0.00053000
   0.65541110  0.01170414  0.35995602
   0.32969767  0.98874546  0.36148021
   0.50343000  0.16520000  0.06105000
   0.16929000  0.16694000  0.06071000
   0.33657000  0.00075000  0.00067000
   0.00271000  0.99869000  0.00034000
   0.01576463  0.00641557  0.35986364
   0.83570000  0.16556000  0.06094000
   0.17061000  0.49746000  0.06032000
   0.49672059  0.17040455  0.30236169
   0.66988000  0.99924000  0.24142000
   0.66965000  0.33304000  0.12103000
   0.83626000  0.49963000  0.18117000
   0.16899000  0.83329000  0.18177000
   0.33582000  0.66689000  0.12095000
   0.66914000  0.66722000  0.12117000
   0.83680000  0.83220000  0.18114000
   0.00172000  0.99944000  0.24151000
   0.17384663  0.17146083  0.30299244
   0.00260000  0.33284000  0.12101000
   0.16994000  0.49925000  0.18104000
   0.50164000  0.16594000  0.18135000
   0.83615000  0.16559000  0.18099000
   0.16980000  0.16587000  0.18099000
   0.33623000  0.99852000  0.12110000
   0.00245000  0.99865000  0.12117000
   0.33651000  0.33287000  0.12086000
   0.50180000  0.49937000  0.18123000
   0.17312406  0.49716920  0.30299640
   0.83563313  0.16443151  0.30327394
   0.49817308  0.49069941  0.30238740
   0.33524000  0.33246000  0.24183000
   0.83711195  0.50116031  0.30313931
   0.66902000  0.33317000  0.24123000
   0.33605000  0.66588000  0.24146000
   0.00318000  0.66598000  0.24177000
   0.66918000  0.66674000  0.24131000
   0.50332347  0.83439176  0.30223341
Direct configuration=    12
   0.83238493  0.83467733  0.43631354
   0.99962000  0.33431000  0.00199000
   0.00027734  0.33265289  0.36428378
   0.34491153  0.66668959  0.36271359
   0.66879000  0.99689000  0.12225000
   0.16629521  0.83773650  0.30019054
   0.83229792  0.83256124  0.30461298
   0.33662000  0.99784000  0.24172000
   0.00240000  0.33332000  0.24079000
   0.00127000  0.66476000  0.12046000
   0.33922000  0.33072000  0.00000000
   0.33524000  0.67037000  0.00023000
   0.50272000  0.83391000  0.18098000
   0.83779000  0.49999000  0.06135000
   0.66882000  0.66655000  0.00068000
   0.50222000  0.83318000  0.06077000
   0.16894000  0.83304000  0.06062000
   0.01357053  0.66465487  0.36022368
   0.00239000  0.66441000  0.00051000
   0.67676952  0.33507996  0.36141576
   0.66930000  0.33358000  0.00050000
   0.50215000  0.49992000  0.06086000
   0.83620000  0.83206000  0.06086000
   0.65691791  0.65222324  0.36075034
   0.66948000  0.99883000  0.00053000
   0.65548673  0.01159427  0.35994601
   0.32966840  0.98863950  0.36150668
   0.50343000  0.16520000  0.06105000
   0.16929000  0.16694000  0.06071000
   0.33657000  0.00075000  0.00067000
   0.00271000  0.99869000  0.00034000
   0.01568803  0.00653917  0.35989737
   0.83570000  0.16556000  0.06094000
   0.17061000  0.49746000  0.06032000
   0.49673736  0.17038333  0.30238142
   0.66988000  0.99924000  0.24142000
   0.66965000  0.33304000  0.12103000
   0.83626000  0.49963000  0.18117000
   0.16899000  0.83329000  0.18177000
   0.33582000  0.66689000  0.12095000
   0.66914000  0.66722000  0.12117000
   0.83680000  0.83220000  0.18114000
   0.00172000  0.99944000  0.24151000
   0.17389032  0.17141042  0.30299187
   0.00260000  0.33284000  0.12101000
   0.16994000  0.49925000  0.18104000
   0.50164000  0.16594000  0.18135000
   0.83615000  0.16559000  0.18099000
   0.16980000  0.16587000  0.18099000
   0.33623000  0.99852000  0.12110000
   0.00245000  0.99865000  0.12117000
   0.33651000  0.33287000  0.12086000
   0.50180000  0.49937000  0.18123000
   0.17319572  0.49712339  0.30300713
   0.83564401  0.16444117  0.30327787
   0.49825203  0.49071896  0.30239043
   0.33524000  0.33246000  0.24183000
   0.83716666  0.50114364  0.30313260
   0.66902000  0.33317000  0.24123000
   0.33605000  0.66588000  0.24146000
   0.00318000  0.66598000  0.24177000
   0.66918000  0.66674000  0.24131000
   0.50332816  0.83439466  0.30223703
Direct configuration=    13
   0.83270433  0.83454235  0.43637207
   0.99962000  0.33431000  0.00199000
   0.00046706  0.33279107  0.36424500
   0.34495417  0.66669016  0.36271181
   0.66879000  0.99689000  0.12225000
   0.16630000  0.83786580  0.30016992
   0.83235571  0.83258216  0.30461284
   0.33662000  0.99784000  0.24172000
   0.00240000  0.33332000  0.24079000
   0.00127000  0.66476000  0.12046000
   0.33922000  0.33072000  0.00000000
   0.33524000  0.67037000  0.00023000
   0.50272000  0.83391000  0.18098000
   0.83779000  0.49999000  0.06135000
   0.66882000  0.66655000  0.00068000
   0.50222000  0.83318000  0.06077000
   0.16894000  0.83304000  0.06062000
   0.01369681  0.66456576  0.36021844
   0.00239000  0.66441000  0.00051000
   0.67678967  0.33503029  0.36139108
   0.66930000  0.33358000  0.00050000
   0.50215000  0.49992000  0.06086000
   0.83620000  0.83206000  0.06086000
   0.65728974  0.65237286  0.36069896
   0.66948000  0.99883000  0.00053000
   0.65565561  0.01137467  0.35993353
   0.32967053  0.98848880  0.36154730
   0.50343000  0.16520000  0.06105000
   0.16929000  0.16694000  0.06071000
   0.33657000  0.00075000  0.00067000
   0.00271000  0.99869000  0.00034000
   0.01554797  0.00675075  0.35996196
   0.83570000  0.16556000  0.06094000
   0.17061000  0.49746000  0.06032000
   0.49680029  0.17035945  0.30240924
   0.66988000  0.99924000  0.24142000
   0.66965000  0.33304000  0.12103000
   0.83626000  0.49963000  0.18117000
   0.16899000  0.83329000  0.18177000
   0.33582000  0.66689000  0.12095000
   0.66914000  0.66722000  0.12117000
   0.83680000  0.83220000  0.18114000
   0.00172000  0.99944000  0.24151000
   0.17399719  0.17131789  0.30300284
   0.00260000  0.33284000  0.12101000
   0.16994000  0.49925000  0.18104000
   0.50164000  0.16594000  0.18135000
   0.83615000  0.16559000  0.18099000
   0.16980000  0.16587000  0.18099000
   0.33623000  0.99852000  0.12110000
   0.00245000  0.99865000  0.12117000
   0.33651000  0.33287000  0.12086000
   0.50180000  0.49937000  0.18123000
   0.17332148  0.49704145  0.30301589
   0.83569040  0.16445612  0.30327671
   0.49839433  0.49079169  0.30239961
   0.33524000  0.33246000  0.24183000
   0.83725947  0.50110415  0.30310799
   0.66902000  0.33317000  0.24123000
   0.33605000  0.66588000  0.24146000
   0.00318000  0.66598000  0.24177000
   0.66918000  0.66674000  0.24131000
   0.50331721  0.83440550  0.30223160
