 
:: initializing oneAPI environment ...
   slurm_script: BASH_VERSION = 4.4.20(1)-release
   args: Using "$@" for setvars.sh arguments: --force
:: advisor -- latest
:: ccl -- latest
:: compiler -- latest
:: dal -- latest
:: debugger -- latest
:: dev-utilities -- latest
:: dnnl -- latest
:: dpcpp-ct -- latest
:: dpl -- latest
:: ipp -- latest
:: ippcp -- latest
:: mkl -- latest
:: mpi -- latest
:: pti -- latest
:: tbb -- latest
:: umf -- latest
:: vtune -- latest
:: oneAPI environment initialized ::
 
 running   96 mpi-ranks, on    1 nodes
 distrk:  each k-point on   12 cores,    8 groups
 distr:  one band on    4 cores,    3 groups
 vasp.6.5.1 10Mar25 (build Oct 09 2025 23:55:08) complex                        
  
 POSCAR found type information on POSCAR CrFePb
 POSCAR found :  3 types and      64 ions
 -----------------------------------------------------------------------------
|                                                                             |
|           W    W    AA    RRRRR   N    N  II  N    N   GGGG   !!!           |
|           W    W   A  A   R    R  NN   N  II  NN   N  G    G  !!!           |
|           W    W  A    A  R    R  N N  N  II  N N  N  G       !!!           |
|           W WW W  AAAAAA  RRRRR   N  N N  II  N  N N  G  GGG   !            |
|           WW  WW  A    A  R   R   N   NN  II  N   NN  G    G                |
|           W    W  A    A  R    R  N    N  II  N    N   GGGG   !!!           |
|                                                                             |
|     You requested a magnetic or noncollinear calculation, but did not       |
|     specify the initial magnetic moment with the MAGMOM tag. Note that      |
|     a default of 1 will be used for all atoms. This ferromagnetic setup     |
|     may break the symmetry of the crystal, in particular it may rule        |
|     out finding an antiferromagnetic solution. Thence, we recommend         |
|     setting the initial magnetic moment manually or verifying carefully     |
|     that this magnetic setup is desired.                                    |
|                                                                             |
 -----------------------------------------------------------------------------

 scaLAPACK will be used
 -----------------------------------------------------------------------------
|                                                                             |
|           W    W    AA    RRRRR   N    N  II  N    N   GGGG   !!!           |
|           W    W   A  A   R    R  NN   N  II  NN   N  G    G  !!!           |
|           W    W  A    A  R    R  N N  N  II  N N  N  G       !!!           |
|           W WW W  AAAAAA  RRRRR   N  N N  II  N  N N  G  GGG   !            |
|           WW  WW  A    A  R   R   N   NN  II  N   NN  G    G                |
|           W    W  A    A  R    R  N    N  II  N    N   GGGG   !!!           |
|                                                                             |
|     For optimal performance we recommend to set                             |
|       NCORE = 2 up to number-of-cores-per-socket                            |
|     NCORE specifies how many cores store one orbital (NPAR=cpu/NCORE).      |
|     This setting can greatly improve the performance of VASP for DFT.       |
|     The default, NCORE=1 might be grossly inefficient on modern             |
|     multi-core architectures or massively parallel machines. Do your        |
|     own testing! More info at https://www.vasp.at/wiki/index.php/NCORE      |
|     Unfortunately you need to use the default for GW and RPA                |
|     calculations (for HF NCORE is supported but not extensively tested      |
|     yet).                                                                   |
|                                                                             |
 -----------------------------------------------------------------------------

 LDA part: xc-table for (Slater+PW92), standard interpolation
 POSCAR, INCAR and KPOINTS ok, starting setup
 FFT: planning ... GRIDC
 FFT: planning ... GRID_SOFT
 FFT: planning ... GRID
 WAVECAR not read
 WARNING: chargedensity file is incomplete
 WARNING: random wavefunctions but no delay for mixing, default for NELMDL
 entering main loop
       N       E                     dE             d eps       ncg     rms          rms(c)
DAV:   1     0.568337434094E+04    0.56834E+04   -0.24420E+05 16056   0.144E+03
DAV:   2    -0.644235394679E+02   -0.57478E+04   -0.55449E+04 15120   0.422E+02
DAV:   3    -0.531643432556E+03   -0.46722E+03   -0.41407E+03 15597   0.163E+02
DAV:   4    -0.589728161299E+03   -0.58085E+02   -0.54228E+02 26451   0.446E+01
DAV:   5    -0.593000117895E+03   -0.32720E+01   -0.31010E+01 24858   0.106E+01    0.937E+01
DAV:   6    -0.673434566028E+03   -0.80434E+02   -0.25772E+02 27225   0.713E+01    0.146E+02
DAV:   7    -0.552192934960E+03    0.12124E+03   -0.15318E+02 27648   0.601E+01    0.771E+01
DAV:   8    -0.560848581392E+03   -0.86556E+01   -0.50262E+01 26586   0.314E+01    0.929E+01
DAV:   9    -0.641916707709E+03   -0.81068E+02   -0.10709E+02 27207   0.720E+01    0.136E+02
DAV:  10    -0.512555513157E+03    0.12936E+03   -0.11519E+02 24777   0.499E+01    0.558E+01
DAV:  11    -0.502286311667E+03    0.10269E+02   -0.87956E+01 22437   0.324E+01    0.405E+01
DAV:  12    -0.501232458255E+03    0.10539E+01   -0.20216E+01 22617   0.187E+01    0.352E+01
DAV:  13    -0.501439624913E+03   -0.20717E+00   -0.29687E+00 21123   0.615E+00    0.350E+01
DAV:  14    -0.501300375720E+03    0.13925E+00   -0.43699E-01 25704   0.163E+00    0.355E+01
DAV:  15    -0.502891941197E+03   -0.15916E+01   -0.10956E+00 26775   0.381E+00    0.357E+01
DAV:  16    -0.504633684110E+03   -0.17417E+01   -0.26200E+00 25425   0.545E+00    0.309E+01
DAV:  17    -0.507380171449E+03   -0.27465E+01   -0.32855E+00 25623   0.718E+00    0.277E+01
DAV:  18    -0.509103074235E+03   -0.17229E+01   -0.21280E+00 25119   0.499E+00    0.259E+01
DAV:  19    -0.509381957394E+03   -0.27888E+00   -0.11877E+00 25101   0.383E+00    0.228E+01
DAV:  20    -0.510086679976E+03   -0.70472E+00   -0.10259E+00 26109   0.360E+00    0.200E+01
DAV:  21    -0.510684226026E+03   -0.59755E+00   -0.18183E+00 26937   0.534E+00    0.166E+01
DAV:  22    -0.510959529224E+03   -0.27530E+00   -0.70048E-01 25317   0.321E+00    0.151E+01
DAV:  23    -0.511120882709E+03   -0.16135E+00   -0.31844E-01 24885   0.173E+00    0.140E+01
DAV:  24    -0.511707659242E+03   -0.58678E+00   -0.83332E-01 26820   0.245E+00    0.125E+01
DAV:  25    -0.512228435953E+03   -0.52078E+00   -0.10118E+00 26586   0.282E+00    0.112E+01
DAV:  26    -0.512627355901E+03   -0.39892E+00   -0.11239E+00 25218   0.273E+00    0.955E+00
DAV:  27    -0.512809606260E+03   -0.18225E+00   -0.28209E-01 25983   0.211E+00    0.983E+00
DAV:  28    -0.512887938152E+03   -0.78332E-01   -0.16770E-01 25191   0.160E+00    0.100E+01
DAV:  29    -0.512978497517E+03   -0.90559E-01   -0.58895E-02 24741   0.664E-01    0.982E+00
DAV:  30    -0.513072328131E+03   -0.93831E-01   -0.82605E-02 26289   0.798E-01    0.948E+00
DAV:  31    -0.513073091799E+03   -0.76367E-03   -0.14356E-02 24408   0.410E-01    0.946E+00
DAV:  32    -0.513050704485E+03    0.22387E-01   -0.35515E-02 26721   0.588E-01    0.922E+00
DAV:  33    -0.512856504233E+03    0.19420E+00   -0.19888E-01 26685   0.113E+00    0.827E+00
DAV:  34    -0.512855916291E+03    0.58794E-03   -0.94902E-02 26469   0.942E-01    0.738E+00
DAV:  35    -0.512900996187E+03   -0.45080E-01   -0.82330E-02 26577   0.777E-01    0.699E+00
DAV:  36    -0.512954264427E+03   -0.53268E-01   -0.38986E-02 25569   0.550E-01    0.696E+00
DAV:  37    -0.513025550021E+03   -0.71286E-01   -0.58227E-02 26289   0.560E-01    0.701E+00
DAV:  38    -0.513095111196E+03   -0.69561E-01   -0.33128E-02 26136   0.397E-01    0.697E+00
DAV:  39    -0.513220235676E+03   -0.12512E+00   -0.89898E-02 26226   0.697E-01    0.675E+00
DAV:  40    -0.513279690559E+03   -0.59455E-01   -0.38208E-02 25263   0.420E-01    0.667E+00
DAV:  41    -0.513337735077E+03   -0.58045E-01   -0.30845E-02 26262   0.373E-01    0.669E+00
DAV:  42    -0.513479889249E+03   -0.14215E+00   -0.18087E-01 26415   0.108E+00    0.616E+00
DAV:  43    -0.513532705947E+03   -0.52817E-01   -0.23570E+00 25470   0.326E+00    0.529E+00
DAV:  44    -0.513489080061E+03    0.43626E-01   -0.76120E-01 24777   0.199E+00    0.532E+00
DAV:  45    -0.513581079750E+03   -0.92000E-01   -0.16040E+00 25425   0.254E+00    0.356E+00
DAV:  46    -0.513581169756E+03   -0.90006E-04   -0.18313E-01 23832   0.922E-01    0.361E+00
DAV:  47    -0.513662684628E+03   -0.81515E-01   -0.22595E-01 26523   0.123E+00    0.254E+00
DAV:  48    -0.513673121979E+03   -0.10437E-01   -0.84312E-02 23724   0.722E-01    0.198E+00
DAV:  49    -0.513684729602E+03   -0.11608E-01   -0.77686E-02 25551   0.650E-01    0.146E+00
DAV:  50    -0.513689444514E+03   -0.47149E-02   -0.29067E-02 25587   0.555E-01    0.121E+00
DAV:  51    -0.513694897203E+03   -0.54527E-02   -0.23557E-02 25092   0.456E-01    0.844E-01
DAV:  52    -0.513694417055E+03    0.48015E-03   -0.16106E-02 24813   0.298E-01    0.828E-01
DAV:  53    -0.513696114272E+03   -0.16972E-02   -0.49072E-03 26901   0.269E-01    0.651E-01
DAV:  54    -0.513698069622E+03   -0.19553E-02   -0.16989E-02 25344   0.270E-01    0.533E-01
DAV:  55    -0.513698878481E+03   -0.80886E-03   -0.43493E-03 25893   0.215E-01    0.598E-01
DAV:  56    -0.513699457933E+03   -0.57945E-03   -0.28857E-03 25785   0.230E-01    0.479E-01
DAV:  57    -0.513701121780E+03   -0.16638E-02   -0.53042E-03 23904   0.149E-01    0.313E-01
DAV:  58    -0.513701759660E+03   -0.63788E-03   -0.21506E-03 25578   0.114E-01    0.228E-01
DAV:  59    -0.513701991523E+03   -0.23186E-03   -0.11089E-03 25479   0.853E-02    0.215E-01
DAV:  60    -0.513702175746E+03   -0.18422E-03   -0.89614E-04 25335   0.712E-02    0.183E-01
DAV:  61    -0.513702300370E+03   -0.12462E-03   -0.79167E-04 25623   0.781E-02    0.138E-01
DAV:  62    -0.513702414752E+03   -0.11438E-03   -0.48749E-04 25488   0.600E-02    0.119E-01
DAV:  63    -0.513702453153E+03   -0.38401E-04   -0.12417E-04 20313   0.356E-02    0.100E-01
DAV:  64    -0.513702533566E+03   -0.80413E-04   -0.16339E-04 21807   0.365E-02    0.711E-02
DAV:  65    -0.513702550983E+03   -0.17417E-04   -0.13691E-04 22221   0.328E-02    0.560E-02
DAV:  66    -0.513702559566E+03   -0.85827E-05   -0.40073E-05 15039   0.216E-02
   1 F= -.51370256E+03 E0= -.51371116E+03  d E =-.513703E+03  mag=   100.8712
 curvature:   0.00 expect dE= 0.000E+00 dE for cont linesearch  0.000E+00
 trial: gam= 0.00000 g(F)=  0.576E-01 g(S)=  0.000E+00 ort = 0.000E+00 (trialstep = 0.100E+01)
 search vector abs. value=  0.576E-01
 bond charge predicted
       N       E                     dE             d eps       ncg     rms          rms(c)
DAV:   1    -0.513507706673E+03    0.19484E+00   -0.20446E+01 18666   0.101E+01    0.220E+00
DAV:   2    -0.513727040547E+03   -0.21933E+00   -0.20706E+00 15948   0.244E+00    0.166E+00
DAV:   3    -0.513892646837E+03   -0.16561E+00   -0.53439E-01 27216   0.364E+00    0.501E+00
DAV:   4    -0.513729915619E+03    0.16273E+00   -0.41851E-01 28611   0.293E+00    0.114E+00
DAV:   5    -0.513741040547E+03   -0.11125E-01   -0.13306E-02 26838   0.510E-01    0.105E+00
DAV:   6    -0.513746125240E+03   -0.50847E-02   -0.17516E-02 25371   0.774E-01    0.711E-01
DAV:   7    -0.513746462299E+03   -0.33706E-03   -0.76369E-03 24444   0.460E-01    0.347E-01
DAV:   8    -0.513746290249E+03    0.17205E-03   -0.13270E-03 23913   0.153E-01    0.214E-01
DAV:   9    -0.513746290411E+03   -0.16176E-06   -0.36914E-04 18360   0.717E-02    0.202E-01
DAV:  10    -0.513746183586E+03    0.10683E-03   -0.16059E-04 22734   0.580E-02    0.158E-01
DAV:  11    -0.513746095943E+03    0.87643E-04   -0.17120E-04 19152   0.542E-02    0.118E-01
DAV:  12    -0.513746066778E+03    0.29165E-04   -0.15292E-04 22068   0.388E-02    0.940E-02
DAV:  13    -0.513746066681E+03    0.97105E-07   -0.36743E-05 11484   0.258E-02
   2 F= -.51374607E+03 E0= -.51375482E+03  d E =-.435071E-01  mag=   100.8279
 trial-energy change:   -0.043507  1 .order   -0.044121   -0.057561   -0.030681
 step:   2.8885(harm=  2.1414)  dis= 0.05223  next Energy=  -513.770904 (dE=-0.683E-01)
 bond charge predicted
       N       E                     dE             d eps       ncg     rms          rms(c)
DAV:   1    -0.512920814017E+03    0.82525E+00   -0.73800E+01 18243   0.190E+01    0.444E+00
DAV:   2    -0.513694735220E+03   -0.77392E+00   -0.72269E+00 15957   0.476E+00    0.341E+00
DAV:   3    -0.514396445229E+03   -0.70171E+00   -0.20664E+00 27828   0.749E+00    0.107E+01
DAV:   4    -0.513702478619E+03    0.69397E+00   -0.20160E+00 28719   0.603E+00    0.228E+00
DAV:   5    -0.513735828470E+03   -0.33350E-01   -0.52783E-02 25650   0.964E-01    0.203E+00
DAV:   6    -0.513749316369E+03   -0.13488E-01   -0.57856E-02 24759   0.140E+00    0.150E+00
DAV:   7    -0.513760653306E+03   -0.11337E-01   -0.25374E-02 24003   0.784E-01    0.799E-01
DAV:   8    -0.513759620450E+03    0.10329E-02   -0.59565E-03 24516   0.373E-01    0.453E-01
DAV:   9    -0.513759451039E+03    0.16941E-03   -0.20885E-03 21636   0.172E-01    0.393E-01
DAV:  10    -0.513759413158E+03    0.37881E-04   -0.80786E-04 22401   0.998E-02    0.381E-01
DAV:  11    -0.513759194661E+03    0.21850E-03   -0.37470E-04 22203   0.974E-02    0.325E-01
DAV:  12    -0.513759075255E+03    0.11941E-03   -0.61333E-04 25119   0.802E-02    0.286E-01
DAV:  13    -0.513759156652E+03   -0.81397E-04   -0.20545E-04 21852   0.458E-02    0.296E-01
DAV:  14    -0.513759163096E+03   -0.64434E-05   -0.21965E-05 11610   0.149E-02
   3 F= -.51375916E+03 E0= -.51376842E+03  d E =-.566035E-01  mag=   100.7153
 curvature:  -0.61 expect dE=-0.139E-01 dE for cont linesearch -0.200E-02
 ZBRENT: interpolating
 opt :   2.3055  next Energy=  -513.763157 (dE=-0.606E-01)
 bond charge predicted
       N       E                     dE             d eps       ncg     rms          rms(c)
DAV:   1    -0.513685232970E+03    0.73924E-01   -0.70030E+00 18144   0.585E+00    0.129E+00
DAV:   2    -0.513761007745E+03   -0.75775E-01   -0.68758E-01 16434   0.149E+00    0.123E+00
DAV:   3    -0.513800655768E+03   -0.39648E-01   -0.18967E-01 25182   0.218E+00    0.256E+00
DAV:   4    -0.513759116513E+03    0.41539E-01   -0.10142E-01 28098   0.156E+00    0.677E-01
DAV:   5    -0.513762866448E+03   -0.37499E-02   -0.50534E-03 24597   0.349E-01    0.623E-01
DAV:   6    -0.513765170824E+03   -0.23044E-02   -0.29516E-03 20502   0.196E-01    0.588E-01
DAV:   7    -0.513765855909E+03   -0.68508E-03   -0.90329E-04 25416   0.101E-01    0.515E-01
DAV:   8    -0.513765799435E+03    0.56474E-04   -0.17209E-04 20538   0.612E-02    0.511E-01
DAV:   9    -0.513765196558E+03    0.60288E-03   -0.27580E-04 21015   0.553E-02    0.460E-01
DAV:  10    -0.513763963199E+03    0.12334E-02   -0.37890E-03 26406   0.146E-01    0.225E-01
DAV:  11    -0.513763879145E+03    0.84054E-04   -0.11170E-03 25731   0.114E-01    0.159E-01
DAV:  12    -0.513763908574E+03   -0.29429E-04   -0.16336E-04 17262   0.515E-02    0.122E-01
DAV:  13    -0.513763865889E+03    0.42685E-04   -0.78790E-05 17073   0.405E-02    0.754E-02
DAV:  14    -0.513763851508E+03    0.14381E-04   -0.59724E-05 16128   0.186E-02    0.603E-02
DAV:  15    -0.513763841745E+03    0.97623E-05   -0.10937E-05  9315   0.134E-02
   4 F= -.51376384E+03 E0= -.51377263E+03  d E =-.612822E-01  mag=   100.8012
 curvature:  -1.22 expect dE=-0.166E-01 dE for cont linesearch -0.143E-03
 trial: gam= 0.28025 g(F)=  0.135E-01 g(S)=  0.000E+00 ort =-0.259E-02 (trialstep = 0.126E+01)
 search vector abs. value=  0.166E-01
 bond charge predicted
       N       E                     dE             d eps       ncg     rms          rms(c)
DAV:   1    -0.513735649019E+03    0.28202E-01   -0.74267E+00 15003   0.381E+00    0.108E+00
DAV:   2    -0.513769845719E+03   -0.34197E-01   -0.31602E-01 16137   0.113E+00    0.799E-01
DAV:   3    -0.513782451989E+03   -0.12606E-01   -0.32128E-02 24660   0.879E-01    0.133E+00
DAV:   4    -0.513774587190E+03    0.78648E-02   -0.40177E-02 24840   0.100E+00    0.740E-01
DAV:   5    -0.513777463697E+03   -0.28765E-02   -0.63409E-03 26487   0.356E-01    0.439E-01
DAV:   6    -0.513778087007E+03   -0.62331E-03   -0.31767E-03 26298   0.346E-01    0.313E-01
DAV:   7    -0.513777740618E+03    0.34639E-03   -0.16000E-03 23499   0.223E-01    0.163E-01
DAV:   8    -0.513777727558E+03    0.13060E-04   -0.26660E-04 19350   0.583E-02    0.135E-01
DAV:   9    -0.513777710183E+03    0.17375E-04   -0.67572E-05 16848   0.374E-02    0.118E-01
DAV:  10    -0.513777661987E+03    0.48196E-04   -0.14276E-04 22041   0.312E-02    0.889E-02
DAV:  11    -0.513777635258E+03    0.26730E-04   -0.38972E-05 13761   0.284E-02    0.668E-02
DAV:  12    -0.513777628408E+03    0.68502E-05   -0.24230E-05 10098   0.186E-02
   5 F= -.51377763E+03 E0= -.51378642E+03  d E =-.137867E-01  mag=   100.8250
 trial-energy change:   -0.013787  1 .order   -0.013954   -0.016155   -0.011752
 step:   4.6273(harm=  4.6273)  dis= 0.03167  next Energy=  -513.793481 (dE=-0.296E-01)
 bond charge predicted
       N       E                     dE             d eps       ncg     rms          rms(c)
DAV:   1    -0.513486572695E+03    0.29106E+00   -0.54003E+01 15426   0.103E+01    0.289E+00
DAV:   2    -0.513728738581E+03   -0.24217E+00   -0.22307E+00 15939   0.299E+00    0.211E+00
DAV:   3    -0.513760498481E+03   -0.31760E-01   -0.11942E-01 22311   0.943E-01    0.173E+00
DAV:   4    -0.513912650164E+03   -0.15215E+00   -0.37873E-01 27981   0.303E+00    0.466E+00
DAV:   5    -0.513783642373E+03    0.12901E+00   -0.42866E-01 28035   0.293E+00    0.114E+00
DAV:   6    -0.513793774643E+03   -0.10132E-01   -0.18061E-02 27144   0.591E-01    0.838E-01
DAV:   7    -0.513790456975E+03    0.33177E-02   -0.11306E-02 25929   0.627E-01    0.423E-01
DAV:   8    -0.513790363317E+03    0.93658E-04   -0.23417E-03 21528   0.206E-01    0.373E-01
DAV:   9    -0.513790176214E+03    0.18710E-03   -0.44332E-04 24120   0.849E-02    0.324E-01
DAV:  10    -0.513789911612E+03    0.26460E-03   -0.30601E-04 23445   0.693E-02    0.282E-01
DAV:  11    -0.513789687554E+03    0.22406E-03   -0.80485E-04 23364   0.912E-02    0.239E-01
DAV:  12    -0.513789705534E+03   -0.17980E-04   -0.29328E-04 23742   0.560E-02    0.248E-01
DAV:  13    -0.513789736891E+03   -0.31357E-04   -0.42950E-05 15705   0.225E-02    0.256E-01
DAV:  14    -0.513789664297E+03    0.72594E-04   -0.15356E-05  9369   0.106E-02    0.246E-01
DAV:  15    -0.513789506443E+03    0.15785E-03   -0.12356E-04 18108   0.228E-02    0.214E-01
DAV:  16    -0.513789417853E+03    0.88590E-04   -0.20936E-04 23832   0.382E-02    0.155E-01
DAV:  17    -0.513789404017E+03    0.13836E-04   -0.25362E-04 24084   0.609E-02    0.886E-02
DAV:  18    -0.513789432790E+03   -0.28773E-04   -0.15617E-04 22347   0.362E-02    0.716E-02
DAV:  19    -0.513789442760E+03   -0.99700E-05   -0.27595E-05 12465   0.265E-02
   6 F= -.51378944E+03 E0= -.51379831E+03  d E =-.256010E-01  mag=   100.8587
 curvature:  -3.00 expect dE=-0.266E-01 dE for cont linesearch -0.914E-03
 ZBRENT: interpolating
 opt :   3.9727  next Energy=  -513.790179 (dE=-0.263E-01)
 bond charge predicted
       N       E                     dE             d eps       ncg     rms          rms(c)
DAV:   1    -0.513779818395E+03    0.96144E-02   -0.20054E+00 15012   0.197E+00    0.560E-01
DAV:   2    -0.513789190594E+03   -0.93722E-02   -0.78414E-02 19782   0.678E-01    0.582E-01
DAV:   3    -0.513793803432E+03   -0.46128E-02   -0.27668E-02 25533   0.862E-01    0.964E-01
DAV:   4    -0.513788927965E+03    0.48755E-02   -0.13160E-02 26928   0.549E-01    0.321E-01
DAV:   5    -0.513790065140E+03   -0.11372E-02   -0.11292E-03 25533   0.172E-01    0.290E-01
DAV:   6    -0.513790288374E+03   -0.22323E-03   -0.15347E-03 24912   0.235E-01    0.179E-01
DAV:   7    -0.513790160476E+03    0.12790E-03   -0.47665E-04 23733   0.116E-01    0.886E-02
DAV:   8    -0.513790148449E+03    0.12028E-04   -0.89530E-05 17820   0.343E-02    0.681E-02
DAV:   9    -0.513790137804E+03    0.10644E-04   -0.23240E-05 10836   0.202E-02    0.613E-02
DAV:  10    -0.513790105363E+03    0.32441E-04   -0.52917E-05 15822   0.254E-02    0.379E-02
DAV:  11    -0.513790094169E+03    0.11194E-04   -0.31009E-05 12042   0.176E-02    0.300E-02
DAV:  12    -0.513790092419E+03    0.17504E-05   -0.11811E-05  8406   0.154E-02
   7 F= -.51379009E+03 E0= -.51379895E+03  d E =-.262507E-01  mag=   100.8481
 curvature:  -2.42 expect dE=-0.157E-01 dE for cont linesearch -0.154E-05
 trial: gam= 0.40672 g(F)=  0.651E-02 g(S)=  0.000E+00 ort =-0.103E-03 (trialstep = 0.180E+01)
 search vector abs. value=  0.918E-02
 bond charge predicted
       N       E                     dE             d eps       ncg     rms          rms(c)
DAV:   1    -0.513749154641E+03    0.40940E-01   -0.75630E+00 14985   0.434E+00    0.135E+00
DAV:   2    -0.513788441865E+03   -0.39287E-01   -0.31937E-01 16038   0.126E+00    0.117E+00
DAV:   3    -0.513829345399E+03   -0.40904E-01   -0.13768E-01 24930   0.194E+00    0.253E+00
DAV:   4    -0.513793457512E+03    0.35888E-01   -0.99199E-02 28323   0.152E+00    0.769E-01
DAV:   5    -0.513799464465E+03   -0.60070E-02   -0.72721E-03 27486   0.406E-01    0.650E-01
DAV:   6    -0.513800730099E+03   -0.12656E-02   -0.77698E-03 26280   0.516E-01    0.446E-01
DAV:   7    -0.513799874816E+03    0.85528E-03   -0.27654E-03 24147   0.284E-01    0.220E-01
DAV:   8    -0.513799810312E+03    0.64504E-04   -0.50565E-04 22977   0.811E-02    0.156E-01
DAV:   9    -0.513799792866E+03    0.17447E-04   -0.14525E-04 16794   0.420E-02    0.146E-01
DAV:  10    -0.513799677486E+03    0.11538E-03   -0.24005E-04 22977   0.577E-02    0.105E-01
DAV:  11    -0.513799648196E+03    0.29291E-04   -0.12274E-04 20826   0.291E-02    0.976E-02
DAV:  12    -0.513799643631E+03    0.45649E-05   -0.16233E-05  9522   0.212E-02
   8 F= -.51379964E+03 E0= -.51380855E+03  d E =-.955121E-02  mag=   100.8298
 trial-energy change:   -0.009551  1 .order   -0.009726   -0.011673   -0.007778
 step:   5.4043(harm=  5.4043)  dis= 0.04811  next Energy=  -513.807583 (dE=-0.175E-01)
 bond charge predicted
       N       E                     dE             d eps       ncg     rms          rms(c)
DAV:   1    -0.513593435645E+03    0.20621E+00   -0.30244E+01 15156   0.874E+00    0.271E+00
DAV:   2    -0.513758233332E+03   -0.16480E+00   -0.13750E+00 16020   0.247E+00    0.225E+00
DAV:   3    -0.513954130038E+03   -0.19590E+00   -0.56672E-01 26100   0.395E+00    0.538E+00
DAV:   4    -0.513778452195E+03    0.17568E+00   -0.44681E-01 28503   0.327E+00    0.148E+00
DAV:   5    -0.513806099088E+03   -0.27647E-01   -0.30517E-02 26550   0.761E-01    0.123E+00
DAV:   6    -0.513808841334E+03   -0.27422E-02   -0.19843E-02 26226   0.883E-01    0.875E-01
DAV:   7    -0.513805713051E+03    0.31283E-02   -0.11513E-02 24462   0.599E-01    0.488E-01
DAV:   8    -0.513805613767E+03    0.99283E-04   -0.17193E-03 19368   0.141E-01    0.364E-01
DAV:   9    -0.513805542319E+03    0.71448E-04   -0.35877E-04 22653   0.615E-02    0.354E-01
DAV:  10    -0.513805461975E+03    0.80344E-04   -0.70418E-04 25020   0.848E-02    0.360E-01
DAV:  11    -0.513805518588E+03   -0.56613E-04   -0.20050E-04 22842   0.397E-02    0.377E-01
DAV:  12    -0.513805388163E+03    0.13043E-03   -0.54331E-05 14985   0.261E-02    0.367E-01
DAV:  13    -0.513804859201E+03    0.52896E-03   -0.79507E-04 25740   0.654E-02    0.297E-01
DAV:  14    -0.513804628297E+03    0.23090E-03   -0.29460E-04 24093   0.509E-02    0.251E-01
DAV:  15    -0.513804450362E+03    0.17793E-03   -0.30123E-04 24264   0.661E-02    0.184E-01
DAV:  16    -0.513804499181E+03   -0.48819E-04   -0.64419E-04 25830   0.955E-02    0.153E-01
DAV:  17    -0.513804479312E+03    0.19869E-04   -0.18730E-04 22788   0.544E-02    0.106E-01
DAV:  18    -0.513804452438E+03    0.26874E-04   -0.43152E-05 12519   0.359E-02    0.666E-02
DAV:  19    -0.513804454836E+03   -0.23987E-05   -0.70038E-05 16461   0.292E-02
   9 F= -.51380445E+03 E0= -.51381302E+03  d E =-.143624E-01  mag=   100.8375
 curvature:  -3.83 expect dE=-0.246E-01 dE for cont linesearch -0.102E-02
 ZBRENT: interpolating
 opt :   4.4467  next Energy=  -513.805203 (dE=-0.151E-01)
 bond charge predicted
       N       E                     dE             d eps       ncg     rms          rms(c)
DAV:   1    -0.513791761908E+03    0.12691E-01   -0.21371E+00 14940   0.231E+00    0.710E-01
DAV:   2    -0.513801655763E+03   -0.98939E-02   -0.82768E-02 15570   0.657E-01    0.548E-01
DAV:   3    -0.513810126421E+03   -0.84707E-02   -0.19697E-02 27360   0.712E-01    0.107E+00
DAV:   4    -0.513803817794E+03    0.63086E-02   -0.23849E-02 27693   0.744E-01    0.480E-01
DAV:   5    -0.513805194271E+03   -0.13765E-02   -0.25197E-03 27306   0.225E-01    0.362E-01
DAV:   6    -0.513805281751E+03   -0.87480E-04   -0.18661E-03 25794   0.248E-01    0.165E-01
DAV:   7    -0.513805217974E+03    0.63777E-04   -0.52152E-04 23202   0.114E-01    0.107E-01
DAV:   8    -0.513805195554E+03    0.22420E-04   -0.79514E-05 17091   0.374E-02    0.844E-02
DAV:   9    -0.513805176751E+03    0.18803E-04   -0.23682E-05 10647   0.186E-02    0.761E-02
DAV:  10    -0.513805116291E+03    0.60459E-04   -0.10381E-04 20223   0.303E-02    0.443E-02
DAV:  11    -0.513805105308E+03    0.10983E-04   -0.21222E-05 10323   0.197E-02    0.413E-02
DAV:  12    -0.513805102966E+03    0.23420E-05   -0.13584E-05  8316   0.125E-02
  10 F= -.51380510E+03 E0= -.51381369E+03  d E =-.150105E-01  mag=   100.8435
 curvature:  -2.81 expect dE=-0.112E-01 dE for cont linesearch -0.709E-05
 trial: gam= 0.65040 g(F)=  0.400E-02 g(S)=  0.000E+00 ort =-0.152E-03 (trialstep = 0.233E+01)
 search vector abs. value=  0.768E-02
 bond charge predicted
       N       E                     dE             d eps       ncg     rms          rms(c)
DAV:   1    -0.513741823873E+03    0.63281E-01   -0.10595E+01 15075   0.512E+00    0.152E+00
DAV:   2    -0.513796685670E+03   -0.54862E-01   -0.46696E-01 16164   0.155E+00    0.128E+00
DAV:   3    -0.513852327997E+03   -0.55642E-01   -0.17717E-01 25695   0.215E+00    0.294E+00
DAV:   4    -0.513802217371E+03    0.50111E-01   -0.15143E-01 27216   0.181E+00    0.965E-01
DAV:   5    -0.513810695273E+03   -0.84779E-02   -0.95486E-03 27684   0.477E-01    0.850E-01
DAV:   6    -0.513811188719E+03   -0.49345E-03   -0.10982E-02 25479   0.611E-01    0.362E-01
DAV:   7    -0.513811335620E+03   -0.14690E-03   -0.25627E-03 23751   0.234E-01    0.256E-01
DAV:   8    -0.513811248397E+03    0.87223E-04   -0.41418E-04 21123   0.955E-02    0.193E-01
DAV:   9    -0.513811192989E+03    0.55407E-04   -0.13375E-04 20979   0.499E-02    0.175E-01
DAV:  10    -0.513811100975E+03    0.92014E-04   -0.21487E-04 23121   0.537E-02    0.143E-01
DAV:  11    -0.513811081714E+03    0.19261E-04   -0.17423E-04 23175   0.401E-02    0.148E-01
DAV:  12    -0.513811073301E+03    0.84128E-05   -0.32212E-05 12339   0.264E-02
  11 F= -.51381107E+03 E0= -.51381944E+03  d E =-.597033E-02  mag=   100.8868
 trial-energy change:   -0.005970  1 .order   -0.006165   -0.009091   -0.003239
 step:   4.4040(harm=  3.6226)  dis= 0.02391  next Energy=  -513.812375 (dE=-0.727E-02)
 bond charge predicted
       N       E                     dE             d eps       ncg     rms          rms(c)
DAV:   1    -0.513757115619E+03    0.53966E-01   -0.83632E+00 15084   0.456E+00    0.136E+00
DAV:   2    -0.513803321668E+03   -0.46206E-01   -0.36760E-01 18279   0.150E+00    0.141E+00
DAV:   3    -0.513825059336E+03   -0.21738E-01   -0.13220E-01 23841   0.191E+00    0.216E+00
DAV:   4    -0.513803914667E+03    0.21145E-01   -0.70230E-02 25488   0.126E+00    0.834E-01
DAV:   5    -0.513810273799E+03   -0.63591E-02   -0.70847E-03 26820   0.451E-01    0.749E-01
DAV:   6    -0.513811369427E+03   -0.10956E-02   -0.93679E-03 25749   0.575E-01    0.461E-01
DAV:   7    -0.513811163821E+03    0.20561E-03   -0.25731E-03 24102   0.240E-01    0.389E-01
DAV:   8    -0.513811154548E+03    0.92726E-05   -0.41681E-04 18396   0.766E-02    0.343E-01
DAV:   9    -0.513811195567E+03   -0.41019E-04   -0.87182E-05 19062   0.291E-02    0.354E-01
DAV:  10    -0.513810998848E+03    0.19672E-03   -0.17716E-04 17739   0.383E-02    0.317E-01
DAV:  11    -0.513810932461E+03    0.66388E-04   -0.11342E-04 20871   0.247E-02    0.299E-01
DAV:  12    -0.513810820977E+03    0.11148E-03   -0.15833E-04 18585   0.543E-02    0.283E-01
DAV:  13    -0.513810463342E+03    0.35763E-03   -0.75798E-04 23661   0.666E-02    0.199E-01
DAV:  14    -0.513810355325E+03    0.10802E-03   -0.26267E-04 24309   0.612E-02    0.148E-01
DAV:  15    -0.513810325949E+03    0.29376E-04   -0.17446E-04 23283   0.432E-02    0.110E-01
DAV:  16    -0.513810347326E+03   -0.21377E-04   -0.13624E-04 22365   0.387E-02    0.754E-02
DAV:  17    -0.513810369657E+03   -0.22331E-04   -0.27820E-05 12411   0.244E-02    0.558E-02
DAV:  18    -0.513810374864E+03   -0.52069E-05   -0.14019E-05  8829   0.168E-02
  12 F= -.51381037E+03 E0= -.51381897E+03  d E =-.527190E-02  mag=   100.8727
 curvature:  -2.26 expect dE=-0.528E-02 dE for cont linesearch -0.759E-03
 ZBRENT: interpolating
 opt :   3.2928  next Energy=  -513.811740 (dE=-0.664E-02)
 bond charge predicted
       N       E                     dE             d eps       ncg     rms          rms(c)
DAV:   1    -0.513796839990E+03    0.13530E-01   -0.24122E+00 15012   0.243E+00    0.712E-01
DAV:   2    -0.513808025287E+03   -0.11185E-01   -0.95280E-02 15642   0.703E-01    0.586E-01
DAV:   3    -0.513820378339E+03   -0.12353E-01   -0.35504E-02 26199   0.970E-01    0.133E+00
DAV:   4    -0.513809687401E+03    0.10691E-01   -0.32406E-02 27693   0.873E-01    0.471E-01
DAV:   5    -0.513811376304E+03   -0.16889E-02   -0.22283E-03 27567   0.218E-01    0.392E-01
DAV:   6    -0.513811474390E+03   -0.98086E-04   -0.22757E-03 25182   0.278E-01    0.170E-01
DAV:   7    -0.513811493680E+03   -0.19290E-04   -0.54866E-04 23094   0.107E-01    0.119E-01
DAV:   8    -0.513811467252E+03    0.26428E-04   -0.82105E-05 17685   0.427E-02    0.923E-02
DAV:   9    -0.513811447054E+03    0.20198E-04   -0.23484E-05 10044   0.238E-02    0.806E-02
DAV:  10    -0.513811398625E+03    0.48429E-04   -0.97406E-05 20628   0.245E-02    0.545E-02
DAV:  11    -0.513811377035E+03    0.21590E-04   -0.30177E-05 10917   0.240E-02    0.397E-02
DAV:  12    -0.513811375792E+03    0.12429E-05   -0.20028E-05  9855   0.116E-02
  13 F= -.51381138E+03 E0= -.51381998E+03  d E =-.627283E-02  mag=   100.8657
 curvature:  -1.99 expect dE=-0.189E-02 dE for cont linesearch -0.460E-04
 ZBRENT: interpolating
 opt :   3.0690  next Energy=  -513.811423 (dE=-0.632E-02)
 bond charge predicted
       N       E                     dE             d eps       ncg     rms          rms(c)
DAV:   1    -0.513810830767E+03    0.54627E-03   -0.97812E-02 14922   0.490E-01    0.146E-01
DAV:   2    -0.513811238013E+03   -0.40725E-03   -0.35610E-03 15552   0.136E-01    0.115E-01
DAV:   3    -0.513811441440E+03   -0.20343E-03   -0.49273E-04 22383   0.102E-01    0.179E-01
DAV:   4    -0.513811367192E+03    0.74248E-04   -0.83981E-04 17946   0.143E-01    0.120E-01
DAV:   5    -0.513811398753E+03   -0.31561E-04   -0.34926E-04 12663   0.108E-01    0.905E-02
DAV:   6    -0.513811382594E+03    0.16159E-04   -0.82873E-05 15246   0.546E-02    0.370E-02
DAV:   7    -0.513811388439E+03   -0.58446E-05   -0.44223E-05 13158   0.184E-02
  14 F= -.51381139E+03 E0= -.51381997E+03  d E =-.628547E-02  mag=   100.8666
 curvature:  -2.04 expect dE=-0.158E-02 dE for cont linesearch -0.350E-07
 trial: gam= 0.20972 g(F)=  0.773E-03 g(S)=  0.000E+00 ort = 0.115E-04 (trialstep = 0.248E+01)
 search vector abs. value=  0.112E-02
 bond charge predicted
       N       E                     dE             d eps       ncg     rms          rms(c)
DAV:   1    -0.513802167313E+03    0.92153E-02   -0.17217E+00 14922   0.207E+00    0.628E-01
DAV:   2    -0.513809951240E+03   -0.77839E-02   -0.62280E-02 16047   0.590E-01    0.545E-01
DAV:   3    -0.513818679842E+03   -0.87286E-02   -0.28289E-02 25857   0.864E-01    0.116E+00
DAV:   4    -0.513811315981E+03    0.73639E-02   -0.24869E-02 28521   0.737E-01    0.404E-01
DAV:   5    -0.513812600617E+03   -0.12846E-02   -0.16881E-03 27477   0.196E-01    0.326E-01
DAV:   6    -0.513812762748E+03   -0.16213E-03   -0.22205E-03 26217   0.273E-01    0.196E-01
DAV:   7    -0.513812651014E+03    0.11173E-03   -0.50834E-04 23589   0.111E-01    0.119E-01
DAV:   8    -0.513812616802E+03    0.34211E-04   -0.88184E-05 17604   0.393E-02    0.766E-02
DAV:   9    -0.513812614956E+03    0.18468E-05   -0.34564E-05 13572   0.199E-02
  15 F= -.51381261E+03 E0= -.51382120E+03  d E =-.122652E-02  mag=   100.8811
 trial-energy change:   -0.001227  1 .order   -0.001311   -0.001923   -0.000699
 step:   3.8946(harm=  3.8946)  dis= 0.00579  next Energy=  -513.812898 (dE=-0.151E-02)
 bond charge predicted
       N       E                     dE             d eps       ncg     rms          rms(c)
DAV:   1    -0.513809377623E+03    0.32392E-02   -0.56131E-01 14922   0.118E+00    0.365E-01
DAV:   2    -0.513811850901E+03   -0.24733E-02   -0.19292E-02 16578   0.336E-01    0.338E-01
DAV:   3    -0.513813921741E+03   -0.20708E-02   -0.82156E-03 24858   0.471E-01    0.607E-01
DAV:   4    -0.513812234178E+03    0.16876E-02   -0.60873E-03 26766   0.370E-01    0.232E-01
DAV:   5    -0.513812631331E+03   -0.39715E-03   -0.55536E-04 26487   0.114E-01    0.188E-01
DAV:   6    -0.513812806145E+03   -0.17481E-03   -0.63325E-04 25758   0.150E-01    0.178E-01
DAV:   7    -0.513812699889E+03    0.10626E-03   -0.26809E-04 22770   0.860E-02    0.137E-01
DAV:   8    -0.513812690362E+03    0.95269E-05   -0.38690E-05 13959   0.202E-02
  16 F= -.51381269E+03 E0= -.51382115E+03  d E =-.130192E-02  mag=   100.8987
 curvature:  -2.80 expect dE=-0.962E-03 dE for cont linesearch -0.930E-05
 trial: gam= 0.57933 g(F)=  0.343E-03 g(S)=  0.000E+00 ort =-0.608E-04 (trialstep = 0.276E+01)
 search vector abs. value=  0.647E-03
 bond charge predicted
       N       E                     dE             d eps       ncg     rms          rms(c)
DAV:   1    -0.513803848969E+03    0.88509E-02   -0.14563E+00 15660   0.195E+00    0.512E-01
DAV:   2    -0.513811635763E+03   -0.77868E-02   -0.69911E-02 15714   0.530E-01    0.404E-01
DAV:   3    -0.513817825998E+03   -0.61902E-02   -0.18438E-02 27873   0.646E-01    0.996E-01
DAV:   4    -0.513812411167E+03    0.54148E-02   -0.17124E-02 28656   0.629E-01    0.337E-01
DAV:   5    -0.513813015224E+03   -0.60406E-03   -0.17934E-03 26667   0.236E-01    0.296E-01
DAV:   6    -0.513813354596E+03   -0.33937E-03   -0.86837E-04 23769   0.136E-01    0.233E-01
DAV:   7    -0.513813433053E+03   -0.78457E-04   -0.20175E-04 22293   0.499E-02    0.231E-01
DAV:   8    -0.513813387217E+03    0.45836E-04   -0.21561E-05 11673   0.187E-02    0.230E-01
DAV:   9    -0.513813235435E+03    0.15178E-03   -0.28858E-04 21834   0.389E-02    0.183E-01
DAV:  10    -0.513813150528E+03    0.84907E-04   -0.23403E-04 19656   0.593E-02    0.133E-01
DAV:  11    -0.513813148278E+03    0.22496E-05   -0.79700E-05 17658   0.286E-02
  17 F= -.51381315E+03 E0= -.51382174E+03  d E =-.457917E-03  mag=   100.8851
 trial-energy change:   -0.000458  1 .order   -0.000609   -0.000851   -0.000367
 step:   4.8547(harm=  4.8547)  dis= 0.00467  next Energy=  -513.813439 (dE=-0.748E-03)
 bond charge predicted
       N       E                     dE             d eps       ncg     rms          rms(c)
DAV:   1    -0.513807845570E+03    0.53050E-02   -0.83629E-01 15660   0.148E+00    0.387E-01
DAV:   2    -0.513812464634E+03   -0.46191E-02   -0.39469E-02 17343   0.444E-01    0.381E-01
DAV:   3    -0.513814663266E+03   -0.21986E-02   -0.11103E-02 24912   0.545E-01    0.635E-01
DAV:   4    -0.513812586430E+03    0.20768E-02   -0.65933E-03 26487   0.387E-01    0.257E-01
DAV:   5    -0.513812978743E+03   -0.39231E-03   -0.49866E-04 26415   0.111E-01    0.226E-01
DAV:   6    -0.513813116716E+03   -0.13797E-03   -0.96755E-04 25524   0.175E-01    0.150E-01
DAV:   7    -0.513813062593E+03    0.54122E-04   -0.27908E-04 23598   0.833E-02    0.106E-01
DAV:   8    -0.513813062420E+03    0.17334E-06   -0.58190E-05 14463   0.293E-02
  18 F= -.51381306E+03 E0= -.51382154E+03  d E =-.372058E-03  mag=   100.9019
 curvature:  -5.10 expect dE=-0.118E-02 dE for cont linesearch -0.196E-04
 ZBRENT: interpolating
 opt :   4.2834  next Energy=  -513.813077 (dE=-0.386E-03)
 bond charge predicted
       N       E                     dE             d eps       ncg     rms          rms(c)
DAV:   1    -0.513812723529E+03    0.33906E-03   -0.62486E-02 15588   0.404E-01    0.159E-01
DAV:   2    -0.513813607733E+03   -0.88420E-03   -0.42263E-03 25992   0.234E-01    0.311E-01
DAV:   3    -0.513813186349E+03    0.42138E-03   -0.30312E-03 25803   0.270E-01    0.192E-01
DAV:   4    -0.513813097657E+03    0.88691E-04   -0.38715E-04 19026   0.107E-01    0.146E-01
DAV:   5    -0.513813118258E+03   -0.20601E-04   -0.58937E-05 15579   0.333E-02    0.135E-01
DAV:   6    -0.513813146500E+03   -0.28241E-04   -0.14975E-05  9135   0.151E-02    0.144E-01
DAV:   7    -0.513813138149E+03    0.83504E-05   -0.43244E-06  8397   0.651E-03
  19 F= -.51381314E+03 E0= -.51382152E+03  d E =-.447787E-03  mag=   100.9088
 curvature:  -3.71 expect dE=-0.769E-03 dE for cont linesearch -0.252E-05
 trial: gam= 0.31277 g(F)=  0.208E-03 g(S)=  0.000E+00 ort = 0.210E-04 (trialstep = 0.307E+01)
 search vector abs. value=  0.284E-03
 bond charge predicted
       N       E                     dE             d eps       ncg     rms          rms(c)
DAV:   1    -0.513804927061E+03    0.82194E-02   -0.73553E-01 16128   0.200E+00    0.486E-01
DAV:   2    -0.513812117921E+03   -0.71909E-02   -0.65969E-02 15660   0.508E-01    0.353E-01
DAV:   3    -0.513815433527E+03   -0.33156E-02   -0.95766E-03 28242   0.433E-01    0.755E-01
DAV:   4    -0.513812899714E+03    0.25338E-02   -0.99328E-03 28053   0.478E-01    0.332E-01
DAV:   5    -0.513813150285E+03   -0.25057E-03   -0.16485E-03 25443   0.224E-01    0.287E-01
DAV:   6    -0.513813680260E+03   -0.52998E-03   -0.71697E-04 23607   0.112E-01    0.250E-01
DAV:   7    -0.513813751466E+03   -0.71206E-04   -0.15020E-04 21114   0.441E-02    0.259E-01
DAV:   8    -0.513813654321E+03    0.97145E-04   -0.43621E-05 14751   0.293E-02    0.253E-01
DAV:   9    -0.513813365778E+03    0.28854E-03   -0.77121E-04 25470   0.620E-02    0.150E-01
DAV:  10    -0.513813346310E+03    0.19467E-04   -0.23225E-04 19818   0.550E-02    0.105E-01
DAV:  11    -0.513813353760E+03   -0.74498E-05   -0.57392E-05 16938   0.214E-02
  20 F= -.51381335E+03 E0= -.51382196E+03  d E =-.215611E-03  mag=   100.8812
 trial-energy change:   -0.000216  1 .order   -0.000408   -0.000657   -0.000159
 step:   4.0438(harm=  4.0438)  dis= 0.00374  next Energy=  -513.813571 (dE=-0.433E-03)
 reached required accuracy - stopping structural energy minimisation
