INCAR-For-OPT                           
           1
     8.497000    0.000000    0.000000
    -0.008000    8.519197    0.000000
     0.000000    0.000000   23.573700
   Cr   Fe   Pb
    14    49     1
Direct configuration=     1
   0.99559000  0.32828000  0.12092000
   0.33225000  0.34082000  0.36353000
   0.33554000  0.33717000  0.12244000
   0.99808000  0.00294000  0.00138000
   0.00162000  0.99999000  0.36486000
   0.33205000  0.99934000  0.12171000
   0.66680000  0.99880000  0.24350000
   0.83452000  0.16613000  0.06120000
   0.67294000  0.00204000  0.12069000
   0.33405000  0.66695000  0.24111000
   0.99910000  0.66743000  0.12138000
   0.33218000  0.66113000  0.37337000
   0.33151000  0.66804000  0.00174000
   0.33268000  0.33220000  0.00000000
   0.83466000  0.83460000  0.06076000
   0.66723000  0.66600000  0.36045000
   0.66616000  0.66699000  0.00091000
   0.83303000  0.83213000  0.30404000
   0.66704000  0.66746000  0.24229000
   0.50180000  0.83456000  0.18079000
   0.33306000  0.66709000  0.12143000
   0.50009000  0.83568000  0.06165000
   0.83330000  0.83486000  0.18207000
   0.66751000  0.66780000  0.12127000
   0.00129000  0.66630000  0.36054000
   0.16644000  0.83420000  0.06149000
   0.16906000  0.83213000  0.30266000
   0.00140000  0.66613000  0.00100000
   0.83479000  0.50089000  0.18130000
   0.00007000  0.66669000  0.24225000
   0.83460000  0.50057000  0.06135000
   0.66585000  0.33313000  0.12140000
   0.16565000  0.83456000  0.18183000
   0.49917000  0.83474000  0.30336000
   0.00179000  0.33550000  0.00090000
   0.00589000  0.33359000  0.36099000
   0.49795000  0.16690000  0.06150000
   0.50074000  0.16494000  0.18144000
   0.83221000  0.16908000  0.30413000
   0.66500000  0.00040000  0.00060000
   0.66969000  0.00161000  0.36224000
   0.83245000  0.16547000  0.18171000
   0.99997000  0.33361000  0.24198000
   0.16349000  0.50216000  0.30191000
   0.33438000  0.99945000  0.24203000
   0.50015000  0.16497000  0.30357000
   0.00050000  0.00053000  0.12178000
   0.16809000  0.16736000  0.18138000
   0.16838000  0.16744000  0.30204000
   0.16764000  0.16833000  0.06179000
   0.99934000  0.00030000  0.24219000
   0.33250000  0.00057000  0.00106000
   0.32951000  0.00054000  0.35996000
   0.16564000  0.49971000  0.18123000
   0.16746000  0.49787000  0.06247000
   0.50317000  0.50202000  0.30218000
   0.33345000  0.33400000  0.24176000
   0.50128000  0.50087000  0.18167000
   0.49793000  0.50025000  0.06116000
   0.83385000  0.49874000  0.30365000
   0.66663000  0.33329000  0.24218000
   0.65956000  0.33276000  0.36173000
   0.66547000  0.33470000  0.00081000
   0.16204000  0.50044000  0.44910000
Direct configuration=     2
   0.99559000  0.32828000  0.12092000
   0.33347012  0.33991852  0.36321901
   0.33554000  0.33717000  0.12244000
   0.99808000  0.00294000  0.00138000
   0.00125195  0.00003051  0.36478850
   0.33205000  0.99934000  0.12171000
   0.66680000  0.99880000  0.24350000
   0.83452000  0.16613000  0.06120000
   0.67294000  0.00204000  0.12069000
   0.33405000  0.66695000  0.24111000
   0.99910000  0.66743000  0.12138000
   0.33402927  0.66315312  0.37257079
   0.33151000  0.66804000  0.00174000
   0.33268000  0.33220000  0.00000000
   0.83466000  0.83460000  0.06076000
   0.66728690  0.66605048  0.36058367
   0.66616000  0.66699000  0.00091000
   0.83269380  0.83220305  0.30391753
   0.66704000  0.66746000  0.24229000
   0.50180000  0.83456000  0.18079000
   0.33306000  0.66709000  0.12143000
   0.50009000  0.83568000  0.06165000
   0.83330000  0.83486000  0.18207000
   0.66751000  0.66780000  0.12127000
   0.00196851  0.66680670  0.36130710
   0.16644000  0.83420000  0.06149000
   0.16948324  0.83221087  0.30251636
   0.00140000  0.66613000  0.00100000
   0.83479000  0.50089000  0.18130000
   0.00007000  0.66669000  0.24225000
   0.83460000  0.50057000  0.06135000
   0.66585000  0.33313000  0.12140000
   0.16565000  0.83456000  0.18183000
   0.49928948  0.83472054  0.30343176
   0.00179000  0.33550000  0.00090000
   0.00511860  0.33326689  0.36136691
   0.49795000  0.16690000  0.06150000
   0.50074000  0.16494000  0.18144000
   0.83205874  0.16892390  0.30406463
   0.66500000  0.00040000  0.00060000
   0.66980339  0.00155096  0.36220300
   0.83245000  0.16547000  0.18171000
   0.99997000  0.33361000  0.24198000
   0.16359890  0.50215975  0.30183170
   0.33438000  0.99945000  0.24203000
   0.50022942  0.16505950  0.30345767
   0.00050000  0.00053000  0.12178000
   0.16809000  0.16736000  0.18138000
   0.16893721  0.16733132  0.30201311
   0.16764000  0.16833000  0.06179000
   0.99934000  0.00030000  0.24219000
   0.33250000  0.00057000  0.00106000
   0.32939537  0.00032336  0.36000954
   0.16564000  0.49971000  0.18123000
   0.16746000  0.49787000  0.06247000
   0.50289799  0.50201664  0.30214379
   0.33345000  0.33400000  0.24176000
   0.50128000  0.50087000  0.18167000
   0.49793000  0.50025000  0.06116000
   0.83350557  0.49851342  0.30349967
   0.66663000  0.33329000  0.24218000
   0.65979210  0.33249797  0.36165160
   0.66547000  0.33470000  0.00081000
   0.15851460  0.49972044  0.44941133
Direct configuration=     3
   0.99559000  0.32828000  0.12092000
   0.33577436  0.33821605  0.36263170
   0.33554000  0.33717000  0.12244000
   0.99808000  0.00294000  0.00138000
   0.00055688  0.00010702  0.36465348
   0.33205000  0.99934000  0.12171000
   0.66680000  0.99880000  0.24350000
   0.83452000  0.16613000  0.06120000
   0.67294000  0.00204000  0.12069000
   0.33405000  0.66695000  0.24111000
   0.99910000  0.66743000  0.12138000
   0.33752166  0.66697383  0.37106147
   0.33151000  0.66804000  0.00174000
   0.33268000  0.33220000  0.00000000
   0.83466000  0.83460000  0.06076000
   0.66739435  0.66614581  0.36083610
   0.66616000  0.66699000  0.00091000
   0.83205888  0.83234102  0.30368625
   0.66704000  0.66746000  0.24229000
   0.50180000  0.83456000  0.18079000
   0.33306000  0.66709000  0.12143000
   0.50009000  0.83568000  0.06165000
   0.83330000  0.83486000  0.18207000
   0.66751000  0.66780000  0.12127000
   0.00324988  0.66776361  0.36275578
   0.16644000  0.83420000  0.06149000
   0.17028253  0.83236358  0.30224510
   0.00140000  0.66613000  0.00100000
   0.83479000  0.50089000  0.18130000
   0.00007000  0.66669000  0.24225000
   0.83460000  0.50057000  0.06135000
   0.66585000  0.33313000  0.12140000
   0.16565000  0.83456000  0.18183000
   0.49951511  0.83468378  0.30356729
   0.00179000  0.33550000  0.00090000
   0.00366178  0.33265668  0.36207871
   0.49795000  0.16690000  0.06150000
   0.50074000  0.16494000  0.18144000
   0.83177310  0.16862909  0.30394117
   0.66500000  0.00040000  0.00060000
   0.67001754  0.00143945  0.36213311
   0.83245000  0.16547000  0.18171000
   0.99997000  0.33361000  0.24198000
   0.16380457  0.50215929  0.30168384
   0.33438000  0.99945000  0.24203000
   0.50037940  0.16522851  0.30324553
   0.00050000  0.00053000  0.12178000
   0.16809000  0.16736000  0.18138000
   0.16998952  0.16712606  0.30196232
   0.16764000  0.16833000  0.06179000
   0.99934000  0.00030000  0.24219000
   0.33250000  0.00057000  0.00106000
   0.32917888  0.99991422  0.36010309
   0.16564000  0.49971000  0.18123000
   0.16746000  0.49787000  0.06247000
   0.50238429  0.50201029  0.30207539
   0.33345000  0.33400000  0.24176000
   0.50128000  0.50087000  0.18167000
   0.49793000  0.50025000  0.06116000
   0.83285509  0.49808550  0.30321576
   0.66663000  0.33329000  0.24218000
   0.66023043  0.33200312  0.36150353
   0.66547000  0.33470000  0.00081000
   0.15185679  0.49836152  0.44999929
Direct configuration=     4
   0.99559000  0.32828000  0.12092000
   0.33506300  0.33874163  0.36281302
   0.33554000  0.33717000  0.12244000
   0.99808000  0.00294000  0.00138000
   0.00077146  0.00008340  0.36469517
   0.33205000  0.99934000  0.12171000
   0.66680000  0.99880000  0.24350000
   0.83452000  0.16613000  0.06120000
   0.67294000  0.00204000  0.12069000
   0.33405000  0.66695000  0.24111000
   0.99910000  0.66743000  0.12138000
   0.33644349  0.66579430  0.37152743
   0.33151000  0.66804000  0.00174000
   0.33268000  0.33220000  0.00000000
   0.83466000  0.83460000  0.06076000
   0.66736118  0.66611638  0.36075817
   0.66616000  0.66699000  0.00091000
   0.83225489  0.83229843  0.30375765
   0.66704000  0.66746000  0.24229000
   0.50180000  0.83456000  0.18079000
   0.33306000  0.66709000  0.12143000
   0.50009000  0.83568000  0.06165000
   0.83330000  0.83486000  0.18207000
   0.66751000  0.66780000  0.12127000
   0.00285430  0.66746819  0.36230854
   0.16644000  0.83420000  0.06149000
   0.17003577  0.83231644  0.30232884
   0.00140000  0.66613000  0.00100000
   0.83479000  0.50089000  0.18130000
   0.00007000  0.66669000  0.24225000
   0.83460000  0.50057000  0.06135000
   0.66585000  0.33313000  0.12140000
   0.16565000  0.83456000  0.18183000
   0.49944545  0.83469513  0.30352545
   0.00179000  0.33550000  0.00090000
   0.00411153  0.33284507  0.36185897
   0.49795000  0.16690000  0.06150000
   0.50074000  0.16494000  0.18144000
   0.83186128  0.16872011  0.30397929
   0.66500000  0.00040000  0.00060000
   0.66995143  0.00147387  0.36215469
   0.83245000  0.16547000  0.18171000
   0.99997000  0.33361000  0.24198000
   0.16374108  0.50215943  0.30172949
   0.33438000  0.99945000  0.24203000
   0.50033310  0.16517633  0.30331102
   0.00050000  0.00053000  0.12178000
   0.16809000  0.16736000  0.18138000
   0.16966465  0.16718943  0.30197800
   0.16764000  0.16833000  0.06179000
   0.99934000  0.00030000  0.24219000
   0.33250000  0.00057000  0.00106000
   0.32924571  0.00004053  0.36007421
   0.16564000  0.49971000  0.18123000
   0.16746000  0.49787000  0.06247000
   0.50254288  0.50201225  0.30209651
   0.33345000  0.33400000  0.24176000
   0.50128000  0.50087000  0.18167000
   0.49793000  0.50025000  0.06116000
   0.83305590  0.49821761  0.30330341
   0.66663000  0.33329000  0.24218000
   0.66009511  0.33215589  0.36154924
   0.66547000  0.33470000  0.00081000
   0.15391219  0.49878105  0.44981777
Direct configuration=     5
   0.99559000  0.32828000  0.12092000
   0.33562044  0.33860003  0.36285436
   0.33554000  0.33717000  0.12244000
   0.99808000  0.00294000  0.00138000
   0.00043278  0.00005026  0.36456292
   0.33205000  0.99934000  0.12171000
   0.66680000  0.99880000  0.24350000
   0.83452000  0.16613000  0.06120000
   0.67294000  0.00204000  0.12069000
   0.33405000  0.66695000  0.24111000
   0.99910000  0.66743000  0.12138000
   0.33607279  0.66603552  0.37155802
   0.33151000  0.66804000  0.00174000
   0.33268000  0.33220000  0.00000000
   0.83466000  0.83460000  0.06076000
   0.66794423  0.66590897  0.36079008
   0.66616000  0.66699000  0.00091000
   0.83254749  0.83181662  0.30384251
   0.66704000  0.66746000  0.24229000
   0.50180000  0.83456000  0.18079000
   0.33306000  0.66709000  0.12143000
   0.50009000  0.83568000  0.06165000
   0.83330000  0.83486000  0.18207000
   0.66751000  0.66780000  0.12127000
   0.00331461  0.66823493  0.36262295
   0.16644000  0.83420000  0.06149000
   0.16977309  0.83245653  0.30227151
   0.00140000  0.66613000  0.00100000
   0.83479000  0.50089000  0.18130000
   0.00007000  0.66669000  0.24225000
   0.83460000  0.50057000  0.06135000
   0.66585000  0.33313000  0.12140000
   0.16565000  0.83456000  0.18183000
   0.50021123  0.83535859  0.30326409
   0.00179000  0.33550000  0.00090000
   0.00334703  0.33242070  0.36193371
   0.49795000  0.16690000  0.06150000
   0.50074000  0.16494000  0.18144000
   0.83193062  0.16862859  0.30388699
   0.66500000  0.00040000  0.00060000
   0.67007893  0.00148866  0.36213573
   0.83245000  0.16547000  0.18171000
   0.99997000  0.33361000  0.24198000
   0.16339803  0.50214414  0.30209564
   0.33438000  0.99945000  0.24203000
   0.50063644  0.16477360  0.30318188
   0.00050000  0.00053000  0.12178000
   0.16809000  0.16736000  0.18138000
   0.16944110  0.16714592  0.30204291
   0.16764000  0.16833000  0.06179000
   0.99934000  0.00030000  0.24219000
   0.33250000  0.00057000  0.00106000
   0.32914897  0.99994795  0.36007992
   0.16564000  0.49971000  0.18123000
   0.16746000  0.49787000  0.06247000
   0.50274038  0.50202232  0.30197832
   0.33345000  0.33400000  0.24176000
   0.50128000  0.50087000  0.18167000
   0.49793000  0.50025000  0.06116000
   0.83346509  0.49858769  0.30349411
   0.66663000  0.33329000  0.24218000
   0.66039759  0.33189605  0.36144966
   0.66547000  0.33470000  0.00081000
   0.15125076  0.49875872  0.44927619
Direct configuration=     6
   0.99559000  0.32828000  0.12092000
   0.33710839  0.33822207  0.36296472
   0.33554000  0.33717000  0.12244000
   0.99808000  0.00294000  0.00138000
   0.99952877  0.99996178  0.36420992
   0.33205000  0.99934000  0.12171000
   0.66680000  0.99880000  0.24350000
   0.83452000  0.16613000  0.06120000
   0.67294000  0.00204000  0.12069000
   0.33405000  0.66695000  0.24111000
   0.99910000  0.66743000  0.12138000
   0.33508333  0.66667937  0.37163968
   0.33151000  0.66804000  0.00174000
   0.33268000  0.33220000  0.00000000
   0.83466000  0.83460000  0.06076000
   0.66950052  0.66535534  0.36087525
   0.66616000  0.66699000  0.00091000
   0.83332852  0.83053058  0.30406899
   0.66704000  0.66746000  0.24229000
   0.50180000  0.83456000  0.18079000
   0.33306000  0.66709000  0.12143000
   0.50009000  0.83568000  0.06165000
   0.83330000  0.83486000  0.18207000
   0.66751000  0.66780000  0.12127000
   0.00454327  0.67028153  0.36346220
   0.16644000  0.83420000  0.06149000
   0.16907194  0.83283049  0.30211849
   0.00140000  0.66613000  0.00100000
   0.83479000  0.50089000  0.18130000
   0.00007000  0.66669000  0.24225000
   0.83460000  0.50057000  0.06135000
   0.66585000  0.33313000  0.12140000
   0.16565000  0.83456000  0.18183000
   0.50225524  0.83712951  0.30256646
   0.00179000  0.33550000  0.00090000
   0.00130641  0.33128797  0.36213323
   0.49795000  0.16690000  0.06150000
   0.50074000  0.16494000  0.18144000
   0.83211569  0.16838431  0.30364064
   0.66500000  0.00040000  0.00060000
   0.67041926  0.00152813  0.36208513
   0.83245000  0.16547000  0.18171000
   0.99997000  0.33361000  0.24198000
   0.16248238  0.50210333  0.30307298
   0.33438000  0.99945000  0.24203000
   0.50144611  0.16369860  0.30283717
   0.00050000  0.00053000  0.12178000
   0.16809000  0.16736000  0.18138000
   0.16884438  0.16702978  0.30221618
   0.16764000  0.16833000  0.06179000
   0.99934000  0.00030000  0.24219000
   0.33250000  0.00057000  0.00106000
   0.32889075  0.99970082  0.36009516
   0.16564000  0.49971000  0.18123000
   0.16746000  0.49787000  0.06247000
   0.50326757  0.50204920  0.30166286
   0.33345000  0.33400000  0.24176000
   0.50128000  0.50087000  0.18167000
   0.49793000  0.50025000  0.06116000
   0.83455731  0.49957551  0.30400315
   0.66663000  0.33329000  0.24218000
   0.66120497  0.33120248  0.36118386
   0.66547000  0.33470000  0.00081000
   0.14414682  0.49869912  0.44783060
Direct configuration=     7
   0.99559000  0.32828000  0.12092000
   0.33681904  0.33829557  0.36294326
   0.33554000  0.33717000  0.12244000
   0.99808000  0.00294000  0.00138000
   0.99970457  0.99997899  0.36427856
   0.33205000  0.99934000  0.12171000
   0.66680000  0.99880000  0.24350000
   0.83452000  0.16613000  0.06120000
   0.67294000  0.00204000  0.12069000
   0.33405000  0.66695000  0.24111000
   0.99910000  0.66743000  0.12138000
   0.33527575  0.66655416  0.37162380
   0.33151000  0.66804000  0.00174000
   0.33268000  0.33220000  0.00000000
   0.83466000  0.83460000  0.06076000
   0.66919787  0.66546301  0.36085868
   0.66616000  0.66699000  0.00091000
   0.83317663  0.83078067  0.30402495
   0.66704000  0.66746000  0.24229000
   0.50180000  0.83456000  0.18079000
   0.33306000  0.66709000  0.12143000
   0.50009000  0.83568000  0.06165000
   0.83330000  0.83486000  0.18207000
   0.66751000  0.66780000  0.12127000
   0.00430433  0.66988354  0.36329899
   0.16644000  0.83420000  0.06149000
   0.16920829  0.83275776  0.30214825
   0.00140000  0.66613000  0.00100000
   0.83479000  0.50089000  0.18130000
   0.00007000  0.66669000  0.24225000
   0.83460000  0.50057000  0.06135000
   0.66585000  0.33313000  0.12140000
   0.16565000  0.83456000  0.18183000
   0.50185775  0.83678513  0.30270213
   0.00179000  0.33550000  0.00090000
   0.00170324  0.33150824  0.36209443
   0.49795000  0.16690000  0.06150000
   0.50074000  0.16494000  0.18144000
   0.83207970  0.16843182  0.30368855
   0.66500000  0.00040000  0.00060000
   0.67035308  0.00152046  0.36209497
   0.83245000  0.16547000  0.18171000
   0.99997000  0.33361000  0.24198000
   0.16266044  0.50211127  0.30288292
   0.33438000  0.99945000  0.24203000
   0.50128866  0.16390765  0.30290420
   0.00050000  0.00053000  0.12178000
   0.16809000  0.16736000  0.18138000
   0.16896042  0.16705237  0.30218248
   0.16764000  0.16833000  0.06179000
   0.99934000  0.00030000  0.24219000
   0.33250000  0.00057000  0.00106000
   0.32894096  0.99974888  0.36009220
   0.16564000  0.49971000  0.18123000
   0.16746000  0.49787000  0.06247000
   0.50316505  0.50204398  0.30172421
   0.33345000  0.33400000  0.24176000
   0.50128000  0.50087000  0.18167000
   0.49793000  0.50025000  0.06116000
   0.83434491  0.49938341  0.30390416
   0.66663000  0.33329000  0.24218000
   0.66104796  0.33133736  0.36123555
   0.66547000  0.33470000  0.00081000
   0.14552830  0.49871071  0.44811172
Direct configuration=     8
   0.99559000  0.32828000  0.12092000
   0.33717091  0.33846062  0.36313673
   0.33554000  0.33717000  0.12244000
   0.99808000  0.00294000  0.00138000
   0.99945404  0.99995189  0.36425099
   0.33205000  0.99934000  0.12171000
   0.66680000  0.99880000  0.24350000
   0.83452000  0.16613000  0.06120000
   0.67294000  0.00204000  0.12069000
   0.33405000  0.66695000  0.24111000
   0.99910000  0.66743000  0.12138000
   0.33516795  0.66640495  0.37189894
   0.33151000  0.66804000  0.00174000
   0.33268000  0.33220000  0.00000000
   0.83466000  0.83460000  0.06076000
   0.66957464  0.66521237  0.36083037
   0.66616000  0.66699000  0.00091000
   0.83354862  0.83084096  0.30402555
   0.66704000  0.66746000  0.24229000
   0.50180000  0.83456000  0.18079000
   0.33306000  0.66709000  0.12143000
   0.50009000  0.83568000  0.06165000
   0.83330000  0.83486000  0.18207000
   0.66751000  0.66780000  0.12127000
   0.00365646  0.67176789  0.36297231
   0.16644000  0.83420000  0.06149000
   0.16944381  0.83278556  0.30221077
   0.00140000  0.66613000  0.00100000
   0.83479000  0.50089000  0.18130000
   0.00007000  0.66669000  0.24225000
   0.83460000  0.50057000  0.06135000
   0.66585000  0.33313000  0.12140000
   0.16565000  0.83456000  0.18183000
   0.50157172  0.83616544  0.30292116
   0.00179000  0.33550000  0.00090000
   0.00046782  0.33030525  0.36179104
   0.49795000  0.16690000  0.06150000
   0.50074000  0.16494000  0.18144000
   0.83208461  0.16840760  0.30351772
   0.66500000  0.00040000  0.00060000
   0.67053235  0.00153488  0.36213535
   0.83245000  0.16547000  0.18171000
   0.99997000  0.33361000  0.24198000
   0.16236635  0.50177745  0.30310922
   0.33438000  0.99945000  0.24203000
   0.50099926  0.16407631  0.30295687
   0.00050000  0.00053000  0.12178000
   0.16809000  0.16736000  0.18138000
   0.16879068  0.16722710  0.30227333
   0.16764000  0.16833000  0.06179000
   0.99934000  0.00030000  0.24219000
   0.33250000  0.00057000  0.00106000
   0.32911092  0.99978369  0.35989893
   0.16564000  0.49971000  0.18123000
   0.16746000  0.49787000  0.06247000
   0.50328249  0.50239103  0.30185716
   0.33345000  0.33400000  0.24176000
   0.50128000  0.50087000  0.18167000
   0.49793000  0.50025000  0.06116000
   0.83462772  0.49918050  0.30395733
   0.66663000  0.33329000  0.24218000
   0.66129563  0.33107513  0.36109718
   0.66547000  0.33470000  0.00081000
   0.14355562  0.49876284  0.44748536
Direct configuration=     9
   0.99559000  0.32828000  0.12092000
   0.33787348  0.33879018  0.36352303
   0.33554000  0.33717000  0.12244000
   0.99808000  0.00294000  0.00138000
   0.99895382  0.99989778  0.36419593
   0.33205000  0.99934000  0.12171000
   0.66680000  0.99880000  0.24350000
   0.83452000  0.16613000  0.06120000
   0.67294000  0.00204000  0.12069000
   0.33405000  0.66695000  0.24111000
   0.99910000  0.66743000  0.12138000
   0.33495271  0.66610700  0.37244832
   0.33151000  0.66804000  0.00174000
   0.33268000  0.33220000  0.00000000
   0.83466000  0.83460000  0.06076000
   0.67032692  0.66471193  0.36077384
   0.66616000  0.66699000  0.00091000
   0.83429137  0.83096134  0.30402674
   0.66704000  0.66746000  0.24229000
   0.50180000  0.83456000  0.18079000
   0.33306000  0.66709000  0.12143000
   0.50009000  0.83568000  0.06165000
   0.83330000  0.83486000  0.18207000
   0.66751000  0.66780000  0.12127000
   0.00236287  0.67553036  0.36232001
   0.16644000  0.83420000  0.06149000
   0.16991408  0.83284105  0.30233560
   0.00140000  0.66613000  0.00100000
   0.83479000  0.50089000  0.18130000
   0.00007000  0.66669000  0.24225000
   0.83460000  0.50057000  0.06135000
   0.66585000  0.33313000  0.12140000
   0.16565000  0.83456000  0.18183000
   0.50100060  0.83492811  0.30335848
   0.00179000  0.33550000  0.00090000
   0.99800106  0.32790325  0.36118527
   0.49795000  0.16690000  0.06150000
   0.50074000  0.16494000  0.18144000
   0.83209442  0.16835925  0.30317661
   0.66500000  0.00040000  0.00060000
   0.67089029  0.00156367  0.36221598
   0.83245000  0.16547000  0.18171000
   0.99997000  0.33361000  0.24198000
   0.16177915  0.50111091  0.30356108
   0.33438000  0.99945000  0.24203000
   0.50042143  0.16441308  0.30306202
   0.00050000  0.00053000  0.12178000
   0.16809000  0.16736000  0.18138000
   0.16845177  0.16757599  0.30245472
   0.16764000  0.16833000  0.06179000
   0.99934000  0.00030000  0.24219000
   0.33250000  0.00057000  0.00106000
   0.32945027  0.99985320  0.35951304
   0.16564000  0.49971000  0.18123000
   0.16746000  0.49787000  0.06247000
   0.50351699  0.50308400  0.30212261
   0.33345000  0.33400000  0.24176000
   0.50128000  0.50087000  0.18167000
   0.49793000  0.50025000  0.06116000
   0.83519240  0.49877537  0.30406351
   0.66663000  0.33329000  0.24218000
   0.66179015  0.33055156  0.36082091
   0.66547000  0.33470000  0.00081000
   0.13961678  0.49886694  0.44623472
Direct configuration=    10
   0.99559000  0.32828000  0.12092000
   0.33768666  0.33870254  0.36342030
   0.33554000  0.33717000  0.12244000
   0.99808000  0.00294000  0.00138000
   0.99908684  0.99991216  0.36421057
   0.33205000  0.99934000  0.12171000
   0.66680000  0.99880000  0.24350000
   0.83452000  0.16613000  0.06120000
   0.67294000  0.00204000  0.12069000
   0.33405000  0.66695000  0.24111000
   0.99910000  0.66743000  0.12138000
   0.33500994  0.66618623  0.37230224
   0.33151000  0.66804000  0.00174000
   0.33268000  0.33220000  0.00000000
   0.83466000  0.83460000  0.06076000
   0.67012688  0.66484500  0.36078887
   0.66616000  0.66699000  0.00091000
   0.83409386  0.83092933  0.30402642
   0.66704000  0.66746000  0.24229000
   0.50180000  0.83456000  0.18079000
   0.33306000  0.66709000  0.12143000
   0.50009000  0.83568000  0.06165000
   0.83330000  0.83486000  0.18207000
   0.66751000  0.66780000  0.12127000
   0.00270685  0.67452986  0.36249346
   0.16644000  0.83420000  0.06149000
   0.16978903  0.83282629  0.30230241
   0.00140000  0.66613000  0.00100000
   0.83479000  0.50089000  0.18130000
   0.00007000  0.66669000  0.24225000
   0.83460000  0.50057000  0.06135000
   0.66585000  0.33313000  0.12140000
   0.16565000  0.83456000  0.18183000
   0.50115247  0.83525713  0.30324219
   0.00179000  0.33550000  0.00090000
   0.99865701  0.32854198  0.36134635
   0.49795000  0.16690000  0.06150000
   0.50074000  0.16494000  0.18144000
   0.83209181  0.16837211  0.30326732
   0.66500000  0.00040000  0.00060000
   0.67079511  0.00155601  0.36219454
   0.83245000  0.16547000  0.18171000
   0.99997000  0.33361000  0.24198000
   0.16193530  0.50128815  0.30344092
   0.33438000  0.99945000  0.24203000
   0.50057508  0.16432353  0.30303406
   0.00050000  0.00053000  0.12178000
   0.16809000  0.16736000  0.18138000
   0.16854189  0.16748321  0.30240649
   0.16764000  0.16833000  0.06179000
   0.99934000  0.00030000  0.24219000
   0.33250000  0.00057000  0.00106000
   0.32936003  0.99983472  0.35961565
   0.16564000  0.49971000  0.18123000
   0.16746000  0.49787000  0.06247000
   0.50345463  0.50289973  0.30205202
   0.33345000  0.33400000  0.24176000
   0.50128000  0.50087000  0.18167000
   0.49793000  0.50025000  0.06116000
   0.83504224  0.49888310  0.30403528
   0.66663000  0.33329000  0.24218000
   0.66165865  0.33069079  0.36089438
   0.66547000  0.33470000  0.00081000
   0.14066418  0.49883926  0.44656728
Direct configuration=    11
   0.99559000  0.32828000  0.12092000
   0.33793039  0.33891146  0.36360371
   0.33554000  0.33717000  0.12244000
   0.99808000  0.00294000  0.00138000
   0.99908761  0.00015056  0.36424517
   0.33205000  0.99934000  0.12171000
   0.66680000  0.99880000  0.24350000
   0.83452000  0.16613000  0.06120000
   0.67294000  0.00204000  0.12069000
   0.33405000  0.66695000  0.24111000
   0.99910000  0.66743000  0.12138000
   0.33524680  0.66603814  0.37268170
   0.33151000  0.66804000  0.00174000
   0.33268000  0.33220000  0.00000000
   0.83466000  0.83460000  0.06076000
   0.67027345  0.66470587  0.36089539
   0.66616000  0.66699000  0.00091000
   0.83272087  0.83196087  0.30351179
   0.66704000  0.66746000  0.24229000
   0.50180000  0.83456000  0.18079000
   0.33306000  0.66709000  0.12143000
   0.50009000  0.83568000  0.06165000
   0.83330000  0.83486000  0.18207000
   0.66751000  0.66780000  0.12127000
   0.00195851  0.67601582  0.36225487
   0.16644000  0.83420000  0.06149000
   0.17019041  0.83283232  0.30214150
   0.00140000  0.66613000  0.00100000
   0.83479000  0.50089000  0.18130000
   0.00007000  0.66669000  0.24225000
   0.83460000  0.50057000  0.06135000
   0.66585000  0.33313000  0.12140000
   0.16565000  0.83456000  0.18183000
   0.50108066  0.83498654  0.30339983
   0.00179000  0.33550000  0.00090000
   0.99755894  0.32723561  0.36133669
   0.49795000  0.16690000  0.06150000
   0.50074000  0.16494000  0.18144000
   0.83116090  0.16744752  0.30293655
   0.66500000  0.00040000  0.00060000
   0.67081515  0.00161701  0.36210232
   0.83245000  0.16547000  0.18171000
   0.99997000  0.33361000  0.24198000
   0.16198921  0.50141297  0.30349869
   0.33438000  0.99945000  0.24203000
   0.50052029  0.16426379  0.30303950
   0.00050000  0.00053000  0.12178000
   0.16809000  0.16736000  0.18138000
   0.16863602  0.16743259  0.30230805
   0.16764000  0.16833000  0.06179000
   0.99934000  0.00030000  0.24219000
   0.33250000  0.00057000  0.00106000
   0.32979458  0.99992321  0.35971256
   0.16564000  0.49971000  0.18123000
   0.16746000  0.49787000  0.06247000
   0.50329496  0.50271499  0.30216552
   0.33345000  0.33400000  0.24176000
   0.50128000  0.50087000  0.18167000
   0.49793000  0.50025000  0.06116000
   0.83452706  0.49899874  0.30364873
   0.66663000  0.33329000  0.24218000
   0.66177080  0.33042585  0.36093302
   0.66547000  0.33470000  0.00081000
   0.13820329  0.49866406  0.44588371
Direct configuration=    12
   0.99559000  0.32828000  0.12092000
   0.33814693  0.33909708  0.36376667
   0.33554000  0.33717000  0.12244000
   0.99808000  0.00294000  0.00138000
   0.99908829  0.00036237  0.36427591
   0.33205000  0.99934000  0.12171000
   0.66680000  0.99880000  0.24350000
   0.83452000  0.16613000  0.06120000
   0.67294000  0.00204000  0.12069000
   0.33405000  0.66695000  0.24111000
   0.99910000  0.66743000  0.12138000
   0.33545723  0.66590657  0.37301882
   0.33151000  0.66804000  0.00174000
   0.33268000  0.33220000  0.00000000
   0.83466000  0.83460000  0.06076000
   0.67040367  0.66458225  0.36099003
   0.66616000  0.66699000  0.00091000
   0.83150105  0.83287733  0.30305458
   0.66704000  0.66746000  0.24229000
   0.50180000  0.83456000  0.18079000
   0.33306000  0.66709000  0.12143000
   0.50009000  0.83568000  0.06165000
   0.83330000  0.83486000  0.18207000
   0.66751000  0.66780000  0.12127000
   0.00129366  0.67733602  0.36204290
   0.16644000  0.83420000  0.06149000
   0.17054702  0.83283768  0.30199855
   0.00140000  0.66613000  0.00100000
   0.83479000  0.50089000  0.18130000
   0.00007000  0.66669000  0.24225000
   0.83460000  0.50057000  0.06135000
   0.66585000  0.33313000  0.12140000
   0.16565000  0.83456000  0.18183000
   0.50101687  0.83474613  0.30353988
   0.00179000  0.33550000  0.00090000
   0.99658337  0.32607497  0.36132811
   0.49795000  0.16690000  0.06150000
   0.50074000  0.16494000  0.18144000
   0.83033383  0.16662609  0.30264268
   0.66500000  0.00040000  0.00060000
   0.67083296  0.00167120  0.36202038
   0.83245000  0.16547000  0.18171000
   0.99997000  0.33361000  0.24198000
   0.16203711  0.50152386  0.30355001
   0.33438000  0.99945000  0.24203000
   0.50047160  0.16421072  0.30304433
   0.00050000  0.00053000  0.12178000
   0.16809000  0.16736000  0.18138000
   0.16871965  0.16738762  0.30222060
   0.16764000  0.16833000  0.06179000
   0.99934000  0.00030000  0.24219000
   0.33250000  0.00057000  0.00106000
   0.33018065  0.00000184  0.35979865
   0.16564000  0.49971000  0.18123000
   0.16746000  0.49787000  0.06247000
   0.50315311  0.50255085  0.30226635
   0.33345000  0.33400000  0.24176000
   0.50128000  0.50087000  0.18167000
   0.49793000  0.50025000  0.06116000
   0.83406935  0.49910149  0.30330530
   0.66663000  0.33329000  0.24218000
   0.66187044  0.33019047  0.36096736
   0.66547000  0.33470000  0.00081000
   0.13601692  0.49850841  0.44527639
Direct configuration=    13
   0.99559000  0.32828000  0.12092000
   0.33803079  0.33899753  0.36367927
   0.33554000  0.33717000  0.12244000
   0.99808000  0.00294000  0.00138000
   0.99908793  0.00024877  0.36425942
   0.33205000  0.99934000  0.12171000
   0.66680000  0.99880000  0.24350000
   0.83452000  0.16613000  0.06120000
   0.67294000  0.00204000  0.12069000
   0.33405000  0.66695000  0.24111000
   0.99910000  0.66743000  0.12138000
   0.33534437  0.66597713  0.37283801
   0.33151000  0.66804000  0.00174000
   0.33268000  0.33220000  0.00000000
   0.83466000  0.83460000  0.06076000
   0.67033383  0.66464855  0.36093927
   0.66616000  0.66699000  0.00091000
   0.83215527  0.83238581  0.30329979
   0.66704000  0.66746000  0.24229000
   0.50180000  0.83456000  0.18079000
   0.33306000  0.66709000  0.12143000
   0.50009000  0.83568000  0.06165000
   0.83330000  0.83486000  0.18207000
   0.66751000  0.66780000  0.12127000
   0.00165024  0.67662796  0.36215659
   0.16644000  0.83420000  0.06149000
   0.17035576  0.83283480  0.30207522
   0.00140000  0.66613000  0.00100000
   0.83479000  0.50089000  0.18130000
   0.00007000  0.66669000  0.24225000
   0.83460000  0.50057000  0.06135000
   0.66585000  0.33313000  0.12140000
   0.16565000  0.83456000  0.18183000
   0.50105108  0.83487506  0.30346476
   0.00179000  0.33550000  0.00090000
   0.99710659  0.32669745  0.36133271
   0.49795000  0.16690000  0.06150000
   0.50074000  0.16494000  0.18144000
   0.83077741  0.16706664  0.30280029
   0.66500000  0.00040000  0.00060000
   0.67082341  0.00164214  0.36206433
   0.83245000  0.16547000  0.18171000
   0.99997000  0.33361000  0.24198000
   0.16201142  0.50146439  0.30352248
   0.33438000  0.99945000  0.24203000
   0.50049771  0.16423918  0.30304174
   0.00050000  0.00053000  0.12178000
   0.16809000  0.16736000  0.18138000
   0.16867480  0.16741174  0.30226750
   0.16764000  0.16833000  0.06179000
   0.99934000  0.00030000  0.24219000
   0.33250000  0.00057000  0.00106000
   0.32997359  0.99995967  0.35975247
   0.16564000  0.49971000  0.18123000
   0.16746000  0.49787000  0.06247000
   0.50322919  0.50263888  0.30221227
   0.33345000  0.33400000  0.24176000
   0.50128000  0.50087000  0.18167000
   0.49793000  0.50025000  0.06116000
   0.83431483  0.49904639  0.30348949
   0.66663000  0.33329000  0.24218000
   0.66181700  0.33031671  0.36094894
   0.66547000  0.33470000  0.00081000
   0.13718953  0.49859189  0.44560211
Direct configuration=    14
   0.99559000  0.32828000  0.12092000
   0.33800740  0.33897748  0.36366167
   0.33554000  0.33717000  0.12244000
   0.99808000  0.00294000  0.00138000
   0.99908785  0.00022589  0.36425610
   0.33205000  0.99934000  0.12171000
   0.66680000  0.99880000  0.24350000
   0.83452000  0.16613000  0.06120000
   0.67294000  0.00204000  0.12069000
   0.33405000  0.66695000  0.24111000
   0.99910000  0.66743000  0.12138000
   0.33532164  0.66599134  0.37280159
   0.33151000  0.66804000  0.00174000
   0.33268000  0.33220000  0.00000000
   0.83466000  0.83460000  0.06076000
   0.67031976  0.66466190  0.36092905
   0.66616000  0.66699000  0.00091000
   0.83228704  0.83228681  0.30334919
   0.66704000  0.66746000  0.24229000
   0.50180000  0.83456000  0.18079000
   0.33306000  0.66709000  0.12143000
   0.50009000  0.83568000  0.06165000
   0.83330000  0.83486000  0.18207000
   0.66751000  0.66780000  0.12127000
   0.00172206  0.67648535  0.36217949
   0.16644000  0.83420000  0.06149000
   0.17031724  0.83283423  0.30209066
   0.00140000  0.66613000  0.00100000
   0.83479000  0.50089000  0.18130000
   0.00007000  0.66669000  0.24225000
   0.83460000  0.50057000  0.06135000
   0.66585000  0.33313000  0.12140000
   0.16565000  0.83456000  0.18183000
   0.50105798  0.83490103  0.30344963
   0.00179000  0.33550000  0.00090000
   0.99721198  0.32682283  0.36133364
   0.49795000  0.16690000  0.06150000
   0.50074000  0.16494000  0.18144000
   0.83086675  0.16715538  0.30283204
   0.66500000  0.00040000  0.00060000
   0.67082149  0.00163628  0.36207318
   0.83245000  0.16547000  0.18171000
   0.99997000  0.33361000  0.24198000
   0.16200625  0.50145241  0.30351694
   0.33438000  0.99945000  0.24203000
   0.50050297  0.16424492  0.30304121
   0.00050000  0.00053000  0.12178000
   0.16809000  0.16736000  0.18138000
   0.16866577  0.16741660  0.30227695
   0.16764000  0.16833000  0.06179000
   0.99934000  0.00030000  0.24219000
   0.33250000  0.00057000  0.00106000
   0.32993189  0.99995118  0.35974317
   0.16564000  0.49971000  0.18123000
   0.16746000  0.49787000  0.06247000
   0.50324451  0.50265661  0.30220138
   0.33345000  0.33400000  0.24176000
   0.50128000  0.50087000  0.18167000
   0.49793000  0.50025000  0.06116000
   0.83436427  0.49903529  0.30352659
   0.66663000  0.33329000  0.24218000
   0.66180624  0.33034214  0.36094524
   0.66547000  0.33470000  0.00081000
   0.13742571  0.49860870  0.44566771
Direct configuration=    15
   0.99559000  0.32828000  0.12092000
   0.33794089  0.33879024  0.36362356
   0.33554000  0.33717000  0.12244000
   0.99808000  0.00294000  0.00138000
   0.99927508  0.00024015  0.36417730
   0.33205000  0.99934000  0.12171000
   0.66680000  0.99880000  0.24350000
   0.83452000  0.16613000  0.06120000
   0.67294000  0.00204000  0.12069000
   0.33405000  0.66695000  0.24111000
   0.99910000  0.66743000  0.12138000
   0.33548400  0.66607255  0.37288613
   0.33151000  0.66804000  0.00174000
   0.33268000  0.33220000  0.00000000
   0.83466000  0.83460000  0.06076000
   0.67034833  0.66456558  0.36091419
   0.66616000  0.66699000  0.00091000
   0.83189861  0.83221987  0.30325387
   0.66704000  0.66746000  0.24229000
   0.50180000  0.83456000  0.18079000
   0.33306000  0.66709000  0.12143000
   0.50009000  0.83568000  0.06165000
   0.83330000  0.83486000  0.18207000
   0.66751000  0.66780000  0.12127000
   0.00103722  0.67657025  0.36193486
   0.16644000  0.83420000  0.06149000
   0.17015940  0.83293745  0.30209961
   0.00140000  0.66613000  0.00100000
   0.83479000  0.50089000  0.18130000
   0.00007000  0.66669000  0.24225000
   0.83460000  0.50057000  0.06135000
   0.66585000  0.33313000  0.12140000
   0.16565000  0.83456000  0.18183000
   0.50103990  0.83525510  0.30329588
   0.00179000  0.33550000  0.00090000
   0.99671969  0.32645266  0.36120138
   0.49795000  0.16690000  0.06150000
   0.50074000  0.16494000  0.18144000
   0.83074789  0.16733533  0.30278569
   0.66500000  0.00040000  0.00060000
   0.67052905  0.00166069  0.36212909
   0.83245000  0.16547000  0.18171000
   0.99997000  0.33361000  0.24198000
   0.16176300  0.50173119  0.30356802
   0.33438000  0.99945000  0.24203000
   0.50048598  0.16404197  0.30300365
   0.00050000  0.00053000  0.12178000
   0.16809000  0.16736000  0.18138000
   0.16876097  0.16727999  0.30226410
   0.16764000  0.16833000  0.06179000
   0.99934000  0.00030000  0.24219000
   0.33250000  0.00057000  0.00106000
   0.33000657  0.99999424  0.35989966
   0.16564000  0.49971000  0.18123000
   0.16746000  0.49787000  0.06247000
   0.50321546  0.50238926  0.30217427
   0.33345000  0.33400000  0.24176000
   0.50128000  0.50087000  0.18167000
   0.49793000  0.50025000  0.06116000
   0.83431186  0.49922342  0.30353885
   0.66663000  0.33329000  0.24218000
   0.66173652  0.33043713  0.36104194
   0.66547000  0.33470000  0.00081000
   0.13621387  0.49841787  0.44562983
Direct configuration=    16
   0.99559000  0.32828000  0.12092000
   0.33790293  0.33868337  0.36360181
   0.33554000  0.33717000  0.12244000
   0.99808000  0.00294000  0.00138000
   0.99938193  0.00024829  0.36413232
   0.33205000  0.99934000  0.12171000
   0.66680000  0.99880000  0.24350000
   0.83452000  0.16613000  0.06120000
   0.67294000  0.00204000  0.12069000
   0.33405000  0.66695000  0.24111000
   0.99910000  0.66743000  0.12138000
   0.33557667  0.66611890  0.37293438
   0.33151000  0.66804000  0.00174000
   0.33268000  0.33220000  0.00000000
   0.83466000  0.83460000  0.06076000
   0.67036464  0.66451061  0.36090571
   0.66616000  0.66699000  0.00091000
   0.83167691  0.83218166  0.30319948
   0.66704000  0.66746000  0.24229000
   0.50180000  0.83456000  0.18079000
   0.33306000  0.66709000  0.12143000
   0.50009000  0.83568000  0.06165000
   0.83330000  0.83486000  0.18207000
   0.66751000  0.66780000  0.12127000
   0.00064636  0.67661871  0.36179525
   0.16644000  0.83420000  0.06149000
   0.17006931  0.83299636  0.30210471
   0.00140000  0.66613000  0.00100000
   0.83479000  0.50089000  0.18130000
   0.00007000  0.66669000  0.24225000
   0.83460000  0.50057000  0.06135000
   0.66585000  0.33313000  0.12140000
   0.16565000  0.83456000  0.18183000
   0.50102958  0.83545719  0.30320812
   0.00179000  0.33550000  0.00090000
   0.99643871  0.32624139  0.36112590
   0.49795000  0.16690000  0.06150000
   0.50074000  0.16494000  0.18144000
   0.83068004  0.16743804  0.30275924
   0.66500000  0.00040000  0.00060000
   0.67036215  0.00167462  0.36216101
   0.83245000  0.16547000  0.18171000
   0.99997000  0.33361000  0.24198000
   0.16162417  0.50189030  0.30359717
   0.33438000  0.99945000  0.24203000
   0.50047629  0.16392614  0.30298221
   0.00050000  0.00053000  0.12178000
   0.16809000  0.16736000  0.18138000
   0.16881531  0.16720202  0.30225677
   0.16764000  0.16833000  0.06179000
   0.99934000  0.00030000  0.24219000
   0.33250000  0.00057000  0.00106000
   0.33004919  0.00001882  0.35998897
   0.16564000  0.49971000  0.18123000
   0.16746000  0.49787000  0.06247000
   0.50319889  0.50223667  0.30215880
   0.33345000  0.33400000  0.24176000
   0.50128000  0.50087000  0.18167000
   0.49793000  0.50025000  0.06116000
   0.83428195  0.49933079  0.30354585
   0.66663000  0.33329000  0.24218000
   0.66169672  0.33049135  0.36109714
   0.66547000  0.33470000  0.00081000
   0.13552222  0.49830895  0.44560820
Direct configuration=    17
   0.99559000  0.32828000  0.12092000
   0.33752374  0.33850508  0.36355479
   0.33554000  0.33717000  0.12244000
   0.99808000  0.00294000  0.00138000
   0.99936405  0.00018667  0.36400169
   0.33205000  0.99934000  0.12171000
   0.66680000  0.99880000  0.24350000
   0.83452000  0.16613000  0.06120000
   0.67294000  0.00204000  0.12069000
   0.33405000  0.66695000  0.24111000
   0.99910000  0.66743000  0.12138000
   0.33554421  0.66608779  0.37298329
   0.33151000  0.66804000  0.00174000
   0.33268000  0.33220000  0.00000000
   0.83466000  0.83460000  0.06076000
   0.67015157  0.66447324  0.36084199
   0.66616000  0.66699000  0.00091000
   0.83154310  0.83249372  0.30320451
   0.66704000  0.66746000  0.24229000
   0.50180000  0.83456000  0.18079000
   0.33306000  0.66709000  0.12143000
   0.50009000  0.83568000  0.06165000
   0.83330000  0.83486000  0.18207000
   0.66751000  0.66780000  0.12127000
   0.00000195  0.67639517  0.36175184
   0.16644000  0.83420000  0.06149000
   0.17009272  0.83315865  0.30215939
   0.00140000  0.66613000  0.00100000
   0.83479000  0.50089000  0.18130000
   0.00007000  0.66669000  0.24225000
   0.83460000  0.50057000  0.06135000
   0.66585000  0.33313000  0.12140000
   0.16565000  0.83456000  0.18183000
   0.50085293  0.83545365  0.30320335
   0.00179000  0.33550000  0.00090000
   0.99619152  0.32618157  0.36106408
   0.49795000  0.16690000  0.06150000
   0.50074000  0.16494000  0.18144000
   0.83044919  0.16736132  0.30276628
   0.66500000  0.00040000  0.00060000
   0.67000874  0.00170943  0.36218529
   0.83245000  0.16547000  0.18171000
   0.99997000  0.33361000  0.24198000
   0.16159853  0.50184967  0.30365244
   0.33438000  0.99945000  0.24203000
   0.50053512  0.16395558  0.30304703
   0.00050000  0.00053000  0.12178000
   0.16809000  0.16736000  0.18138000
   0.16895641  0.16713745  0.30227116
   0.16764000  0.16833000  0.06179000
   0.99934000  0.00030000  0.24219000
   0.33250000  0.00057000  0.00106000
   0.33005028  0.00011313  0.36001233
   0.16564000  0.49971000  0.18123000
   0.16746000  0.49787000  0.06247000
   0.50314906  0.50222896  0.30215443
   0.33345000  0.33400000  0.24176000
   0.50128000  0.50087000  0.18167000
   0.49793000  0.50025000  0.06116000
   0.83405726  0.49909488  0.30353564
   0.66663000  0.33329000  0.24218000
   0.66150490  0.33059645  0.36115086
   0.66547000  0.33470000  0.00081000
   0.13430818  0.49816860  0.44547402
Direct configuration=    18
   0.99559000  0.32828000  0.12092000
   0.33723656  0.33837005  0.36351918
   0.33554000  0.33717000  0.12244000
   0.99808000  0.00294000  0.00138000
   0.99935051  0.00014000  0.36390276
   0.33205000  0.99934000  0.12171000
   0.66680000  0.99880000  0.24350000
   0.83452000  0.16613000  0.06120000
   0.67294000  0.00204000  0.12069000
   0.33405000  0.66695000  0.24111000
   0.99910000  0.66743000  0.12138000
   0.33551962  0.66606423  0.37302034
   0.33151000  0.66804000  0.00174000
   0.33268000  0.33220000  0.00000000
   0.83466000  0.83460000  0.06076000
   0.66999020  0.66444493  0.36079372
   0.66616000  0.66699000  0.00091000
   0.83144175  0.83273006  0.30320832
   0.66704000  0.66746000  0.24229000
   0.50180000  0.83456000  0.18079000
   0.33306000  0.66709000  0.12143000
   0.50009000  0.83568000  0.06165000
   0.83330000  0.83486000  0.18207000
   0.66751000  0.66780000  0.12127000
   0.99951391  0.67622586  0.36171896
   0.16644000  0.83420000  0.06149000
   0.17011045  0.83328157  0.30220080
   0.00140000  0.66613000  0.00100000
   0.83479000  0.50089000  0.18130000
   0.00007000  0.66669000  0.24225000
   0.83460000  0.50057000  0.06135000
   0.66585000  0.33313000  0.12140000
   0.16565000  0.83456000  0.18183000
   0.50071915  0.83545098  0.30319973
   0.00179000  0.33550000  0.00090000
   0.99600431  0.32613626  0.36101727
   0.49795000  0.16690000  0.06150000
   0.50074000  0.16494000  0.18144000
   0.83027435  0.16730322  0.30277161
   0.66500000  0.00040000  0.00060000
   0.66974109  0.00173580  0.36220368
   0.83245000  0.16547000  0.18171000
   0.99997000  0.33361000  0.24198000
   0.16157912  0.50181889  0.30369430
   0.33438000  0.99945000  0.24203000
   0.50057967  0.16397787  0.30309612
   0.00050000  0.00053000  0.12178000
   0.16809000  0.16736000  0.18138000
   0.16906326  0.16708854  0.30228206
   0.16764000  0.16833000  0.06179000
   0.99934000  0.00030000  0.24219000
   0.33250000  0.00057000  0.00106000
   0.33005111  0.00018456  0.36003001
   0.16564000  0.49971000  0.18123000
   0.16746000  0.49787000  0.06247000
   0.50311132  0.50222313  0.30215112
   0.33345000  0.33400000  0.24176000
   0.50128000  0.50087000  0.18167000
   0.49793000  0.50025000  0.06116000
   0.83388708  0.49891621  0.30352791
   0.66663000  0.33329000  0.24218000
   0.66135962  0.33067606  0.36119155
   0.66547000  0.33470000  0.00081000
   0.13338872  0.49806231  0.44537240
Direct configuration=    19
   0.99559000  0.32828000  0.12092000
   0.33731498  0.33840692  0.36352890
   0.33554000  0.33717000  0.12244000
   0.99808000  0.00294000  0.00138000
   0.99935420  0.00015274  0.36392978
   0.33205000  0.99934000  0.12171000
   0.66680000  0.99880000  0.24350000
   0.83452000  0.16613000  0.06120000
   0.67294000  0.00204000  0.12069000
   0.33405000  0.66695000  0.24111000
   0.99910000  0.66743000  0.12138000
   0.33552634  0.66607067  0.37301022
   0.33151000  0.66804000  0.00174000
   0.33268000  0.33220000  0.00000000
   0.83466000  0.83460000  0.06076000
   0.67003427  0.66445266  0.36080690
   0.66616000  0.66699000  0.00091000
   0.83146943  0.83266553  0.30320728
   0.66704000  0.66746000  0.24229000
   0.50180000  0.83456000  0.18079000
   0.33306000  0.66709000  0.12143000
   0.50009000  0.83568000  0.06165000
   0.83330000  0.83486000  0.18207000
   0.66751000  0.66780000  0.12127000
   0.99964718  0.67627209  0.36172793
   0.16644000  0.83420000  0.06149000
   0.17010561  0.83324800  0.30218949
   0.00140000  0.66613000  0.00100000
   0.83479000  0.50089000  0.18130000
   0.00007000  0.66669000  0.24225000
   0.83460000  0.50057000  0.06135000
   0.66585000  0.33313000  0.12140000
   0.16565000  0.83456000  0.18183000
   0.50075568  0.83545171  0.30320072
   0.00179000  0.33550000  0.00090000
   0.99605543  0.32614863  0.36103005
   0.49795000  0.16690000  0.06150000
   0.50074000  0.16494000  0.18144000
   0.83032209  0.16731908  0.30277015
   0.66500000  0.00040000  0.00060000
   0.66981418  0.00172860  0.36219866
   0.83245000  0.16547000  0.18171000
   0.99997000  0.33361000  0.24198000
   0.16158442  0.50182730  0.30368287
   0.33438000  0.99945000  0.24203000
   0.50056750  0.16397178  0.30308271
   0.00050000  0.00053000  0.12178000
   0.16809000  0.16736000  0.18138000
   0.16903408  0.16710190  0.30227909
   0.16764000  0.16833000  0.06179000
   0.99934000  0.00030000  0.24219000
   0.33250000  0.00057000  0.00106000
   0.33005088  0.00016506  0.36002518
   0.16564000  0.49971000  0.18123000
   0.16746000  0.49787000  0.06247000
   0.50312162  0.50222472  0.30215202
   0.33345000  0.33400000  0.24176000
   0.50128000  0.50087000  0.18167000
   0.49793000  0.50025000  0.06116000
   0.83393355  0.49896500  0.30353002
   0.66663000  0.33329000  0.24218000
   0.66139929  0.33065432  0.36118044
   0.66547000  0.33470000  0.00081000
   0.13363980  0.49809133  0.44540015
Direct configuration=    20
   0.99559000  0.32828000  0.12092000
   0.33691281  0.33846725  0.36356618
   0.33554000  0.33717000  0.12244000
   0.99808000  0.00294000  0.00138000
   0.99917939  0.00017081  0.36392113
   0.33205000  0.99934000  0.12171000
   0.66680000  0.99880000  0.24350000
   0.83452000  0.16613000  0.06120000
   0.67294000  0.00204000  0.12069000
   0.33405000  0.66695000  0.24111000
   0.99910000  0.66743000  0.12138000
   0.33509909  0.66581545  0.37307560
   0.33151000  0.66804000  0.00174000
   0.33268000  0.33220000  0.00000000
   0.83466000  0.83460000  0.06076000
   0.66977037  0.66456475  0.36074985
   0.66616000  0.66699000  0.00091000
   0.83148265  0.83259551  0.30324399
   0.66704000  0.66746000  0.24229000
   0.50180000  0.83456000  0.18079000
   0.33306000  0.66709000  0.12143000
   0.50009000  0.83568000  0.06165000
   0.83330000  0.83486000  0.18207000
   0.66751000  0.66780000  0.12127000
   0.99933197  0.67609827  0.36173499
   0.16644000  0.83420000  0.06149000
   0.17006086  0.83298243  0.30221851
   0.00140000  0.66613000  0.00100000
   0.83479000  0.50089000  0.18130000
   0.00007000  0.66669000  0.24225000
   0.83460000  0.50057000  0.06135000
   0.66585000  0.33313000  0.12140000
   0.16565000  0.83456000  0.18183000
   0.50066418  0.83515476  0.30332119
   0.00179000  0.33550000  0.00090000
   0.99598832  0.32602123  0.36098015
   0.49795000  0.16690000  0.06150000
   0.50074000  0.16494000  0.18144000
   0.83022124  0.16716750  0.30279941
   0.66500000  0.00040000  0.00060000
   0.66953711  0.00173843  0.36221819
   0.83245000  0.16547000  0.18171000
   0.99997000  0.33361000  0.24198000
   0.16154521  0.50167843  0.30364875
   0.33438000  0.99945000  0.24203000
   0.50049306  0.16421865  0.30311567
   0.00050000  0.00053000  0.12178000
   0.16809000  0.16736000  0.18138000
   0.16884931  0.16721879  0.30224297
   0.16764000  0.16833000  0.06179000
   0.99934000  0.00030000  0.24219000
   0.33250000  0.00057000  0.00106000
   0.33004435  0.00023627  0.35996879
   0.16564000  0.49971000  0.18123000
   0.16746000  0.49787000  0.06247000
   0.50292183  0.50237008  0.30218636
   0.33345000  0.33400000  0.24176000
   0.50128000  0.50087000  0.18167000
   0.49793000  0.50025000  0.06116000
   0.83386573  0.49883470  0.30345552
   0.66663000  0.33329000  0.24218000
   0.66114391  0.33075383  0.36120993
   0.66547000  0.33470000  0.00081000
   0.13328330  0.49813697  0.44531605
