  63  63   0   0
  0.2718825E+02  0.8509700E-09  0.8539300E-09  0.2357140E-08  0.5000000E-15
  1.000000000000000E-004
  CAR 
 INCAR-For-OPT                           
      5.22637931    -45.74965119  301      0.90937467      1.00000000
    -45.750  0.0000E+00  0.0000E+00  0.0000E+00  0.0000E+00
    -45.580  0.0000E+00  0.0000E+00  0.0000E+00  0.0000E+00
    -45.410  0.0000E+00  0.0000E+00  0.0000E+00  0.0000E+00
    -45.240  0.0000E+00  0.0000E+00  0.0000E+00  0.0000E+00
    -45.070  0.0000E+00  0.0000E+00  0.0000E+00  0.0000E+00
    -44.900  0.0000E+00  0.0000E+00  0.0000E+00  0.0000E+00
    -44.730  0.0000E+00 -0.1568E-33  0.0000E+00 -0.2664E-34
    -44.560  0.0000E+00 -0.1250E-25  0.0000E+00 -0.2123E-26
    -44.390  0.0000E+00 -0.7561E-19  0.0000E+00 -0.1285E-19
    -44.220  0.0000E+00 -0.3343E-13  0.0000E+00 -0.5680E-14
    -44.050  0.0000E+00 -0.1131E-08  0.0000E+00 -0.1922E-09
    -43.881  0.0000E+00 -0.2778E-05  0.0000E+00 -0.4722E-06
    -43.711  0.0000E+00 -0.4396E-03  0.0000E+00 -0.7517E-04
    -43.541 -0.3676E-30 -0.4663E-03 -0.6246E-31 -0.1544E-03
    -43.371 -0.9994E-23  0.3826E-01 -0.1698E-23  0.6346E-02
    -43.201 -0.1967E-16  0.7963E-01 -0.3343E-17  0.1988E-01
    -43.031 -0.3026E-11  0.1237E+00 -0.5141E-12  0.4090E-01
    -42.861 -0.3398E-07  0.6215E-01 -0.5775E-08  0.5146E-01
    -42.691 -0.2722E-04  0.1082E+00 -0.4631E-05  0.6984E-01
    -42.521 -0.1230E-02  0.1046E+00 -0.2136E-03  0.8762E-01
    -42.351  0.7854E-02  0.3765E-01  0.1121E-02  0.9401E-01
    -42.181  0.4871E-01  0.3892E-01  0.9397E-02  0.1006E+00
    -42.011  0.1184E+00  0.4099E-01  0.2951E-01  0.1076E+00
    -41.841  0.1888E+00  0.5702E-01  0.6158E-01  0.1173E+00
    -41.672  0.2112E+00  0.1764E-01  0.9747E-01  0.1203E+00
    -41.502  0.1871E-01 -0.1524E-02  0.1007E+00  0.1200E+00
    -41.332 -0.3785E-02 -0.9870E-04  0.1000E+00  0.1200E+00
    -41.162 -0.6691E-04 -0.2737E-06  0.1000E+00  0.1200E+00
    -40.992 -0.8329E-07 -0.5168E-10  0.1000E+00  0.1200E+00
    -40.822 -0.4150E-05 -0.7084E-15  0.1000E+00  0.1200E+00
    -40.652 -0.6015E-03  0.0000E+00  0.9990E-01  0.1200E+00
    -40.482 -0.2932E-03  0.0000E+00  0.9985E-01  0.1200E+00
    -40.312  0.5655E-01  0.0000E+00  0.1095E+00  0.1200E+00
    -40.142  0.5697E-01  0.0000E+00  0.1191E+00  0.1200E+00
    -39.972  0.6105E-02  0.0000E+00  0.1202E+00  0.1200E+00
    -39.802 -0.9894E-03  0.0000E+00  0.1200E+00  0.1200E+00
    -39.633 -0.3318E-04  0.0000E+00  0.1200E+00  0.1200E+00
    -39.463 -0.5835E-07  0.0000E+00  0.1200E+00  0.1200E+00
    -39.293 -0.6899E-11  0.0000E+00  0.1200E+00  0.1200E+00
    -39.123 -0.5663E-16  0.0000E+00  0.1200E+00  0.1200E+00
    -38.953  0.0000E+00  0.0000E+00  0.1200E+00  0.1200E+00
    -38.783  0.0000E+00  0.0000E+00  0.1200E+00  0.1200E+00
    -38.613  0.0000E+00  0.0000E+00  0.1200E+00  0.1200E+00
    -38.443  0.0000E+00  0.0000E+00  0.1200E+00  0.1200E+00
    -38.273  0.0000E+00  0.0000E+00  0.1200E+00  0.1200E+00
    -38.103  0.0000E+00  0.0000E+00  0.1200E+00  0.1200E+00
    -37.933  0.0000E+00  0.0000E+00  0.1200E+00  0.1200E+00
    -37.763  0.0000E+00  0.0000E+00  0.1200E+00  0.1200E+00
    -37.593  0.0000E+00  0.0000E+00  0.1200E+00  0.1200E+00
    -37.424  0.0000E+00  0.0000E+00  0.1200E+00  0.1200E+00
    -37.254  0.0000E+00  0.0000E+00  0.1200E+00  0.1200E+00
    -37.084  0.0000E+00  0.0000E+00  0.1200E+00  0.1200E+00
    -36.914  0.0000E+00  0.0000E+00  0.1200E+00  0.1200E+00
    -36.744  0.0000E+00  0.0000E+00  0.1200E+00  0.1200E+00
    -36.574  0.0000E+00  0.0000E+00  0.1200E+00  0.1200E+00
    -36.404  0.0000E+00  0.0000E+00  0.1200E+00  0.1200E+00
    -36.234  0.0000E+00  0.0000E+00  0.1200E+00  0.1200E+00
    -36.064  0.0000E+00  0.0000E+00  0.1200E+00  0.1200E+00
    -35.894  0.0000E+00  0.0000E+00  0.1200E+00  0.1200E+00
    -35.724  0.0000E+00  0.0000E+00  0.1200E+00  0.1200E+00
    -35.554  0.0000E+00  0.0000E+00  0.1200E+00  0.1200E+00
    -35.385  0.0000E+00  0.0000E+00  0.1200E+00  0.1200E+00
    -35.215  0.0000E+00  0.0000E+00  0.1200E+00  0.1200E+00
    -35.045  0.0000E+00  0.0000E+00  0.1200E+00  0.1200E+00
    -34.875  0.0000E+00  0.0000E+00  0.1200E+00  0.1200E+00
    -34.705  0.0000E+00  0.0000E+00  0.1200E+00  0.1200E+00
    -34.535  0.0000E+00  0.0000E+00  0.1200E+00  0.1200E+00
    -34.365  0.0000E+00  0.0000E+00  0.1200E+00  0.1200E+00
    -34.195  0.0000E+00  0.0000E+00  0.1200E+00  0.1200E+00
    -34.025  0.0000E+00  0.0000E+00  0.1200E+00  0.1200E+00
    -33.855  0.0000E+00  0.0000E+00  0.1200E+00  0.1200E+00
    -33.685  0.0000E+00  0.0000E+00  0.1200E+00  0.1200E+00
    -33.515  0.0000E+00  0.0000E+00  0.1200E+00  0.1200E+00
    -33.345  0.0000E+00  0.0000E+00  0.1200E+00  0.1200E+00
    -33.176  0.0000E+00  0.0000E+00  0.1200E+00  0.1200E+00
    -33.006  0.0000E+00  0.0000E+00  0.1200E+00  0.1200E+00
    -32.836  0.0000E+00  0.0000E+00  0.1200E+00  0.1200E+00
    -32.666  0.0000E+00  0.0000E+00  0.1200E+00  0.1200E+00
    -32.496  0.0000E+00  0.0000E+00  0.1200E+00  0.1200E+00
    -32.326  0.0000E+00  0.0000E+00  0.1200E+00  0.1200E+00
    -32.156  0.0000E+00  0.0000E+00  0.1200E+00  0.1200E+00
    -31.986  0.0000E+00  0.0000E+00  0.1200E+00  0.1200E+00
    -31.816  0.0000E+00  0.0000E+00  0.1200E+00  0.1200E+00
    -31.646  0.0000E+00  0.0000E+00  0.1200E+00  0.1200E+00
    -31.476  0.0000E+00  0.0000E+00  0.1200E+00  0.1200E+00
    -31.306  0.0000E+00  0.0000E+00  0.1200E+00  0.1200E+00
    -31.137  0.0000E+00  0.0000E+00  0.1200E+00  0.1200E+00
    -30.967  0.0000E+00  0.0000E+00  0.1200E+00  0.1200E+00
    -30.797  0.0000E+00  0.0000E+00  0.1200E+00  0.1200E+00
    -30.627  0.0000E+00  0.0000E+00  0.1200E+00  0.1200E+00
    -30.457  0.0000E+00  0.0000E+00  0.1200E+00  0.1200E+00
    -30.287  0.0000E+00  0.0000E+00  0.1200E+00  0.1200E+00
    -30.117  0.0000E+00  0.0000E+00  0.1200E+00  0.1200E+00
    -29.947  0.0000E+00  0.0000E+00  0.1200E+00  0.1200E+00
    -29.777  0.0000E+00  0.0000E+00  0.1200E+00  0.1200E+00
    -29.607  0.0000E+00  0.0000E+00  0.1200E+00  0.1200E+00
    -29.437  0.0000E+00  0.0000E+00  0.1200E+00  0.1200E+00
    -29.267  0.0000E+00  0.0000E+00  0.1200E+00  0.1200E+00
    -29.097  0.0000E+00  0.0000E+00  0.1200E+00  0.1200E+00
    -28.928  0.0000E+00  0.0000E+00  0.1200E+00  0.1200E+00
    -28.758  0.0000E+00  0.0000E+00  0.1200E+00  0.1200E+00
    -28.588  0.0000E+00  0.0000E+00  0.1200E+00  0.1200E+00
    -28.418  0.0000E+00  0.0000E+00  0.1200E+00  0.1200E+00
    -28.248  0.0000E+00  0.0000E+00  0.1200E+00  0.1200E+00
    -28.078  0.0000E+00  0.0000E+00  0.1200E+00  0.1200E+00
    -27.908  0.0000E+00  0.0000E+00  0.1200E+00  0.1200E+00
    -27.738  0.0000E+00  0.0000E+00  0.1200E+00  0.1200E+00
    -27.568  0.0000E+00  0.0000E+00  0.1200E+00  0.1200E+00
    -27.398  0.0000E+00  0.0000E+00  0.1200E+00  0.1200E+00
    -27.228  0.0000E+00  0.0000E+00  0.1200E+00  0.1200E+00
    -27.058  0.0000E+00  0.0000E+00  0.1200E+00  0.1200E+00
    -26.889  0.0000E+00  0.0000E+00  0.1200E+00  0.1200E+00
    -26.719  0.0000E+00  0.0000E+00  0.1200E+00  0.1200E+00
    -26.549  0.0000E+00  0.0000E+00  0.1200E+00  0.1200E+00
    -26.379  0.0000E+00  0.0000E+00  0.1200E+00  0.1200E+00
    -26.209  0.0000E+00  0.0000E+00  0.1200E+00  0.1200E+00
    -26.039  0.0000E+00  0.0000E+00  0.1200E+00  0.1200E+00
    -25.869  0.0000E+00  0.0000E+00  0.1200E+00  0.1200E+00
    -25.699  0.0000E+00  0.0000E+00  0.1200E+00  0.1200E+00
    -25.529  0.0000E+00  0.0000E+00  0.1200E+00  0.1200E+00
    -25.359  0.0000E+00  0.0000E+00  0.1200E+00  0.1200E+00
    -25.189  0.0000E+00  0.0000E+00  0.1200E+00  0.1200E+00
    -25.019  0.0000E+00  0.0000E+00  0.1200E+00  0.1200E+00
    -24.849  0.0000E+00  0.0000E+00  0.1200E+00  0.1200E+00
    -24.680  0.0000E+00  0.0000E+00  0.1200E+00  0.1200E+00
    -24.510  0.0000E+00  0.0000E+00  0.1200E+00  0.1200E+00
    -24.340  0.0000E+00  0.0000E+00  0.1200E+00  0.1200E+00
    -24.170  0.0000E+00  0.0000E+00  0.1200E+00  0.1200E+00
    -24.000  0.0000E+00  0.0000E+00  0.1200E+00  0.1200E+00
    -23.830  0.0000E+00  0.0000E+00  0.1200E+00  0.1200E+00
    -23.660  0.0000E+00  0.0000E+00  0.1200E+00  0.1200E+00
    -23.490  0.0000E+00  0.0000E+00  0.1200E+00  0.1200E+00
    -23.320  0.0000E+00  0.0000E+00  0.1200E+00  0.1200E+00
    -23.150  0.0000E+00  0.0000E+00  0.1200E+00  0.1200E+00
    -22.980  0.0000E+00  0.0000E+00  0.1200E+00  0.1200E+00
    -22.810  0.0000E+00  0.0000E+00  0.1200E+00  0.1200E+00
    -22.641  0.0000E+00  0.0000E+00  0.1200E+00  0.1200E+00
    -22.471  0.0000E+00  0.0000E+00  0.1200E+00  0.1200E+00
    -22.301  0.0000E+00  0.0000E+00  0.1200E+00  0.1200E+00
    -22.131  0.0000E+00  0.0000E+00  0.1200E+00  0.1200E+00
    -21.961  0.0000E+00  0.0000E+00  0.1200E+00  0.1200E+00
    -21.791  0.0000E+00  0.0000E+00  0.1200E+00  0.1200E+00
    -21.621  0.0000E+00  0.0000E+00  0.1200E+00  0.1200E+00
    -21.451  0.0000E+00  0.0000E+00  0.1200E+00  0.1200E+00
    -21.281  0.0000E+00  0.0000E+00  0.1200E+00  0.1200E+00
    -21.111  0.0000E+00  0.0000E+00  0.1200E+00  0.1200E+00
    -20.941  0.0000E+00  0.0000E+00  0.1200E+00  0.1200E+00
    -20.771  0.0000E+00  0.0000E+00  0.1200E+00  0.1200E+00
    -20.601  0.0000E+00  0.0000E+00  0.1200E+00  0.1200E+00
    -20.432  0.0000E+00  0.0000E+00  0.1200E+00  0.1200E+00
    -20.262  0.0000E+00  0.0000E+00  0.1200E+00  0.1200E+00
    -20.092  0.0000E+00  0.0000E+00  0.1200E+00  0.1200E+00
    -19.922  0.0000E+00  0.0000E+00  0.1200E+00  0.1200E+00
    -19.752  0.0000E+00  0.0000E+00  0.1200E+00  0.1200E+00
    -19.582  0.0000E+00  0.0000E+00  0.1200E+00  0.1200E+00
    -19.412  0.0000E+00  0.0000E+00  0.1200E+00  0.1200E+00
    -19.242  0.0000E+00  0.0000E+00  0.1200E+00  0.1200E+00
    -19.072  0.0000E+00  0.0000E+00  0.1200E+00  0.1200E+00
    -18.902  0.0000E+00  0.0000E+00  0.1200E+00  0.1200E+00
    -18.732  0.0000E+00  0.0000E+00  0.1200E+00  0.1200E+00
    -18.562  0.0000E+00  0.0000E+00  0.1200E+00  0.1200E+00
    -18.393  0.0000E+00  0.0000E+00  0.1200E+00  0.1200E+00
    -18.223  0.0000E+00  0.0000E+00  0.1200E+00  0.1200E+00
    -18.053  0.0000E+00  0.0000E+00  0.1200E+00  0.1200E+00
    -17.883  0.0000E+00  0.0000E+00  0.1200E+00  0.1200E+00
    -17.713  0.0000E+00  0.0000E+00  0.1200E+00  0.1200E+00
    -17.543  0.0000E+00  0.0000E+00  0.1200E+00  0.1200E+00
    -17.373  0.0000E+00  0.0000E+00  0.1200E+00  0.1200E+00
    -17.203  0.0000E+00  0.0000E+00  0.1200E+00  0.1200E+00
    -17.033  0.0000E+00  0.0000E+00  0.1200E+00  0.1200E+00
    -16.863 -0.1589E-32 -0.5990E-32  0.1200E+00  0.1200E+00
    -16.693 -0.1065E-24 -0.3334E-24  0.1200E+00  0.1200E+00
    -16.523 -0.5403E-18 -0.1409E-17  0.1200E+00  0.1200E+00
    -16.353 -0.1985E-12 -0.4319E-12  0.1200E+00  0.1200E+00
    -16.184 -0.5491E-08 -0.9989E-08  0.1200E+00  0.1200E+00
    -16.014 -0.1064E-04 -0.1614E-04  0.1200E+00  0.1200E+00
    -15.844 -0.1203E-02 -0.1481E-02  0.1198E+00  0.1197E+00
    -15.674  0.4592E-02  0.7631E-02  0.1206E+00  0.1210E+00
    -15.504  0.7540E-01  0.7758E-01  0.1334E+00  0.1342E+00
    -15.334  0.2185E-01  0.1658E-01  0.1371E+00  0.1370E+00
    -15.164 -0.2479E-02 -0.2167E-02  0.1367E+00  0.1367E+00
    -14.994 -0.6204E-04 -0.4037E-04  0.1367E+00  0.1367E+00
    -14.824 -0.8055E-07 -0.4045E-07  0.1367E+00  0.1367E+00
    -14.654 -0.7554E-11 -0.2895E-11  0.1367E+00  0.1367E+00
    -14.484 -0.5227E-16 -0.1307E-16  0.1367E+00  0.1367E+00
    -14.314  0.0000E+00  0.0000E+00  0.1367E+00  0.1367E+00
    -14.145  0.0000E+00  0.0000E+00  0.1367E+00  0.1367E+00
    -13.975  0.0000E+00  0.0000E+00  0.1367E+00  0.1367E+00
    -13.805  0.0000E+00  0.0000E+00  0.1367E+00  0.1367E+00
    -13.635  0.0000E+00  0.0000E+00  0.1367E+00  0.1367E+00
    -13.465  0.0000E+00  0.0000E+00  0.1367E+00  0.1367E+00
    -13.295  0.0000E+00  0.0000E+00  0.1367E+00  0.1367E+00
    -13.125  0.0000E+00  0.0000E+00  0.1367E+00  0.1367E+00
    -12.955  0.0000E+00  0.0000E+00  0.1367E+00  0.1367E+00
    -12.785  0.0000E+00  0.0000E+00  0.1367E+00  0.1367E+00
    -12.615  0.0000E+00  0.0000E+00  0.1367E+00  0.1367E+00
    -12.445  0.0000E+00  0.0000E+00  0.1367E+00  0.1367E+00
    -12.275  0.0000E+00  0.0000E+00  0.1367E+00  0.1367E+00
    -12.105  0.0000E+00  0.0000E+00  0.1367E+00  0.1367E+00
    -11.936  0.0000E+00  0.0000E+00  0.1367E+00  0.1367E+00
    -11.766  0.0000E+00  0.0000E+00  0.1367E+00  0.1367E+00
    -11.596  0.0000E+00  0.0000E+00  0.1367E+00  0.1367E+00
    -11.426  0.0000E+00  0.0000E+00  0.1367E+00  0.1367E+00
    -11.256  0.0000E+00  0.0000E+00  0.1367E+00  0.1367E+00
    -11.086  0.0000E+00  0.0000E+00  0.1367E+00  0.1367E+00
    -10.916  0.0000E+00  0.0000E+00  0.1367E+00  0.1367E+00
    -10.746  0.0000E+00  0.0000E+00  0.1367E+00  0.1367E+00
    -10.576  0.0000E+00  0.0000E+00  0.1367E+00  0.1367E+00
    -10.406  0.0000E+00  0.0000E+00  0.1367E+00  0.1367E+00
    -10.236  0.0000E+00  0.0000E+00  0.1367E+00  0.1367E+00
    -10.066  0.0000E+00  0.0000E+00  0.1367E+00  0.1367E+00
     -9.897  0.0000E+00  0.0000E+00  0.1367E+00  0.1367E+00
     -9.727  0.0000E+00  0.0000E+00  0.1367E+00  0.1367E+00
     -9.557  0.0000E+00  0.0000E+00  0.1367E+00  0.1367E+00
     -9.387  0.0000E+00  0.0000E+00  0.1367E+00  0.1367E+00
     -9.217 -0.4839E-34 -0.9784E-34  0.1367E+00  0.1367E+00
     -9.047 -0.3356E-26 -0.6471E-26  0.1367E+00  0.1367E+00
     -8.877 -0.1820E-19 -0.3354E-19  0.1367E+00  0.1367E+00
     -8.707 -0.7521E-14 -0.1320E-13  0.1367E+00  0.1367E+00
     -8.537 -0.2515E-09 -0.4151E-09  0.1367E+00  0.1367E+00
     -8.367 -0.6522E-06 -0.9856E-06  0.1367E+00  0.1367E+00
     -8.197 -0.1166E-03 -0.1530E-03  0.1366E+00  0.1366E+00
     -8.027 -0.1844E-03  0.8883E-04  0.1366E+00  0.1367E+00
     -7.857  0.1236E-01  0.1359E-01  0.1387E+00  0.1390E+00
     -7.688  0.8189E-02  0.6714E-02  0.1401E+00  0.1401E+00
     -7.518 -0.5890E-03 -0.5912E-03  0.1400E+00  0.1400E+00
     -7.348 -0.1197E-03 -0.3983E-04  0.1400E+00  0.1400E+00
     -7.178  0.4756E-03 -0.8847E-04  0.1401E+00  0.1400E+00
     -7.008  0.4753E-02  0.1551E-02  0.1409E+00  0.1402E+00
     -6.838  0.5502E-02  0.5999E-02  0.1418E+00  0.1413E+00
     -6.668  0.3654E-02  0.3929E-02  0.1424E+00  0.1419E+00
     -6.498  0.8437E-02  0.5049E-02  0.1439E+00  0.1428E+00
     -6.328  0.3079E-02  0.8188E-02  0.1444E+00  0.1442E+00
     -6.158  0.4043E-02  0.1381E-02  0.1451E+00  0.1444E+00
     -5.988  0.1304E-01  0.5827E-02  0.1473E+00  0.1454E+00
     -5.818  0.1377E-01  0.1394E-01  0.1496E+00  0.1478E+00
     -5.649  0.9299E-02  0.1172E-01  0.1512E+00  0.1498E+00
     -5.479  0.9933E-02  0.9617E-02  0.1529E+00  0.1514E+00
     -5.309  0.8938E-02  0.1041E-01  0.1544E+00  0.1532E+00
     -5.139  0.1701E-01  0.6657E-02  0.1573E+00  0.1543E+00
     -4.969  0.1582E-01  0.1565E-01  0.1600E+00  0.1570E+00
     -4.799  0.1602E-01  0.1675E-01  0.1627E+00  0.1598E+00
     -4.629  0.2047E-01  0.1170E-01  0.1662E+00  0.1618E+00
     -4.459  0.2218E-01  0.1764E-01  0.1700E+00  0.1648E+00
     -4.289  0.2823E-01  0.1390E-01  0.1748E+00  0.1672E+00
     -4.119  0.4074E-01  0.2225E-01  0.1817E+00  0.1709E+00
     -3.949  0.5946E-01  0.2875E-01  0.1918E+00  0.1758E+00
     -3.779  0.8887E-01  0.2274E-01  0.2069E+00  0.1797E+00
     -3.609  0.1247E+00  0.1935E-01  0.2281E+00  0.1830E+00
     -3.440  0.1212E+00  0.3042E-01  0.2487E+00  0.1881E+00
     -3.270  0.1721E+00  0.3427E-01  0.2779E+00  0.1940E+00
     -3.100  0.1795E+00  0.5235E-01  0.3084E+00  0.2029E+00
     -2.930  0.1403E+00  0.6614E-01  0.3323E+00  0.2141E+00
     -2.760  0.1439E+00  0.7732E-01  0.3567E+00  0.2272E+00
     -2.590  0.2166E+00  0.6276E-01  0.3935E+00  0.2379E+00
     -2.420  0.2580E+00  0.7864E-01  0.4374E+00  0.2513E+00
     -2.250  0.2357E+00  0.1084E+00  0.4774E+00  0.2697E+00
     -2.080  0.2420E+00  0.1249E+00  0.5185E+00  0.2909E+00
     -1.910  0.2439E+00  0.1283E+00  0.5600E+00  0.3127E+00
     -1.740  0.2384E+00  0.1248E+00  0.6005E+00  0.3339E+00
     -1.570  0.2355E+00  0.1115E+00  0.6405E+00  0.3528E+00
     -1.401  0.2319E+00  0.1173E+00  0.6799E+00  0.3728E+00
     -1.231  0.1938E+00  0.1481E+00  0.7128E+00  0.3979E+00
     -1.061  0.1524E+00  0.1762E+00  0.7387E+00  0.4279E+00
     -0.891  0.1485E+00  0.1968E+00  0.7640E+00  0.4613E+00
     -0.721  0.2048E+00  0.2053E+00  0.7988E+00  0.4962E+00
     -0.551  0.2593E+00  0.2115E+00  0.8428E+00  0.5322E+00
     -0.381  0.3187E+00  0.2181E+00  0.8970E+00  0.5692E+00
     -0.211  0.3182E+00  0.1983E+00  0.9511E+00  0.6029E+00
     -0.041  0.2292E+00  0.1832E+00  0.9900E+00  0.6340E+00
      0.129  0.1665E+00  0.1524E+00  0.1018E+01  0.6599E+00
      0.299  0.1316E+00  0.1274E+00  0.1041E+01  0.6816E+00
      0.469  0.1191E+00  0.1231E+00  0.1061E+01  0.7025E+00
      0.639  0.1103E+00  0.1219E+00  0.1080E+01  0.7232E+00
      0.808  0.9501E-01  0.1097E+00  0.1096E+01  0.7418E+00
      0.978  0.1025E+00  0.1281E+00  0.1113E+01  0.7636E+00
      1.148  0.9605E-01  0.1576E+00  0.1130E+01  0.7904E+00
      1.318  0.8926E-01  0.1602E+00  0.1145E+01  0.8176E+00
      1.488  0.9221E-01  0.1558E+00  0.1160E+01  0.8441E+00
      1.658  0.1041E+00  0.2002E+00  0.1178E+01  0.8781E+00
      1.828  0.1099E+00  0.2454E+00  0.1197E+01  0.9198E+00
      1.998  0.1025E+00  0.2911E+00  0.1214E+01  0.9693E+00
      2.168  0.3668E-01  0.3258E+00  0.1220E+01  0.1025E+01
      2.338 -0.1769E-02  0.2999E+00  0.1220E+01  0.1076E+01
      2.508 -0.3180E-03  0.3373E+00  0.1220E+01  0.1133E+01
      2.678 -0.2270E-05  0.3114E+00  0.1220E+01  0.1186E+01
      2.847 -0.1611E-08  0.1754E+00  0.1220E+01  0.1216E+01
      3.017 -0.1073E-12  0.2974E-01  0.1220E+01  0.1221E+01
      3.187 -0.5445E-18 -0.3819E-02  0.1220E+01  0.1220E+01
      3.357  0.0000E+00 -0.1567E-03  0.1220E+01  0.1220E+01
      3.527  0.0000E+00 -0.4545E-06  0.1220E+01  0.1220E+01
      3.697  0.0000E+00 -0.1264E-09  0.1220E+01  0.1220E+01
      3.867  0.0000E+00 -0.3164E-14  0.1220E+01  0.1220E+01
      4.037  0.0000E+00  0.0000E+00  0.1220E+01  0.1220E+01
      4.207  0.0000E+00  0.0000E+00  0.1220E+01  0.1220E+01
      4.377  0.0000E+00  0.0000E+00  0.1220E+01  0.1220E+01
      4.547  0.0000E+00  0.0000E+00  0.1220E+01  0.1220E+01
      4.717  0.0000E+00  0.0000E+00  0.1220E+01  0.1220E+01
      4.887  0.0000E+00  0.0000E+00  0.1220E+01  0.1220E+01
      5.056  0.0000E+00  0.0000E+00  0.1220E+01  0.1220E+01
      5.226  0.0000E+00  0.0000E+00  0.1220E+01  0.1220E+01
