Generated by VASPKIT code               
   1.00000000000000     
     8.5045999999999999    0.0000000000000000    0.0000000000000000
    -0.0010991400000000    8.5090999299999996    0.0000000000000000
     0.0000000000000000    0.0000000000000000   23.5566010000000006
   Cr   Fe
    14    48
Selective dynamics
Direct
     0.9975999999999985    0.0033000000000030    0.2422100000000000   F   F   F
     0.6656100000000009    0.9983399999999989    0.0005999999999986   F   F   F
     0.6517205646475905    0.9847717948601125    0.3681752952589484   T   T   T
     0.8346700000000027    0.1658899999999974    0.1820900000000023   F   F   F
     0.9986600000000010    0.3340400000000017    0.1219800000000006   F   F   F
     0.3342099999999988    0.3314700000000030    0.0010100000000008   F   F   F
     0.3335470808099410    0.3359554194295799    0.3640221561446759   T   T   T
     0.8322000000000003    0.5002500000000012    0.0627500000000012   F   F   F
     0.8325872111062607    0.4987563484842460    0.3038654345073470   T   T   T
     0.3351200000000034    0.6703699999999984    0.0000000000000000   F   F   F
     0.3504274640412298    0.6772339257650161    0.3689455688407984   T   T   T
     0.3314499999999967    0.6648799999999966    0.1229200000000006   F   F   F
     0.4992043298236153    0.8338083780462479    0.3043932460213949   T   T   T
     0.6711099999999988    0.6655000000000015    0.1214799999999983   F   F   F
     0.9994999999999976    0.0003200000000021    0.0010300000000001   F   F   F
     0.9973184328467928    0.0005022403959894    0.3610021586154066   T   T   T
     0.1666999999999987    0.1659199999999998    0.0615999999999985   F   F   F
     0.9992999999999981    0.0001299999999986    0.1218300000000028   F   F   F
     0.1666999999999987    0.1669199999999975    0.1816999999999993   F   F   F
     0.1625378839895187    0.1657599776073249    0.3030094809807503   T   T   T
     0.3336800000000011    0.9998599999999982    0.0010800000000017   F   F   F
     0.3242626646601340    0.0135012040803025    0.3625588042144455   T   T   T
     0.5000799999999970    0.1660600000000017    0.0616399999999970   F   F   F
     0.3336499999999987    0.9994500000000031    0.1219400000000022   F   F   F
     0.5001299999999986    0.1665700000000001    0.1817599999999970   F   F   F
     0.3337399999999988    0.9999400000000023    0.2425199999999990   F   F   F
     0.4999356802595749    0.1680020681880477    0.3035363139796141   T   T   T
     0.8341199999999986    0.1680700000000002    0.0613000000000028   F   F   F
     0.6676700000000011    0.9997200000000035    0.1216799999999978   F   F   F
     0.6679200000000023    0.0003200000000021    0.2423300000000026   F   F   F
     0.8311988745855944    0.1660635904109722    0.3041508797443596   T   T   T
     0.0003299999999982    0.3334600000000023    0.0007599999999996   F   F   F
     0.0093995819452684    0.3288804197313588    0.3636326629797608   T   T   T
     0.1670400000000001    0.5011599999999987    0.0607699999999980   F   F   F
     0.1662699999999973    0.4994000000000014    0.1823800000000020   F   F   F
     0.0000000000000000    0.3331900000000019    0.2426000000000030   F   F   F
     0.1677548025751371    0.5013662191906433    0.3036650306289898   T   T   T
     0.4981099999999969    0.5018600000000006    0.0611200000000025   F   F   F
     0.3332800000000020    0.3343399999999974    0.1214799999999983   F   F   F
     0.5005099999999985    0.5005299999999977    0.1814499999999981   F   F   F
     0.3339199999999991    0.3326899999999995    0.2422899999999970   F   F   F
     0.5069774868227730    0.4992611291529857    0.3009627983176379   T   T   T
     0.6668700000000030    0.3341800000000035    0.0012899999999973   F   F   F
     0.6641662826821056    0.3296636259633497    0.3610378498583071   T   T   T
     0.6666999999999987    0.3333200000000005    0.1217699999999979   F   F   F
     0.8346599999999995    0.4991600000000034    0.1818099999999987   F   F   F
     0.6674799999999976    0.3329099999999983    0.2423399999999987   F   F   F
     0.9994900000000015    0.6658100000000005    0.0011200000000002   F   F   F
     0.0037648325464898    0.6637604364422728    0.3598956587936623   T   T   T
     0.1677299999999988    0.8329499999999967    0.0614100000000022   F   F   F
     0.0014899999999969    0.6667199999999980    0.1219600000000014   F   F   F
     0.1659199999999998    0.8338899999999967    0.1823499999999996   F   F   F
     0.9994999999999976    0.6663500000000013    0.2424499999999981   F   F   F
     0.1645374674841250    0.8346889840613635    0.3031820847545759   T   T   T
     0.4982499999999987    0.8318500000000029    0.0618899999999982   F   F   F
     0.5006399999999971    0.8333500000000029    0.1818900000000028   F   F   F
     0.3342400000000012    0.6662699999999973    0.2423900000000003   F   F   F
     0.6652100000000019    0.6662900000000036    0.0009999999999977   F   F   F
     0.8338200000000029    0.8326800000000034    0.0612799999999964   F   F   F
     0.8338999999999999    0.8331099999999978    0.1819100000000020   F   F   F
     0.6672099999999972    0.6667500000000004    0.2422100000000000   F   F   F
     0.8337069515701587    0.8292843621548446    0.3027591654814916   T   T   T
 
  0.00000000E+00  0.00000000E+00  0.00000000E+00
  0.00000000E+00  0.00000000E+00  0.00000000E+00
  0.00000000E+00  0.00000000E+00  0.00000000E+00
  0.00000000E+00  0.00000000E+00  0.00000000E+00
  0.00000000E+00  0.00000000E+00  0.00000000E+00
  0.00000000E+00  0.00000000E+00  0.00000000E+00
  0.00000000E+00  0.00000000E+00  0.00000000E+00
  0.00000000E+00  0.00000000E+00  0.00000000E+00
  0.00000000E+00  0.00000000E+00  0.00000000E+00
  0.00000000E+00  0.00000000E+00  0.00000000E+00
  0.00000000E+00  0.00000000E+00  0.00000000E+00
  0.00000000E+00  0.00000000E+00  0.00000000E+00
  0.00000000E+00  0.00000000E+00  0.00000000E+00
  0.00000000E+00  0.00000000E+00  0.00000000E+00
  0.00000000E+00  0.00000000E+00  0.00000000E+00
  0.00000000E+00  0.00000000E+00  0.00000000E+00
  0.00000000E+00  0.00000000E+00  0.00000000E+00
  0.00000000E+00  0.00000000E+00  0.00000000E+00
  0.00000000E+00  0.00000000E+00  0.00000000E+00
  0.00000000E+00  0.00000000E+00  0.00000000E+00
  0.00000000E+00  0.00000000E+00  0.00000000E+00
  0.00000000E+00  0.00000000E+00  0.00000000E+00
  0.00000000E+00  0.00000000E+00  0.00000000E+00
  0.00000000E+00  0.00000000E+00  0.00000000E+00
  0.00000000E+00  0.00000000E+00  0.00000000E+00
  0.00000000E+00  0.00000000E+00  0.00000000E+00
  0.00000000E+00  0.00000000E+00  0.00000000E+00
  0.00000000E+00  0.00000000E+00  0.00000000E+00
  0.00000000E+00  0.00000000E+00  0.00000000E+00
  0.00000000E+00  0.00000000E+00  0.00000000E+00
  0.00000000E+00  0.00000000E+00  0.00000000E+00
  0.00000000E+00  0.00000000E+00  0.00000000E+00
  0.00000000E+00  0.00000000E+00  0.00000000E+00
  0.00000000E+00  0.00000000E+00  0.00000000E+00
  0.00000000E+00  0.00000000E+00  0.00000000E+00
  0.00000000E+00  0.00000000E+00  0.00000000E+00
  0.00000000E+00  0.00000000E+00  0.00000000E+00
  0.00000000E+00  0.00000000E+00  0.00000000E+00
  0.00000000E+00  0.00000000E+00  0.00000000E+00
  0.00000000E+00  0.00000000E+00  0.00000000E+00
  0.00000000E+00  0.00000000E+00  0.00000000E+00
  0.00000000E+00  0.00000000E+00  0.00000000E+00
  0.00000000E+00  0.00000000E+00  0.00000000E+00
  0.00000000E+00  0.00000000E+00  0.00000000E+00
  0.00000000E+00  0.00000000E+00  0.00000000E+00
  0.00000000E+00  0.00000000E+00  0.00000000E+00
  0.00000000E+00  0.00000000E+00  0.00000000E+00
  0.00000000E+00  0.00000000E+00  0.00000000E+00
  0.00000000E+00  0.00000000E+00  0.00000000E+00
  0.00000000E+00  0.00000000E+00  0.00000000E+00
  0.00000000E+00  0.00000000E+00  0.00000000E+00
  0.00000000E+00  0.00000000E+00  0.00000000E+00
  0.00000000E+00  0.00000000E+00  0.00000000E+00
  0.00000000E+00  0.00000000E+00  0.00000000E+00
  0.00000000E+00  0.00000000E+00  0.00000000E+00
  0.00000000E+00  0.00000000E+00  0.00000000E+00
  0.00000000E+00  0.00000000E+00  0.00000000E+00
  0.00000000E+00  0.00000000E+00  0.00000000E+00
  0.00000000E+00  0.00000000E+00  0.00000000E+00
  0.00000000E+00  0.00000000E+00  0.00000000E+00
  0.00000000E+00  0.00000000E+00  0.00000000E+00
  0.00000000E+00  0.00000000E+00  0.00000000E+00
