  62  62   0   0
  0.2749530E+02  0.8504600E-09  0.8509100E-09  0.2355660E-08  0.5000000E-15
  1.000000000000000E-004
  CAR 
 INCAR-For-OPT                           
      5.20966874    -45.85164440  301      0.79965131      1.00000000
    -45.852  0.0000E+00  0.0000E+00  0.0000E+00  0.0000E+00
    -45.681  0.0000E+00  0.0000E+00  0.0000E+00  0.0000E+00
    -45.511  0.0000E+00  0.0000E+00  0.0000E+00  0.0000E+00
    -45.341  0.0000E+00  0.0000E+00  0.0000E+00  0.0000E+00
    -45.171  0.0000E+00  0.0000E+00  0.0000E+00  0.0000E+00
    -45.001  0.0000E+00  0.0000E+00  0.0000E+00  0.0000E+00
    -44.830  0.0000E+00 -0.2177E-33  0.0000E+00 -0.3706E-34
    -44.660  0.0000E+00 -0.1925E-25  0.0000E+00 -0.3276E-26
    -44.490  0.0000E+00 -0.1290E-18  0.0000E+00 -0.2195E-19
    -44.320 -0.1076E-35 -0.6329E-13 -0.1831E-36 -0.1077E-13
    -44.150 -0.1692E-27 -0.2392E-08 -0.2880E-28 -0.4071E-09
    -43.979 -0.1979E-20 -0.6689E-05 -0.3369E-21 -0.1139E-05
    -43.809 -0.1690E-14 -0.1275E-02 -0.2876E-15 -0.2182E-03
    -43.639 -0.1108E-09 -0.4793E-02 -0.1886E-10 -0.1034E-02
    -43.469 -0.5456E-06  0.1505E+00 -0.9288E-07  0.2458E-01
    -43.299 -0.1946E-03  0.1966E+00 -0.3321E-04  0.5805E-01
    -43.128 -0.3078E-02  0.8605E-01 -0.5572E-03  0.7269E-01
    -42.958  0.4013E-01  0.5499E-01  0.6273E-02  0.8205E-01
    -42.788  0.7971E-01  0.5994E-01  0.1984E-01  0.9226E-01
    -42.618  0.1185E-02  0.5169E-01  0.2004E-01  0.1011E+00
    -42.448  0.1214E-02  0.2894E-01  0.2025E-01  0.1060E+00
    -42.277  0.4931E-01  0.3750E-01  0.2864E-01  0.1124E+00
    -42.107  0.9094E-01  0.2485E-01  0.4412E-01  0.1166E+00
    -41.937  0.1257E+00  0.1763E-01  0.6551E-01  0.1196E+00
    -41.767  0.8600E-01  0.2853E-02  0.8015E-01  0.1201E+00
    -41.597 -0.3736E-03 -0.4440E-03  0.8008E-01  0.1200E+00
    -41.426  0.2709E-01 -0.7188E-05  0.8469E-01  0.1200E+00
    -41.256  0.3096E-01 -0.5952E-08  0.8996E-01  0.1200E+00
    -41.086  0.3052E-01 -0.3294E-12  0.9516E-01  0.1200E+00
    -40.916  0.2882E-01 -0.1611E-21  0.1001E+00  0.1200E+00
    -40.746 -0.8026E-04 -0.2025E-15  0.1000E+00  0.1200E+00
    -40.575 -0.2549E-02 -0.1899E-10  0.9961E-01  0.1200E+00
    -40.405  0.1058E-01 -0.1270E-06  0.1014E+00  0.1200E+00
    -40.235  0.1369E+00 -0.5784E-04  0.1247E+00  0.1200E+00
    -40.065  0.9319E-01 -0.1356E-02  0.1406E+00  0.1198E+00
    -39.894 -0.2601E-02  0.1198E-01  0.1401E+00  0.1218E+00
    -39.724 -0.8278E-03  0.5961E-01  0.1400E+00  0.1319E+00
    -39.554 -0.5182E-05  0.4515E-01  0.1400E+00  0.1396E+00
    -39.384 -0.2263E-08  0.2945E-02  0.1400E+00  0.1401E+00
    -39.214 -0.7357E-13 -0.7451E-03  0.1400E+00  0.1400E+00
    -39.043  0.0000E+00 -0.1106E-04  0.1400E+00  0.1400E+00
    -38.873  0.0000E+00 -0.9808E-08  0.1400E+00  0.1400E+00
    -38.703  0.0000E+00 -0.6079E-12  0.1400E+00  0.1400E+00
    -38.533  0.0000E+00 -0.4349E-17  0.1400E+00  0.1400E+00
    -38.363  0.0000E+00  0.0000E+00  0.1400E+00  0.1400E+00
    -38.192  0.0000E+00  0.0000E+00  0.1400E+00  0.1400E+00
    -38.022  0.0000E+00  0.0000E+00  0.1400E+00  0.1400E+00
    -37.852  0.0000E+00  0.0000E+00  0.1400E+00  0.1400E+00
    -37.682  0.0000E+00  0.0000E+00  0.1400E+00  0.1400E+00
    -37.512  0.0000E+00  0.0000E+00  0.1400E+00  0.1400E+00
    -37.341  0.0000E+00  0.0000E+00  0.1400E+00  0.1400E+00
    -37.171  0.0000E+00  0.0000E+00  0.1400E+00  0.1400E+00
    -37.001  0.0000E+00  0.0000E+00  0.1400E+00  0.1400E+00
    -36.831  0.0000E+00  0.0000E+00  0.1400E+00  0.1400E+00
    -36.661  0.0000E+00  0.0000E+00  0.1400E+00  0.1400E+00
    -36.490  0.0000E+00  0.0000E+00  0.1400E+00  0.1400E+00
    -36.320  0.0000E+00  0.0000E+00  0.1400E+00  0.1400E+00
    -36.150  0.0000E+00  0.0000E+00  0.1400E+00  0.1400E+00
    -35.980  0.0000E+00  0.0000E+00  0.1400E+00  0.1400E+00
    -35.810  0.0000E+00  0.0000E+00  0.1400E+00  0.1400E+00
    -35.639  0.0000E+00  0.0000E+00  0.1400E+00  0.1400E+00
    -35.469  0.0000E+00  0.0000E+00  0.1400E+00  0.1400E+00
    -35.299  0.0000E+00  0.0000E+00  0.1400E+00  0.1400E+00
    -35.129  0.0000E+00  0.0000E+00  0.1400E+00  0.1400E+00
    -34.959  0.0000E+00  0.0000E+00  0.1400E+00  0.1400E+00
    -34.788  0.0000E+00  0.0000E+00  0.1400E+00  0.1400E+00
    -34.618  0.0000E+00  0.0000E+00  0.1400E+00  0.1400E+00
    -34.448  0.0000E+00  0.0000E+00  0.1400E+00  0.1400E+00
    -34.278  0.0000E+00  0.0000E+00  0.1400E+00  0.1400E+00
    -34.108  0.0000E+00  0.0000E+00  0.1400E+00  0.1400E+00
    -33.937  0.0000E+00  0.0000E+00  0.1400E+00  0.1400E+00
    -33.767  0.0000E+00  0.0000E+00  0.1400E+00  0.1400E+00
    -33.597  0.0000E+00  0.0000E+00  0.1400E+00  0.1400E+00
    -33.427  0.0000E+00  0.0000E+00  0.1400E+00  0.1400E+00
    -33.257  0.0000E+00  0.0000E+00  0.1400E+00  0.1400E+00
    -33.086  0.0000E+00  0.0000E+00  0.1400E+00  0.1400E+00
    -32.916  0.0000E+00  0.0000E+00  0.1400E+00  0.1400E+00
    -32.746  0.0000E+00  0.0000E+00  0.1400E+00  0.1400E+00
    -32.576  0.0000E+00  0.0000E+00  0.1400E+00  0.1400E+00
    -32.405  0.0000E+00  0.0000E+00  0.1400E+00  0.1400E+00
    -32.235  0.0000E+00  0.0000E+00  0.1400E+00  0.1400E+00
    -32.065  0.0000E+00  0.0000E+00  0.1400E+00  0.1400E+00
    -31.895  0.0000E+00  0.0000E+00  0.1400E+00  0.1400E+00
    -31.725  0.0000E+00  0.0000E+00  0.1400E+00  0.1400E+00
    -31.554  0.0000E+00  0.0000E+00  0.1400E+00  0.1400E+00
    -31.384  0.0000E+00  0.0000E+00  0.1400E+00  0.1400E+00
    -31.214  0.0000E+00  0.0000E+00  0.1400E+00  0.1400E+00
    -31.044  0.0000E+00  0.0000E+00  0.1400E+00  0.1400E+00
    -30.874  0.0000E+00  0.0000E+00  0.1400E+00  0.1400E+00
    -30.703  0.0000E+00  0.0000E+00  0.1400E+00  0.1400E+00
    -30.533  0.0000E+00  0.0000E+00  0.1400E+00  0.1400E+00
    -30.363  0.0000E+00  0.0000E+00  0.1400E+00  0.1400E+00
    -30.193  0.0000E+00  0.0000E+00  0.1400E+00  0.1400E+00
    -30.023  0.0000E+00  0.0000E+00  0.1400E+00  0.1400E+00
    -29.852  0.0000E+00  0.0000E+00  0.1400E+00  0.1400E+00
    -29.682  0.0000E+00  0.0000E+00  0.1400E+00  0.1400E+00
    -29.512  0.0000E+00  0.0000E+00  0.1400E+00  0.1400E+00
    -29.342  0.0000E+00  0.0000E+00  0.1400E+00  0.1400E+00
    -29.172  0.0000E+00  0.0000E+00  0.1400E+00  0.1400E+00
    -29.001  0.0000E+00  0.0000E+00  0.1400E+00  0.1400E+00
    -28.831  0.0000E+00  0.0000E+00  0.1400E+00  0.1400E+00
    -28.661  0.0000E+00  0.0000E+00  0.1400E+00  0.1400E+00
    -28.491  0.0000E+00  0.0000E+00  0.1400E+00  0.1400E+00
    -28.321  0.0000E+00  0.0000E+00  0.1400E+00  0.1400E+00
    -28.150  0.0000E+00  0.0000E+00  0.1400E+00  0.1400E+00
    -27.980  0.0000E+00  0.0000E+00  0.1400E+00  0.1400E+00
    -27.810  0.0000E+00  0.0000E+00  0.1400E+00  0.1400E+00
    -27.640  0.0000E+00  0.0000E+00  0.1400E+00  0.1400E+00
    -27.470  0.0000E+00  0.0000E+00  0.1400E+00  0.1400E+00
    -27.299  0.0000E+00  0.0000E+00  0.1400E+00  0.1400E+00
    -27.129  0.0000E+00  0.0000E+00  0.1400E+00  0.1400E+00
    -26.959  0.0000E+00  0.0000E+00  0.1400E+00  0.1400E+00
    -26.789  0.0000E+00  0.0000E+00  0.1400E+00  0.1400E+00
    -26.619  0.0000E+00  0.0000E+00  0.1400E+00  0.1400E+00
    -26.448  0.0000E+00  0.0000E+00  0.1400E+00  0.1400E+00
    -26.278  0.0000E+00  0.0000E+00  0.1400E+00  0.1400E+00
    -26.108  0.0000E+00  0.0000E+00  0.1400E+00  0.1400E+00
    -25.938  0.0000E+00  0.0000E+00  0.1400E+00  0.1400E+00
    -25.768  0.0000E+00  0.0000E+00  0.1400E+00  0.1400E+00
    -25.597  0.0000E+00  0.0000E+00  0.1400E+00  0.1400E+00
    -25.427  0.0000E+00  0.0000E+00  0.1400E+00  0.1400E+00
    -25.257  0.0000E+00  0.0000E+00  0.1400E+00  0.1400E+00
    -25.087  0.0000E+00  0.0000E+00  0.1400E+00  0.1400E+00
    -24.917  0.0000E+00  0.0000E+00  0.1400E+00  0.1400E+00
    -24.746  0.0000E+00  0.0000E+00  0.1400E+00  0.1400E+00
    -24.576  0.0000E+00  0.0000E+00  0.1400E+00  0.1400E+00
    -24.406  0.0000E+00  0.0000E+00  0.1400E+00  0.1400E+00
    -24.236  0.0000E+00  0.0000E+00  0.1400E+00  0.1400E+00
    -24.065  0.0000E+00  0.0000E+00  0.1400E+00  0.1400E+00
    -23.895  0.0000E+00  0.0000E+00  0.1400E+00  0.1400E+00
    -23.725  0.0000E+00  0.0000E+00  0.1400E+00  0.1400E+00
    -23.555  0.0000E+00  0.0000E+00  0.1400E+00  0.1400E+00
    -23.385  0.0000E+00  0.0000E+00  0.1400E+00  0.1400E+00
    -23.214  0.0000E+00  0.0000E+00  0.1400E+00  0.1400E+00
    -23.044  0.0000E+00  0.0000E+00  0.1400E+00  0.1400E+00
    -22.874  0.0000E+00  0.0000E+00  0.1400E+00  0.1400E+00
    -22.704  0.0000E+00  0.0000E+00  0.1400E+00  0.1400E+00
    -22.534  0.0000E+00  0.0000E+00  0.1400E+00  0.1400E+00
    -22.363  0.0000E+00  0.0000E+00  0.1400E+00  0.1400E+00
    -22.193  0.0000E+00  0.0000E+00  0.1400E+00  0.1400E+00
    -22.023  0.0000E+00  0.0000E+00  0.1400E+00  0.1400E+00
    -21.853  0.0000E+00  0.0000E+00  0.1400E+00  0.1400E+00
    -21.683  0.0000E+00  0.0000E+00  0.1400E+00  0.1400E+00
    -21.512  0.0000E+00  0.0000E+00  0.1400E+00  0.1400E+00
    -21.342  0.0000E+00  0.0000E+00  0.1400E+00  0.1400E+00
    -21.172  0.0000E+00  0.0000E+00  0.1400E+00  0.1400E+00
    -21.002  0.0000E+00  0.0000E+00  0.1400E+00  0.1400E+00
    -20.832  0.0000E+00  0.0000E+00  0.1400E+00  0.1400E+00
    -20.661  0.0000E+00  0.0000E+00  0.1400E+00  0.1400E+00
    -20.491  0.0000E+00  0.0000E+00  0.1400E+00  0.1400E+00
    -20.321  0.0000E+00  0.0000E+00  0.1400E+00  0.1400E+00
    -20.151  0.0000E+00  0.0000E+00  0.1400E+00  0.1400E+00
    -19.981  0.0000E+00  0.0000E+00  0.1400E+00  0.1400E+00
    -19.810  0.0000E+00  0.0000E+00  0.1400E+00  0.1400E+00
    -19.640  0.0000E+00  0.0000E+00  0.1400E+00  0.1400E+00
    -19.470  0.0000E+00  0.0000E+00  0.1400E+00  0.1400E+00
    -19.300  0.0000E+00  0.0000E+00  0.1400E+00  0.1400E+00
    -19.130  0.0000E+00  0.0000E+00  0.1400E+00  0.1400E+00
    -18.959  0.0000E+00  0.0000E+00  0.1400E+00  0.1400E+00
    -18.789  0.0000E+00  0.0000E+00  0.1400E+00  0.1400E+00
    -18.619  0.0000E+00  0.0000E+00  0.1400E+00  0.1400E+00
    -18.449  0.0000E+00  0.0000E+00  0.1400E+00  0.1400E+00
    -18.279  0.0000E+00  0.0000E+00  0.1400E+00  0.1400E+00
    -18.108  0.0000E+00  0.0000E+00  0.1400E+00  0.1400E+00
    -17.938  0.0000E+00  0.0000E+00  0.1400E+00  0.1400E+00
    -17.768  0.0000E+00  0.0000E+00  0.1400E+00  0.1400E+00
    -17.598  0.0000E+00  0.0000E+00  0.1400E+00  0.1400E+00
    -17.428  0.0000E+00  0.0000E+00  0.1400E+00  0.1400E+00
    -17.257  0.0000E+00  0.0000E+00  0.1400E+00  0.1400E+00
    -17.087  0.0000E+00  0.0000E+00  0.1400E+00  0.1400E+00
    -16.917  0.0000E+00  0.0000E+00  0.1400E+00  0.1400E+00
    -16.747  0.0000E+00  0.0000E+00  0.1400E+00  0.1400E+00
    -16.576  0.0000E+00  0.0000E+00  0.1400E+00  0.1400E+00
    -16.406  0.0000E+00  0.0000E+00  0.1400E+00  0.1400E+00
    -16.236  0.0000E+00  0.0000E+00  0.1400E+00  0.1400E+00
    -16.066  0.0000E+00  0.0000E+00  0.1400E+00  0.1400E+00
    -15.896  0.0000E+00  0.0000E+00  0.1400E+00  0.1400E+00
    -15.725  0.0000E+00  0.0000E+00  0.1400E+00  0.1400E+00
    -15.555  0.0000E+00  0.0000E+00  0.1400E+00  0.1400E+00
    -15.385  0.0000E+00  0.0000E+00  0.1400E+00  0.1400E+00
    -15.215  0.0000E+00  0.0000E+00  0.1400E+00  0.1400E+00
    -15.045  0.0000E+00  0.0000E+00  0.1400E+00  0.1400E+00
    -14.874  0.0000E+00  0.0000E+00  0.1400E+00  0.1400E+00
    -14.704  0.0000E+00  0.0000E+00  0.1400E+00  0.1400E+00
    -14.534  0.0000E+00  0.0000E+00  0.1400E+00  0.1400E+00
    -14.364  0.0000E+00  0.0000E+00  0.1400E+00  0.1400E+00
    -14.194  0.0000E+00  0.0000E+00  0.1400E+00  0.1400E+00
    -14.023  0.0000E+00  0.0000E+00  0.1400E+00  0.1400E+00
    -13.853  0.0000E+00  0.0000E+00  0.1400E+00  0.1400E+00
    -13.683  0.0000E+00  0.0000E+00  0.1400E+00  0.1400E+00
    -13.513  0.0000E+00  0.0000E+00  0.1400E+00  0.1400E+00
    -13.343  0.0000E+00  0.0000E+00  0.1400E+00  0.1400E+00
    -13.172  0.0000E+00  0.0000E+00  0.1400E+00  0.1400E+00
    -13.002  0.0000E+00  0.0000E+00  0.1400E+00  0.1400E+00
    -12.832  0.0000E+00  0.0000E+00  0.1400E+00  0.1400E+00
    -12.662  0.0000E+00  0.0000E+00  0.1400E+00  0.1400E+00
    -12.492  0.0000E+00  0.0000E+00  0.1400E+00  0.1400E+00
    -12.321  0.0000E+00  0.0000E+00  0.1400E+00  0.1400E+00
    -12.151  0.0000E+00  0.0000E+00  0.1400E+00  0.1400E+00
    -11.981  0.0000E+00  0.0000E+00  0.1400E+00  0.1400E+00
    -11.811  0.0000E+00  0.0000E+00  0.1400E+00  0.1400E+00
    -11.641  0.0000E+00  0.0000E+00  0.1400E+00  0.1400E+00
    -11.470  0.0000E+00  0.0000E+00  0.1400E+00  0.1400E+00
    -11.300  0.0000E+00  0.0000E+00  0.1400E+00  0.1400E+00
    -11.130  0.0000E+00  0.0000E+00  0.1400E+00  0.1400E+00
    -10.960  0.0000E+00  0.0000E+00  0.1400E+00  0.1400E+00
    -10.790  0.0000E+00  0.0000E+00  0.1400E+00  0.1400E+00
    -10.619  0.0000E+00  0.0000E+00  0.1400E+00  0.1400E+00
    -10.449  0.0000E+00  0.0000E+00  0.1400E+00  0.1400E+00
    -10.279  0.0000E+00  0.0000E+00  0.1400E+00  0.1400E+00
    -10.109  0.0000E+00  0.0000E+00  0.1400E+00  0.1400E+00
     -9.939  0.0000E+00  0.0000E+00  0.1400E+00  0.1400E+00
     -9.768  0.0000E+00  0.0000E+00  0.1400E+00  0.1400E+00
     -9.598  0.0000E+00  0.0000E+00  0.1400E+00  0.1400E+00
     -9.428  0.0000E+00  0.0000E+00  0.1400E+00  0.1400E+00
     -9.258  0.0000E+00  0.0000E+00  0.1400E+00  0.1400E+00
     -9.087  0.0000E+00  0.0000E+00  0.1400E+00  0.1400E+00
     -8.917  0.0000E+00  0.0000E+00  0.1400E+00  0.1400E+00
     -8.747  0.0000E+00  0.0000E+00  0.1400E+00  0.1400E+00
     -8.577 -0.1751E-30 -0.2410E-35  0.1400E+00  0.1400E+00
     -8.407 -0.3633E-23 -0.2324E-27  0.1400E+00  0.1400E+00
     -8.236 -0.5450E-17 -0.1669E-20  0.1400E+00  0.1400E+00
     -8.066 -0.6007E-12 -0.8538E-15  0.1400E+00  0.1400E+00
     -7.896 -0.4690E-08 -0.3220E-10  0.1400E+00  0.1400E+00
     -7.726 -0.2396E-05 -0.8367E-07  0.1400E+00  0.1400E+00
     -7.556 -0.6118E-04 -0.1334E-04  0.1400E+00  0.1400E+00
     -7.385  0.3690E-03 -0.5566E-04  0.1401E+00  0.1400E+00
     -7.215  0.3704E-02  0.1278E-02  0.1407E+00  0.1402E+00
     -7.045  0.5711E-02  0.5276E-02  0.1417E+00  0.1411E+00
     -6.875  0.2122E-02  0.4254E-02  0.1420E+00  0.1418E+00
     -6.705  0.7400E-02  0.2777E-02  0.1433E+00  0.1423E+00
     -6.534  0.6420E-02  0.9235E-02  0.1444E+00  0.1439E+00
     -6.364  0.1361E-02  0.3044E-02  0.1446E+00  0.1444E+00
     -6.194  0.9960E-02  0.3726E-02  0.1463E+00  0.1450E+00
     -6.024  0.1460E-01  0.1249E-01  0.1488E+00  0.1472E+00
     -5.854  0.8543E-02  0.1247E-01  0.1502E+00  0.1493E+00
     -5.683  0.1237E-01  0.8684E-02  0.1523E+00  0.1508E+00
     -5.513  0.8651E-02  0.1273E-01  0.1538E+00  0.1529E+00
     -5.343  0.7929E-02  0.5598E-02  0.1552E+00  0.1539E+00
     -5.173  0.2167E-01  0.8422E-02  0.1588E+00  0.1553E+00
     -5.003  0.1321E-01  0.2166E-01  0.1611E+00  0.1590E+00
     -4.832  0.1746E-01  0.1083E-01  0.1641E+00  0.1608E+00
     -4.662  0.1768E-01  0.1819E-01  0.1671E+00  0.1639E+00
     -4.492  0.2805E-01  0.1199E-01  0.1719E+00  0.1660E+00
     -4.322  0.2812E-01  0.1772E-01  0.1766E+00  0.1690E+00
     -4.152  0.4555E-01  0.2882E-01  0.1844E+00  0.1739E+00
     -3.981  0.6692E-01  0.2078E-01  0.1958E+00  0.1774E+00
     -3.811  0.1004E+00  0.2461E-01  0.2129E+00  0.1816E+00
     -3.641  0.1249E+00  0.2093E-01  0.2341E+00  0.1852E+00
     -3.471  0.1234E+00  0.3314E-01  0.2551E+00  0.1908E+00
     -3.301  0.1642E+00  0.4460E-01  0.2831E+00  0.1984E+00
     -3.130  0.1591E+00  0.6076E-01  0.3102E+00  0.2088E+00
     -2.960  0.1433E+00  0.6847E-01  0.3345E+00  0.2204E+00
     -2.790  0.1592E+00  0.7345E-01  0.3616E+00  0.2329E+00
     -2.620  0.2359E+00  0.6953E-01  0.4018E+00  0.2447E+00
     -2.450  0.2534E+00  0.1003E+00  0.4449E+00  0.2618E+00
     -2.279  0.2251E+00  0.1129E+00  0.4832E+00  0.2810E+00
     -2.109  0.2389E+00  0.1224E+00  0.5239E+00  0.3019E+00
     -1.939  0.2320E+00  0.1221E+00  0.5634E+00  0.3227E+00
     -1.769  0.2187E+00  0.1159E+00  0.6006E+00  0.3424E+00
     -1.599  0.2083E+00  0.1370E+00  0.6360E+00  0.3657E+00
     -1.428  0.1817E+00  0.1586E+00  0.6670E+00  0.3927E+00
     -1.258  0.1612E+00  0.1817E+00  0.6944E+00  0.4236E+00
     -1.088  0.1570E+00  0.1855E+00  0.7211E+00  0.4552E+00
     -0.918  0.1781E+00  0.1743E+00  0.7514E+00  0.4849E+00
     -0.747  0.2209E+00  0.1910E+00  0.7890E+00  0.5174E+00
     -0.577  0.2885E+00  0.1967E+00  0.8381E+00  0.5509E+00
     -0.407  0.3212E+00  0.2032E+00  0.8928E+00  0.5854E+00
     -0.237  0.2745E+00  0.1950E+00  0.9395E+00  0.6186E+00
     -0.067  0.1945E+00  0.1700E+00  0.9727E+00  0.6476E+00
      0.104  0.1548E+00  0.1561E+00  0.9990E+00  0.6741E+00
      0.274  0.1383E+00  0.1371E+00  0.1023E+01  0.6975E+00
      0.444  0.1282E+00  0.1369E+00  0.1044E+01  0.7208E+00
      0.614  0.1103E+00  0.1188E+00  0.1063E+01  0.7410E+00
      0.784  0.8636E-01  0.1074E+00  0.1078E+01  0.7593E+00
      0.955  0.8848E-01  0.1109E+00  0.1093E+01  0.7782E+00
      1.125  0.9354E-01  0.1469E+00  0.1109E+01  0.8032E+00
      1.295  0.9052E-01  0.1612E+00  0.1124E+01  0.8306E+00
      1.465  0.8975E-01  0.1804E+00  0.1139E+01  0.8613E+00
      1.635  0.8711E-01  0.2141E+00  0.1154E+01  0.8978E+00
      1.806  0.9558E-01  0.2463E+00  0.1171E+01  0.9397E+00
      1.976  0.1092E+00  0.2836E+00  0.1189E+01  0.9880E+00
      2.146  0.9668E-01  0.2981E+00  0.1206E+01  0.1039E+01
      2.316  0.2812E-01  0.3156E+00  0.1210E+01  0.1092E+01
      2.486 -0.2259E-02  0.3230E+00  0.1210E+01  0.1147E+01
      2.657 -0.1819E-03  0.2241E+00  0.1210E+01  0.1186E+01
      2.827 -0.6413E-06  0.1285E+00  0.1210E+01  0.1207E+01
      2.997 -0.1675E-09  0.1778E-01  0.1210E+01  0.1210E+01
      3.167 -0.3434E-14 -0.2350E-02  0.1210E+01  0.1210E+01
      3.337  0.0000E+00 -0.1154E-03  0.1210E+01  0.1210E+01
      3.508  0.0000E+00 -0.3828E-06  0.1210E+01  0.1210E+01
      3.678  0.0000E+00 -0.1069E-09  0.1210E+01  0.1210E+01
      3.848  0.0000E+00 -0.2502E-14  0.1210E+01  0.1210E+01
      4.018  0.0000E+00  0.0000E+00  0.1210E+01  0.1210E+01
      4.188  0.0000E+00  0.0000E+00  0.1210E+01  0.1210E+01
      4.359  0.0000E+00  0.0000E+00  0.1210E+01  0.1210E+01
      4.529  0.0000E+00  0.0000E+00  0.1210E+01  0.1210E+01
      4.699  0.0000E+00  0.0000E+00  0.1210E+01  0.1210E+01
      4.869  0.0000E+00  0.0000E+00  0.1210E+01  0.1210E+01
      5.039  0.0000E+00  0.0000E+00  0.1210E+01  0.1210E+01
      5.210  0.0000E+00  0.0000E+00  0.1210E+01  0.1210E+01
