Generated by VASPKIT code               
   1.00000000000000     
     8.5261999999999993    0.0000000000000000    0.0000000000000000
    -0.0017666500000000    8.5045998199999993    0.0000000000000000
     0.0000000000000000    0.0000000000000000   23.5557990000000004
   Fe   Cr
    49    14
Selective dynamics
Direct
     0.0024500000000032    0.9986499999999978    0.1211699999999993   F   F   F
     0.1698000000000022    0.1658699999999982    0.1809900000000013   F   F   F
     0.3362300000000005    0.9985199999999992    0.1210999999999984   F   F   F
     0.5016400000000019    0.1659399999999991    0.1813500000000019   F   F   F
     0.8361500000000035    0.1655900000000017    0.1809900000000013   F   F   F
     0.0026000000000010    0.3328399999999974    0.1210099999999983   F   F   F
     0.1699399999999969    0.4992500000000035    0.1810400000000030   F   F   F
     0.3365099999999970    0.3328699999999998    0.1208600000000004   F   F   F
     0.5018000000000029    0.4993699999999990    0.1812299999999993   F   F   F
     0.6696499999999972    0.3330399999999969    0.1210299999999975   F   F   F
     0.8362600000000029    0.4996300000000033    0.1811700000000016   F   F   F
     0.1689900000000009    0.8332899999999981    0.1817700000000002   F   F   F
     0.3358199999999982    0.6668900000000022    0.1209500000000006   F   F   F
     0.6691399999999987    0.6672200000000004    0.1211699999999993   F   F   F
     0.8367999999999967    0.8322000000000003    0.1811399999999992   F   F   F
     0.0017199999999988    0.9994399999999999    0.2415099999999981   F   F   F
     0.1689292635576490    0.1589209688907647    0.3018170956398721   T   T   T
     0.5026324633203370    0.1658659948305911    0.3026242024643588   T   T   T
     0.6698799999999991    0.9992400000000004    0.2414199999999980   F   F   F
     0.8360200522097525    0.1644455275474869    0.3028546381647794   T   T   T
     0.1646922520638910    0.5003233683247260    0.3011106885701988   T   T   T
     0.3352399999999989    0.3324599999999975    0.2418300000000002   F   F   F
     0.5045617973551619    0.5002874823236946    0.3032428922116139   T   T   T
     0.6690200000000033    0.3331700000000026    0.2412300000000016   F   F   F
     0.8355135031239121    0.4964269709970265    0.3028010546101250   T   T   T
     0.0031800000000004    0.6659799999999976    0.2417700000000025   F   F   F
     0.3360500000000002    0.6658800000000014    0.2414600000000036   F   F   F
     0.5022138701881241    0.8351569804684860    0.3022929953268383   T   T   T
     0.6691799999999972    0.6667399999999972    0.2413099999999986   F   F   F
     0.0027100000000004    0.9986900000000034    0.0003400000000013   F   F   F
     0.0109415862118473    0.9947646547461357    0.3588932624170343   T   T   T
     0.1692899999999966    0.1669399999999968    0.0607100000000003   F   F   F
     0.3365700000000018    0.0007499999999965    0.0006699999999995   F   F   F
     0.3379719393407246    0.0089296277837560    0.3626803993632257   T   T   T
     0.5034300000000016    0.1651999999999987    0.0610500000000016   F   F   F
     0.6694800000000001    0.9988299999999981    0.0005299999999977   F   F   F
     0.6578010376557170    0.0044497897089771    0.3620518768471470   T   T   T
     0.8357000000000028    0.1655599999999993    0.0609400000000022   F   F   F
     0.1706100000000035    0.4974599999999967    0.0603199999999973   F   F   F
     0.5021500000000003    0.4999200000000030    0.0608599999999981   F   F   F
     0.6692999999999998    0.3335799999999978    0.0005000000000024   F   F   F
     0.6704259163129226    0.3297442831934027    0.3603449743911437   T   T   T
     0.0023899999999983    0.6644099999999966    0.0005099999999985   F   F   F
     0.0006468295190268    0.6633464641844470    0.3579668834672307   T   T   T
     0.1689399999999992    0.8330399999999969    0.0606200000000001   F   F   F
     0.5022200000000012    0.8331799999999987    0.0607699999999980   F   F   F
     0.6688199999999966    0.6665500000000009    0.0006800000000027   F   F   F
     0.6679504352844780    0.6650443572984019    0.3595232434213420   T   T   T
     0.8361999999999981    0.8320599999999985    0.0608599999999981   F   F   F
     0.6687900000000013    0.9968900000000005    0.1222500000000011   F   F   F
     0.0012699999999981    0.6647600000000011    0.1204600000000013   F   F   F
     0.5027199999999965    0.8339100000000030    0.1809799999999981   F   F   F
     0.3366200000000035    0.9978399999999965    0.2417200000000008   F   F   F
     0.0024000000000015    0.3333200000000005    0.2407899999999970   F   F   F
     0.1748509011666965    0.8302268961775576    0.3026644010737392   T   T   T
     0.8334502019287632    0.8336666807917830    0.3025141181831686   T   T   T
     0.9996200000000002    0.3343100000000021    0.0019899999999993   F   F   F
     0.0111827813858003    0.3295223672757888    0.3716574943939434   T   T   T
     0.3392199999999974    0.3307199999999995    0.0000000000000000   F   F   F
     0.3294737750933871    0.3374353583513234    0.3602541701721252   T   T   T
     0.8377899999999983    0.4999899999999968    0.0613499999999974   F   F   F
     0.3352399999999989    0.6703699999999984    0.0002300000000020   F   F   F
     0.3289266642892074    0.6716733219158290    0.3704260955898785   T   T   T
 
  0.00000000E+00  0.00000000E+00  0.00000000E+00
  0.00000000E+00  0.00000000E+00  0.00000000E+00
  0.00000000E+00  0.00000000E+00  0.00000000E+00
  0.00000000E+00  0.00000000E+00  0.00000000E+00
  0.00000000E+00  0.00000000E+00  0.00000000E+00
  0.00000000E+00  0.00000000E+00  0.00000000E+00
  0.00000000E+00  0.00000000E+00  0.00000000E+00
  0.00000000E+00  0.00000000E+00  0.00000000E+00
  0.00000000E+00  0.00000000E+00  0.00000000E+00
  0.00000000E+00  0.00000000E+00  0.00000000E+00
  0.00000000E+00  0.00000000E+00  0.00000000E+00
  0.00000000E+00  0.00000000E+00  0.00000000E+00
  0.00000000E+00  0.00000000E+00  0.00000000E+00
  0.00000000E+00  0.00000000E+00  0.00000000E+00
  0.00000000E+00  0.00000000E+00  0.00000000E+00
  0.00000000E+00  0.00000000E+00  0.00000000E+00
  0.00000000E+00  0.00000000E+00  0.00000000E+00
  0.00000000E+00  0.00000000E+00  0.00000000E+00
  0.00000000E+00  0.00000000E+00  0.00000000E+00
  0.00000000E+00  0.00000000E+00  0.00000000E+00
  0.00000000E+00  0.00000000E+00  0.00000000E+00
  0.00000000E+00  0.00000000E+00  0.00000000E+00
  0.00000000E+00  0.00000000E+00  0.00000000E+00
  0.00000000E+00  0.00000000E+00  0.00000000E+00
  0.00000000E+00  0.00000000E+00  0.00000000E+00
  0.00000000E+00  0.00000000E+00  0.00000000E+00
  0.00000000E+00  0.00000000E+00  0.00000000E+00
  0.00000000E+00  0.00000000E+00  0.00000000E+00
  0.00000000E+00  0.00000000E+00  0.00000000E+00
  0.00000000E+00  0.00000000E+00  0.00000000E+00
  0.00000000E+00  0.00000000E+00  0.00000000E+00
  0.00000000E+00  0.00000000E+00  0.00000000E+00
  0.00000000E+00  0.00000000E+00  0.00000000E+00
  0.00000000E+00  0.00000000E+00  0.00000000E+00
  0.00000000E+00  0.00000000E+00  0.00000000E+00
  0.00000000E+00  0.00000000E+00  0.00000000E+00
  0.00000000E+00  0.00000000E+00  0.00000000E+00
  0.00000000E+00  0.00000000E+00  0.00000000E+00
  0.00000000E+00  0.00000000E+00  0.00000000E+00
  0.00000000E+00  0.00000000E+00  0.00000000E+00
  0.00000000E+00  0.00000000E+00  0.00000000E+00
  0.00000000E+00  0.00000000E+00  0.00000000E+00
  0.00000000E+00  0.00000000E+00  0.00000000E+00
  0.00000000E+00  0.00000000E+00  0.00000000E+00
  0.00000000E+00  0.00000000E+00  0.00000000E+00
  0.00000000E+00  0.00000000E+00  0.00000000E+00
  0.00000000E+00  0.00000000E+00  0.00000000E+00
  0.00000000E+00  0.00000000E+00  0.00000000E+00
  0.00000000E+00  0.00000000E+00  0.00000000E+00
  0.00000000E+00  0.00000000E+00  0.00000000E+00
  0.00000000E+00  0.00000000E+00  0.00000000E+00
  0.00000000E+00  0.00000000E+00  0.00000000E+00
  0.00000000E+00  0.00000000E+00  0.00000000E+00
  0.00000000E+00  0.00000000E+00  0.00000000E+00
  0.00000000E+00  0.00000000E+00  0.00000000E+00
  0.00000000E+00  0.00000000E+00  0.00000000E+00
  0.00000000E+00  0.00000000E+00  0.00000000E+00
  0.00000000E+00  0.00000000E+00  0.00000000E+00
  0.00000000E+00  0.00000000E+00  0.00000000E+00
  0.00000000E+00  0.00000000E+00  0.00000000E+00
  0.00000000E+00  0.00000000E+00  0.00000000E+00
  0.00000000E+00  0.00000000E+00  0.00000000E+00
  0.00000000E+00  0.00000000E+00  0.00000000E+00
