  63  63   0   0
  0.2711232E+02  0.8526200E-09  0.8504600E-09  0.2355580E-08  0.5000000E-15
  1.000000000000000E-004
  CAR 
 INCAR-For-OPT                           
      5.35687638    -45.83698201  301      0.86757547      1.00000000
    -45.837  0.0000E+00  0.0000E+00  0.0000E+00  0.0000E+00
    -45.666  0.0000E+00  0.0000E+00  0.0000E+00  0.0000E+00
    -45.496  0.0000E+00  0.0000E+00  0.0000E+00  0.0000E+00
    -45.325  0.0000E+00  0.0000E+00  0.0000E+00  0.0000E+00
    -45.154  0.0000E+00  0.0000E+00  0.0000E+00  0.0000E+00
    -44.984  0.0000E+00  0.0000E+00  0.0000E+00  0.0000E+00
    -44.813  0.0000E+00 -0.8363E-34  0.0000E+00 -0.1427E-34
    -44.642  0.0000E+00 -0.7856E-26  0.0000E+00 -0.1341E-26
    -44.472  0.0000E+00 -0.5507E-19  0.0000E+00 -0.9398E-20
    -44.301  0.0000E+00 -0.2785E-13  0.0000E+00 -0.4753E-14
    -44.131 -0.6697E-29 -0.1069E-08 -0.1143E-29 -0.1825E-09
    -43.960 -0.1312E-21 -0.2987E-05 -0.2240E-22 -0.5098E-06
    -43.789 -0.1861E-15 -0.5560E-03 -0.3176E-16 -0.9539E-04
    -43.619 -0.1995E-10 -0.2508E-02 -0.3405E-11 -0.5234E-03
    -43.448 -0.1589E-06  0.6140E-01 -0.2712E-07  0.9954E-02
    -43.277 -0.9124E-04  0.1675E+00 -0.1560E-04  0.3853E-01
    -43.107 -0.2759E-02  0.1116E+00 -0.4864E-03  0.5758E-01
    -42.936  0.2654E-01  0.1085E+00  0.4042E-02  0.7610E-01
    -42.765  0.8739E-01  0.7347E-01  0.1896E-01  0.8864E-01
    -42.595  0.7232E-02  0.4417E-01  0.2019E-01  0.9618E-01
    -42.424 -0.2846E-02  0.3640E-01  0.1970E-01  0.1024E+00
    -42.253  0.4904E-01  0.2926E-01  0.2807E-01  0.1074E+00
    -42.083  0.8542E-01  0.2597E-01  0.4265E-01  0.1118E+00
    -41.912  0.1065E+00  0.2568E-01  0.6083E-01  0.1162E+00
    -41.741  0.1606E+00  0.1566E-01  0.8824E-01  0.1189E+00
    -41.571  0.7240E-01  0.7320E-02  0.1006E+00  0.1201E+00
    -41.400 -0.2878E-02 -0.6561E-03  0.1001E+00  0.1200E+00
    -41.230 -0.6149E-03 -0.3004E-04  0.1000E+00  0.1200E+00
    -41.059 -0.4308E-05 -0.5208E-07  0.1000E+00  0.1200E+00
    -40.888 -0.2326E-05 -0.5741E-11  0.1000E+00  0.1200E+00
    -40.718 -0.5068E-03 -0.4471E-16  0.9991E-01  0.1200E+00
    -40.547 -0.2720E-02 -0.3400E-12  0.9945E-01  0.1200E+00
    -40.376  0.6255E-01 -0.6242E-08  0.1101E+00  0.1200E+00
    -40.206  0.1323E+00 -0.7636E-05  0.1327E+00  0.1200E+00
    -40.035  0.4609E-01 -0.5196E-03  0.1406E+00  0.1199E+00
    -39.864 -0.2988E-02  0.1588E-02  0.1401E+00  0.1202E+00
    -39.694 -0.3181E-03  0.3408E-01  0.1400E+00  0.1260E+00
    -39.523 -0.1259E-05  0.6394E-01  0.1400E+00  0.1369E+00
    -39.352 -0.3332E-09  0.1991E-01  0.1400E+00  0.1403E+00
    -39.182 -0.6256E-14 -0.1670E-02  0.1400E+00  0.1400E+00
    -39.011  0.0000E+00 -0.1100E-03  0.1400E+00  0.1400E+00
    -38.840  0.0000E+00 -0.2792E-06  0.1400E+00  0.1400E+00
    -38.670  0.0000E+00 -0.4592E-10  0.1400E+00  0.1400E+00
    -38.499  0.0000E+00 -0.5335E-15  0.1400E+00  0.1400E+00
    -38.329  0.0000E+00  0.0000E+00  0.1400E+00  0.1400E+00
    -38.158  0.0000E+00  0.0000E+00  0.1400E+00  0.1400E+00
    -37.987  0.0000E+00  0.0000E+00  0.1400E+00  0.1400E+00
    -37.817  0.0000E+00  0.0000E+00  0.1400E+00  0.1400E+00
    -37.646  0.0000E+00  0.0000E+00  0.1400E+00  0.1400E+00
    -37.475  0.0000E+00  0.0000E+00  0.1400E+00  0.1400E+00
    -37.305  0.0000E+00  0.0000E+00  0.1400E+00  0.1400E+00
    -37.134  0.0000E+00  0.0000E+00  0.1400E+00  0.1400E+00
    -36.963  0.0000E+00  0.0000E+00  0.1400E+00  0.1400E+00
    -36.793  0.0000E+00  0.0000E+00  0.1400E+00  0.1400E+00
    -36.622  0.0000E+00  0.0000E+00  0.1400E+00  0.1400E+00
    -36.451  0.0000E+00  0.0000E+00  0.1400E+00  0.1400E+00
    -36.281  0.0000E+00  0.0000E+00  0.1400E+00  0.1400E+00
    -36.110  0.0000E+00  0.0000E+00  0.1400E+00  0.1400E+00
    -35.940  0.0000E+00  0.0000E+00  0.1400E+00  0.1400E+00
    -35.769  0.0000E+00  0.0000E+00  0.1400E+00  0.1400E+00
    -35.598  0.0000E+00  0.0000E+00  0.1400E+00  0.1400E+00
    -35.428  0.0000E+00  0.0000E+00  0.1400E+00  0.1400E+00
    -35.257  0.0000E+00  0.0000E+00  0.1400E+00  0.1400E+00
    -35.086  0.0000E+00  0.0000E+00  0.1400E+00  0.1400E+00
    -34.916  0.0000E+00  0.0000E+00  0.1400E+00  0.1400E+00
    -34.745  0.0000E+00  0.0000E+00  0.1400E+00  0.1400E+00
    -34.574  0.0000E+00  0.0000E+00  0.1400E+00  0.1400E+00
    -34.404  0.0000E+00  0.0000E+00  0.1400E+00  0.1400E+00
    -34.233  0.0000E+00  0.0000E+00  0.1400E+00  0.1400E+00
    -34.062  0.0000E+00  0.0000E+00  0.1400E+00  0.1400E+00
    -33.892  0.0000E+00  0.0000E+00  0.1400E+00  0.1400E+00
    -33.721  0.0000E+00  0.0000E+00  0.1400E+00  0.1400E+00
    -33.550  0.0000E+00  0.0000E+00  0.1400E+00  0.1400E+00
    -33.380  0.0000E+00  0.0000E+00  0.1400E+00  0.1400E+00
    -33.209  0.0000E+00  0.0000E+00  0.1400E+00  0.1400E+00
    -33.039  0.0000E+00  0.0000E+00  0.1400E+00  0.1400E+00
    -32.868  0.0000E+00  0.0000E+00  0.1400E+00  0.1400E+00
    -32.697  0.0000E+00  0.0000E+00  0.1400E+00  0.1400E+00
    -32.527  0.0000E+00  0.0000E+00  0.1400E+00  0.1400E+00
    -32.356  0.0000E+00  0.0000E+00  0.1400E+00  0.1400E+00
    -32.185  0.0000E+00  0.0000E+00  0.1400E+00  0.1400E+00
    -32.015  0.0000E+00  0.0000E+00  0.1400E+00  0.1400E+00
    -31.844  0.0000E+00  0.0000E+00  0.1400E+00  0.1400E+00
    -31.673  0.0000E+00  0.0000E+00  0.1400E+00  0.1400E+00
    -31.503  0.0000E+00  0.0000E+00  0.1400E+00  0.1400E+00
    -31.332  0.0000E+00  0.0000E+00  0.1400E+00  0.1400E+00
    -31.161  0.0000E+00  0.0000E+00  0.1400E+00  0.1400E+00
    -30.991  0.0000E+00  0.0000E+00  0.1400E+00  0.1400E+00
    -30.820  0.0000E+00  0.0000E+00  0.1400E+00  0.1400E+00
    -30.649  0.0000E+00  0.0000E+00  0.1400E+00  0.1400E+00
    -30.479  0.0000E+00  0.0000E+00  0.1400E+00  0.1400E+00
    -30.308  0.0000E+00  0.0000E+00  0.1400E+00  0.1400E+00
    -30.138  0.0000E+00  0.0000E+00  0.1400E+00  0.1400E+00
    -29.967  0.0000E+00  0.0000E+00  0.1400E+00  0.1400E+00
    -29.796  0.0000E+00  0.0000E+00  0.1400E+00  0.1400E+00
    -29.626  0.0000E+00  0.0000E+00  0.1400E+00  0.1400E+00
    -29.455  0.0000E+00  0.0000E+00  0.1400E+00  0.1400E+00
    -29.284  0.0000E+00  0.0000E+00  0.1400E+00  0.1400E+00
    -29.114  0.0000E+00  0.0000E+00  0.1400E+00  0.1400E+00
    -28.943  0.0000E+00  0.0000E+00  0.1400E+00  0.1400E+00
    -28.772  0.0000E+00  0.0000E+00  0.1400E+00  0.1400E+00
    -28.602  0.0000E+00  0.0000E+00  0.1400E+00  0.1400E+00
    -28.431  0.0000E+00  0.0000E+00  0.1400E+00  0.1400E+00
    -28.260  0.0000E+00  0.0000E+00  0.1400E+00  0.1400E+00
    -28.090  0.0000E+00  0.0000E+00  0.1400E+00  0.1400E+00
    -27.919  0.0000E+00  0.0000E+00  0.1400E+00  0.1400E+00
    -27.748  0.0000E+00  0.0000E+00  0.1400E+00  0.1400E+00
    -27.578  0.0000E+00  0.0000E+00  0.1400E+00  0.1400E+00
    -27.407  0.0000E+00  0.0000E+00  0.1400E+00  0.1400E+00
    -27.237  0.0000E+00  0.0000E+00  0.1400E+00  0.1400E+00
    -27.066  0.0000E+00  0.0000E+00  0.1400E+00  0.1400E+00
    -26.895  0.0000E+00  0.0000E+00  0.1400E+00  0.1400E+00
    -26.725  0.0000E+00  0.0000E+00  0.1400E+00  0.1400E+00
    -26.554  0.0000E+00  0.0000E+00  0.1400E+00  0.1400E+00
    -26.383  0.0000E+00  0.0000E+00  0.1400E+00  0.1400E+00
    -26.213  0.0000E+00  0.0000E+00  0.1400E+00  0.1400E+00
    -26.042  0.0000E+00  0.0000E+00  0.1400E+00  0.1400E+00
    -25.871  0.0000E+00  0.0000E+00  0.1400E+00  0.1400E+00
    -25.701  0.0000E+00  0.0000E+00  0.1400E+00  0.1400E+00
    -25.530  0.0000E+00  0.0000E+00  0.1400E+00  0.1400E+00
    -25.359  0.0000E+00  0.0000E+00  0.1400E+00  0.1400E+00
    -25.189  0.0000E+00  0.0000E+00  0.1400E+00  0.1400E+00
    -25.018  0.0000E+00  0.0000E+00  0.1400E+00  0.1400E+00
    -24.848  0.0000E+00  0.0000E+00  0.1400E+00  0.1400E+00
    -24.677  0.0000E+00  0.0000E+00  0.1400E+00  0.1400E+00
    -24.506  0.0000E+00  0.0000E+00  0.1400E+00  0.1400E+00
    -24.336  0.0000E+00  0.0000E+00  0.1400E+00  0.1400E+00
    -24.165  0.0000E+00  0.0000E+00  0.1400E+00  0.1400E+00
    -23.994  0.0000E+00  0.0000E+00  0.1400E+00  0.1400E+00
    -23.824  0.0000E+00  0.0000E+00  0.1400E+00  0.1400E+00
    -23.653  0.0000E+00  0.0000E+00  0.1400E+00  0.1400E+00
    -23.482  0.0000E+00  0.0000E+00  0.1400E+00  0.1400E+00
    -23.312  0.0000E+00  0.0000E+00  0.1400E+00  0.1400E+00
    -23.141  0.0000E+00  0.0000E+00  0.1400E+00  0.1400E+00
    -22.970  0.0000E+00  0.0000E+00  0.1400E+00  0.1400E+00
    -22.800  0.0000E+00  0.0000E+00  0.1400E+00  0.1400E+00
    -22.629  0.0000E+00  0.0000E+00  0.1400E+00  0.1400E+00
    -22.458  0.0000E+00  0.0000E+00  0.1400E+00  0.1400E+00
    -22.288  0.0000E+00  0.0000E+00  0.1400E+00  0.1400E+00
    -22.117  0.0000E+00  0.0000E+00  0.1400E+00  0.1400E+00
    -21.947  0.0000E+00  0.0000E+00  0.1400E+00  0.1400E+00
    -21.776  0.0000E+00  0.0000E+00  0.1400E+00  0.1400E+00
    -21.605  0.0000E+00  0.0000E+00  0.1400E+00  0.1400E+00
    -21.435  0.0000E+00  0.0000E+00  0.1400E+00  0.1400E+00
    -21.264  0.0000E+00  0.0000E+00  0.1400E+00  0.1400E+00
    -21.093  0.0000E+00  0.0000E+00  0.1400E+00  0.1400E+00
    -20.923  0.0000E+00  0.0000E+00  0.1400E+00  0.1400E+00
    -20.752  0.0000E+00  0.0000E+00  0.1400E+00  0.1400E+00
    -20.581  0.0000E+00  0.0000E+00  0.1400E+00  0.1400E+00
    -20.411  0.0000E+00  0.0000E+00  0.1400E+00  0.1400E+00
    -20.240  0.0000E+00  0.0000E+00  0.1400E+00  0.1400E+00
    -20.069  0.0000E+00  0.0000E+00  0.1400E+00  0.1400E+00
    -19.899  0.0000E+00  0.0000E+00  0.1400E+00  0.1400E+00
    -19.728  0.0000E+00  0.0000E+00  0.1400E+00  0.1400E+00
    -19.557  0.0000E+00  0.0000E+00  0.1400E+00  0.1400E+00
    -19.387  0.0000E+00  0.0000E+00  0.1400E+00  0.1400E+00
    -19.216  0.0000E+00  0.0000E+00  0.1400E+00  0.1400E+00
    -19.046  0.0000E+00  0.0000E+00  0.1400E+00  0.1400E+00
    -18.875  0.0000E+00  0.0000E+00  0.1400E+00  0.1400E+00
    -18.704  0.0000E+00  0.0000E+00  0.1400E+00  0.1400E+00
    -18.534  0.0000E+00  0.0000E+00  0.1400E+00  0.1400E+00
    -18.363  0.0000E+00  0.0000E+00  0.1400E+00  0.1400E+00
    -18.192  0.0000E+00  0.0000E+00  0.1400E+00  0.1400E+00
    -18.022  0.0000E+00  0.0000E+00  0.1400E+00  0.1400E+00
    -17.851  0.0000E+00  0.0000E+00  0.1400E+00  0.1400E+00
    -17.680  0.0000E+00  0.0000E+00  0.1400E+00  0.1400E+00
    -17.510  0.0000E+00  0.0000E+00  0.1400E+00  0.1400E+00
    -17.339  0.0000E+00  0.0000E+00  0.1400E+00  0.1400E+00
    -17.168  0.0000E+00  0.0000E+00  0.1400E+00  0.1400E+00
    -16.998  0.0000E+00  0.0000E+00  0.1400E+00  0.1400E+00
    -16.827  0.0000E+00  0.0000E+00  0.1400E+00  0.1400E+00
    -16.656  0.0000E+00  0.0000E+00  0.1400E+00  0.1400E+00
    -16.486  0.0000E+00  0.0000E+00  0.1400E+00  0.1400E+00
    -16.315  0.0000E+00  0.0000E+00  0.1400E+00  0.1400E+00
    -16.145  0.0000E+00  0.0000E+00  0.1400E+00  0.1400E+00
    -15.974  0.0000E+00  0.0000E+00  0.1400E+00  0.1400E+00
    -15.803  0.0000E+00  0.0000E+00  0.1400E+00  0.1400E+00
    -15.633  0.0000E+00  0.0000E+00  0.1400E+00  0.1400E+00
    -15.462  0.0000E+00  0.0000E+00  0.1400E+00  0.1400E+00
    -15.291  0.0000E+00  0.0000E+00  0.1400E+00  0.1400E+00
    -15.121  0.0000E+00  0.0000E+00  0.1400E+00  0.1400E+00
    -14.950  0.0000E+00  0.0000E+00  0.1400E+00  0.1400E+00
    -14.779  0.0000E+00  0.0000E+00  0.1400E+00  0.1400E+00
    -14.609  0.0000E+00  0.0000E+00  0.1400E+00  0.1400E+00
    -14.438  0.0000E+00  0.0000E+00  0.1400E+00  0.1400E+00
    -14.267  0.0000E+00  0.0000E+00  0.1400E+00  0.1400E+00
    -14.097  0.0000E+00  0.0000E+00  0.1400E+00  0.1400E+00
    -13.926  0.0000E+00  0.0000E+00  0.1400E+00  0.1400E+00
    -13.755  0.0000E+00  0.0000E+00  0.1400E+00  0.1400E+00
    -13.585  0.0000E+00  0.0000E+00  0.1400E+00  0.1400E+00
    -13.414  0.0000E+00  0.0000E+00  0.1400E+00  0.1400E+00
    -13.244  0.0000E+00  0.0000E+00  0.1400E+00  0.1400E+00
    -13.073  0.0000E+00  0.0000E+00  0.1400E+00  0.1400E+00
    -12.902  0.0000E+00  0.0000E+00  0.1400E+00  0.1400E+00
    -12.732  0.0000E+00  0.0000E+00  0.1400E+00  0.1400E+00
    -12.561  0.0000E+00  0.0000E+00  0.1400E+00  0.1400E+00
    -12.390  0.0000E+00  0.0000E+00  0.1400E+00  0.1400E+00
    -12.220  0.0000E+00  0.0000E+00  0.1400E+00  0.1400E+00
    -12.049  0.0000E+00  0.0000E+00  0.1400E+00  0.1400E+00
    -11.878  0.0000E+00  0.0000E+00  0.1400E+00  0.1400E+00
    -11.708  0.0000E+00  0.0000E+00  0.1400E+00  0.1400E+00
    -11.537  0.0000E+00  0.0000E+00  0.1400E+00  0.1400E+00
    -11.366  0.0000E+00  0.0000E+00  0.1400E+00  0.1400E+00
    -11.196  0.0000E+00  0.0000E+00  0.1400E+00  0.1400E+00
    -11.025  0.0000E+00  0.0000E+00  0.1400E+00  0.1400E+00
    -10.855  0.0000E+00  0.0000E+00  0.1400E+00  0.1400E+00
    -10.684  0.0000E+00  0.0000E+00  0.1400E+00  0.1400E+00
    -10.513  0.0000E+00  0.0000E+00  0.1400E+00  0.1400E+00
    -10.343  0.0000E+00  0.0000E+00  0.1400E+00  0.1400E+00
    -10.172  0.0000E+00  0.0000E+00  0.1400E+00  0.1400E+00
    -10.001  0.0000E+00  0.0000E+00  0.1400E+00  0.1400E+00
     -9.831  0.0000E+00  0.0000E+00  0.1400E+00  0.1400E+00
     -9.660  0.0000E+00  0.0000E+00  0.1400E+00  0.1400E+00
     -9.489  0.0000E+00  0.0000E+00  0.1400E+00  0.1400E+00
     -9.319  0.0000E+00  0.0000E+00  0.1400E+00  0.1400E+00
     -9.148  0.0000E+00  0.0000E+00  0.1400E+00  0.1400E+00
     -8.977  0.0000E+00  0.0000E+00  0.1400E+00  0.1400E+00
     -8.807  0.0000E+00  0.0000E+00  0.1400E+00  0.1400E+00
     -8.636 -0.1077E-35  0.0000E+00  0.1400E+00  0.1400E+00
     -8.465 -0.1207E-27 -0.8111E-33  0.1400E+00  0.1400E+00
     -8.295 -0.9941E-21 -0.3729E-25  0.1400E+00  0.1400E+00
     -8.124 -0.5758E-15 -0.1256E-18  0.1400E+00  0.1400E+00
     -7.954 -0.2427E-10 -0.2949E-13  0.1400E+00  0.1400E+00
     -7.783 -0.6967E-07 -0.4998E-09  0.1400E+00  0.1400E+00
     -7.612 -0.1218E-04 -0.5619E-06  0.1400E+00  0.1400E+00
     -7.442 -0.6087E-04 -0.3515E-04  0.1400E+00  0.1400E+00
     -7.271  0.1229E-02  0.7696E-04  0.1402E+00  0.1400E+00
     -7.100  0.5271E-02  0.2456E-02  0.1411E+00  0.1404E+00
     -6.930  0.4276E-02  0.5893E-02  0.1418E+00  0.1414E+00
     -6.759  0.2948E-02  0.2718E-02  0.1423E+00  0.1419E+00
     -6.588  0.9398E-02  0.4946E-02  0.1439E+00  0.1427E+00
     -6.418  0.2790E-02  0.8835E-02  0.1444E+00  0.1442E+00
     -6.247  0.5055E-02  0.1264E-02  0.1453E+00  0.1445E+00
     -6.076  0.1346E-01  0.7806E-02  0.1476E+00  0.1458E+00
     -5.906  0.1163E-01  0.1326E-01  0.1496E+00  0.1481E+00
     -5.735  0.1039E-01  0.1075E-01  0.1513E+00  0.1499E+00
     -5.564  0.1200E-01  0.1075E-01  0.1534E+00  0.1517E+00
     -5.394  0.4659E-02  0.1069E-01  0.1542E+00  0.1536E+00
     -5.223  0.1693E-01  0.3674E-02  0.1571E+00  0.1542E+00
     -5.053  0.1832E-01  0.1555E-01  0.1602E+00  0.1568E+00
     -4.882  0.1466E-01  0.1843E-01  0.1627E+00  0.1600E+00
     -4.711  0.1932E-01  0.1164E-01  0.1660E+00  0.1620E+00
     -4.541  0.2172E-01  0.1962E-01  0.1697E+00  0.1653E+00
     -4.370  0.2702E-01  0.9840E-02  0.1743E+00  0.1670E+00
     -4.199  0.3616E-01  0.2624E-01  0.1805E+00  0.1715E+00
     -4.029  0.5288E-01  0.2327E-01  0.1895E+00  0.1754E+00
     -3.858  0.7843E-01  0.2537E-01  0.2029E+00  0.1798E+00
     -3.687  0.1205E+00  0.2008E-01  0.2234E+00  0.1832E+00
     -3.517  0.1198E+00  0.2494E-01  0.2439E+00  0.1874E+00
     -3.346  0.1517E+00  0.3764E-01  0.2698E+00  0.1939E+00
     -3.175  0.1828E+00  0.4988E-01  0.3010E+00  0.2024E+00
     -3.005  0.1491E+00  0.6364E-01  0.3264E+00  0.2132E+00
     -2.834  0.1460E+00  0.7452E-01  0.3513E+00  0.2260E+00
     -2.663  0.1902E+00  0.6434E-01  0.3838E+00  0.2369E+00
     -2.493  0.2627E+00  0.8364E-01  0.4286E+00  0.2512E+00
     -2.322  0.2368E+00  0.1154E+00  0.4690E+00  0.2709E+00
     -2.152  0.2302E+00  0.1253E+00  0.5083E+00  0.2923E+00
     -1.981  0.2404E+00  0.1199E+00  0.5493E+00  0.3128E+00
     -1.810  0.2280E+00  0.1235E+00  0.5883E+00  0.3338E+00
     -1.640  0.2225E+00  0.1135E+00  0.6262E+00  0.3532E+00
     -1.469  0.2145E+00  0.1412E+00  0.6628E+00  0.3773E+00
     -1.298  0.1926E+00  0.1545E+00  0.6957E+00  0.4036E+00
     -1.128  0.1525E+00  0.1846E+00  0.7217E+00  0.4352E+00
     -0.957  0.1510E+00  0.1993E+00  0.7475E+00  0.4692E+00
     -0.786  0.2007E+00  0.1915E+00  0.7817E+00  0.5018E+00
     -0.616  0.2442E+00  0.1969E+00  0.8234E+00  0.5354E+00
     -0.445  0.3023E+00  0.2084E+00  0.8750E+00  0.5710E+00
     -0.274  0.3192E+00  0.2025E+00  0.9294E+00  0.6056E+00
     -0.104  0.2451E+00  0.1921E+00  0.9713E+00  0.6383E+00
      0.067  0.1759E+00  0.1589E+00  0.1001E+01  0.6655E+00
      0.237  0.1488E+00  0.1454E+00  0.1027E+01  0.6903E+00
      0.408  0.1510E+00  0.1202E+00  0.1052E+01  0.7108E+00
      0.579  0.1295E+00  0.1207E+00  0.1075E+01  0.7314E+00
      0.749  0.1037E+00  0.1135E+00  0.1092E+01  0.7507E+00
      0.920  0.8713E-01  0.1158E+00  0.1107E+01  0.7705E+00
      1.091  0.9335E-01  0.1394E+00  0.1123E+01  0.7943E+00
      1.261  0.9227E-01  0.1589E+00  0.1139E+01  0.8214E+00
      1.432  0.9236E-01  0.1689E+00  0.1155E+01  0.8502E+00
      1.603  0.1023E+00  0.2007E+00  0.1172E+01  0.8845E+00
      1.773  0.1112E+00  0.2415E+00  0.1191E+01  0.9257E+00
      1.944  0.1105E+00  0.2689E+00  0.1210E+01  0.9716E+00
      2.115  0.9116E-01  0.2955E+00  0.1225E+01  0.1022E+01
      2.285  0.2909E-01  0.2924E+00  0.1230E+01  0.1072E+01
      2.456 -0.1795E-02  0.3343E+00  0.1230E+01  0.1129E+01
      2.627 -0.2249E-03  0.2952E+00  0.1230E+01  0.1179E+01
      2.797 -0.1098E-05  0.1926E+00  0.1230E+01  0.1212E+01
      2.968 -0.4161E-09  0.9944E-01  0.1230E+01  0.1229E+01
      3.138 -0.1295E-13  0.6247E-02  0.1230E+01  0.1230E+01
      3.309  0.0000E+00 -0.1449E-02  0.1230E+01  0.1230E+01
      3.480  0.0000E+00 -0.4871E-04  0.1230E+01  0.1230E+01
      3.650  0.0000E+00 -0.1702E-06  0.1230E+01  0.1230E+01
      3.821  0.0000E+00 -0.5691E-10  0.1230E+01  0.1230E+01
      3.992  0.0000E+00 -0.1525E-14  0.1230E+01  0.1230E+01
      4.162  0.0000E+00  0.0000E+00  0.1230E+01  0.1230E+01
      4.333  0.0000E+00  0.0000E+00  0.1230E+01  0.1230E+01
      4.504  0.0000E+00  0.0000E+00  0.1230E+01  0.1230E+01
      4.674  0.0000E+00  0.0000E+00  0.1230E+01  0.1230E+01
      4.845  0.0000E+00  0.0000E+00  0.1230E+01  0.1230E+01
      5.016  0.0000E+00  0.0000E+00  0.1230E+01  0.1230E+01
      5.186  0.0000E+00  0.0000E+00  0.1230E+01  0.1230E+01
      5.357  0.0000E+00  0.0000E+00  0.1230E+01  0.1230E+01
