   62   62  300    2
  0.2754962E+02  0.8526200E-09  0.8504600E-09  0.2355580E-08  0.5000000E-15
  1.000000000000000E-004
  CAR 
 ni3al                                   
    552      8    362
 
  0.1250000E+00  0.1250000E+00  0.0000000E+00  0.1250000E+00
      1        -43.051948      -43.590909   1.000000   1.000000
      2        -43.039157      -43.559036   1.000000   1.000000
      3        -43.005594      -43.541368   1.000000   1.000000
      4        -42.976481      -43.530766   1.000000   1.000000
      5        -42.961423      -43.456228   1.000000   1.000000
      6        -42.946582      -43.449866   1.000000   1.000000
      7        -42.941866      -43.432999   1.000000   1.000000
      8        -42.892406      -43.428632   1.000000   1.000000
      9        -42.877420      -43.385263   1.000000   1.000000
     10        -42.362322      -43.382396   1.000000   1.000000
     11        -42.356524      -43.367898   1.000000   1.000000
     12        -42.291081      -43.348692   1.000000   1.000000
     13        -42.289246      -43.344637   1.000000   1.000000
     14        -42.223614      -43.336988   1.000000   1.000000
     15        -42.196997      -43.333528   1.000000   1.000000
     16        -42.173687      -43.188334   1.000000   1.000000
     17        -42.135751      -43.117568   1.000000   1.000000
     18        -42.035307      -43.105568   1.000000   1.000000
     19        -42.034183      -43.050538   1.000000   1.000000
     20        -42.032290      -42.972909   1.000000   1.000000
     21        -41.995802      -42.953817   1.000000   1.000000
     22        -41.984618      -42.907187   1.000000   1.000000
     23        -41.939412      -42.891230   1.000000   1.000000
     24        -41.922297      -42.870212   1.000000   1.000000
     25        -41.906651      -42.844971   1.000000   1.000000
     26        -41.884321      -42.768138   1.000000   1.000000
     27        -41.841879      -42.600446   1.000000   1.000000
     28        -41.835967      -42.570670   1.000000   1.000000
     29        -41.819547      -42.455437   1.000000   1.000000
     30        -41.806432      -42.306724   1.000000   1.000000
     31        -41.589076      -42.173346   1.000000   1.000000
     32        -41.497801      -42.061425   1.000000   1.000000
     33        -41.449282      -41.851569   1.000000   1.000000
     34        -40.501930      -40.513294   1.000000   1.000000
     35        -40.468495      -40.458083   1.000000   1.000000
     36        -40.409259      -40.134991   1.000000   1.000000
     37        -40.394139      -40.110820   1.000000   1.000000
     38        -40.359591      -40.063017   1.000000   1.000000
     39        -40.320675      -40.006910   1.000000   1.000000
     40        -40.312288      -39.918648   1.000000   1.000000
     41        -40.263169      -39.796943   1.000000   1.000000
     42        -40.245323      -39.779445   1.000000   1.000000
     43         -7.301326       -7.187588   1.000000   1.000000
     44         -6.304027       -6.177689   1.000000   1.000000
     45         -5.776325       -5.600558   1.000000   1.000000
     46         -5.724801       -5.588105   1.000000   1.000000
     47         -5.061815       -4.812621   1.000000   1.000000
     48         -5.007935       -4.758461   1.000000   1.000000
     49         -4.945333       -4.716752   1.000000   1.000000
     50         -4.905594       -4.671424   1.000000   1.000000
     51         -4.834052       -4.646081   1.000000   1.000000
     52         -4.610878       -4.316245   1.000000   1.000000
     53         -4.444557       -4.026185   1.000000   1.000000
     54         -4.432285       -4.008898   1.000000   1.000000
     55         -4.245452       -3.758817   1.000000   1.000000
     56         -4.217963       -3.729843   1.000000   1.000000
     57         -4.170075       -3.690261   1.000000   1.000000
     58         -4.138999       -3.642222   1.000000   1.000000
     59         -4.121268       -3.469637   1.000000   1.000000
     60         -4.070624       -3.423595   1.000000   1.000000
     61         -4.021207       -3.367989   1.000000   1.000000
     62         -3.970046       -3.329624   1.000000   1.000000
     63         -3.953436       -3.280904   1.000000   1.000000
     64         -3.842051       -2.962057   1.000000   1.000000
     65         -3.824328       -2.946266   1.000000   1.000000
     66         -3.779536       -2.919850   1.000000   1.000000
     67         -3.766265       -2.897405   1.000000   1.000000
     68         -3.708993       -2.881376   1.000000   1.000000
     69         -3.676656       -2.842774   1.000000   1.000000
     70         -3.657605       -2.731105   1.000000   1.000000
     71         -3.576518       -2.674679   1.000000   1.000000
     72         -3.547466       -2.637944   1.000000   1.000000
     73         -3.539605       -2.602550   1.000000   1.000000
     74         -3.509506       -2.573770   1.000000   1.000000
     75         -3.495710       -2.548042   1.000000   1.000000
     76         -3.476844       -2.514389   1.000000   1.000000
     77         -3.464592       -2.475656   1.000000   1.000000
     78         -3.452075       -2.449451   1.000000   1.000000
     79         -3.431296       -2.398060   1.000000   1.000000
     80         -3.415422       -2.390235   1.000000   1.000000
     81         -3.367612       -2.339591   1.000000   1.000000
     82         -3.349420       -2.317836   1.000000   1.000000
     83         -3.339446       -2.280112   1.000000   1.000000
     84         -3.321669       -2.261507   1.000000   1.000000
     85         -3.286954       -2.227750   1.000000   1.000000
     86         -3.262046       -2.209727   1.000000   1.000000
     87         -3.250565       -2.166414   1.000000   1.000000
     88         -3.218079       -2.150557   1.000000   1.000000
     89         -3.207065       -2.116680   1.000000   1.000000
     90         -3.181051       -2.076688   1.000000   1.000000
     91         -3.143839       -2.050468   1.000000   1.000000
     92         -3.128162       -2.008776   1.000000   1.000000
     93         -3.117496       -1.975140   1.000000   1.000000
     94         -3.106043       -1.952364   1.000000   1.000000
     95         -3.095533       -1.936688   1.000000   1.000000
     96         -3.086936       -1.899117   1.000000   1.000000
     97         -3.060685       -1.871503   1.000000   1.000000
     98         -3.032564       -1.832351   1.000000   1.000000
     99         -3.007114       -1.815847   1.000000   1.000000
    100         -2.968829       -1.772904   1.000000   1.000000
    101         -2.928367       -1.750131   1.000000   1.000000
    102         -2.909839       -1.719823   1.000000   1.000000
    103         -2.889780       -1.686288   1.000000   1.000000
    104         -2.875086       -1.674596   1.000000   1.000000
    105         -2.817486       -1.650439   1.000000   1.000000
    106         -2.797516       -1.642418   1.000000   1.000000
    107         -2.787916       -1.622289   1.000000   1.000000
    108         -2.774053       -1.588428   1.000000   1.000000
    109         -2.749095       -1.561425   1.000000   1.000000
    110         -2.745476       -1.545162   1.000000   1.000000
    111         -2.728621       -1.509906   1.000000   1.000000
    112         -2.701838       -1.492643   1.000000   1.000000
    113         -2.697170       -1.463783   1.000000   1.000000
    114         -2.682446       -1.455058   1.000000   1.000000
    115         -2.671062       -1.418505   1.000000   1.000000
    116         -2.654622       -1.403059   1.000000   1.000000
    117         -2.645632       -1.357439   1.000000   1.000000
    118         -2.634697       -1.352406   1.000000   1.000000
    119         -2.620905       -1.335646   1.000000   1.000000
    120         -2.606288       -1.322088   1.000000   1.000000
    121         -2.600498       -1.313897   1.000000   1.000000
    122         -2.586220       -1.292331   1.000000   1.000000
    123         -2.576368       -1.279693   1.000000   1.000000
    124         -2.566809       -1.256663   1.000000   1.000000
    125         -2.554201       -1.243024   1.000000   1.000000
    126         -2.547598       -1.218541   1.000000   1.000000
    127         -2.536128       -1.205785   1.000000   1.000000
    128         -2.527137       -1.202977   1.000000   1.000000
    129         -2.515318       -1.179368   1.000000   1.000000
    130         -2.497556       -1.164840   1.000000   1.000000
    131         -2.490112       -1.150666   1.000000   1.000000
    132         -2.475977       -1.123311   1.000000   1.000000
    133         -2.467162       -1.109294   1.000000   1.000000
    134         -2.445658       -1.093288   1.000000   1.000000
    135         -2.432814       -1.087488   1.000000   1.000000
    136         -2.415890       -1.074975   1.000000   1.000000
    137         -2.403226       -1.063824   1.000000   1.000000
    138         -2.393949       -1.023235   1.000000   1.000000
    139         -2.383714       -1.013821   1.000000   1.000000
    140         -2.369660       -0.999854   1.000000   1.000000
    141         -2.360959       -0.988100   1.000000   1.000000
    142         -2.333852       -0.965901   1.000000   1.000000
    143         -2.320746       -0.961067   1.000000   1.000000
    144         -2.317697       -0.930987   1.000000   1.000000
    145         -2.295818       -0.920000   1.000000   1.000000
    146         -2.284670       -0.904533   1.000000   1.000000
    147         -2.275696       -0.890878   1.000000   1.000000
    148         -2.264352       -0.872677   1.000000   1.000000
    149         -2.255107       -0.866235   1.000000   1.000000
    150         -2.239975       -0.837800   1.000000   1.000000
    151         -2.228320       -0.832692   1.000000   1.000000
    152         -2.206750       -0.805574   1.000000   1.000000
    153         -2.200918       -0.795555   1.000000   1.000000
    154         -2.188055       -0.789814   1.000000   1.000000
    155         -2.168830       -0.763131   1.000000   1.000000
    156         -2.163764       -0.755859   1.000000   1.000000
    157         -2.155073       -0.741512   1.000000   1.000000
    158         -2.131444       -0.704564   1.000000   1.000000
    159         -2.109115       -0.692773   1.000000   1.000000
    160         -2.094085       -0.675311   1.000000   1.000000
    161         -2.085871       -0.658374   1.000000   1.000000
    162         -2.073195       -0.649956   1.000000   1.000000
    163         -2.052547       -0.630835   1.000000   1.000000
    164         -2.038011       -0.601486   1.000000   1.000000
    165         -2.034612       -0.587291   1.000000   1.000000
    166         -2.014361       -0.582506   1.000000   1.000000
    167         -2.005052       -0.542044   1.000000   1.000000
    168         -1.994182       -0.523788   1.000000   1.000000
    169         -1.976640       -0.519942   1.000000   1.000000
    170         -1.952518       -0.508028   1.000000   1.000000
    171         -1.941845       -0.470404   1.000000   1.000000
    172         -1.925753       -0.442642   1.000000   1.000000
    173         -1.905058       -0.426311   1.000000   1.000000
    174         -1.896369       -0.408686   1.000000   1.000000
    175         -1.864158       -0.382687   1.000000   1.000000
    176         -1.854316       -0.369482   1.000000   1.000000
    177         -1.841118       -0.353173   1.000000   1.000000
    178         -1.810394       -0.342121   1.000000   1.000000
    179         -1.804742       -0.300982   1.000000   1.000000
    180         -1.783207       -0.284082   1.000000   1.000000
    181         -1.773581       -0.278866   1.000000   1.000000
    182         -1.753309       -0.252108   1.000000   1.000000
    183         -1.735079       -0.235126   1.000000   1.000000
    184         -1.715164       -0.215306   1.000000   1.000000
    185         -1.699861       -0.207457   1.000000   1.000000
    186         -1.681840       -0.190736   1.000000   1.000000
    187         -1.667153       -0.167962   1.000000   1.000000
    188         -1.645617       -0.145452   1.000000   1.000000
    189         -1.639450       -0.126419   1.000000   1.000000
    190         -1.627061       -0.108794   1.000000   1.000000
    191         -1.595991       -0.077622   1.000000   1.000000
    192         -1.587626       -0.064781   1.000000   1.000000
    193         -1.581095       -0.031140   1.000000   1.000000
    194         -1.573593       -0.019450   1.000000   1.000000
    195         -1.557099        0.006385   1.000000   1.000000
    196         -1.529963        0.012147   1.000000   1.000000
    197         -1.504739        0.033792   1.000000   1.000000
    198         -1.491091        0.051720   1.000000   1.000000
    199         -1.484193        0.078911   1.000000   1.000000
    200         -1.478505        0.091581   1.000000   1.000000
    201         -1.453290        0.116055   1.000000   1.000000
    202         -1.427318        0.123434   1.000000   1.000000
    203         -1.414923        0.139317   1.000000   1.000000
    204         -1.401667        0.168421   1.000000   1.000000
    205         -1.378932        0.203743   1.000000   1.000000
    206         -1.368754        0.223236   1.000000   1.000001
    207         -1.329987        0.250256   1.000000   1.000002
    208         -1.311252        0.281814   1.000000   1.000010
    209         -1.300700        0.319502   1.000000   1.000045
    210         -1.271314        0.341039   1.000000   1.000101
    211         -1.260751        0.374727   1.000000   1.000334
    212         -1.226736        0.393823   1.000000   1.000624
    213         -1.201748        0.430172   1.000000   1.001856
    214         -1.186411        0.446095   1.000000   1.002864
    215         -1.169310        0.494305   1.000000   1.008973
    216         -1.158327        0.525408   1.000000   1.016163
    217         -1.114902        0.541812   1.000000   1.020908
    218         -1.086140        0.599830   1.000000   1.035273
    219         -1.080613        0.619511   1.000000   1.033855
    220         -1.060509        0.640238   1.000000   1.024152
    221         -1.047332        0.654323   1.000000   1.010865
    222         -1.036255        0.681981   1.000000   0.964183
    223         -1.011700        0.715159   1.000000   0.865324
    224         -0.996270        0.741300   1.000000   0.753984
    225         -0.984131        0.783819   1.000000   0.528451
    226         -0.972436        0.805699   1.000000   0.405690
    227         -0.958253        0.825788   1.000000   0.298525
    228         -0.942841        0.854434   1.000000   0.166362
    229         -0.914186        0.880935   1.000000   0.073892
    230         -0.904456        0.896528   1.000000   0.034082
    231         -0.886371        0.930247   1.000000  -0.018091
    232         -0.876613        0.948766   1.000000  -0.030690
    233         -0.858079        0.989304   1.000000  -0.033819
    234         -0.837107        1.007456   1.000000  -0.029508
    235         -0.824993        1.017064   1.000000  -0.026691
    236         -0.792744        1.051600   1.000000  -0.016361
    237         -0.774172        1.088222   1.000000  -0.008106
    238         -0.758332        1.112784   1.000000  -0.004619
    239         -0.745678        1.125208   1.000000  -0.003386
    240         -0.740401        1.136831   1.000000  -0.002493
    241         -0.729849        1.148457   1.000000  -0.001810
    242         -0.717956        1.178412   1.000000  -0.000743
    243         -0.699613        1.192068   1.000000  -0.000480
    244         -0.693086        1.202201   1.000000  -0.000343
    245         -0.677138        1.223283   1.000000  -0.000165
    246         -0.665483        1.248223   1.000000  -0.000066
    247         -0.659929        1.271361   1.000000  -0.000026
    248         -0.636235        1.279065   1.000000  -0.000019
    249         -0.624724        1.286636   1.000000  -0.000014
    250         -0.614334        1.312061   1.000000  -0.000005
    251         -0.606149        1.333069   1.000000  -0.000002
    252         -0.589527        1.353485   1.000000  -0.000001
    253         -0.578744        1.365714   1.000000  -0.000000
    254         -0.574150        1.390430   1.000000  -0.000000
    255         -0.552473        1.402873   1.000000  -0.000000
    256         -0.548465        1.416914   1.000000  -0.000000
    257         -0.536070        1.423131   1.000000  -0.000000
    258         -0.527993        1.443940   1.000000  -0.000000
    259         -0.515141        1.454791   1.000000  -0.000000
    260         -0.510793        1.478566   1.000000  -0.000000
    261         -0.499394        1.491608   1.000000  -0.000000
    262         -0.495173        1.497755   1.000000  -0.000000
    263         -0.483711        1.514126   1.000000  -0.000000
    264         -0.469977        1.529890   1.000000  -0.000000
    265         -0.460110        1.542873   1.000000  -0.000000
    266         -0.453849        1.565248   1.000000  -0.000000
    267         -0.434816        1.574980   1.000000  -0.000000
    268         -0.430180        1.596896   1.000000  -0.000000
    269         -0.420193        1.625099   1.000000  -0.000000
    270         -0.409627        1.632411   1.000000  -0.000000
    271         -0.402672        1.647544   1.000000  -0.000000
    272         -0.390574        1.667949   1.000000  -0.000000
    273         -0.379467        1.677343   1.000000  -0.000000
    274         -0.371779        1.694228   1.000000  -0.000000
    275         -0.358793        1.706921   1.000000  -0.000000
    276         -0.344513        1.719928   1.000000  -0.000000
    277         -0.339500        1.733554   1.000000  -0.000000
    278         -0.332427        1.748844   1.000000  -0.000000
    279         -0.310830        1.772932   1.000000  -0.000000
    280         -0.303525        1.784823   1.000000  -0.000000
    281         -0.285159        1.808940   1.000000  -0.000000
    282         -0.280459        1.823962   1.000000  -0.000000
    283         -0.269990        1.842364   1.000000  -0.000000
    284         -0.247629        1.847723   1.000000  -0.000000
    285         -0.242226        1.872366   1.000000  -0.000000
    286         -0.216669        1.876291   1.000000  -0.000000
    287         -0.210535        1.879936   1.000000  -0.000000
    288         -0.198702        1.897289   1.000000  -0.000000
    289         -0.181345        1.906222   1.000000  -0.000000
    290         -0.167589        1.923299   1.000000  -0.000000
    291         -0.148994        1.939961   1.000000  -0.000000
    292         -0.137705        1.953672   1.000000  -0.000000
    293         -0.111430        1.962926   1.000000  -0.000000
    294         -0.094999        1.970657   1.000000  -0.000000
    295         -0.087829        1.980426   1.000000  -0.000000
    296         -0.066563        1.992072   1.000000  -0.000000
    297         -0.040211        2.001740   1.000000  -0.000000
    298         -0.015100        2.019462   1.000000  -0.000000
    299          0.014537        2.032054   1.000000  -0.000000
    300          0.033397        2.036892   1.000000  -0.000000
    301          0.063385        2.045826   1.000000  -0.000000
    302          0.080289        2.055098   1.000000  -0.000000
    303          0.118781        2.074696   1.000000  -0.000000
    304          0.135209        2.080542   1.000000  -0.000000
    305          0.169237        2.093870   1.000000  -0.000000
    306          0.185782        2.111586   1.000000  -0.000000
    307          0.217644        2.123305   1.000001  -0.000000
    308          0.241414        2.135535   1.000002  -0.000000
    309          0.259741        2.142321   1.000004  -0.000000
    310          0.283555        2.150929   1.000010  -0.000000
    311          0.309553        2.168020   1.000030  -0.000000
    312          0.326829        2.170103   1.000059  -0.000000
    313          0.357872        2.184878   1.000186  -0.000000
    314          0.393553        2.190289   1.000619  -0.000000
    315          0.421035        2.199943   1.001430  -0.000000
    316          0.434858        2.211035   1.002115  -0.000000
    317          0.457550        2.226951   1.003847  -0.000000
    318          0.491136        2.243026   1.008393  -0.000000
    319          0.510748        2.249889   1.012439  -0.000000
    320          0.539622        2.265258   1.020248  -0.000000
    321          0.563413        2.273411   1.027517  -0.000000
    322          0.571831        2.282363   1.029940  -0.000000
    323          0.620295        2.289909   1.033664  -0.000000
    324          0.632099        2.298847   1.029198  -0.000000
    325          0.662441        2.306873   1.000207  -0.000000
    326          0.697338        2.316322   0.924531  -0.000000
    327          0.729708        2.325975   0.806718  -0.000000
    328          0.747068        2.328568   0.725966  -0.000000
    329          0.783982        2.336635   0.527534  -0.000000
    330          0.836839        2.349979   0.244076  -0.000000
    331          0.853823        2.359190   0.168858  -0.000000
    332          0.882678        2.369222   0.068908  -0.000000
    333          0.940868        2.385913  -0.026458  -0.000000
    334          0.944690        2.394061  -0.028702  -0.000000
    335          1.024904        2.404920  -0.024288  -0.000000
    336          1.042015        2.409842  -0.019088  -0.000000
    337          1.073260        2.422767  -0.011025  -0.000000
    338          1.089692        2.432922  -0.007853  -0.000000
    339          1.136875        2.439136  -0.002491  -0.000000
    340          1.182714        2.449759  -0.000649  -0.000000
    341          1.208284        2.459786  -0.000279  -0.000000
    342          1.253119        2.473408  -0.000054  -0.000000
    343          1.285448        2.487508  -0.000015  -0.000000
    344          1.311165        2.499097  -0.000005  -0.000000
    345          1.398686        2.522433  -0.000000  -0.000000
    346          1.422191        2.541317  -0.000000  -0.000000
    347          1.457433        2.549888  -0.000000  -0.000000
    348          1.472356        2.569181  -0.000000  -0.000000
    349          1.500451        2.589845  -0.000000  -0.000000
    350          1.551620        2.600917  -0.000000  -0.000000
    351          1.613942        2.620486  -0.000000  -0.000000
    352          1.636009        2.626299  -0.000000  -0.000000
    353          1.646153        2.641147  -0.000000  -0.000000
    354          1.668987        2.675712  -0.000000  -0.000000
    355          1.692355        2.687544  -0.000000  -0.000000
    356          1.707134        2.706590  -0.000000  -0.000000
    357          1.743937        2.738023  -0.000000  -0.000000
    358          1.771854        2.753839  -0.000000  -0.000000
    359          1.810048        2.766772  -0.000000  -0.000000
    360          1.857743        2.808175  -0.000000  -0.000000
    361          1.883000        2.832100  -0.000000  -0.000000
    362          1.911334        2.838390  -0.000000  -0.000000
 
  0.3750000E+00  0.1250000E+00  0.0000000E+00  0.1250000E+00
      1        -43.051952      -43.590902   1.000000   1.000000
      2        -43.039109      -43.559035   1.000000   1.000000
      3        -43.005581      -43.541345   1.000000   1.000000
      4        -42.976479      -43.530758   1.000000   1.000000
      5        -42.961430      -43.456224   1.000000   1.000000
      6        -42.946583      -43.449868   1.000000   1.000000
      7        -42.941870      -43.432994   1.000000   1.000000
      8        -42.892436      -43.428629   1.000000   1.000000
      9        -42.877421      -43.385282   1.000000   1.000000
     10        -42.362325      -43.382391   1.000000   1.000000
     11        -42.356534      -43.367898   1.000000   1.000000
     12        -42.291088      -43.348691   1.000000   1.000000
     13        -42.289238      -43.344633   1.000000   1.000000
     14        -42.223615      -43.336979   1.000000   1.000000
     15        -42.196993      -43.333543   1.000000   1.000000
     16        -42.173681      -43.188330   1.000000   1.000000
     17        -42.135749      -43.117572   1.000000   1.000000
     18        -42.035316      -43.105564   1.000000   1.000000
     19        -42.034180      -43.050541   1.000000   1.000000
     20        -42.032276      -42.972907   1.000000   1.000000
     21        -41.995800      -42.953822   1.000000   1.000000
     22        -41.984615      -42.907185   1.000000   1.000000
     23        -41.939407      -42.891240   1.000000   1.000000
     24        -41.922287      -42.870224   1.000000   1.000000
     25        -41.906647      -42.844957   1.000000   1.000000
     26        -41.884315      -42.768146   1.000000   1.000000
     27        -41.841875      -42.600437   1.000000   1.000000
     28        -41.835967      -42.570669   1.000000   1.000000
     29        -41.819541      -42.455434   1.000000   1.000000
     30        -41.806432      -42.306715   1.000000   1.000000
     31        -41.589087      -42.173344   1.000000   1.000000
     32        -41.497803      -42.061422   1.000000   1.000000
     33        -41.449278      -41.851566   1.000000   1.000000
     34        -40.501880      -40.513274   1.000000   1.000000
     35        -40.468493      -40.458086   1.000000   1.000000
     36        -40.409250      -40.134981   1.000000   1.000000
     37        -40.394148      -40.110821   1.000000   1.000000
     38        -40.359639      -40.063037   1.000000   1.000000
     39        -40.320673      -40.006913   1.000000   1.000000
     40        -40.312287      -39.918646   1.000000   1.000000
     41        -40.263160      -39.796936   1.000000   1.000000
     42        -40.245319      -39.779439   1.000000   1.000000
     43         -7.023136       -6.906961   1.000000   1.000000
     44         -6.489669       -6.363016   1.000000   1.000000
     45         -6.050544       -5.914883   1.000000   1.000000
     46         -5.594248       -5.428009   1.000000   1.000000
     47         -5.505366       -5.342062   1.000000   1.000000
     48         -5.099512       -4.904048   1.000000   1.000000
     49         -4.842604       -4.578964   1.000000   1.000000
     50         -4.730213       -4.470036   1.000000   1.000000
     51         -4.678572       -4.460791   1.000000   1.000000
     52         -4.502403       -4.184798   1.000000   1.000000
     53         -4.399470       -4.081452   1.000000   1.000000
     54         -4.301642       -4.024455   1.000000   1.000000
     55         -4.203717       -3.795948   1.000000   1.000000
     56         -4.170785       -3.747439   1.000000   1.000000
     57         -4.128887       -3.493176   1.000000   1.000000
     58         -4.084937       -3.398652   1.000000   1.000000
     59         -3.991060       -3.383700   1.000000   1.000000
     60         -3.940945       -3.247114   1.000000   1.000000
     61         -3.909545       -3.232756   1.000000   1.000000
     62         -3.884161       -3.182904   1.000000   1.000000
     63         -3.873754       -3.136983   1.000000   1.000000
     64         -3.852379       -3.079673   1.000000   1.000000
     65         -3.827806       -3.036502   1.000000   1.000000
     66         -3.815826       -3.022810   1.000000   1.000000
     67         -3.798045       -2.990246   1.000000   1.000000
     68         -3.720927       -2.924326   1.000000   1.000000
     69         -3.688059       -2.863103   1.000000   1.000000
     70         -3.669611       -2.770078   1.000000   1.000000
     71         -3.649831       -2.728862   1.000000   1.000000
     72         -3.627677       -2.696409   1.000000   1.000000
     73         -3.608164       -2.632232   1.000000   1.000000
     74         -3.583329       -2.586279   1.000000   1.000000
     75         -3.575346       -2.571528   1.000000   1.000000
     76         -3.526904       -2.523641   1.000000   1.000000
     77         -3.504935       -2.505283   1.000000   1.000000
     78         -3.477405       -2.456825   1.000000   1.000000
     79         -3.406434       -2.409748   1.000000   1.000000
     80         -3.390644       -2.373576   1.000000   1.000000
     81         -3.374165       -2.347826   1.000000   1.000000
     82         -3.366633       -2.336001   1.000000   1.000000
     83         -3.333819       -2.314849   1.000000   1.000000
     84         -3.314705       -2.295584   1.000000   1.000000
     85         -3.295682       -2.254643   1.000000   1.000000
     86         -3.271286       -2.232410   1.000000   1.000000
     87         -3.255436       -2.202844   1.000000   1.000000
     88         -3.250219       -2.185637   1.000000   1.000000
     89         -3.226216       -2.142564   1.000000   1.000000
     90         -3.219671       -2.113113   1.000000   1.000000
     91         -3.185663       -2.079589   1.000000   1.000000
     92         -3.168738       -2.066673   1.000000   1.000000
     93         -3.160307       -2.028895   1.000000   1.000000
     94         -3.147154       -1.993490   1.000000   1.000000
     95         -3.130172       -1.962205   1.000000   1.000000
     96         -3.115276       -1.940488   1.000000   1.000000
     97         -3.087621       -1.899391   1.000000   1.000000
     98         -3.045098       -1.853716   1.000000   1.000000
     99         -3.016684       -1.842509   1.000000   1.000000
    100         -3.001967       -1.816770   1.000000   1.000000
    101         -2.989774       -1.781106   1.000000   1.000000
    102         -2.958375       -1.777650   1.000000   1.000000
    103         -2.936986       -1.753399   1.000000   1.000000
    104         -2.911067       -1.713808   1.000000   1.000000
    105         -2.903074       -1.693966   1.000000   1.000000
    106         -2.856535       -1.653637   1.000000   1.000000
    107         -2.847228       -1.648401   1.000000   1.000000
    108         -2.818720       -1.627828   1.000000   1.000000
    109         -2.796157       -1.593903   1.000000   1.000000
    110         -2.785711       -1.573700   1.000000   1.000000
    111         -2.754199       -1.537248   1.000000   1.000000
    112         -2.736232       -1.503956   1.000000   1.000000
    113         -2.725550       -1.492628   1.000000   1.000000
    114         -2.720971       -1.475901   1.000000   1.000000
    115         -2.705315       -1.427642   1.000000   1.000000
    116         -2.694730       -1.412583   1.000000   1.000000
    117         -2.687151       -1.391127   1.000000   1.000000
    118         -2.677688       -1.371060   1.000000   1.000000
    119         -2.658792       -1.360286   1.000000   1.000000
    120         -2.649222       -1.340889   1.000000   1.000000
    121         -2.626579       -1.307139   1.000000   1.000000
    122         -2.610608       -1.296616   1.000000   1.000000
    123         -2.604324       -1.281882   1.000000   1.000000
    124         -2.588795       -1.254579   1.000000   1.000000
    125         -2.580613       -1.238839   1.000000   1.000000
    126         -2.566398       -1.226372   1.000000   1.000000
    127         -2.560907       -1.209577   1.000000   1.000000
    128         -2.553785       -1.189149   1.000000   1.000000
    129         -2.543602       -1.171516   1.000000   1.000000
    130         -2.513572       -1.162176   1.000000   1.000000
    131         -2.502421       -1.144676   1.000000   1.000000
    132         -2.486425       -1.129755   1.000000   1.000000
    133         -2.476555       -1.111086   1.000000   1.000000
    134         -2.464440       -1.102132   1.000000   1.000000
    135         -2.453153       -1.074393   1.000000   1.000000
    136         -2.424568       -1.045642   1.000000   1.000000
    137         -2.403928       -1.036132   1.000000   1.000000
    138         -2.397886       -1.008419   1.000000   1.000000
    139         -2.383749       -0.993819   1.000000   1.000000
    140         -2.369909       -0.977811   1.000000   1.000000
    141         -2.345279       -0.962774   1.000000   1.000000
    142         -2.328553       -0.938476   1.000000   1.000000
    143         -2.318614       -0.904769   1.000000   1.000000
    144         -2.297990       -0.900219   1.000000   1.000000
    145         -2.287623       -0.887339   1.000000   1.000000
    146         -2.272447       -0.868652   1.000000   1.000000
    147         -2.249095       -0.853734   1.000000   1.000000
    148         -2.241610       -0.835418   1.000000   1.000000
    149         -2.219825       -0.818998   1.000000   1.000000
    150         -2.206965       -0.801256   1.000000   1.000000
    151         -2.199940       -0.786022   1.000000   1.000000
    152         -2.179396       -0.761161   1.000000   1.000000
    153         -2.169106       -0.750007   1.000000   1.000000
    154         -2.158948       -0.730756   1.000000   1.000000
    155         -2.147076       -0.718489   1.000000   1.000000
    156         -2.130781       -0.703163   1.000000   1.000000
    157         -2.115410       -0.684618   1.000000   1.000000
    158         -2.102574       -0.669769   1.000000   1.000000
    159         -2.080296       -0.651027   1.000000   1.000000
    160         -2.075112       -0.636635   1.000000   1.000000
    161         -2.065669       -0.629042   1.000000   1.000000
    162         -2.056569       -0.612672   1.000000   1.000000
    163         -2.043540       -0.589947   1.000000   1.000000
    164         -2.024183       -0.579248   1.000000   1.000000
    165         -2.010292       -0.565816   1.000000   1.000000
    166         -1.995839       -0.533953   1.000000   1.000000
    167         -1.987549       -0.520279   1.000000   1.000000
    168         -1.973440       -0.503192   1.000000   1.000000
    169         -1.952122       -0.493567   1.000000   1.000000
    170         -1.933134       -0.466291   1.000000   1.000000
    171         -1.928142       -0.453184   1.000000   1.000000
    172         -1.907230       -0.431295   1.000000   1.000000
    173         -1.891994       -0.421389   1.000000   1.000000
    174         -1.877771       -0.399713   1.000000   1.000000
    175         -1.861119       -0.382678   1.000000   1.000000
    176         -1.839919       -0.380510   1.000000   1.000000
    177         -1.829491       -0.366290   1.000000   1.000000
    178         -1.820073       -0.348310   1.000000   1.000000
    179         -1.805909       -0.328515   1.000000   1.000000
    180         -1.779692       -0.318486   1.000000   1.000000
    181         -1.769414       -0.305005   1.000000   1.000000
    182         -1.750393       -0.279992   1.000000   1.000000
    183         -1.730244       -0.258355   1.000000   1.000000
    184         -1.723126       -0.249426   1.000000   1.000000
    185         -1.711671       -0.227374   1.000000   1.000000
    186         -1.701640       -0.191273   1.000000   1.000000
    187         -1.689826       -0.182460   1.000000   1.000000
    188         -1.682016       -0.159229   1.000000   1.000000
    189         -1.656381       -0.148718   1.000000   1.000000
    190         -1.640103       -0.123419   1.000000   1.000000
    191         -1.633812       -0.103031   1.000000   1.000000
    192         -1.618994       -0.088373   1.000000   1.000000
    193         -1.596088       -0.082027   1.000000   1.000000
    194         -1.582423       -0.064897   1.000000   1.000000
    195         -1.562851       -0.055594   1.000000   1.000000
    196         -1.546953       -0.018794   1.000000   1.000000
    197         -1.545662       -0.013531   1.000000   1.000000
    198         -1.522655       -0.007605   1.000000   1.000000
    199         -1.516168        0.010278   1.000000   1.000000
    200         -1.486766        0.049840   1.000000   1.000000
    201         -1.469726        0.077524   1.000000   1.000000
    202         -1.445579        0.107729   1.000000   1.000000
    203         -1.421584        0.118006   1.000000   1.000000
    204         -1.384584        0.148990   1.000000   1.000000
    205         -1.354176        0.178400   1.000000   1.000000
    206         -1.344681        0.208249   1.000000   1.000000
    207         -1.329943        0.221124   1.000000   1.000001
    208         -1.316913        0.263086   1.000000   1.000004
    209         -1.290275        0.289598   1.000000   1.000013
    210         -1.273932        0.313488   1.000000   1.000035
    211         -1.252255        0.374030   1.000000   1.000326
    212         -1.240358        0.392099   1.000000   1.000591
    213         -1.225068        0.426588   1.000000   1.001677
    214         -1.193107        0.443879   1.000000   1.002701
    215         -1.174992        0.496365   1.000000   1.009365
    216         -1.147426        0.510289   1.000000   1.012332
    217         -1.132332        0.538815   1.000000   1.020007
    218         -1.120532        0.577387   1.000000   1.031406
    219         -1.082126        0.601396   1.000000   1.035364
    220         -1.064459        0.641866   1.000000   1.022925
    221         -1.038379        0.671925   1.000000   0.984644
    222         -1.023849        0.700609   1.000000   0.914730
    223         -1.006676        0.716454   1.000000   0.860471
    224         -0.989856        0.753180   1.000000   0.695149
    225         -0.962569        0.768203   1.000000   0.615357
    226         -0.958986        0.814611   1.000000   0.357095
    227         -0.924808        0.846253   1.000000   0.201004
    228         -0.917270        0.885537   1.000000   0.061025
    229         -0.895264        0.910498   1.000000   0.007220
    230         -0.880871        0.940018   1.000000  -0.025906
    231         -0.867640        0.972710   1.000000  -0.035458
    232         -0.844033        0.992281   1.000000  -0.033248
    233         -0.828793        1.009936   1.000000  -0.028803
    234         -0.816757        1.036607   1.000000  -0.020700
    235         -0.793293        1.062335   1.000000  -0.013558
    236         -0.782145        1.096572   1.000000  -0.006748
    237         -0.773091        1.099486   1.000000  -0.006317
    238         -0.753288        1.131101   1.000000  -0.002905
    239         -0.743690        1.151497   1.000000  -0.001660
    240         -0.737246        1.166595   1.000000  -0.001067
    241         -0.727225        1.201002   1.000000  -0.000357
    242         -0.700473        1.206817   1.000000  -0.000293
    243         -0.696425        1.219282   1.000000  -0.000190
    244         -0.684243        1.257749   1.000000  -0.000045
    245         -0.679196        1.273556   1.000000  -0.000024
    246         -0.664651        1.290567   1.000000  -0.000012
    247         -0.652748        1.303415   1.000000  -0.000007
    248         -0.641881        1.326110   1.000000  -0.000003
    249         -0.627468        1.351189   1.000000  -0.000001
    250         -0.614288        1.372073   1.000000  -0.000000
    251         -0.608290        1.392856   1.000000  -0.000000
    252         -0.587541        1.409080   1.000000  -0.000000
    253         -0.578049        1.419551   1.000000  -0.000000
    254         -0.564010        1.427047   1.000000  -0.000000
    255         -0.550216        1.452853   1.000000  -0.000000
    256         -0.541207        1.478363   1.000000  -0.000000
    257         -0.531529        1.482864   1.000000  -0.000000
    258         -0.519948        1.505961   1.000000  -0.000000
    259         -0.516390        1.524075   1.000000  -0.000000
    260         -0.502146        1.533809   1.000000  -0.000000
    261         -0.488538        1.550735   1.000000  -0.000000
    262         -0.479656        1.564373   1.000000  -0.000000
    263         -0.469987        1.588839   1.000000  -0.000000
    264         -0.464936        1.607888   1.000000  -0.000000
    265         -0.459961        1.618068   1.000000  -0.000000
    266         -0.447665        1.627984   1.000000  -0.000000
    267         -0.423626        1.642921   1.000000  -0.000000
    268         -0.418823        1.656156   1.000000  -0.000000
    269         -0.399413        1.666234   1.000000  -0.000000
    270         -0.391955        1.674296   1.000000  -0.000000
    271         -0.386452        1.688910   1.000000  -0.000000
    272         -0.372942        1.701253   1.000000  -0.000000
    273         -0.355763        1.715797   1.000000  -0.000000
    274         -0.348756        1.726762   1.000000  -0.000000
    275         -0.337504        1.745010   1.000000  -0.000000
    276         -0.319395        1.749396   1.000000  -0.000000
    277         -0.309987        1.766699   1.000000  -0.000000
    278         -0.298967        1.784970   1.000000  -0.000000
    279         -0.287618        1.792569   1.000000  -0.000000
    280         -0.265927        1.816558   1.000000  -0.000000
    281         -0.247313        1.824817   1.000000  -0.000000
    282         -0.238836        1.834320   1.000000  -0.000000
    283         -0.217924        1.845015   1.000000  -0.000000
    284         -0.207186        1.857669   1.000000  -0.000000
    285         -0.192934        1.862671   1.000000  -0.000000
    286         -0.176511        1.878392   1.000000  -0.000000
    287         -0.171328        1.888467   1.000000  -0.000000
    288         -0.154838        1.899784   1.000000  -0.000000
    289         -0.135497        1.909984   1.000000  -0.000000
    290         -0.120222        1.919928   1.000000  -0.000000
    291         -0.101596        1.940987   1.000000  -0.000000
    292         -0.085745        1.944991   1.000000  -0.000000
    293         -0.065393        1.949583   1.000000  -0.000000
    294         -0.040831        1.960095   1.000000  -0.000000
    295         -0.018530        1.969287   1.000000  -0.000000
    296         -0.005120        1.981441   1.000000  -0.000000
    297          0.019747        1.991920   1.000000  -0.000000
    298          0.032724        2.005657   1.000000  -0.000000
    299          0.071388        2.013299   1.000000  -0.000000
    300          0.103278        2.024700   1.000000  -0.000000
    301          0.113644        2.039999   1.000000  -0.000000
    302          0.142601        2.045871   1.000000  -0.000000
    303          0.176853        2.052870   1.000000  -0.000000
    304          0.195871        2.067820   1.000000  -0.000000
    305          0.209450        2.071895   1.000000  -0.000000
    306          0.218938        2.095291   1.000001  -0.000000
    307          0.238907        2.110174   1.000001  -0.000000
    308          0.257659        2.124446   1.000003  -0.000000
    309          0.286165        2.137461   1.000011  -0.000000
    310          0.315424        2.153923   1.000038  -0.000000
    311          0.328776        2.161755   1.000064  -0.000000
    312          0.373303        2.171110   1.000318  -0.000000
    313          0.387557        2.185352   1.000511  -0.000000
    314          0.404640        2.191836   1.000876  -0.000000
    315          0.445807        2.205058   1.002842  -0.000000
    316          0.459918        2.212355   1.004081  -0.000000
    317          0.476604        2.230927   1.006085  -0.000000
    318          0.501581        2.240416   1.010411  -0.000000
    319          0.536839        2.259156   1.019419  -0.000000
    320          0.558910        2.267537   1.026157  -0.000000
    321          0.583343        2.280986   1.032806  -0.000000
    322          0.600007        2.291576   1.035285  -0.000000
    323          0.626148        2.297788   1.031836  -0.000000
    324          0.654419        2.312445   1.010753  -0.000000
    325          0.673820        2.319571   0.981107  -0.000000
    326          0.717017        2.327658   0.858342  -0.000000
    327          0.743441        2.339492   0.743710  -0.000000
    328          0.795180        2.344182   0.464410  -0.000000
    329          0.820575        2.361163   0.325459  -0.000000
    330          0.857259        2.366661   0.155042  -0.000000
    331          0.897288        2.375037   0.032412  -0.000000
    332          0.929447        2.391050  -0.017324  -0.000000
    333          0.953811        2.395314  -0.032617  -0.000000
    334          0.994040        2.412751  -0.032881  -0.000000
    335          1.073715        2.419217  -0.010927  -0.000000
    336          1.086662        2.427540  -0.008381  -0.000000
    337          1.110572        2.440304  -0.004872  -0.000000
    338          1.140205        2.446193  -0.002275  -0.000000
    339          1.154769        2.463109  -0.001512  -0.000000
    340          1.197915        2.473814  -0.000396  -0.000000
    341          1.236509        2.481635  -0.000102  -0.000000
    342          1.259685        2.501317  -0.000042  -0.000000
    343          1.297153        2.514641  -0.000009  -0.000000
    344          1.329472        2.521355  -0.000002  -0.000000
    345          1.395188        2.533912  -0.000000  -0.000000
    346          1.402872        2.552231  -0.000000  -0.000000
    347          1.452496        2.567506  -0.000000  -0.000000
    348          1.476773        2.574619  -0.000000  -0.000000
    349          1.510729        2.581065  -0.000000  -0.000000
    350          1.543248        2.602037  -0.000000  -0.000000
    351          1.570733        2.621580  -0.000000  -0.000000
    352          1.600875        2.633096  -0.000000  -0.000000
    353          1.646789        2.649589  -0.000000  -0.000000
    354          1.676122        2.664897  -0.000000  -0.000000
    355          1.703625        2.686282  -0.000000  -0.000000
    356          1.717512        2.695620  -0.000000  -0.000000
    357          1.740115        2.703251  -0.000000  -0.000000
    358          1.773348        2.720091  -0.000000  -0.000000
    359          1.799190        2.746547  -0.000000  -0.000000
    360          1.840003        2.761980  -0.000000  -0.000000
    361          1.874259        2.784176  -0.000000  -0.000000
    362          1.910862        2.820811  -0.000000  -0.000000
 
 -0.3750000E+00  0.1250000E+00  0.0000000E+00  0.1250000E+00
      1        -43.051957      -43.590903   1.000000   1.000000
      2        -43.039109      -43.559042   1.000000   1.000000
      3        -43.005581      -43.541340   1.000000   1.000000
      4        -42.976479      -43.530759   1.000000   1.000000
      5        -42.961432      -43.456227   1.000000   1.000000
      6        -42.946588      -43.449867   1.000000   1.000000
      7        -42.941864      -43.432994   1.000000   1.000000
      8        -42.892437      -43.428629   1.000000   1.000000
      9        -42.877424      -43.385281   1.000000   1.000000
     10        -42.362333      -43.382392   1.000000   1.000000
     11        -42.356526      -43.367900   1.000000   1.000000
     12        -42.291093      -43.348692   1.000000   1.000000
     13        -42.289229      -43.344634   1.000000   1.000000
     14        -42.223614      -43.336981   1.000000   1.000000
     15        -42.196995      -43.333548   1.000000   1.000000
     16        -42.173678      -43.188330   1.000000   1.000000
     17        -42.135756      -43.117575   1.000000   1.000000
     18        -42.035320      -43.105565   1.000000   1.000000
     19        -42.034178      -43.050545   1.000000   1.000000
     20        -42.032271      -42.972901   1.000000   1.000000
     21        -41.995800      -42.953825   1.000000   1.000000
     22        -41.984618      -42.907181   1.000000   1.000000
     23        -41.939413      -42.891243   1.000000   1.000000
     24        -41.922291      -42.870215   1.000000   1.000000
     25        -41.906649      -42.844955   1.000000   1.000000
     26        -41.884320      -42.768157   1.000000   1.000000
     27        -41.841875      -42.600436   1.000000   1.000000
     28        -41.835968      -42.570675   1.000000   1.000000
     29        -41.819543      -42.455436   1.000000   1.000000
     30        -41.806434      -42.306715   1.000000   1.000000
     31        -41.589091      -42.173345   1.000000   1.000000
     32        -41.497802      -42.061424   1.000000   1.000000
     33        -41.449278      -41.851567   1.000000   1.000000
     34        -40.501882      -40.513274   1.000000   1.000000
     35        -40.468494      -40.458089   1.000000   1.000000
     36        -40.409251      -40.134980   1.000000   1.000000
     37        -40.394151      -40.110823   1.000000   1.000000
     38        -40.359639      -40.063038   1.000000   1.000000
     39        -40.320679      -40.006915   1.000000   1.000000
     40        -40.312282      -39.918646   1.000000   1.000000
     41        -40.263160      -39.796936   1.000000   1.000000
     42        -40.245319      -39.779439   1.000000   1.000000
     43         -7.023145       -6.906928   1.000000   1.000000
     44         -6.490011       -6.363228   1.000000   1.000000
     45         -6.050370       -5.914756   1.000000   1.000000
     46         -5.598955       -5.424422   1.000000   1.000000
     47         -5.494298       -5.345848   1.000000   1.000000
     48         -5.112154       -4.905151   1.000000   1.000000
     49         -4.839795       -4.579270   1.000000   1.000000
     50         -4.719828       -4.466224   1.000000   1.000000
     51         -4.679462       -4.458839   1.000000   1.000000
     52         -4.505731       -4.186080   1.000000   1.000000
     53         -4.414165       -4.095192   1.000000   1.000000
     54         -4.299636       -4.017308   1.000000   1.000000
     55         -4.211243       -3.798440   1.000000   1.000000
     56         -4.149722       -3.736508   1.000000   1.000000
     57         -4.130956       -3.486151   1.000000   1.000000
     58         -4.076944       -3.399041   1.000000   1.000000
     59         -3.993034       -3.383077   1.000000   1.000000
     60         -3.942575       -3.259466   1.000000   1.000000
     61         -3.911912       -3.234317   1.000000   1.000000
     62         -3.889326       -3.184130   1.000000   1.000000
     63         -3.870755       -3.151927   1.000000   1.000000
     64         -3.851485       -3.086735   1.000000   1.000000
     65         -3.827304       -3.045060   1.000000   1.000000
     66         -3.824756       -3.016185   1.000000   1.000000
     67         -3.790504       -2.972671   1.000000   1.000000
     68         -3.724646       -2.917678   1.000000   1.000000
     69         -3.686807       -2.858953   1.000000   1.000000
     70         -3.669637       -2.768024   1.000000   1.000000
     71         -3.650606       -2.716631   1.000000   1.000000
     72         -3.616843       -2.678789   1.000000   1.000000
     73         -3.606585       -2.640523   1.000000   1.000000
     74         -3.594689       -2.582991   1.000000   1.000000
     75         -3.577153       -2.571719   1.000000   1.000000
     76         -3.526718       -2.527409   1.000000   1.000000
     77         -3.502427       -2.505382   1.000000   1.000000
     78         -3.480075       -2.466956   1.000000   1.000000
     79         -3.405041       -2.439207   1.000000   1.000000
     80         -3.390565       -2.376435   1.000000   1.000000
     81         -3.373357       -2.362549   1.000000   1.000000
     82         -3.354704       -2.330171   1.000000   1.000000
     83         -3.326939       -2.319911   1.000000   1.000000
     84         -3.314266       -2.301772   1.000000   1.000000
     85         -3.294039       -2.271702   1.000000   1.000000
     86         -3.280132       -2.217982   1.000000   1.000000
     87         -3.263400       -2.187609   1.000000   1.000000
     88         -3.240884       -2.161645   1.000000   1.000000
     89         -3.239251       -2.143905   1.000000   1.000000
     90         -3.210406       -2.113868   1.000000   1.000000
     91         -3.191571       -2.094173   1.000000   1.000000
     92         -3.172484       -2.063618   1.000000   1.000000
     93         -3.170173       -2.028349   1.000000   1.000000
     94         -3.148725       -2.006131   1.000000   1.000000
     95         -3.131446       -1.961692   1.000000   1.000000
     96         -3.106067       -1.914480   1.000000   1.000000
     97         -3.089271       -1.888755   1.000000   1.000000
     98         -3.046857       -1.875065   1.000000   1.000000
     99         -3.031033       -1.842907   1.000000   1.000000
    100         -2.995945       -1.812167   1.000000   1.000000
    101         -2.972237       -1.786868   1.000000   1.000000
    102         -2.955960       -1.768486   1.000000   1.000000
    103         -2.940364       -1.733158   1.000000   1.000000
    104         -2.914811       -1.701859   1.000000   1.000000
    105         -2.904660       -1.684617   1.000000   1.000000
    106         -2.850142       -1.661725   1.000000   1.000000
    107         -2.840117       -1.648527   1.000000   1.000000
    108         -2.808869       -1.629112   1.000000   1.000000
    109         -2.794281       -1.600996   1.000000   1.000000
    110         -2.784999       -1.571189   1.000000   1.000000
    111         -2.771820       -1.547388   1.000000   1.000000
    112         -2.739574       -1.515786   1.000000   1.000000
    113         -2.727084       -1.483551   1.000000   1.000000
    114         -2.718083       -1.465945   1.000000   1.000000
    115         -2.708703       -1.430985   1.000000   1.000000
    116         -2.700233       -1.412998   1.000000   1.000000
    117         -2.682550       -1.378504   1.000000   1.000000
    118         -2.672411       -1.369629   1.000000   1.000000
    119         -2.663714       -1.358875   1.000000   1.000000
    120         -2.649167       -1.342265   1.000000   1.000000
    121         -2.628703       -1.322029   1.000000   1.000000
    122         -2.621271       -1.293775   1.000000   1.000000
    123         -2.599539       -1.290437   1.000000   1.000000
    124         -2.591348       -1.278500   1.000000   1.000000
    125         -2.574845       -1.247676   1.000000   1.000000
    126         -2.561682       -1.226064   1.000000   1.000000
    127         -2.554887       -1.211803   1.000000   1.000000
    128         -2.542957       -1.190179   1.000000   1.000000
    129         -2.533186       -1.177115   1.000000   1.000000
    130         -2.522755       -1.155577   1.000000   1.000000
    131         -2.513852       -1.139849   1.000000   1.000000
    132         -2.498432       -1.123200   1.000000   1.000000
    133         -2.474213       -1.110561   1.000000   1.000000
    134         -2.461061       -1.085432   1.000000   1.000000
    135         -2.449215       -1.068620   1.000000   1.000000
    136         -2.424754       -1.061329   1.000000   1.000000
    137         -2.408313       -1.031819   1.000000   1.000000
    138         -2.404380       -1.002041   1.000000   1.000000
    139         -2.375658       -0.994937   1.000000   1.000000
    140         -2.356705       -0.972711   1.000000   1.000000
    141         -2.338460       -0.961544   1.000000   1.000000
    142         -2.328630       -0.941480   1.000000   1.000000
    143         -2.321865       -0.925455   1.000000   1.000000
    144         -2.292772       -0.900674   1.000000   1.000000
    145         -2.284559       -0.893846   1.000000   1.000000
    146         -2.263553       -0.858427   1.000000   1.000000
    147         -2.250273       -0.841362   1.000000   1.000000
    148         -2.233516       -0.820750   1.000000   1.000000
    149         -2.228105       -0.812960   1.000000   1.000000
    150         -2.225206       -0.793655   1.000000   1.000000
    151         -2.200439       -0.789104   1.000000   1.000000
    152         -2.184705       -0.765776   1.000000   1.000000
    153         -2.174203       -0.750355   1.000000   1.000000
    154         -2.161202       -0.731115   1.000000   1.000000
    155         -2.148520       -0.721839   1.000000   1.000000
    156         -2.135834       -0.700141   1.000000   1.000000
    157         -2.117584       -0.693300   1.000000   1.000000
    158         -2.106808       -0.675937   1.000000   1.000000
    159         -2.096865       -0.670212   1.000000   1.000000
    160         -2.087879       -0.634410   1.000000   1.000000
    161         -2.066012       -0.620426   1.000000   1.000000
    162         -2.057478       -0.604601   1.000000   1.000000
    163         -2.046954       -0.585521   1.000000   1.000000
    164         -2.024908       -0.572909   1.000000   1.000000
    165         -2.015300       -0.550202   1.000000   1.000000
    166         -1.997550       -0.544285   1.000000   1.000000
    167         -1.980527       -0.524668   1.000000   1.000000
    168         -1.970322       -0.513752   1.000000   1.000000
    169         -1.956264       -0.482581   1.000000   1.000000
    170         -1.945124       -0.472470   1.000000   1.000000
    171         -1.920565       -0.442408   1.000000   1.000000
    172         -1.893851       -0.428089   1.000000   1.000000
    173         -1.878488       -0.421868   1.000000   1.000000
    174         -1.864181       -0.414111   1.000000   1.000000
    175         -1.852972       -0.394187   1.000000   1.000000
    176         -1.841086       -0.381940   1.000000   1.000000
    177         -1.829630       -0.365520   1.000000   1.000000
    178         -1.824668       -0.357858   1.000000   1.000000
    179         -1.798867       -0.344448   1.000000   1.000000
    180         -1.781520       -0.323133   1.000000   1.000000
    181         -1.776192       -0.291837   1.000000   1.000000
    182         -1.760437       -0.283069   1.000000   1.000000
    183         -1.739853       -0.258738   1.000000   1.000000
    184         -1.724642       -0.241361   1.000000   1.000000
    185         -1.710422       -0.226212   1.000000   1.000000
    186         -1.698749       -0.196539   1.000000   1.000000
    187         -1.685083       -0.182319   1.000000   1.000000
    188         -1.663520       -0.155387   1.000000   1.000000
    189         -1.644310       -0.152101   1.000000   1.000000
    190         -1.630817       -0.132736   1.000000   1.000000
    191         -1.615316       -0.103669   1.000000   1.000000
    192         -1.599961       -0.087216   1.000000   1.000000
    193         -1.590039       -0.077722   1.000000   1.000000
    194         -1.575412       -0.056679   1.000000   1.000000
    195         -1.569404       -0.034917   1.000000   1.000000
    196         -1.560485       -0.016734   1.000000   1.000000
    197         -1.539155       -0.009866   1.000000   1.000000
    198         -1.530076        0.006661   1.000000   1.000000
    199         -1.503113        0.012621   1.000000   1.000000
    200         -1.491143        0.046480   1.000000   1.000000
    201         -1.467504        0.062720   1.000000   1.000000
    202         -1.451807        0.085049   1.000000   1.000000
    203         -1.424168        0.114714   1.000000   1.000000
    204         -1.388570        0.148163   1.000000   1.000000
    205         -1.374782        0.176504   1.000000   1.000000
    206         -1.355546        0.202633   1.000000   1.000000
    207         -1.341709        0.230534   1.000000   1.000001
    208         -1.320914        0.255842   1.000000   1.000003
    209         -1.296639        0.280264   1.000000   1.000009
    210         -1.285212        0.332716   1.000000   1.000074
    211         -1.247046        0.359239   1.000000   1.000196
    212         -1.233008        0.394680   1.000000   1.000642
    213         -1.213444        0.433475   1.000000   1.002035
    214         -1.189532        0.474746   1.000000   1.005829
    215         -1.169798        0.497446   1.000000   1.009575
    216         -1.149784        0.519991   1.000000   1.014722
    217         -1.134808        0.545957   1.000000   1.022172
    218         -1.114647        0.575664   1.000000   1.030966
    219         -1.095482        0.607356   1.000000   1.035424
    220         -1.056903        0.636511   1.000000   1.026680
    221         -1.036433        0.653638   1.000000   1.011658
    222         -1.033285        0.680025   1.000000   0.968496
    223         -1.027951        0.717991   1.000000   0.854621
    224         -0.995024        0.747704   1.000000   0.722816
    225         -0.984584        0.790494   1.000000   0.490812
    226         -0.949447        0.814094   1.000000   0.359873
    227         -0.934653        0.843801   1.000000   0.211906
    228         -0.918768        0.872022   1.000000   0.101511
    229         -0.898406        0.897854   1.000000   0.031186
    230         -0.893524        0.921123   1.000000  -0.008102
    231         -0.855488        0.979351   1.000000  -0.035163
    232         -0.843187        0.994368   1.000000  -0.032810
    233         -0.821181        1.013451   1.000000  -0.027775
    234         -0.810384        1.044768   1.000000  -0.018286
    235         -0.794645        1.073202   1.000000  -0.011038
    236         -0.776546        1.078499   1.000000  -0.009931
    237         -0.763929        1.100008   1.000000  -0.006243
    238         -0.750019        1.127750   1.000000  -0.003171
    239         -0.740846        1.160228   1.000000  -0.001290
    240         -0.722884        1.167311   1.000000  -0.001044
    241         -0.711922        1.192555   1.000000  -0.000472
    242         -0.701460        1.212486   1.000000  -0.000241
    243         -0.692182        1.238571   1.000000  -0.000094
    244         -0.682482        1.253257   1.000000  -0.000054
    245         -0.671111        1.284825   1.000000  -0.000015
    246         -0.665029        1.302229   1.000000  -0.000007
    247         -0.643799        1.314678   1.000000  -0.000004
    248         -0.631861        1.333038   1.000000  -0.000002
    249         -0.626551        1.352201   1.000000  -0.000001
    250         -0.611631        1.366885   1.000000  -0.000000
    251         -0.598787        1.389936   1.000000  -0.000000
    252         -0.591256        1.402037   1.000000  -0.000000
    253         -0.583310        1.426571   1.000000  -0.000000
    254         -0.577121        1.439342   1.000000  -0.000000
    255         -0.563250        1.459530   1.000000  -0.000000
    256         -0.558254        1.470320   1.000000  -0.000000
    257         -0.533476        1.486852   1.000000  -0.000000
    258         -0.516267        1.502969   1.000000  -0.000000
    259         -0.508330        1.524172   1.000000  -0.000000
    260         -0.501800        1.534764   1.000000  -0.000000
    261         -0.493837        1.547286   1.000000  -0.000000
    262         -0.479527        1.566256   1.000000  -0.000000
    263         -0.469677        1.578582   1.000000  -0.000000
    264         -0.464862        1.590317   1.000000  -0.000000
    265         -0.450187        1.600961   1.000000  -0.000000
    266         -0.442724        1.633074   1.000000  -0.000000
    267         -0.429116        1.646958   1.000000  -0.000000
    268         -0.419301        1.653025   1.000000  -0.000000
    269         -0.406199        1.664304   1.000000  -0.000000
    270         -0.398145        1.673414   1.000000  -0.000000
    271         -0.395158        1.685758   1.000000  -0.000000
    272         -0.372349        1.697118   1.000000  -0.000000
    273         -0.363130        1.708385   1.000000  -0.000000
    274         -0.351177        1.722761   1.000000  -0.000000
    275         -0.329985        1.747302   1.000000  -0.000000
    276         -0.318952        1.755312   1.000000  -0.000000
    277         -0.307698        1.766984   1.000000  -0.000000
    278         -0.301009        1.780189   1.000000  -0.000000
    279         -0.287705        1.792887   1.000000  -0.000000
    280         -0.272195        1.805114   1.000000  -0.000000
    281         -0.259015        1.811289   1.000000  -0.000000
    282         -0.235321        1.829192   1.000000  -0.000000
    283         -0.229576        1.837704   1.000000  -0.000000
    284         -0.206806        1.853446   1.000000  -0.000000
    285         -0.197892        1.870072   1.000000  -0.000000
    286         -0.180834        1.874676   1.000000  -0.000000
    287         -0.173795        1.890832   1.000000  -0.000000
    288         -0.151996        1.899653   1.000000  -0.000000
    289         -0.139493        1.910766   1.000000  -0.000000
    290         -0.127995        1.925107   1.000000  -0.000000
    291         -0.106649        1.934619   1.000000  -0.000000
    292         -0.082672        1.951614   1.000000  -0.000000
    293         -0.047907        1.959097   1.000000  -0.000000
    294         -0.020778        1.963858   1.000000  -0.000000
    295         -0.001637        1.970573   1.000000  -0.000000
    296          0.015412        1.977712   1.000000  -0.000000
    297          0.029580        1.995167   1.000000  -0.000000
    298          0.053092        2.005825   1.000000  -0.000000
    299          0.075775        2.018397   1.000000  -0.000000
    300          0.113850        2.032065   1.000000  -0.000000
    301          0.125533        2.036727   1.000000  -0.000000
    302          0.154959        2.056135   1.000000  -0.000000
    303          0.171945        2.062482   1.000000  -0.000000
    304          0.188010        2.074860   1.000000  -0.000000
    305          0.192766        2.094199   1.000000  -0.000000
    306          0.208260        2.100567   1.000000  -0.000000
    307          0.225217        2.104818   1.000001  -0.000000
    308          0.276269        2.128955   1.000007  -0.000000
    309          0.296275        2.139225   1.000017  -0.000000
    310          0.313395        2.152175   1.000035  -0.000000
    311          0.325479        2.163713   1.000056  -0.000000
    312          0.347781        2.166714   1.000130  -0.000000
    313          0.358225        2.185486   1.000189  -0.000000
    314          0.407252        2.191806   1.000949  -0.000000
    315          0.429819        2.206270   1.001838  -0.000000
    316          0.453970        2.214599   1.003513  -0.000000
    317          0.464826        2.226195   1.004605  -0.000000
    318          0.484088        2.233401   1.007203  -0.000000
    319          0.535176        2.245356   1.018930  -0.000000
    320          0.547344        2.261652   1.022597  -0.000000
    321          0.587993        2.269241   1.033740  -0.000000
    322          0.618557        2.291035   1.034072  -0.000000
    323          0.628405        2.296360   1.030933  -0.000000
    324          0.668251        2.315844   0.991089  -0.000000
    325          0.684051        2.321425   0.959441  -0.000000
    326          0.711044        2.332374   0.880255  -0.000000
    327          0.745662        2.344622   0.732897  -0.000000
    328          0.787538        2.352441   0.507492  -0.000000
    329          0.828978        2.363593   0.282418  -0.000000
    330          0.860918        2.370959   0.140884  -0.000000
    331          0.883513        2.377947   0.066567  -0.000000
    332          0.928519        2.390541  -0.016409  -0.000000
    333          0.968206        2.397812  -0.035322  -0.000000
    334          1.002031        2.410628  -0.030975  -0.000000
    335          1.040143        2.417035  -0.019641  -0.000000
    336          1.070919        2.421563  -0.011539  -0.000000
    337          1.115092        2.433654  -0.004365  -0.000000
    338          1.153025        2.450713  -0.001590  -0.000000
    339          1.175520        2.462529  -0.000813  -0.000000
    340          1.202451        2.476442  -0.000340  -0.000000
    341          1.260541        2.486869  -0.000041  -0.000000
    342          1.288168        2.497257  -0.000013  -0.000000
    343          1.308374        2.506459  -0.000006  -0.000000
    344          1.359139        2.509997  -0.000001  -0.000000
    345          1.390021        2.545610  -0.000000  -0.000000
    346          1.413955        2.554926  -0.000000  -0.000000
    347          1.452870        2.558188  -0.000000  -0.000000
    348          1.468448        2.571756  -0.000000  -0.000000
    349          1.486184        2.588452  -0.000000  -0.000000
    350          1.517200        2.601348  -0.000000  -0.000000
    351          1.559903        2.613321  -0.000000  -0.000000
    352          1.578707        2.637642  -0.000000  -0.000000
    353          1.628784        2.651371  -0.000000  -0.000000
    354          1.653962        2.664714  -0.000000  -0.000000
    355          1.693174        2.686007  -0.000000  -0.000000
    356          1.736889        2.692462  -0.000000  -0.000000
    357          1.753291        2.716183  -0.000000  -0.000000
    358          1.788810        2.738381  -0.000000  -0.000000
    359          1.811276        2.750753  -0.000000  -0.000000
    360          1.842953        2.757273  -0.000000  -0.000000
    361          1.877797        2.790550  -0.000000  -0.000000
    362          1.902396        2.818080  -0.000000  -0.000000
 
 -0.1250000E+00  0.1250000E+00  0.0000000E+00  0.1250000E+00
      1        -43.051955      -43.590907   1.000000   1.000000
      2        -43.039155      -43.559042   1.000000   1.000000
      3        -43.005590      -43.541362   1.000000   1.000000
      4        -42.976481      -43.530762   1.000000   1.000000
      5        -42.961423      -43.456223   1.000000   1.000000
      6        -42.946583      -43.449869   1.000000   1.000000
      7        -42.941860      -43.432997   1.000000   1.000000
      8        -42.892406      -43.428624   1.000000   1.000000
      9        -42.877416      -43.385255   1.000000   1.000000
     10        -42.362336      -43.382397   1.000000   1.000000
     11        -42.356502      -43.367900   1.000000   1.000000
     12        -42.291093      -43.348686   1.000000   1.000000
     13        -42.289214      -43.344637   1.000000   1.000000
     14        -42.223611      -43.336992   1.000000   1.000000
     15        -42.196997      -43.333538   1.000000   1.000000
     16        -42.173677      -43.188331   1.000000   1.000000
     17        -42.135764      -43.117577   1.000000   1.000000
     18        -42.035314      -43.105565   1.000000   1.000000
     19        -42.034176      -43.050546   1.000000   1.000000
     20        -42.032286      -42.972891   1.000000   1.000000
     21        -41.995798      -42.953823   1.000000   1.000000
     22        -41.984614      -42.907174   1.000000   1.000000
     23        -41.939418      -42.891234   1.000000   1.000000
     24        -41.922292      -42.870191   1.000000   1.000000
     25        -41.906658      -42.844963   1.000000   1.000000
     26        -41.884327      -42.768155   1.000000   1.000000
     27        -41.841874      -42.600445   1.000000   1.000000
     28        -41.835964      -42.570671   1.000000   1.000000
     29        -41.819547      -42.455439   1.000000   1.000000
     30        -41.806436      -42.306720   1.000000   1.000000
     31        -41.589085      -42.173345   1.000000   1.000000
     32        -41.497792      -42.061424   1.000000   1.000000
     33        -41.449278      -41.851568   1.000000   1.000000
     34        -40.501927      -40.513290   1.000000   1.000000
     35        -40.468495      -40.458085   1.000000   1.000000
     36        -40.409257      -40.134988   1.000000   1.000000
     37        -40.394137      -40.110823   1.000000   1.000000
     38        -40.359592      -40.063014   1.000000   1.000000
     39        -40.320672      -40.006911   1.000000   1.000000
     40        -40.312287      -39.918644   1.000000   1.000000
     41        -40.263167      -39.796940   1.000000   1.000000
     42        -40.245319      -39.779440   1.000000   1.000000
     43         -7.301342       -7.187582   1.000000   1.000000
     44         -6.304086       -6.177684   1.000000   1.000000
     45         -5.791753       -5.619821   1.000000   1.000000
     46         -5.705820       -5.566778   1.000000   1.000000
     47         -5.061919       -4.826416   1.000000   1.000000
     48         -5.014054       -4.759418   1.000000   1.000000
     49         -4.946405       -4.709546   1.000000   1.000000
     50         -4.893982       -4.681575   1.000000   1.000000
     51         -4.839870       -4.627267   1.000000   1.000000
     52         -4.635775       -4.316451   1.000000   1.000000
     53         -4.454109       -4.055430   1.000000   1.000000
     54         -4.377308       -3.976405   1.000000   1.000000
     55         -4.247693       -3.765757   1.000000   1.000000
     56         -4.225227       -3.740864   1.000000   1.000000
     57         -4.199881       -3.699662   1.000000   1.000000
     58         -4.135542       -3.614461   1.000000   1.000000
     59         -4.110586       -3.483963   1.000000   1.000000
     60         -4.070253       -3.412482   1.000000   1.000000
     61         -4.020931       -3.383590   1.000000   1.000000
     62         -3.969798       -3.317101   1.000000   1.000000
     63         -3.952459       -3.262953   1.000000   1.000000
     64         -3.860902       -2.986993   1.000000   1.000000
     65         -3.797345       -2.963238   1.000000   1.000000
     66         -3.790389       -2.926294   1.000000   1.000000
     67         -3.759332       -2.898594   1.000000   1.000000
     68         -3.700160       -2.873949   1.000000   1.000000
     69         -3.684989       -2.834426   1.000000   1.000000
     70         -3.657075       -2.704476   1.000000   1.000000
     71         -3.575269       -2.681642   1.000000   1.000000
     72         -3.547951       -2.636157   1.000000   1.000000
     73         -3.536140       -2.603862   1.000000   1.000000
     74         -3.517725       -2.585430   1.000000   1.000000
     75         -3.500216       -2.532490   1.000000   1.000000
     76         -3.485200       -2.514425   1.000000   1.000000
     77         -3.472471       -2.478708   1.000000   1.000000
     78         -3.448294       -2.445244   1.000000   1.000000
     79         -3.429990       -2.419164   1.000000   1.000000
     80         -3.392431       -2.371698   1.000000   1.000000
     81         -3.362397       -2.344922   1.000000   1.000000
     82         -3.351009       -2.307496   1.000000   1.000000
     83         -3.337154       -2.290482   1.000000   1.000000
     84         -3.324484       -2.282635   1.000000   1.000000
     85         -3.294643       -2.212383   1.000000   1.000000
     86         -3.257501       -2.208087   1.000000   1.000000
     87         -3.247969       -2.177532   1.000000   1.000000
     88         -3.215556       -2.146568   1.000000   1.000000
     89         -3.203785       -2.110418   1.000000   1.000000
     90         -3.178383       -2.091430   1.000000   1.000000
     91         -3.155933       -2.067500   1.000000   1.000000
     92         -3.140736       -2.018001   1.000000   1.000000
     93         -3.130938       -1.983830   1.000000   1.000000
     94         -3.116046       -1.942002   1.000000   1.000000
     95         -3.098982       -1.909904   1.000000   1.000000
     96         -3.082253       -1.898035   1.000000   1.000000
     97         -3.050213       -1.861565   1.000000   1.000000
     98         -3.012997       -1.847787   1.000000   1.000000
     99         -2.994738       -1.808951   1.000000   1.000000
    100         -2.947159       -1.768740   1.000000   1.000000
    101         -2.933143       -1.728921   1.000000   1.000000
    102         -2.917398       -1.718548   1.000000   1.000000
    103         -2.899661       -1.679702   1.000000   1.000000
    104         -2.880948       -1.671472   1.000000   1.000000
    105         -2.859321       -1.639992   1.000000   1.000000
    106         -2.807778       -1.634690   1.000000   1.000000
    107         -2.791033       -1.622823   1.000000   1.000000
    108         -2.766015       -1.586370   1.000000   1.000000
    109         -2.751017       -1.561567   1.000000   1.000000
    110         -2.734287       -1.536194   1.000000   1.000000
    111         -2.709776       -1.511297   1.000000   1.000000
    112         -2.700164       -1.491093   1.000000   1.000000
    113         -2.685399       -1.468258   1.000000   1.000000
    114         -2.676868       -1.451828   1.000000   1.000000
    115         -2.672496       -1.421095   1.000000   1.000000
    116         -2.654963       -1.410942   1.000000   1.000000
    117         -2.645858       -1.394431   1.000000   1.000000
    118         -2.627300       -1.374110   1.000000   1.000000
    119         -2.616603       -1.350961   1.000000   1.000000
    120         -2.603608       -1.314091   1.000000   1.000000
    121         -2.585381       -1.298678   1.000000   1.000000
    122         -2.581676       -1.283785   1.000000   1.000000
    123         -2.576281       -1.277174   1.000000   1.000000
    124         -2.573484       -1.259457   1.000000   1.000000
    125         -2.562604       -1.246440   1.000000   1.000000
    126         -2.547789       -1.230413   1.000000   1.000000
    127         -2.531013       -1.219874   1.000000   1.000000
    128         -2.521977       -1.209289   1.000000   1.000000
    129         -2.513260       -1.186648   1.000000   1.000000
    130         -2.504234       -1.165170   1.000000   1.000000
    131         -2.491069       -1.133678   1.000000   1.000000
    132         -2.482649       -1.127404   1.000000   1.000000
    133         -2.470559       -1.112885   1.000000   1.000000
    134         -2.456756       -1.084161   1.000000   1.000000
    135         -2.438412       -1.079627   1.000000   1.000000
    136         -2.410119       -1.063564   1.000000   1.000000
    137         -2.400352       -1.043148   1.000000   1.000000
    138         -2.391967       -1.031067   1.000000   1.000000
    139         -2.374727       -1.012229   1.000000   1.000000
    140         -2.358352       -1.000129   1.000000   1.000000
    141         -2.355168       -0.982345   1.000000   1.000000
    142         -2.348545       -0.970535   1.000000   1.000000
    143         -2.331104       -0.965414   1.000000   1.000000
    144         -2.311049       -0.930661   1.000000   1.000000
    145         -2.304165       -0.918707   1.000000   1.000000
    146         -2.293820       -0.895955   1.000000   1.000000
    147         -2.286929       -0.886167   1.000000   1.000000
    148         -2.272405       -0.878734   1.000000   1.000000
    149         -2.249046       -0.859639   1.000000   1.000000
    150         -2.243051       -0.836193   1.000000   1.000000
    151         -2.219384       -0.822850   1.000000   1.000000
    152         -2.215411       -0.811998   1.000000   1.000000
    153         -2.201127       -0.799629   1.000000   1.000000
    154         -2.194071       -0.781923   1.000000   1.000000
    155         -2.180775       -0.773886   1.000000   1.000000
    156         -2.160928       -0.744080   1.000000   1.000000
    157         -2.151073       -0.728766   1.000000   1.000000
    158         -2.135640       -0.713052   1.000000   1.000000
    159         -2.126716       -0.698886   1.000000   1.000000
    160         -2.112455       -0.684535   1.000000   1.000000
    161         -2.088081       -0.673966   1.000000   1.000000
    162         -2.063588       -0.649724   1.000000   1.000000
    163         -2.049541       -0.634232   1.000000   1.000000
    164         -2.043196       -0.616146   1.000000   1.000000
    165         -2.030523       -0.597481   1.000000   1.000000
    166         -2.014873       -0.566438   1.000000   1.000000
    167         -1.997482       -0.530813   1.000000   1.000000
    168         -1.983307       -0.520674   1.000000   1.000000
    169         -1.969702       -0.505021   1.000000   1.000000
    170         -1.948362       -0.484989   1.000000   1.000000
    171         -1.941423       -0.475349   1.000000   1.000000
    172         -1.920324       -0.451831   1.000000   1.000000
    173         -1.909695       -0.417307   1.000000   1.000000
    174         -1.888925       -0.411436   1.000000   1.000000
    175         -1.872778       -0.393106   1.000000   1.000000
    176         -1.858979       -0.388927   1.000000   1.000000
    177         -1.832403       -0.357486   1.000000   1.000000
    178         -1.810627       -0.336718   1.000000   1.000000
    179         -1.789808       -0.316757   1.000000   1.000000
    180         -1.776121       -0.297294   1.000000   1.000000
    181         -1.761696       -0.280374   1.000000   1.000000
    182         -1.741648       -0.254714   1.000000   1.000000
    183         -1.734605       -0.239493   1.000000   1.000000
    184         -1.712771       -0.218650   1.000000   1.000000
    185         -1.695450       -0.205810   1.000000   1.000000
    186         -1.676221       -0.175771   1.000000   1.000000
    187         -1.664537       -0.156376   1.000000   1.000000
    188         -1.644274       -0.151281   1.000000   1.000000
    189         -1.624917       -0.130663   1.000000   1.000000
    190         -1.619769       -0.111809   1.000000   1.000000
    191         -1.607048       -0.088062   1.000000   1.000000
    192         -1.588600       -0.048137   1.000000   1.000000
    193         -1.583814       -0.039124   1.000000   1.000000
    194         -1.573546       -0.027931   1.000000   1.000000
    195         -1.546801       -0.010747   1.000000   1.000000
    196         -1.527630        0.019921   1.000000   1.000000
    197         -1.513877        0.053774   1.000000   1.000000
    198         -1.507125        0.073964   1.000000   1.000000
    199         -1.489511        0.083319   1.000000   1.000000
    200         -1.469316        0.095919   1.000000   1.000000
    201         -1.453280        0.113961   1.000000   1.000000
    202         -1.439058        0.126834   1.000000   1.000000
    203         -1.410644        0.148409   1.000000   1.000000
    204         -1.400838        0.167942   1.000000   1.000000
    205         -1.383550        0.186897   1.000000   1.000000
    206         -1.363283        0.219024   1.000000   1.000001
    207         -1.339625        0.239413   1.000000   1.000001
    208         -1.317092        0.264487   1.000000   1.000004
    209         -1.299118        0.317330   1.000000   1.000041
    210         -1.279709        0.345699   1.000000   1.000120
    211         -1.259911        0.389508   1.000000   1.000544
    212         -1.240508        0.401973   1.000000   1.000807
    213         -1.224988        0.437453   1.000000   1.002271
    214         -1.191925        0.459809   1.000000   1.004070
    215         -1.176744        0.488454   1.000000   1.007924
    216         -1.154793        0.530795   1.000000   1.017664
    217         -1.129110        0.562791   1.000000   1.027331
    218         -1.096146        0.583309   1.000000   1.032799
    219         -1.082520        0.614884   1.000000   1.034751
    220         -1.072399        0.648681   1.000000   1.016936
    221         -1.037099        0.670319   1.000000   0.987526
    222         -1.026943        0.681283   1.000000   0.965739
    223         -1.017538        0.714390   1.000000   0.868171
    224         -0.997763        0.741513   1.000000   0.752966
    225         -0.988581        0.755139   1.000000   0.685048
    226         -0.962378        0.785479   1.000000   0.519101
    227         -0.932940        0.818095   1.000000   0.338515
    228         -0.926688        0.842481   1.000000   0.217869
    229         -0.908597        0.866140   1.000000   0.121689
    230         -0.896045        0.911530   1.000000   0.005546
    231         -0.879801        0.931881   1.000000  -0.019596
    232         -0.863057        0.951893   1.000000  -0.031951
    233         -0.846819        0.968495   1.000000  -0.035339
    234         -0.833396        1.020379   1.000000  -0.025681
    235         -0.803438        1.030590   1.000000  -0.022535
    236         -0.792079        1.047121   1.000000  -0.017612
    237         -0.787755        1.072743   1.000000  -0.011137
    238         -0.772421        1.083107   1.000000  -0.009033
    239         -0.761957        1.120614   1.000000  -0.003805
    240         -0.747549        1.148307   1.000000  -0.001818
    241         -0.741362        1.160435   1.000000  -0.001282
    242         -0.726516        1.184162   1.000000  -0.000619
    243         -0.712076        1.213160   1.000000  -0.000236
    244         -0.699628        1.225994   1.000000  -0.000150
    245         -0.675757        1.241721   1.000000  -0.000084
    246         -0.668988        1.255500   1.000000  -0.000050
    247         -0.654942        1.274767   1.000000  -0.000023
    248         -0.633747        1.292004   1.000000  -0.000011
    249         -0.622606        1.305280   1.000000  -0.000006
    250         -0.611195        1.317023   1.000000  -0.000004
    251         -0.597373        1.339748   1.000000  -0.000001
    252         -0.587269        1.349652   1.000000  -0.000001
    253         -0.571579        1.368926   1.000000  -0.000000
    254         -0.561551        1.371793   1.000000  -0.000000
    255         -0.553446        1.394770   1.000000  -0.000000
    256         -0.544904        1.412053   1.000000  -0.000000
    257         -0.537339        1.416743   1.000000  -0.000000
    258         -0.525372        1.435297   1.000000  -0.000000
    259         -0.522810        1.448332   1.000000  -0.000000
    260         -0.511922        1.467371   1.000000  -0.000000
    261         -0.503737        1.484431   1.000000  -0.000000
    262         -0.494683        1.507857   1.000000  -0.000000
    263         -0.482476        1.520281   1.000000  -0.000000
    264         -0.465057        1.534188   1.000000  -0.000000
    265         -0.457187        1.549809   1.000000  -0.000000
    266         -0.448949        1.564222   1.000000  -0.000000
    267         -0.437678        1.581947   1.000000  -0.000000
    268         -0.435152        1.591590   1.000000  -0.000000
    269         -0.421469        1.607667   1.000000  -0.000000
    270         -0.412360        1.632759   1.000000  -0.000000
    271         -0.401455        1.648999   1.000000  -0.000000
    272         -0.390194        1.663935   1.000000  -0.000000
    273         -0.376782        1.674335   1.000000  -0.000000
    274         -0.365188        1.686608   1.000000  -0.000000
    275         -0.352044        1.701064   1.000000  -0.000000
    276         -0.347744        1.711222   1.000000  -0.000000
    277         -0.338234        1.730297   1.000000  -0.000000
    278         -0.322735        1.746125   1.000000  -0.000000
    279         -0.317612        1.767495   1.000000  -0.000000
    280         -0.309823        1.784178   1.000000  -0.000000
    281         -0.300496        1.804312   1.000000  -0.000000
    282         -0.293976        1.821784   1.000000  -0.000000
    283         -0.282695        1.829033   1.000000  -0.000000
    284         -0.255374        1.838533   1.000000  -0.000000
    285         -0.246499        1.854817   1.000000  -0.000000
    286         -0.225195        1.868025   1.000000  -0.000000
    287         -0.202193        1.887656   1.000000  -0.000000
    288         -0.193766        1.901613   1.000000  -0.000000
    289         -0.171920        1.909575   1.000000  -0.000000
    290         -0.162850        1.929610   1.000000  -0.000000
    291         -0.146644        1.943165   1.000000  -0.000000
    292         -0.128091        1.955162   1.000000  -0.000000
    293         -0.116131        1.961590   1.000000  -0.000000
    294         -0.098651        1.975961   1.000000  -0.000000
    295         -0.079572        1.993176   1.000000  -0.000000
    296         -0.058166        2.002762   1.000000  -0.000000
    297         -0.022166        2.016586   1.000000  -0.000000
    298          0.007750        2.024512   1.000000  -0.000000
    299          0.022580        2.045733   1.000000  -0.000000
    300          0.045069        2.052091   1.000000  -0.000000
    301          0.074842        2.060383   1.000000  -0.000000
    302          0.092365        2.067593   1.000000  -0.000000
    303          0.108621        2.077008   1.000000  -0.000000
    304          0.125712        2.080153   1.000000  -0.000000
    305          0.152878        2.091963   1.000000  -0.000000
    306          0.186007        2.107780   1.000000  -0.000000
    307          0.207499        2.118917   1.000000  -0.000000
    308          0.228351        2.126135   1.000001  -0.000000
    309          0.257228        2.141904   1.000003  -0.000000
    310          0.290674        2.147270   1.000014  -0.000000
    311          0.303015        2.163065   1.000023  -0.000000
    312          0.320512        2.173434   1.000046  -0.000000
    313          0.337752        2.184784   1.000090  -0.000000
    314          0.388869        2.197323   1.000533  -0.000000
    315          0.410728        2.205338   1.001054  -0.000000
    316          0.441174        2.215929   1.002512  -0.000000
    317          0.457238        2.222518   1.003817  -0.000000
    318          0.474046        2.229449   1.005735  -0.000000
    319          0.511879        2.246365   1.012706  -0.000000
    320          0.529826        2.259508   1.017389  -0.000000
    321          0.545050        2.271074   1.021894  -0.000000
    322          0.567876        2.281328   1.028826  -0.000000
    323          0.609188        2.293735   1.035342  -0.000000
    324          0.639012        2.299083   1.025026  -0.000000
    325          0.681437        2.303601   0.965399  -0.000000
    326          0.700312        2.309200   0.915640  -0.000000
    327          0.732278        2.321778   0.795465  -0.000000
    328          0.769324        2.332800   0.609217  -0.000000
    329          0.792161        2.340868   0.481411  -0.000000
    330          0.824229        2.351558   0.306500  -0.000000
    331          0.840515        2.369776   0.226869  -0.000000
    332          0.890211        2.373828   0.048920  -0.000000
    333          0.935068        2.384549  -0.022297  -0.000000
    334          0.992288        2.393397  -0.033247  -0.000000
    335          1.016493        2.400146  -0.026864  -0.000000
    336          1.060794        2.404620  -0.013942  -0.000000
    337          1.078280        2.424255  -0.009975  -0.000000
    338          1.104037        2.427674  -0.005688  -0.000000
    339          1.118181        2.437064  -0.004044  -0.000000
    340          1.189643        2.446114  -0.000519  -0.000000
    341          1.214122        2.461281  -0.000228  -0.000000
    342          1.254164        2.471568  -0.000052  -0.000000
    343          1.296353        2.492828  -0.000009  -0.000000
    344          1.317815        2.500263  -0.000004  -0.000000
    345          1.384041        2.517324  -0.000000  -0.000000
    346          1.401027        2.536083  -0.000000  -0.000000
    347          1.427077        2.544532  -0.000000  -0.000000
    348          1.487371        2.574160  -0.000000  -0.000000
    349          1.514064        2.585283  -0.000000  -0.000000
    350          1.543825        2.597911  -0.000000  -0.000000
    351          1.577186        2.608298  -0.000000  -0.000000
    352          1.627373        2.634302  -0.000000  -0.000000
    353          1.668296        2.660100  -0.000000  -0.000000
    354          1.682818        2.666836  -0.000000  -0.000000
    355          1.704917        2.683670  -0.000000  -0.000000
    356          1.722068        2.708152  -0.000000  -0.000000
    357          1.742942        2.743267  -0.000000  -0.000000
    358          1.773050        2.748105  -0.000000  -0.000000
    359          1.807360        2.774816  -0.000000  -0.000000
    360          1.838222        2.810517  -0.000000  -0.000000
    361          1.878284        2.821641  -0.000000  -0.000000
    362          1.901242        2.842424  -0.000000  -0.000000
 
  0.1250000E+00  0.3750000E+00  0.0000000E+00  0.1250000E+00
      1        -43.051925      -43.590900   1.000000   1.000000
      2        -43.039171      -43.558989   1.000000   1.000000
      3        -43.005592      -43.541369   1.000000   1.000000
      4        -42.976468      -43.530768   1.000000   1.000000
      5        -42.961420      -43.456244   1.000000   1.000000
      6        -42.946559      -43.449902   1.000000   1.000000
      7        -42.941855      -43.432994   1.000000   1.000000
      8        -42.892421      -43.428624   1.000000   1.000000
      9        -42.877461      -43.385258   1.000000   1.000000
     10        -42.362334      -43.382395   1.000000   1.000000
     11        -42.356526      -43.367908   1.000000   1.000000
     12        -42.291095      -43.348683   1.000000   1.000000
     13        -42.289233      -43.344633   1.000000   1.000000
     14        -42.223630      -43.336997   1.000000   1.000000
     15        -42.196989      -43.333534   1.000000   1.000000
     16        -42.173685      -43.188333   1.000000   1.000000
     17        -42.135760      -43.117571   1.000000   1.000000
     18        -42.035314      -43.105568   1.000000   1.000000
     19        -42.034176      -43.050541   1.000000   1.000000
     20        -42.032273      -42.972906   1.000000   1.000000
     21        -41.995805      -42.953816   1.000000   1.000000
     22        -41.984610      -42.907186   1.000000   1.000000
     23        -41.939406      -42.891233   1.000000   1.000000
     24        -41.922284      -42.870214   1.000000   1.000000
     25        -41.906663      -42.844970   1.000000   1.000000
     26        -41.884317      -42.768152   1.000000   1.000000
     27        -41.841878      -42.600448   1.000000   1.000000
     28        -41.835960      -42.570658   1.000000   1.000000
     29        -41.819540      -42.455420   1.000000   1.000000
     30        -41.806438      -42.306725   1.000000   1.000000
     31        -41.589081      -42.173340   1.000000   1.000000
     32        -41.497797      -42.061433   1.000000   1.000000
     33        -41.449277      -41.851560   1.000000   1.000000
     34        -40.501948      -40.513306   1.000000   1.000000
     35        -40.468482      -40.458055   1.000000   1.000000
     36        -40.409253      -40.134979   1.000000   1.000000
     37        -40.394038      -40.110842   1.000000   1.000000
     38        -40.359595      -40.063023   1.000000   1.000000
     39        -40.320699      -40.006904   1.000000   1.000000
     40        -40.312362      -39.918655   1.000000   1.000000
     41        -40.263165      -39.796937   1.000000   1.000000
     42        -40.245316      -39.779440   1.000000   1.000000
     43         -7.022868       -6.905793   1.000000   1.000000
     44         -6.483847       -6.357933   1.000000   1.000000
     45         -6.056807       -5.919492   1.000000   1.000000
     46         -5.583920       -5.424452   1.000000   1.000000
     47         -5.506752       -5.340543   1.000000   1.000000
     48         -5.098996       -4.902691   1.000000   1.000000
     49         -4.802551       -4.551813   1.000000   1.000000
     50         -4.762761       -4.511001   1.000000   1.000000
     51         -4.718109       -4.472344   1.000000   1.000000
     52         -4.444893       -4.137581   1.000000   1.000000
     53         -4.421817       -4.108975   1.000000   1.000000
     54         -4.318833       -4.035905   1.000000   1.000000
     55         -4.211935       -3.804051   1.000000   1.000000
     56         -4.165026       -3.749393   1.000000   1.000000
     57         -4.129394       -3.488168   1.000000   1.000000
     58         -4.079908       -3.411149   1.000000   1.000000
     59         -3.992527       -3.382415   1.000000   1.000000
     60         -3.947977       -3.249231   1.000000   1.000000
     61         -3.912652       -3.220841   1.000000   1.000000
     62         -3.879644       -3.192572   1.000000   1.000000
     63         -3.870022       -3.125917   1.000000   1.000000
     64         -3.855685       -3.073413   1.000000   1.000000
     65         -3.835233       -3.034971   1.000000   1.000000
     66         -3.816386       -3.017803   1.000000   1.000000
     67         -3.791537       -2.982559   1.000000   1.000000
     68         -3.720330       -2.925086   1.000000   1.000000
     69         -3.690226       -2.868277   1.000000   1.000000
     70         -3.663163       -2.830026   1.000000   1.000000
     71         -3.655792       -2.690635   1.000000   1.000000
     72         -3.638013       -2.672679   1.000000   1.000000
     73         -3.616940       -2.640848   1.000000   1.000000
     74         -3.569837       -2.591474   1.000000   1.000000
     75         -3.558572       -2.556947   1.000000   1.000000
     76         -3.520379       -2.527394   1.000000   1.000000
     77         -3.510269       -2.483231   1.000000   1.000000
     78         -3.496274       -2.453981   1.000000   1.000000
     79         -3.404609       -2.436357   1.000000   1.000000
     80         -3.385238       -2.393294   1.000000   1.000000
     81         -3.361775       -2.360130   1.000000   1.000000
     82         -3.342588       -2.310405   1.000000   1.000000
     83         -3.319597       -2.288061   1.000000   1.000000
     84         -3.308565       -2.273054   1.000000   1.000000
     85         -3.293939       -2.260465   1.000000   1.000000
     86         -3.281339       -2.224757   1.000000   1.000000
     87         -3.260068       -2.190865   1.000000   1.000000
     88         -3.243273       -2.166076   1.000000   1.000000
     89         -3.235466       -2.146623   1.000000   1.000000
     90         -3.214297       -2.111684   1.000000   1.000000
     91         -3.203016       -2.083286   1.000000   1.000000
     92         -3.187878       -2.065966   1.000000   1.000000
     93         -3.168354       -2.044547   1.000000   1.000000
     94         -3.150824       -1.991413   1.000000   1.000000
     95         -3.138401       -1.972005   1.000000   1.000000
     96         -3.098356       -1.943327   1.000000   1.000000
     97         -3.079902       -1.903698   1.000000   1.000000
     98         -3.062417       -1.868827   1.000000   1.000000
     99         -3.032869       -1.851353   1.000000   1.000000
    100         -2.997615       -1.823535   1.000000   1.000000
    101         -2.985079       -1.806502   1.000000   1.000000
    102         -2.942703       -1.776704   1.000000   1.000000
    103         -2.926725       -1.741111   1.000000   1.000000
    104         -2.903904       -1.720734   1.000000   1.000000
    105         -2.876024       -1.690119   1.000000   1.000000
    106         -2.860475       -1.663642   1.000000   1.000000
    107         -2.831241       -1.653570   1.000000   1.000000
    108         -2.811585       -1.633055   1.000000   1.000000
    109         -2.804742       -1.613628   1.000000   1.000000
    110         -2.785072       -1.600649   1.000000   1.000000
    111         -2.763716       -1.542292   1.000000   1.000000
    112         -2.750932       -1.500346   1.000000   1.000000
    113         -2.743259       -1.483670   1.000000   1.000000
    114         -2.729788       -1.467995   1.000000   1.000000
    115         -2.710497       -1.431199   1.000000   1.000000
    116         -2.701270       -1.422589   1.000000   1.000000
    117         -2.675258       -1.406726   1.000000   1.000000
    118         -2.661009       -1.384066   1.000000   1.000000
    119         -2.650646       -1.362483   1.000000   1.000000
    120         -2.640912       -1.335351   1.000000   1.000000
    121         -2.630393       -1.296459   1.000000   1.000000
    122         -2.616452       -1.284053   1.000000   1.000000
    123         -2.611119       -1.275197   1.000000   1.000000
    124         -2.600096       -1.241484   1.000000   1.000000
    125         -2.580410       -1.223393   1.000000   1.000000
    126         -2.564256       -1.215298   1.000000   1.000000
    127         -2.554785       -1.198370   1.000000   1.000000
    128         -2.545727       -1.175152   1.000000   1.000000
    129         -2.526254       -1.163391   1.000000   1.000000
    130         -2.511673       -1.149454   1.000000   1.000000
    131         -2.507572       -1.139352   1.000000   1.000000
    132         -2.487094       -1.116865   1.000000   1.000000
    133         -2.472483       -1.099566   1.000000   1.000000
    134         -2.465224       -1.085838   1.000000   1.000000
    135         -2.436116       -1.064477   1.000000   1.000000
    136         -2.427203       -1.055147   1.000000   1.000000
    137         -2.412779       -1.015896   1.000000   1.000000
    138         -2.391830       -1.009225   1.000000   1.000000
    139         -2.373891       -0.993416   1.000000   1.000000
    140         -2.370062       -0.983436   1.000000   1.000000
    141         -2.358249       -0.974842   1.000000   1.000000
    142         -2.347682       -0.951890   1.000000   1.000000
    143         -2.314165       -0.919163   1.000000   1.000000
    144         -2.290799       -0.897544   1.000000   1.000000
    145         -2.287246       -0.879688   1.000000   1.000000
    146         -2.266765       -0.865485   1.000000   1.000000
    147         -2.251073       -0.843842   1.000000   1.000000
    148         -2.240754       -0.831330   1.000000   1.000000
    149         -2.228079       -0.821282   1.000000   1.000000
    150         -2.208989       -0.801660   1.000000   1.000000
    151         -2.187964       -0.784479   1.000000   1.000000
    152         -2.182285       -0.761479   1.000000   1.000000
    153         -2.170415       -0.738537   1.000000   1.000000
    154         -2.159071       -0.728632   1.000000   1.000000
    155         -2.145857       -0.722305   1.000000   1.000000
    156         -2.130356       -0.700516   1.000000   1.000000
    157         -2.125218       -0.684869   1.000000   1.000000
    158         -2.097841       -0.654206   1.000000   1.000000
    159         -2.086488       -0.643408   1.000000   1.000000
    160         -2.080125       -0.625922   1.000000   1.000000
    161         -2.065337       -0.616464   1.000000   1.000000
    162         -2.043581       -0.608180   1.000000   1.000000
    163         -2.028170       -0.585868   1.000000   1.000000
    164         -2.014629       -0.576360   1.000000   1.000000
    165         -2.010721       -0.557180   1.000000   1.000000
    166         -1.982910       -0.545392   1.000000   1.000000
    167         -1.970183       -0.532617   1.000000   1.000000
    168         -1.962043       -0.508687   1.000000   1.000000
    169         -1.955697       -0.495161   1.000000   1.000000
    170         -1.949854       -0.482214   1.000000   1.000000
    171         -1.920611       -0.464850   1.000000   1.000000
    172         -1.911153       -0.446893   1.000000   1.000000
    173         -1.892277       -0.419835   1.000000   1.000000
    174         -1.877315       -0.405332   1.000000   1.000000
    175         -1.855014       -0.397935   1.000000   1.000000
    176         -1.841593       -0.380802   1.000000   1.000000
    177         -1.827949       -0.364570   1.000000   1.000000
    178         -1.819996       -0.343181   1.000000   1.000000
    179         -1.810123       -0.329828   1.000000   1.000000
    180         -1.787221       -0.310247   1.000000   1.000000
    181         -1.776662       -0.295931   1.000000   1.000000
    182         -1.765690       -0.272451   1.000000   1.000000
    183         -1.752695       -0.258403   1.000000   1.000000
    184         -1.740715       -0.233571   1.000000   1.000000
    185         -1.730387       -0.224140   1.000000   1.000000
    186         -1.714902       -0.197446   1.000000   1.000000
    187         -1.701100       -0.185646   1.000000   1.000000
    188         -1.680028       -0.172042   1.000000   1.000000
    189         -1.670098       -0.169889   1.000000   1.000000
    190         -1.649941       -0.142995   1.000000   1.000000
    191         -1.627038       -0.126571   1.000000   1.000000
    192         -1.616726       -0.106015   1.000000   1.000000
    193         -1.607795       -0.090326   1.000000   1.000000
    194         -1.591469       -0.079335   1.000000   1.000000
    195         -1.569981       -0.059730   1.000000   1.000000
    196         -1.555114       -0.042178   1.000000   1.000000
    197         -1.532048       -0.023418   1.000000   1.000000
    198         -1.516602        0.005782   1.000000   1.000000
    199         -1.497162        0.017033   1.000000   1.000000
    200         -1.471800        0.053988   1.000000   1.000000
    201         -1.460721        0.072378   1.000000   1.000000
    202         -1.440656        0.096869   1.000000   1.000000
    203         -1.420234        0.118662   1.000000   1.000000
    204         -1.398471        0.134953   1.000000   1.000000
    205         -1.371151        0.178058   1.000000   1.000000
    206         -1.360744        0.193617   1.000000   1.000000
    207         -1.349801        0.208121   1.000000   1.000000
    208         -1.321974        0.235783   1.000000   1.000001
    209         -1.300361        0.293583   1.000000   1.000016
    210         -1.274672        0.303929   1.000000   1.000024
    211         -1.272753        0.347044   1.000000   1.000126
    212         -1.239971        0.391694   1.000000   1.000583
    213         -1.224774        0.413253   1.000000   1.001137
    214         -1.197759        0.441090   1.000000   1.002506
    215         -1.185962        0.480945   1.000000   1.006716
    216         -1.161178        0.512996   1.000000   1.012973
    217         -1.109684        0.554796   1.000000   1.024895
    218         -1.106035        0.593672   1.000000   1.034646
    219         -1.088760        0.630517   1.000000   1.029980
    220         -1.060379        0.656592   1.000000   1.008121
    221         -1.043499        0.669182   1.000000   0.989506
    222         -1.022977        0.698585   1.000000   0.920850
    223         -0.997542        0.738343   1.000000   0.767906
    224         -0.986076        0.758704   1.000000   0.666410
    225         -0.964807        0.787660   1.000000   0.506801
    226         -0.953927        0.828142   1.000000   0.286608
    227         -0.936105        0.842278   1.000000   0.218791
    228         -0.913191        0.877690   1.000000   0.083533
    229         -0.900188        0.898085   1.000000   0.030688
    230         -0.889520        0.927617   1.000000  -0.015493
    231         -0.867668        0.981223   1.000000  -0.034985
    232         -0.854559        1.007268   1.000000  -0.029561
    233         -0.830519        1.028493   1.000000  -0.023181
    234         -0.821776        1.051113   1.000000  -0.016494
    235         -0.803793        1.073447   1.000000  -0.010985
    236         -0.791498        1.093836   1.000000  -0.007172
    237         -0.770608        1.116892   1.000000  -0.004176
    238         -0.760184        1.130216   1.000000  -0.002973
    239         -0.756189        1.148350   1.000000  -0.001815
    240         -0.740198        1.167859   1.000000  -0.001027
    241         -0.723186        1.190765   1.000000  -0.000501
    242         -0.712619        1.224523   1.000000  -0.000158
    243         -0.691250        1.230414   1.000000  -0.000128
    244         -0.685579        1.249390   1.000000  -0.000063
    245         -0.674134        1.271800   1.000000  -0.000026
    246         -0.654860        1.295371   1.000000  -0.000010
    247         -0.647342        1.311185   1.000000  -0.000005
    248         -0.634994        1.317291   1.000000  -0.000004
    249         -0.624319        1.362994   1.000000  -0.000000
    250         -0.614990        1.383397   1.000000  -0.000000
    251         -0.601238        1.391719   1.000000  -0.000000
    252         -0.595249        1.401865   1.000000  -0.000000
    253         -0.573111        1.420250   1.000000  -0.000000
    254         -0.561838        1.439131   1.000000  -0.000000
    255         -0.558459        1.466275   1.000000  -0.000000
    256         -0.548798        1.473885   1.000000  -0.000000
    257         -0.531233        1.487213   1.000000  -0.000000
    258         -0.520578        1.504169   1.000000  -0.000000
    259         -0.507589        1.524511   1.000000  -0.000000
    260         -0.500557        1.529278   1.000000  -0.000000
    261         -0.491745        1.550177   1.000000  -0.000000
    262         -0.477740        1.566704   1.000000  -0.000000
    263         -0.464649        1.586217   1.000000  -0.000000
    264         -0.459087        1.602914   1.000000  -0.000000
    265         -0.448222        1.614105   1.000000  -0.000000
    266         -0.435952        1.627652   1.000000  -0.000000
    267         -0.422424        1.643998   1.000000  -0.000000
    268         -0.411211        1.659081   1.000000  -0.000000
    269         -0.407024        1.673120   1.000000  -0.000000
    270         -0.397637        1.685367   1.000000  -0.000000
    271         -0.381779        1.700252   1.000000  -0.000000
    272         -0.379103        1.708553   1.000000  -0.000000
    273         -0.352791        1.720348   1.000000  -0.000000
    274         -0.338174        1.731838   1.000000  -0.000000
    275         -0.325592        1.748271   1.000000  -0.000000
    276         -0.319544        1.758761   1.000000  -0.000000
    277         -0.310195        1.766671   1.000000  -0.000000
    278         -0.301116        1.786966   1.000000  -0.000000
    279         -0.285566        1.794396   1.000000  -0.000000
    280         -0.274894        1.806551   1.000000  -0.000000
    281         -0.257848        1.816522   1.000000  -0.000000
    282         -0.241926        1.826177   1.000000  -0.000000
    283         -0.235557        1.838077   1.000000  -0.000000
    284         -0.225439        1.846493   1.000000  -0.000000
    285         -0.192698        1.856304   1.000000  -0.000000
    286         -0.185716        1.868996   1.000000  -0.000000
    287         -0.172257        1.874420   1.000000  -0.000000
    288         -0.143202        1.895485   1.000000  -0.000000
    289         -0.134275        1.909932   1.000000  -0.000000
    290         -0.106168        1.920870   1.000000  -0.000000
    291         -0.089054        1.930873   1.000000  -0.000000
    292         -0.077571        1.938849   1.000000  -0.000000
    293         -0.055443        1.953706   1.000000  -0.000000
    294         -0.030744        1.960617   1.000000  -0.000000
    295         -0.008256        1.969919   1.000000  -0.000000
    296          0.006280        1.981312   1.000000  -0.000000
    297          0.013875        1.986828   1.000000  -0.000000
    298          0.061522        2.002017   1.000000  -0.000000
    299          0.073991        2.008506   1.000000  -0.000000
    300          0.087667        2.021716   1.000000  -0.000000
    301          0.111262        2.033099   1.000000  -0.000000
    302          0.127165        2.043878   1.000000  -0.000000
    303          0.140642        2.060018   1.000000  -0.000000
    304          0.170533        2.065684   1.000000  -0.000000
    305          0.190493        2.078765   1.000000  -0.000000
    306          0.213513        2.092537   1.000000  -0.000000
    307          0.232190        2.109365   1.000001  -0.000000
    308          0.262896        2.117808   1.000004  -0.000000
    309          0.295465        2.125430   1.000017  -0.000000
    310          0.324465        2.132394   1.000054  -0.000000
    311          0.340849        2.154235   1.000101  -0.000000
    312          0.369135        2.171877   1.000276  -0.000000
    313          0.387235        2.189519   1.000505  -0.000000
    314          0.419055        2.194840   1.001350  -0.000000
    315          0.441762        2.202912   1.002552  -0.000000
    316          0.466731        2.220373   1.004822  -0.000000
    317          0.482776        2.233319   1.006996  -0.000000
    318          0.502732        2.244501   1.010653  -0.000000
    319          0.524847        2.257945   1.016010  -0.000000
    320          0.553398        2.268471   1.024465  -0.000000
    321          0.606011        2.277388   1.035453  -0.000000
    322          0.625599        2.287912   1.032038  -0.000000
    323          0.651172        2.300321   1.014385  -0.000000
    324          0.663734        2.308232   0.998290  -0.000000
    325          0.722170        2.317081   0.838192  -0.000000
    326          0.730023        2.332727   0.805354  -0.000000
    327          0.775898        2.337706   0.572861  -0.000000
    328          0.800211        2.354707   0.436193  -0.000000
    329          0.836988        2.364633   0.243371  -0.000000
    330          0.856408        2.376604   0.158417  -0.000000
    331          0.904342        2.383060   0.018075  -0.000000
    332          0.944508        2.390286  -0.028603  -0.000000
    333          0.979990        2.396590  -0.035106  -0.000000
    334          1.008931        2.408111  -0.029091  -0.000000
    335          1.038906        2.419253  -0.020010  -0.000000
    336          1.068443        2.424661  -0.012100  -0.000000
    337          1.105542        2.433679  -0.005491  -0.000000
    338          1.119829        2.448736  -0.003881  -0.000000
    339          1.157538        2.463256  -0.001395  -0.000000
    340          1.173356        2.470690  -0.000869  -0.000000
    341          1.215059        2.480254  -0.000221  -0.000000
    342          1.281822        2.491010  -0.000017  -0.000000
    343          1.306205        2.504463  -0.000006  -0.000000
    344          1.337003        2.519747  -0.000002  -0.000000
    345          1.363925        2.539271  -0.000000  -0.000000
    346          1.412481        2.551337  -0.000000  -0.000000
    347          1.419667        2.557291  -0.000000  -0.000000
    348          1.501404        2.568172  -0.000000  -0.000000
    349          1.525491        2.578215  -0.000000  -0.000000
    350          1.557516        2.602230  -0.000000  -0.000000
    351          1.583130        2.619690  -0.000000  -0.000000
    352          1.610167        2.631496  -0.000000  -0.000000
    353          1.635068        2.659362  -0.000000  -0.000000
    354          1.649464        2.673337  -0.000000  -0.000000
    355          1.697649        2.686995  -0.000000  -0.000000
    356          1.733225        2.690608  -0.000000  -0.000000
    357          1.744929        2.709853  -0.000000  -0.000000
    358          1.762250        2.726176  -0.000000  -0.000000
    359          1.797974        2.743909  -0.000000  -0.000000
    360          1.848606        2.771933  -0.000000  -0.000000
    361          1.867385        2.786745  -0.000000  -0.000000
    362          1.915149        2.811149  -0.000000  -0.000000
 
  0.3750000E+00  0.3750000E+00  0.0000000E+00  0.1250000E+00
      1        -43.051916      -43.590892   1.000000   1.000000
      2        -43.039098      -43.558973   1.000000   1.000000
      3        -43.005570      -43.541321   1.000000   1.000000
      4        -42.976456      -43.530751   1.000000   1.000000
      5        -42.961424      -43.456219   1.000000   1.000000
      6        -42.946550      -43.449895   1.000000   1.000000
      7        -42.941830      -43.432985   1.000000   1.000000
      8        -42.892449      -43.428599   1.000000   1.000000
      9        -42.877450      -43.385257   1.000000   1.000000
     10        -42.362315      -43.382384   1.000000   1.000000
     11        -42.356513      -43.367891   1.000000   1.000000
     12        -42.291083      -43.348665   1.000000   1.000000
     13        -42.289209      -43.344624   1.000000   1.000000
     14        -42.223594      -43.336974   1.000000   1.000000
     15        -42.196977      -43.333538   1.000000   1.000000
     16        -42.173667      -43.188318   1.000000   1.000000
     17        -42.135745      -43.117562   1.000000   1.000000
     18        -42.035314      -43.105552   1.000000   1.000000
     19        -42.034163      -43.050532   1.000000   1.000000
     20        -42.032250      -42.972884   1.000000   1.000000
     21        -41.995792      -42.953808   1.000000   1.000000
     22        -41.984602      -42.907163   1.000000   1.000000
     23        -41.939387      -42.891233   1.000000   1.000000
     24        -41.922261      -42.870196   1.000000   1.000000
     25        -41.906643      -42.844945   1.000000   1.000000
     26        -41.884296      -42.768142   1.000000   1.000000
     27        -41.841860      -42.600430   1.000000   1.000000
     28        -41.835943      -42.570644   1.000000   1.000000
     29        -41.819531      -42.455414   1.000000   1.000000
     30        -41.806426      -42.306704   1.000000   1.000000
     31        -41.589080      -42.173328   1.000000   1.000000
     32        -41.497780      -42.061410   1.000000   1.000000
     33        -41.449265      -41.851549   1.000000   1.000000
     34        -40.501867      -40.513257   1.000000   1.000000
     35        -40.468467      -40.458040   1.000000   1.000000
     36        -40.409240      -40.134964   1.000000   1.000000
     37        -40.394017      -40.110832   1.000000   1.000000
     38        -40.359631      -40.063024   1.000000   1.000000
     39        -40.320674      -40.006889   1.000000   1.000000
     40        -40.312352      -39.918631   1.000000   1.000000
     41        -40.263156      -39.796926   1.000000   1.000000
     42        -40.245304      -39.779426   1.000000   1.000000
     43         -6.751811       -6.631220   1.000000   1.000000
     44         -6.254584       -6.103925   1.000000   1.000000
     45         -6.205355       -6.092835   1.000000   1.000000
     46         -5.822942       -5.663841   1.000000   1.000000
     47         -5.716969       -5.589029   1.000000   1.000000
     48         -5.346177       -5.181468   1.000000   1.000000
     49         -5.310472       -5.139397   1.000000   1.000000
     50         -4.861801       -4.674922   1.000000   1.000000
     51         -4.581004       -4.316098   1.000000   1.000000
     52         -4.285698       -3.936798   1.000000   1.000000
     53         -4.182431       -3.874733   1.000000   1.000000
     54         -4.054919       -3.621379   1.000000   1.000000
     55         -4.018218       -3.591393   1.000000   1.000000
     56         -3.989618       -3.481627   1.000000   1.000000
     57         -3.965149       -3.384688   1.000000   1.000000
     58         -3.961650       -3.354171   1.000000   1.000000
     59         -3.944009       -3.224653   1.000000   1.000000
     60         -3.930564       -3.145476   1.000000   1.000000
     61         -3.906916       -3.123539   1.000000   1.000000
     62         -3.873324       -3.061513   1.000000   1.000000
     63         -3.842722       -3.035125   1.000000   1.000000
     64         -3.811862       -3.007186   1.000000   1.000000
     65         -3.733057       -2.962752   1.000000   1.000000
     66         -3.726788       -2.928850   1.000000   1.000000
     67         -3.703829       -2.909229   1.000000   1.000000
     68         -3.684894       -2.885371   1.000000   1.000000
     69         -3.635701       -2.825869   1.000000   1.000000
     70         -3.610415       -2.813210   1.000000   1.000000
     71         -3.602650       -2.781767   1.000000   1.000000
     72         -3.586528       -2.756970   1.000000   1.000000
     73         -3.569013       -2.734680   1.000000   1.000000
     74         -3.556290       -2.683887   1.000000   1.000000
     75         -3.536786       -2.633830   1.000000   1.000000
     76         -3.528455       -2.584296   1.000000   1.000000
     77         -3.517694       -2.578756   1.000000   1.000000
     78         -3.502427       -2.527438   1.000000   1.000000
     79         -3.494878       -2.496031   1.000000   1.000000
     80         -3.479726       -2.450620   1.000000   1.000000
     81         -3.454275       -2.424847   1.000000   1.000000
     82         -3.431457       -2.410231   1.000000   1.000000
     83         -3.415821       -2.373438   1.000000   1.000000
     84         -3.410732       -2.349492   1.000000   1.000000
     85         -3.384493       -2.315709   1.000000   1.000000
     86         -3.360186       -2.300754   1.000000   1.000000
     87         -3.343994       -2.290824   1.000000   1.000000
     88         -3.332639       -2.245480   1.000000   1.000000
     89         -3.286011       -2.204309   1.000000   1.000000
     90         -3.274959       -2.155863   1.000000   1.000000
     91         -3.257134       -2.114589   1.000000   1.000000
     92         -3.212983       -2.077821   1.000000   1.000000
     93         -3.197123       -2.054372   1.000000   1.000000
     94         -3.175277       -2.025093   1.000000   1.000000
     95         -3.153228       -2.001416   1.000000   1.000000
     96         -3.104803       -1.957790   1.000000   1.000000
     97         -3.096856       -1.923257   1.000000   1.000000
     98         -3.061196       -1.897806   1.000000   1.000000
     99         -3.044062       -1.879897   1.000000   1.000000
    100         -3.020503       -1.847506   1.000000   1.000000
    101         -2.997002       -1.826129   1.000000   1.000000
    102         -2.977379       -1.791917   1.000000   1.000000
    103         -2.964878       -1.782876   1.000000   1.000000
    104         -2.934403       -1.740532   1.000000   1.000000
    105         -2.896833       -1.715344   1.000000   1.000000
    106         -2.880404       -1.702333   1.000000   1.000000
    107         -2.850738       -1.675395   1.000000   1.000000
    108         -2.842635       -1.647286   1.000000   1.000000
    109         -2.817458       -1.616749   1.000000   1.000000
    110         -2.786732       -1.598982   1.000000   1.000000
    111         -2.778372       -1.570512   1.000000   1.000000
    112         -2.764725       -1.548717   1.000000   1.000000
    113         -2.756053       -1.527906   1.000000   1.000000
    114         -2.741136       -1.501996   1.000000   1.000000
    115         -2.730458       -1.480841   1.000000   1.000000
    116         -2.716058       -1.471419   1.000000   1.000000
    117         -2.697952       -1.423561   1.000000   1.000000
    118         -2.687734       -1.412054   1.000000   1.000000
    119         -2.673356       -1.370032   1.000000   1.000000
    120         -2.659438       -1.363270   1.000000   1.000000
    121         -2.651653       -1.348268   1.000000   1.000000
    122         -2.638164       -1.312282   1.000000   1.000000
    123         -2.623269       -1.303253   1.000000   1.000000
    124         -2.617899       -1.281100   1.000000   1.000000
    125         -2.599983       -1.262971   1.000000   1.000000
    126         -2.591468       -1.243561   1.000000   1.000000
    127         -2.587552       -1.231777   1.000000   1.000000
    128         -2.563986       -1.219311   1.000000   1.000000
    129         -2.560996       -1.188482   1.000000   1.000000
    130         -2.545264       -1.171729   1.000000   1.000000
    131         -2.539654       -1.161413   1.000000   1.000000
    132         -2.526070       -1.144499   1.000000   1.000000
    133         -2.518054       -1.126877   1.000000   1.000000
    134         -2.512454       -1.099863   1.000000   1.000000
    135         -2.471152       -1.069522   1.000000   1.000000
    136         -2.459963       -1.051292   1.000000   1.000000
    137         -2.437526       -1.025094   1.000000   1.000000
    138         -2.416828       -1.008083   1.000000   1.000000
    139         -2.404542       -0.982119   1.000000   1.000000
    140         -2.378077       -0.963116   1.000000   1.000000
    141         -2.360092       -0.944132   1.000000   1.000000
    142         -2.340048       -0.932662   1.000000   1.000000
    143         -2.333240       -0.900415   1.000000   1.000000
    144         -2.319502       -0.883078   1.000000   1.000000
    145         -2.302894       -0.871402   1.000000   1.000000
    146         -2.292052       -0.861321   1.000000   1.000000
    147         -2.268531       -0.843697   1.000000   1.000000
    148         -2.254730       -0.813540   1.000000   1.000000
    149         -2.226717       -0.776591   1.000000   1.000000
    150         -2.215430       -0.768808   1.000000   1.000000
    151         -2.205742       -0.751185   1.000000   1.000000
    152         -2.195210       -0.746198   1.000000   1.000000
    153         -2.189226       -0.724082   1.000000   1.000000
    154         -2.164851       -0.711625   1.000000   1.000000
    155         -2.152933       -0.692498   1.000000   1.000000
    156         -2.141501       -0.672915   1.000000   1.000000
    157         -2.122053       -0.639897   1.000000   1.000000
    158         -2.114716       -0.629096   1.000000   1.000000
    159         -2.100804       -0.607109   1.000000   1.000000
    160         -2.083455       -0.582104   1.000000   1.000000
    161         -2.072761       -0.577770   1.000000   1.000000
    162         -2.063816       -0.573091   1.000000   1.000000
    163         -2.050806       -0.554717   1.000000   1.000000
    164         -2.044600       -0.545156   1.000000   1.000000
    165         -2.023244       -0.531232   1.000000   1.000000
    166         -2.011432       -0.516632   1.000000   1.000000
    167         -1.989844       -0.502421   1.000000   1.000000
    168         -1.981236       -0.483952   1.000000   1.000000
    169         -1.971498       -0.463132   1.000000   1.000000
    170         -1.959015       -0.444197   1.000000   1.000000
    171         -1.940887       -0.432005   1.000000   1.000000
    172         -1.916936       -0.411861   1.000000   1.000000
    173         -1.910179       -0.405685   1.000000   1.000000
    174         -1.880295       -0.400087   1.000000   1.000000
    175         -1.868415       -0.380174   1.000000   1.000000
    176         -1.862692       -0.369132   1.000000   1.000000
    177         -1.839995       -0.359526   1.000000   1.000000
    178         -1.829134       -0.349915   1.000000   1.000000
    179         -1.821666       -0.336194   1.000000   1.000000
    180         -1.810635       -0.310430   1.000000   1.000000
    181         -1.787954       -0.301678   1.000000   1.000000
    182         -1.778688       -0.284461   1.000000   1.000000
    183         -1.753224       -0.270069   1.000000   1.000000
    184         -1.743511       -0.261923   1.000000   1.000000
    185         -1.728687       -0.238136   1.000000   1.000000
    186         -1.705835       -0.220934   1.000000   1.000000
    187         -1.694659       -0.208743   1.000000   1.000000
    188         -1.684075       -0.200941   1.000000   1.000000
    189         -1.660216       -0.187411   1.000000   1.000000
    190         -1.643747       -0.159246   1.000000   1.000000
    191         -1.608978       -0.132597   1.000000   1.000000
    192         -1.597335       -0.114405   1.000000   1.000000
    193         -1.583086       -0.104835   1.000000   1.000000
    194         -1.568637       -0.047132   1.000000   1.000000
    195         -1.557021       -0.031774   1.000000   1.000000
    196         -1.527788       -0.012941   1.000000   1.000000
    197         -1.515599       -0.001951   1.000000   1.000000
    198         -1.499954        0.044349   1.000000   1.000000
    199         -1.480051        0.051216   1.000000   1.000000
    200         -1.456210        0.075864   1.000000   1.000000
    201         -1.442222        0.103146   1.000000   1.000000
    202         -1.429495        0.123513   1.000000   1.000000
    203         -1.390973        0.158921   1.000000   1.000000
    204         -1.379404        0.200635   1.000000   1.000000
    205         -1.368409        0.213552   1.000000   1.000000
    206         -1.330670        0.253837   1.000000   1.000003
    207         -1.321634        0.264467   1.000000   1.000004
    208         -1.300766        0.287567   1.000000   1.000012
    209         -1.282580        0.293012   1.000000   1.000015
    210         -1.241988        0.336606   1.000000   1.000086
    211         -1.209798        0.351391   1.000000   1.000148
    212         -1.179548        0.377457   1.000000   1.000366
    213         -1.166941        0.393466   1.000000   1.000617
    214         -1.147889        0.451527   1.000000   1.003300
    215         -1.134061        0.477568   1.000000   1.006220
    216         -1.115358        0.520083   1.000000   1.014745
    217         -1.099289        0.583444   1.000000   1.032828
    218         -1.080272        0.593176   1.000000   1.034578
    219         -1.049208        0.625343   1.000000   1.032130
    220         -1.020530        0.642116   1.000000   1.022730
    221         -0.993445        0.696537   1.000000   0.926857
    222         -0.978667        0.729320   1.000000   0.808395
    223         -0.967116        0.754294   1.000000   0.689419
    224         -0.948087        0.790983   1.000000   0.488054
    225         -0.921775        0.811456   1.000000   0.374139
    226         -0.921020        0.842253   1.000000   0.218904
    227         -0.890962        0.869091   1.000000   0.111373
    228         -0.872664        0.907702   1.000000   0.011963
    229         -0.864789        0.929651   1.000000  -0.017521
    230         -0.847626        0.952616   1.000000  -0.032211
    231         -0.832356        0.986278   1.000000  -0.034326
    232         -0.826813        0.992946   1.000000  -0.033112
    233         -0.811244        1.028594   1.000000  -0.023150
    234         -0.797315        1.054834   1.000000  -0.015486
    235         -0.780774        1.064870   1.000000  -0.012941
    236         -0.768477        1.082846   1.000000  -0.009082
    237         -0.753363        1.110344   1.000000  -0.004899
    238         -0.743859        1.117438   1.000000  -0.004120
    239         -0.726509        1.152763   1.000000  -0.001601
    240         -0.701856        1.162540   1.000000  -0.001204
    241         -0.690856        1.178510   1.000000  -0.000740
    242         -0.673410        1.208883   1.000000  -0.000273
    243         -0.661064        1.222696   1.000000  -0.000168
    244         -0.654790        1.247748   1.000000  -0.000067
    245         -0.646133        1.285919   1.000000  -0.000015
    246         -0.625109        1.292930   1.000000  -0.000011
    247         -0.620110        1.314036   1.000000  -0.000004
    248         -0.611064        1.334635   1.000000  -0.000002
    249         -0.592942        1.362196   1.000000  -0.000000
    250         -0.584503        1.382339   1.000000  -0.000000
    251         -0.575060        1.398269   1.000000  -0.000000
    252         -0.567038        1.411270   1.000000  -0.000000
    253         -0.550900        1.443223   1.000000  -0.000000
    254         -0.544814        1.447777   1.000000  -0.000000
    255         -0.530526        1.466213   1.000000  -0.000000
    256         -0.519306        1.478033   1.000000  -0.000000
    257         -0.512246        1.499739   1.000000  -0.000000
    258         -0.498402        1.512878   1.000000  -0.000000
    259         -0.491435        1.526789   1.000000  -0.000000
    260         -0.488023        1.536527   1.000000  -0.000000
    261         -0.480452        1.546716   1.000000  -0.000000
    262         -0.467664        1.570300   1.000000  -0.000000
    263         -0.459731        1.599104   1.000000  -0.000000
    264         -0.449071        1.614388   1.000000  -0.000000
    265         -0.443010        1.617503   1.000000  -0.000000
    266         -0.433751        1.643219   1.000000  -0.000000
    267         -0.423141        1.649093   1.000000  -0.000000
    268         -0.407418        1.675933   1.000000  -0.000000
    269         -0.402236        1.677537   1.000000  -0.000000
    270         -0.392801        1.689050   1.000000  -0.000000
    271         -0.384443        1.713752   1.000000  -0.000000
    272         -0.368738        1.718296   1.000000  -0.000000
    273         -0.346095        1.728442   1.000000  -0.000000
    274         -0.338747        1.749586   1.000000  -0.000000
    275         -0.320884        1.759346   1.000000  -0.000000
    276         -0.313178        1.775978   1.000000  -0.000000
    277         -0.298988        1.782397   1.000000  -0.000000
    278         -0.279393        1.808227   1.000000  -0.000000
    279         -0.272033        1.818633   1.000000  -0.000000
    280         -0.254943        1.831406   1.000000  -0.000000
    281         -0.230856        1.842137   1.000000  -0.000000
    282         -0.220895        1.856272   1.000000  -0.000000
    283         -0.209933        1.872838   1.000000  -0.000000
    284         -0.207447        1.879616   1.000000  -0.000000
    285         -0.189504        1.887961   1.000000  -0.000000
    286         -0.171842        1.891643   1.000000  -0.000000
    287         -0.149404        1.900352   1.000000  -0.000000
    288         -0.127114        1.921957   1.000000  -0.000000
    289         -0.110928        1.935939   1.000000  -0.000000
    290         -0.094024        1.943587   1.000000  -0.000000
    291         -0.079765        1.953103   1.000000  -0.000000
    292         -0.059518        1.962272   1.000000  -0.000000
    293         -0.036256        1.971255   1.000000  -0.000000
    294         -0.011250        1.977120   1.000000  -0.000000
    295          0.003567        1.984301   1.000000  -0.000000
    296          0.015127        1.999441   1.000000  -0.000000
    297          0.031441        2.007951   1.000000  -0.000000
    298          0.039507        2.019234   1.000000  -0.000000
    299          0.073213        2.024298   1.000000  -0.000000
    300          0.089740        2.042931   1.000000  -0.000000
    301          0.112392        2.051388   1.000000  -0.000000
    302          0.131857        2.063794   1.000000  -0.000000
    303          0.159603        2.069691   1.000000  -0.000000
    304          0.170189        2.092562   1.000000  -0.000000
    305          0.198386        2.099709   1.000000  -0.000000
    306          0.214625        2.116859   1.000000  -0.000000
    307          0.221502        2.127097   1.000001  -0.000000
    308          0.276191        2.140286   1.000007  -0.000000
    309          0.288168        2.143984   1.000012  -0.000000
    310          0.304903        2.157428   1.000025  -0.000000
    311          0.332230        2.183827   1.000073  -0.000000
    312          0.358616        2.189183   1.000191  -0.000000
    313          0.394222        2.199762   1.000632  -0.000000
    314          0.408514        2.207992   1.000986  -0.000000
    315          0.434959        2.219602   1.002121  -0.000000
    316          0.446981        2.224983   1.002932  -0.000000
    317          0.485890        2.238070   1.007494  -0.000000
    318          0.495668        2.248677   1.009231  -0.000000
    319          0.520716        2.262273   1.014910  -0.000000
    320          0.538370        2.268555   1.019874  -0.000000
    321          0.591192        2.273226   1.034285  -0.000000
    322          0.603567        2.285431   1.035441  -0.000000
    323          0.639786        2.292444   1.024479  -0.000000
    324          0.656761        2.310682   1.007910  -0.000000
    325          0.680346        2.319887   0.967798  -0.000000
    326          0.739260        2.325826   0.763621  -0.000000
    327          0.787302        2.339131   0.508820  -0.000000
    328          0.840626        2.345730   0.226358  -0.000000
    329          0.866451        2.353340   0.120582  -0.000000
    330          0.894987        2.359395   0.037542  -0.000000
    331          0.916405        2.367189  -0.001812  -0.000000
    332          0.942334        2.373331  -0.027363  -0.000000
    333          0.964619        2.385496  -0.034992  -0.000000
    334          0.990824        2.398081  -0.033536  -0.000000
    335          1.046709        2.407453  -0.017729  -0.000000
    336          1.074801        2.414940  -0.010695  -0.000000
    337          1.097864        2.422666  -0.006554  -0.000000
    338          1.153630        2.435535  -0.001562  -0.000000
    339          1.193142        2.440749  -0.000463  -0.000000
    340          1.219873        2.450200  -0.000186  -0.000000
    341          1.239153        2.461157  -0.000092  -0.000000
    342          1.312065        2.464838  -0.000005  -0.000000
    343          1.326139        2.480557  -0.000003  -0.000000
    344          1.359572        2.487399  -0.000001  -0.000000
    345          1.387425        2.502548  -0.000000  -0.000000
    346          1.428951        2.516899  -0.000000  -0.000000
    347          1.456230        2.524719  -0.000000  -0.000000
    348          1.498724        2.529563  -0.000000  -0.000000
    349          1.530043        2.536767  -0.000000  -0.000000
    350          1.561796        2.560040  -0.000000  -0.000000
    351          1.587689        2.585006  -0.000000  -0.000000
    352          1.604291        2.596364  -0.000000  -0.000000
    353          1.635327        2.611910  -0.000000  -0.000000
    354          1.663120        2.639100  -0.000000  -0.000000
    355          1.699701        2.644546  -0.000000  -0.000000
    356          1.733094        2.673527  -0.000000  -0.000000
    357          1.754764        2.713437  -0.000000  -0.000000
    358          1.774741        2.725039  -0.000000  -0.000000
    359          1.805086        2.769511  -0.000000  -0.000000
    360          1.853692        2.803330  -0.000000  -0.000000
    361          1.862406        2.826312  -0.000000  -0.000000
    362          1.947860        2.842881  -0.000000  -0.000000
 
 -0.3750000E+00  0.3750000E+00  0.0000000E+00  0.1250000E+00
      1        -43.051905      -43.590891   1.000000   1.000000
      2        -43.039100      -43.558963   1.000000   1.000000
      3        -43.005574      -43.541325   1.000000   1.000000
      4        -42.976452      -43.530757   1.000000   1.000000
      5        -42.961424      -43.456236   1.000000   1.000000
      6        -42.946545      -43.449879   1.000000   1.000000
      7        -42.941834      -43.432985   1.000000   1.000000
      8        -42.892441      -43.428613   1.000000   1.000000
      9        -42.877466      -43.385276   1.000000   1.000000
     10        -42.362304      -43.382379   1.000000   1.000000
     11        -42.356526      -43.367888   1.000000   1.000000
     12        -42.291066      -43.348671   1.000000   1.000000
     13        -42.289227      -43.344621   1.000000   1.000000
     14        -42.223604      -43.336965   1.000000   1.000000
     15        -42.196982      -43.333520   1.000000   1.000000
     16        -42.173670      -43.188323   1.000000   1.000000
     17        -42.135743      -43.117543   1.000000   1.000000
     18        -42.035296      -43.105557   1.000000   1.000000
     19        -42.034165      -43.050513   1.000000   1.000000
     20        -42.032240      -42.972898   1.000000   1.000000
     21        -41.995791      -42.953794   1.000000   1.000000
     22        -41.984591      -42.907176   1.000000   1.000000
     23        -41.939399      -42.891232   1.000000   1.000000
     24        -41.922276      -42.870213   1.000000   1.000000
     25        -41.906626      -42.844948   1.000000   1.000000
     26        -41.884307      -42.768128   1.000000   1.000000
     27        -41.841868      -42.600424   1.000000   1.000000
     28        -41.835944      -42.570653   1.000000   1.000000
     29        -41.819530      -42.455415   1.000000   1.000000
     30        -41.806417      -42.306706   1.000000   1.000000
     31        -41.589057      -42.173324   1.000000   1.000000
     32        -41.497795      -42.061417   1.000000   1.000000
     33        -41.449270      -41.851546   1.000000   1.000000
     34        -40.501874      -40.513265   1.000000   1.000000
     35        -40.468460      -40.458030   1.000000   1.000000
     36        -40.409241      -40.134963   1.000000   1.000000
     37        -40.394017      -40.110818   1.000000   1.000000
     38        -40.359631      -40.063032   1.000000   1.000000
     39        -40.320690      -40.006882   1.000000   1.000000
     40        -40.312336      -39.918640   1.000000   1.000000
     41        -40.263156      -39.796925   1.000000   1.000000
     42        -40.245304      -39.779431   1.000000   1.000000
     43         -6.751519       -6.631010   1.000000   1.000000
     44         -6.273759       -6.123455   1.000000   1.000000
     45         -6.183041       -6.071837   1.000000   1.000000
     46         -5.815178       -5.668530   1.000000   1.000000
     47         -5.731170       -5.584128   1.000000   1.000000
     48         -5.367653       -5.208384   1.000000   1.000000
     49         -5.278550       -5.110993   1.000000   1.000000
     50         -4.876748       -4.681443   1.000000   1.000000
     51         -4.570310       -4.306889   1.000000   1.000000
     52         -4.280043       -3.966514   1.000000   1.000000
     53         -4.204286       -3.851486   1.000000   1.000000
     54         -4.058903       -3.626578   1.000000   1.000000
     55         -4.014662       -3.571824   1.000000   1.000000
     56         -3.993905       -3.489834   1.000000   1.000000
     57         -3.963686       -3.378982   1.000000   1.000000
     58         -3.954598       -3.345241   1.000000   1.000000
     59         -3.936914       -3.252037   1.000000   1.000000
     60         -3.916383       -3.170885   1.000000   1.000000
     61         -3.903750       -3.107774   1.000000   1.000000
     62         -3.878783       -3.062648   1.000000   1.000000
     63         -3.853436       -3.036868   1.000000   1.000000
     64         -3.801132       -3.015384   1.000000   1.000000
     65         -3.739334       -2.974267   1.000000   1.000000
     66         -3.728820       -2.929172   1.000000   1.000000
     67         -3.699493       -2.896326   1.000000   1.000000
     68         -3.691721       -2.853805   1.000000   1.000000
     69         -3.627606       -2.810854   1.000000   1.000000
     70         -3.611768       -2.799366   1.000000   1.000000
     71         -3.595326       -2.780306   1.000000   1.000000
     72         -3.582235       -2.751743   1.000000   1.000000
     73         -3.573872       -2.716724   1.000000   1.000000
     74         -3.557656       -2.687668   1.000000   1.000000
     75         -3.548393       -2.674247   1.000000   1.000000
     76         -3.533758       -2.606747   1.000000   1.000000
     77         -3.509739       -2.565785   1.000000   1.000000
     78         -3.502303       -2.520249   1.000000   1.000000
     79         -3.489415       -2.487624   1.000000   1.000000
     80         -3.472213       -2.455504   1.000000   1.000000
     81         -3.463801       -2.436130   1.000000   1.000000
     82         -3.446494       -2.414355   1.000000   1.000000
     83         -3.434110       -2.384346   1.000000   1.000000
     84         -3.391351       -2.374348   1.000000   1.000000
     85         -3.383717       -2.344301   1.000000   1.000000
     86         -3.351818       -2.291302   1.000000   1.000000
     87         -3.341131       -2.259480   1.000000   1.000000
     88         -3.322140       -2.241010   1.000000   1.000000
     89         -3.300470       -2.216730   1.000000   1.000000
     90         -3.273883       -2.153234   1.000000   1.000000
     91         -3.247115       -2.129037   1.000000   1.000000
     92         -3.223167       -2.086287   1.000000   1.000000
     93         -3.200952       -2.023131   1.000000   1.000000
     94         -3.172464       -1.991450   1.000000   1.000000
     95         -3.155174       -1.973774   1.000000   1.000000
     96         -3.103747       -1.959340   1.000000   1.000000
     97         -3.087539       -1.935692   1.000000   1.000000
     98         -3.062989       -1.915766   1.000000   1.000000
     99         -3.039739       -1.887226   1.000000   1.000000
    100         -3.028886       -1.842714   1.000000   1.000000
    101         -3.003159       -1.834521   1.000000   1.000000
    102         -2.972054       -1.786029   1.000000   1.000000
    103         -2.953552       -1.771125   1.000000   1.000000
    104         -2.933417       -1.742774   1.000000   1.000000
    105         -2.908755       -1.726744   1.000000   1.000000
    106         -2.889193       -1.694046   1.000000   1.000000
    107         -2.873119       -1.665800   1.000000   1.000000
    108         -2.836253       -1.647860   1.000000   1.000000
    109         -2.800534       -1.624109   1.000000   1.000000
    110         -2.789974       -1.601396   1.000000   1.000000
    111         -2.775383       -1.578004   1.000000   1.000000
    112         -2.767200       -1.550733   1.000000   1.000000
    113         -2.754955       -1.522774   1.000000   1.000000
    114         -2.749743       -1.493060   1.000000   1.000000
    115         -2.723540       -1.467823   1.000000   1.000000
    116         -2.711733       -1.445780   1.000000   1.000000
    117         -2.699260       -1.437176   1.000000   1.000000
    118         -2.677772       -1.415290   1.000000   1.000000
    119         -2.664260       -1.395066   1.000000   1.000000
    120         -2.658051       -1.368339   1.000000   1.000000
    121         -2.654798       -1.349331   1.000000   1.000000
    122         -2.636945       -1.331355   1.000000   1.000000
    123         -2.629420       -1.307453   1.000000   1.000000
    124         -2.613977       -1.285731   1.000000   1.000000
    125         -2.608955       -1.271011   1.000000   1.000000
    126         -2.597577       -1.258354   1.000000   1.000000
    127         -2.591288       -1.231024   1.000000   1.000000
    128         -2.571071       -1.197841   1.000000   1.000000
    129         -2.561476       -1.179293   1.000000   1.000000
    130         -2.546213       -1.177488   1.000000   1.000000
    131         -2.537494       -1.144813   1.000000   1.000000
    132         -2.523221       -1.134914   1.000000   1.000000
    133         -2.513262       -1.119705   1.000000   1.000000
    134         -2.490503       -1.095921   1.000000   1.000000
    135         -2.473204       -1.076998   1.000000   1.000000
    136         -2.442429       -1.054425   1.000000   1.000000
    137         -2.434112       -1.017762   1.000000   1.000000
    138         -2.424042       -0.991379   1.000000   1.000000
    139         -2.402212       -0.983185   1.000000   1.000000
    140         -2.378144       -0.971262   1.000000   1.000000
    141         -2.361643       -0.938704   1.000000   1.000000
    142         -2.353835       -0.927631   1.000000   1.000000
    143         -2.336832       -0.918270   1.000000   1.000000
    144         -2.316570       -0.895088   1.000000   1.000000
    145         -2.301374       -0.871759   1.000000   1.000000
    146         -2.287498       -0.854541   1.000000   1.000000
    147         -2.271275       -0.837480   1.000000   1.000000
    148         -2.263859       -0.814764   1.000000   1.000000
    149         -2.234502       -0.793266   1.000000   1.000000
    150         -2.225111       -0.775178   1.000000   1.000000
    151         -2.213104       -0.769830   1.000000   1.000000
    152         -2.193163       -0.733966   1.000000   1.000000
    153         -2.178515       -0.721784   1.000000   1.000000
    154         -2.164646       -0.697764   1.000000   1.000000
    155         -2.158150       -0.680491   1.000000   1.000000
    156         -2.152897       -0.664015   1.000000   1.000000
    157         -2.126052       -0.653755   1.000000   1.000000
    158         -2.120226       -0.635197   1.000000   1.000000
    159         -2.098504       -0.609515   1.000000   1.000000
    160         -2.083350       -0.604339   1.000000   1.000000
    161         -2.075534       -0.582763   1.000000   1.000000
    162         -2.061434       -0.564953   1.000000   1.000000
    163         -2.051629       -0.556324   1.000000   1.000000
    164         -2.039268       -0.535918   1.000000   1.000000
    165         -2.021195       -0.521774   1.000000   1.000000
    166         -2.006067       -0.505806   1.000000   1.000000
    167         -1.999101       -0.498085   1.000000   1.000000
    168         -1.979439       -0.485971   1.000000   1.000000
    169         -1.961784       -0.468346   1.000000   1.000000
    170         -1.947734       -0.451608   1.000000   1.000000
    171         -1.946908       -0.437561   1.000000   1.000000
    172         -1.924541       -0.426413   1.000000   1.000000
    173         -1.903715       -0.402381   1.000000   1.000000
    174         -1.880375       -0.394872   1.000000   1.000000
    175         -1.872449       -0.378450   1.000000   1.000000
    176         -1.858353       -0.374650   1.000000   1.000000
    177         -1.845681       -0.352176   1.000000   1.000000
    178         -1.832218       -0.332942   1.000000   1.000000
    179         -1.820745       -0.328553   1.000000   1.000000
    180         -1.809490       -0.308887   1.000000   1.000000
    181         -1.784950       -0.295847   1.000000   1.000000
    182         -1.776097       -0.289119   1.000000   1.000000
    183         -1.771679       -0.278140   1.000000   1.000000
    184         -1.746559       -0.253767   1.000000   1.000000
    185         -1.712134       -0.238020   1.000000   1.000000
    186         -1.701655       -0.233207   1.000000   1.000000
    187         -1.691280       -0.215416   1.000000   1.000000
    188         -1.677639       -0.192190   1.000000   1.000000
    189         -1.650681       -0.176929   1.000000   1.000000
    190         -1.633339       -0.154572   1.000000   1.000000
    191         -1.603592       -0.132621   1.000000   1.000000
    192         -1.591163       -0.109806   1.000000   1.000000
    193         -1.575335       -0.090657   1.000000   1.000000
    194         -1.569451       -0.060607   1.000000   1.000000
    195         -1.540698       -0.046943   1.000000   1.000000
    196         -1.532974       -0.030331   1.000000   1.000000
    197         -1.516248       -0.000935   1.000000   1.000000
    198         -1.505029        0.009311   1.000000   1.000000
    199         -1.489028        0.055361   1.000000   1.000000
    200         -1.468278        0.089578   1.000000   1.000000
    201         -1.433426        0.111084   1.000000   1.000000
    202         -1.423349        0.133653   1.000000   1.000000
    203         -1.400555        0.152312   1.000000   1.000000
    204         -1.384275        0.177695   1.000000   1.000000
    205         -1.371715        0.222897   1.000000   1.000001
    206         -1.351671        0.246389   1.000000   1.000002
    207         -1.324014        0.264880   1.000000   1.000005
    208         -1.287230        0.283493   1.000000   1.000010
    209         -1.278179        0.308446   1.000000   1.000029
    210         -1.238993        0.336977   1.000000   1.000087
    211         -1.212118        0.355748   1.000000   1.000173
    212         -1.186547        0.387141   1.000000   1.000504
    213         -1.167864        0.410941   1.000000   1.001061
    214         -1.158306        0.453771   1.000000   1.003496
    215         -1.141325        0.481685   1.000000   1.006828
    216         -1.117819        0.506667   1.000000   1.011507
    217         -1.095068        0.535804   1.000000   1.019114
    218         -1.083753        0.581772   1.000000   1.032457
    219         -1.041777        0.658585   1.000000   1.005563
    220         -1.009138        0.696489   1.000000   0.926998
    221         -0.993672        0.709182   1.000000   0.886762
    222         -0.978708        0.728365   1.000000   0.812494
    223         -0.972072        0.769314   1.000000   0.609272
    224         -0.948123        0.780137   1.000000   0.549150
    225         -0.927553        0.801243   1.000000   0.430432
    226         -0.919724        0.835200   1.000000   0.251904
    227         -0.904556        0.861364   1.000000   0.139198
    228         -0.878246        0.896150   1.000000   0.034921
    229         -0.873782        0.919023   1.000000  -0.005401
    230         -0.853764        0.951247   1.000000  -0.031709
    231         -0.841782        0.969800   1.000000  -0.035404
    232         -0.829871        0.999619   1.000000  -0.031587
    233         -0.820139        1.021857   1.000000  -0.025227
    234         -0.789955        1.036167   1.000000  -0.020833
    235         -0.769072        1.065047   1.000000  -0.012898
    236         -0.756476        1.085764   1.000000  -0.008542
    237         -0.748374        1.098057   1.000000  -0.006526
    238         -0.730204        1.126625   1.000000  -0.003264
    239         -0.709975        1.162038   1.000000  -0.001223
    240         -0.706337        1.175220   1.000000  -0.000820
    241         -0.687443        1.196090   1.000000  -0.000421
    242         -0.670877        1.203053   1.000000  -0.000333
    243         -0.664838        1.233371   1.000000  -0.000114
    244         -0.649163        1.241861   1.000000  -0.000083
    245         -0.634887        1.255770   1.000000  -0.000049
    246         -0.625911        1.286539   1.000000  -0.000014
    247         -0.612640        1.313906   1.000000  -0.000004
    248         -0.602410        1.353825   1.000000  -0.000001
    249         -0.598446        1.375352   1.000000  -0.000000
    250         -0.587909        1.385487   1.000000  -0.000000
    251         -0.574844        1.407249   1.000000  -0.000000
    252         -0.565520        1.417664   1.000000  -0.000000
    253         -0.552419        1.436590   1.000000  -0.000000
    254         -0.538862        1.461791   1.000000  -0.000000
    255         -0.530612        1.473256   1.000000  -0.000000
    256         -0.517773        1.481561   1.000000  -0.000000
    257         -0.511509        1.500111   1.000000  -0.000000
    258         -0.500442        1.511324   1.000000  -0.000000
    259         -0.494558        1.521154   1.000000  -0.000000
    260         -0.490308        1.544356   1.000000  -0.000000
    261         -0.483329        1.558979   1.000000  -0.000000
    262         -0.472042        1.563828   1.000000  -0.000000
    263         -0.461156        1.583457   1.000000  -0.000000
    264         -0.456474        1.603665   1.000000  -0.000000
    265         -0.445844        1.620678   1.000000  -0.000000
    266         -0.435457        1.642110   1.000000  -0.000000
    267         -0.426441        1.652729   1.000000  -0.000000
    268         -0.412212        1.668431   1.000000  -0.000000
    269         -0.400331        1.678769   1.000000  -0.000000
    270         -0.383366        1.695302   1.000000  -0.000000
    271         -0.381266        1.702456   1.000000  -0.000000
    272         -0.370588        1.711667   1.000000  -0.000000
    273         -0.350105        1.727870   1.000000  -0.000000
    274         -0.345331        1.747840   1.000000  -0.000000
    275         -0.333498        1.759362   1.000000  -0.000000
    276         -0.319394        1.780196   1.000000  -0.000000
    277         -0.304531        1.792096   1.000000  -0.000000
    278         -0.288053        1.802716   1.000000  -0.000000
    279         -0.276253        1.814820   1.000000  -0.000000
    280         -0.261899        1.824185   1.000000  -0.000000
    281         -0.239897        1.832904   1.000000  -0.000000
    282         -0.227543        1.845548   1.000000  -0.000000
    283         -0.212778        1.859951   1.000000  -0.000000
    284         -0.199857        1.868332   1.000000  -0.000000
    285         -0.180061        1.882202   1.000000  -0.000000
    286         -0.168822        1.895928   1.000000  -0.000000
    287         -0.147323        1.908763   1.000000  -0.000000
    288         -0.133102        1.917214   1.000000  -0.000000
    289         -0.110944        1.920762   1.000000  -0.000000
    290         -0.085864        1.939897   1.000000  -0.000000
    291         -0.066728        1.945127   1.000000  -0.000000
    292         -0.041057        1.954051   1.000000  -0.000000
    293         -0.022090        1.970614   1.000000  -0.000000
    294         -0.018232        1.987460   1.000000  -0.000000
    295          0.000397        1.995329   1.000000  -0.000000
    296          0.011980        2.002280   1.000000  -0.000000
    297          0.032658        2.010864   1.000000  -0.000000
    298          0.061727        2.025366   1.000000  -0.000000
    299          0.067852        2.038331   1.000000  -0.000000
    300          0.094416        2.050854   1.000000  -0.000000
    301          0.127807        2.058372   1.000000  -0.000000
    302          0.152497        2.073287   1.000000  -0.000000
    303          0.167483        2.082799   1.000000  -0.000000
    304          0.182132        2.093974   1.000000  -0.000000
    305          0.197163        2.104906   1.000000  -0.000000
    306          0.216163        2.115772   1.000000  -0.000000
    307          0.233976        2.122347   1.000001  -0.000000
    308          0.259504        2.137937   1.000004  -0.000000
    309          0.277225        2.147926   1.000008  -0.000000
    310          0.304137        2.163661   1.000024  -0.000000
    311          0.328176        2.174139   1.000062  -0.000000
    312          0.339292        2.185122   1.000095  -0.000000
    313          0.377189        2.195236   1.000363  -0.000000
    314          0.408768        2.212185   1.000993  -0.000000
    315          0.422540        2.223190   1.001494  -0.000000
    316          0.452119        2.227735   1.003351  -0.000000
    317          0.486259        2.237540   1.007555  -0.000000
    318          0.516561        2.253599   1.013848  -0.000000
    319          0.528728        2.267001   1.017081  -0.000000
    320          0.547043        2.272069   1.022505  -0.000000
    321          0.551959        2.284551   1.024020  -0.000000
    322          0.595409        2.291582   1.034863  -0.000000
    323          0.608956        2.304092   1.035355  -0.000000
    324          0.682157        2.310990   0.963788  -0.000000
    325          0.702942        2.317640   0.907446  -0.000000
    326          0.742094        2.323961   0.750193  -0.000000
    327          0.775246        2.331893   0.576490  -0.000000
    328          0.786525        2.347166   0.513205  -0.000000
    329          0.826581        2.356482   0.294493  -0.000000
    330          0.883424        2.362437   0.066815  -0.000000
    331          0.921348        2.367190  -0.008382  -0.000000
    332          0.944646        2.379431  -0.028678  -0.000000
    333          0.999280        2.383553  -0.031671  -0.000000
    334          1.011351        2.390219  -0.028392  -0.000000
    335          1.054473        2.396837  -0.015582  -0.000000
    336          1.093020        2.406785  -0.007303  -0.000000
    337          1.143941        2.413373  -0.002053  -0.000000
    338          1.152339        2.426973  -0.001621  -0.000000
    339          1.207592        2.437410  -0.000286  -0.000000
    340          1.216633        2.442071  -0.000209  -0.000000
    341          1.246094        2.459519  -0.000071  -0.000000
    342          1.303508        2.466154  -0.000007  -0.000000
    343          1.335552        2.476329  -0.000002  -0.000000
    344          1.359925        2.480975  -0.000001  -0.000000
    345          1.405771        2.498467  -0.000000  -0.000000
    346          1.420574        2.512102  -0.000000  -0.000000
    347          1.440279        2.521997  -0.000000  -0.000000
    348          1.477771        2.534477  -0.000000  -0.000000
    349          1.505084        2.551343  -0.000000  -0.000000
    350          1.531018        2.564883  -0.000000  -0.000000
    351          1.571916        2.587965  -0.000000  -0.000000
    352          1.605525        2.598718  -0.000000  -0.000000
    353          1.652399        2.604537  -0.000000  -0.000000
    354          1.667290        2.636530  -0.000000  -0.000000
    355          1.691766        2.649737  -0.000000  -0.000000
    356          1.751315        2.687974  -0.000000  -0.000000
    357          1.777446        2.702932  -0.000000  -0.000000
    358          1.794327        2.743164  -0.000000  -0.000000
    359          1.813688        2.775035  -0.000000  -0.000000
    360          1.845809        2.802593  -0.000000  -0.000000
    361          1.895989        2.827082  -0.000000  -0.000000
    362          1.918283        2.859758  -0.000000  -0.000000
 
 -0.1250000E+00  0.3750000E+00  0.0000000E+00  0.1250000E+00
      1        -43.051926      -43.590900   1.000000   1.000000
      2        -43.039169      -43.558992   1.000000   1.000000
      3        -43.005591      -43.541365   1.000000   1.000000
      4        -42.976471      -43.530768   1.000000   1.000000
      5        -42.961419      -43.456246   1.000000   1.000000
      6        -42.946558      -43.449901   1.000000   1.000000
      7        -42.941851      -43.432993   1.000000   1.000000
      8        -42.892421      -43.428624   1.000000   1.000000
      9        -42.877465      -43.385261   1.000000   1.000000
     10        -42.362334      -43.382395   1.000000   1.000000
     11        -42.356523      -43.367908   1.000000   1.000000
     12        -42.291094      -43.348683   1.000000   1.000000
     13        -42.289239      -43.344633   1.000000   1.000000
     14        -42.223619      -43.336997   1.000000   1.000000
     15        -42.196990      -43.333533   1.000000   1.000000
     16        -42.173682      -43.188333   1.000000   1.000000
     17        -42.135763      -43.117570   1.000000   1.000000
     18        -42.035314      -43.105568   1.000000   1.000000
     19        -42.034175      -43.050540   1.000000   1.000000
     20        -42.032274      -42.972905   1.000000   1.000000
     21        -41.995805      -42.953815   1.000000   1.000000
     22        -41.984605      -42.907184   1.000000   1.000000
     23        -41.939409      -42.891234   1.000000   1.000000
     24        -41.922286      -42.870211   1.000000   1.000000
     25        -41.906663      -42.844968   1.000000   1.000000
     26        -41.884321      -42.768157   1.000000   1.000000
     27        -41.841878      -42.600447   1.000000   1.000000
     28        -41.835960      -42.570656   1.000000   1.000000
     29        -41.819540      -42.455426   1.000000   1.000000
     30        -41.806438      -42.306722   1.000000   1.000000
     31        -41.589079      -42.173340   1.000000   1.000000
     32        -41.497798      -42.061434   1.000000   1.000000
     33        -41.449277      -41.851560   1.000000   1.000000
     34        -40.501947      -40.513305   1.000000   1.000000
     35        -40.468483      -40.458056   1.000000   1.000000
     36        -40.409252      -40.134977   1.000000   1.000000
     37        -40.394037      -40.110842   1.000000   1.000000
     38        -40.359594      -40.063023   1.000000   1.000000
     39        -40.320702      -40.006904   1.000000   1.000000
     40        -40.312359      -39.918655   1.000000   1.000000
     41        -40.263165      -39.796936   1.000000   1.000000
     42        -40.245315      -39.779440   1.000000   1.000000
     43         -7.022877       -6.905761   1.000000   1.000000
     44         -6.484198       -6.358119   1.000000   1.000000
     45         -6.056632       -5.919608   1.000000   1.000000
     46         -5.588842       -5.415494   1.000000   1.000000
     47         -5.495679       -5.350305   1.000000   1.000000
     48         -5.110520       -4.903507   1.000000   1.000000
     49         -4.809794       -4.549849   1.000000   1.000000
     50         -4.753870       -4.503472   1.000000   1.000000
     51         -4.706978       -4.475416   1.000000   1.000000
     52         -4.448333       -4.146544   1.000000   1.000000
     53         -4.433462       -4.110028   1.000000   1.000000
     54         -4.314539       -4.035690   1.000000   1.000000
     55         -4.227459       -3.809576   1.000000   1.000000
     56         -4.151324       -3.731055   1.000000   1.000000
     57         -4.129267       -3.482367   1.000000   1.000000
     58         -4.069654       -3.428865   1.000000   1.000000
     59         -3.988733       -3.373829   1.000000   1.000000
     60         -3.950222       -3.254253   1.000000   1.000000
     61         -3.918808       -3.221495   1.000000   1.000000
     62         -3.882900       -3.184944   1.000000   1.000000
     63         -3.865695       -3.129011   1.000000   1.000000
     64         -3.855439       -3.094049   1.000000   1.000000
     65         -3.833174       -3.051355   1.000000   1.000000
     66         -3.819070       -3.004625   1.000000   1.000000
     67         -3.796169       -2.985779   1.000000   1.000000
     68         -3.723114       -2.926641   1.000000   1.000000
     69         -3.687420       -2.848960   1.000000   1.000000
     70         -3.659732       -2.771907   1.000000   1.000000
     71         -3.649434       -2.726401   1.000000   1.000000
     72         -3.634692       -2.685218   1.000000   1.000000
     73         -3.607346       -2.632421   1.000000   1.000000
     74         -3.591261       -2.593160   1.000000   1.000000
     75         -3.555260       -2.553882   1.000000   1.000000
     76         -3.523841       -2.529198   1.000000   1.000000
     77         -3.514457       -2.489517   1.000000   1.000000
     78         -3.485923       -2.467915   1.000000   1.000000
     79         -3.412508       -2.441122   1.000000   1.000000
     80         -3.376624       -2.387900   1.000000   1.000000
     81         -3.356861       -2.364495   1.000000   1.000000
     82         -3.345767       -2.316257   1.000000   1.000000
     83         -3.324387       -2.295581   1.000000   1.000000
     84         -3.306878       -2.276551   1.000000   1.000000
     85         -3.291486       -2.245814   1.000000   1.000000
     86         -3.274249       -2.223835   1.000000   1.000000
     87         -3.268266       -2.188397   1.000000   1.000000
     88         -3.250047       -2.163135   1.000000   1.000000
     89         -3.245792       -2.146628   1.000000   1.000000
     90         -3.214522       -2.130112   1.000000   1.000000
     91         -3.195476       -2.086329   1.000000   1.000000
     92         -3.183681       -2.075099   1.000000   1.000000
     93         -3.169867       -2.039886   1.000000   1.000000
     94         -3.148972       -1.986881   1.000000   1.000000
     95         -3.137800       -1.965846   1.000000   1.000000
     96         -3.099998       -1.929035   1.000000   1.000000
     97         -3.074377       -1.893110   1.000000   1.000000
     98         -3.060235       -1.866738   1.000000   1.000000
     99         -3.026654       -1.850387   1.000000   1.000000
    100         -3.009271       -1.826381   1.000000   1.000000
    101         -2.967398       -1.803255   1.000000   1.000000
    102         -2.943060       -1.756332   1.000000   1.000000
    103         -2.930189       -1.746488   1.000000   1.000000
    104         -2.908496       -1.729682   1.000000   1.000000
    105         -2.896245       -1.678725   1.000000   1.000000
    106         -2.856502       -1.668062   1.000000   1.000000
    107         -2.841234       -1.653000   1.000000   1.000000
    108         -2.816055       -1.630835   1.000000   1.000000
    109         -2.803286       -1.609305   1.000000   1.000000
    110         -2.784654       -1.581250   1.000000   1.000000
    111         -2.768951       -1.566256   1.000000   1.000000
    112         -2.748326       -1.532464   1.000000   1.000000
    113         -2.727375       -1.476445   1.000000   1.000000
    114         -2.719362       -1.455954   1.000000   1.000000
    115         -2.716178       -1.438711   1.000000   1.000000
    116         -2.701004       -1.421517   1.000000   1.000000
    117         -2.677967       -1.392361   1.000000   1.000000
    118         -2.665071       -1.375317   1.000000   1.000000
    119         -2.656789       -1.351009   1.000000   1.000000
    120         -2.639916       -1.334071   1.000000   1.000000
    121         -2.623889       -1.306785   1.000000   1.000000
    122         -2.615501       -1.292009   1.000000   1.000000
    123         -2.605688       -1.277996   1.000000   1.000000
    124         -2.595043       -1.255938   1.000000   1.000000
    125         -2.574355       -1.235185   1.000000   1.000000
    126         -2.566535       -1.213205   1.000000   1.000000
    127         -2.550184       -1.198487   1.000000   1.000000
    128         -2.536556       -1.186456   1.000000   1.000000
    129         -2.529893       -1.165076   1.000000   1.000000
    130         -2.521937       -1.148492   1.000000   1.000000
    131         -2.500313       -1.130823   1.000000   1.000000
    132         -2.492189       -1.119484   1.000000   1.000000
    133         -2.476823       -1.108018   1.000000   1.000000
    134         -2.450404       -1.093379   1.000000   1.000000
    135         -2.441021       -1.063693   1.000000   1.000000
    136         -2.434948       -1.048140   1.000000   1.000000
    137         -2.407402       -1.019185   1.000000   1.000000
    138         -2.394125       -0.996289   1.000000   1.000000
    139         -2.379616       -0.986069   1.000000   1.000000
    140         -2.366493       -0.978533   1.000000   1.000000
    141         -2.345039       -0.964327   1.000000   1.000000
    142         -2.334407       -0.939207   1.000000   1.000000
    143         -2.319472       -0.918329   1.000000   1.000000
    144         -2.304495       -0.900205   1.000000   1.000000
    145         -2.288107       -0.877942   1.000000   1.000000
    146         -2.276347       -0.854237   1.000000   1.000000
    147         -2.259781       -0.846849   1.000000   1.000000
    148         -2.250334       -0.834385   1.000000   1.000000
    149         -2.224944       -0.823151   1.000000   1.000000
    150         -2.211490       -0.803091   1.000000   1.000000
    151         -2.194181       -0.790687   1.000000   1.000000
    152         -2.186295       -0.769605   1.000000   1.000000
    153         -2.163619       -0.759686   1.000000   1.000000
    154         -2.157284       -0.728034   1.000000   1.000000
    155         -2.142365       -0.712941   1.000000   1.000000
    156         -2.134928       -0.702204   1.000000   1.000000
    157         -2.122825       -0.678963   1.000000   1.000000
    158         -2.104463       -0.672199   1.000000   1.000000
    159         -2.089939       -0.646095   1.000000   1.000000
    160         -2.079044       -0.631543   1.000000   1.000000
    161         -2.070080       -0.616723   1.000000   1.000000
    162         -2.062321       -0.596996   1.000000   1.000000
    163         -2.025606       -0.590398   1.000000   1.000000
    164         -2.014407       -0.567128   1.000000   1.000000
    165         -2.007436       -0.552756   1.000000   1.000000
    166         -1.985129       -0.532886   1.000000   1.000000
    167         -1.975825       -0.513992   1.000000   1.000000
    168         -1.959549       -0.508056   1.000000   1.000000
    169         -1.941199       -0.489647   1.000000   1.000000
    170         -1.930432       -0.476563   1.000000   1.000000
    171         -1.918207       -0.462160   1.000000   1.000000
    172         -1.897770       -0.447985   1.000000   1.000000
    173         -1.892133       -0.441215   1.000000   1.000000
    174         -1.882339       -0.411445   1.000000   1.000000
    175         -1.873564       -0.391511   1.000000   1.000000
    176         -1.845575       -0.380854   1.000000   1.000000
    177         -1.831556       -0.371554   1.000000   1.000000
    178         -1.817475       -0.346040   1.000000   1.000000
    179         -1.810444       -0.329549   1.000000   1.000000
    180         -1.790948       -0.317010   1.000000   1.000000
    181         -1.777587       -0.291075   1.000000   1.000000
    182         -1.765812       -0.283194   1.000000   1.000000
    183         -1.751014       -0.266029   1.000000   1.000000
    184         -1.744590       -0.242888   1.000000   1.000000
    185         -1.720639       -0.233775   1.000000   1.000000
    186         -1.705339       -0.217582   1.000000   1.000000
    187         -1.685794       -0.192717   1.000000   1.000000
    188         -1.669617       -0.175764   1.000000   1.000000
    189         -1.660654       -0.155698   1.000000   1.000000
    190         -1.647474       -0.136765   1.000000   1.000000
    191         -1.634362       -0.125808   1.000000   1.000000
    192         -1.623170       -0.094245   1.000000   1.000000
    193         -1.598124       -0.073361   1.000000   1.000000
    194         -1.580393       -0.068877   1.000000   1.000000
    195         -1.575488       -0.060025   1.000000   1.000000
    196         -1.545798       -0.049039   1.000000   1.000000
    197         -1.529776       -0.018443   1.000000   1.000000
    198         -1.514375        0.006329   1.000000   1.000000
    199         -1.506569        0.032905   1.000000   1.000000
    200         -1.487798        0.048150   1.000000   1.000000
    201         -1.452927        0.075624   1.000000   1.000000
    202         -1.433369        0.097132   1.000000   1.000000
    203         -1.423146        0.111656   1.000000   1.000000
    204         -1.405179        0.137116   1.000000   1.000000
    205         -1.376006        0.162422   1.000000   1.000000
    206         -1.352158        0.197553   1.000000   1.000000
    207         -1.339649        0.218337   1.000000   1.000001
    208         -1.323857        0.234986   1.000000   1.000001
    209         -1.311521        0.267788   1.000000   1.000005
    210         -1.287939        0.307798   1.000000   1.000028
    211         -1.265428        0.348842   1.000000   1.000135
    212         -1.247542        0.381380   1.000000   1.000417
    213         -1.217532        0.428815   1.000000   1.001787
    214         -1.198060        0.462456   1.000000   1.004346
    215         -1.170095        0.493687   1.000000   1.008857
    216         -1.151102        0.514727   1.000000   1.013394
    217         -1.143422        0.551995   1.000000   1.024032
    218         -1.109535        0.591586   1.000000   1.034346
    219         -1.088876        0.613736   1.000000   1.034913
    220         -1.073300        0.645251   1.000000   1.020127
    221         -1.055138        0.664278   1.000000   0.997463
    222         -1.031585        0.703931   1.000000   0.904286
    223         -1.018935        0.731508   1.000000   0.798861
    224         -0.991093        0.775040   1.000000   0.577633
    225         -0.976222        0.780601   1.000000   0.546547
    226         -0.961001        0.822155   1.000000   0.317221
    227         -0.935566        0.853480   1.000000   0.170263
    228         -0.907030        0.862943   1.000000   0.133299
    229         -0.895927        0.909659   1.000000   0.008611
    230         -0.892521        0.934511   1.000000  -0.021847
    231         -0.861834        0.979014   1.000000  -0.035190
    232         -0.844195        0.998880   1.000000  -0.031769
    233         -0.837565        1.015595   1.000000  -0.027134
    234         -0.821103        1.048989   1.000000  -0.017084
    235         -0.794210        1.078993   1.000000  -0.009831
    236         -0.779940        1.096698   1.000000  -0.006729
    237         -0.765419        1.100881   1.000000  -0.006119
    238         -0.752024        1.118020   1.000000  -0.004060
    239         -0.741087        1.157022   1.000000  -0.001416
    240         -0.733222        1.182630   1.000000  -0.000650
    241         -0.715815        1.197259   1.000000  -0.000405
    242         -0.701567        1.209036   1.000000  -0.000272
    243         -0.687499        1.233444   1.000000  -0.000114
    244         -0.677956        1.266973   1.000000  -0.000032
    245         -0.667465        1.273677   1.000000  -0.000024
    246         -0.662479        1.294109   1.000000  -0.000010
    247         -0.651631        1.319997   1.000000  -0.000003
    248         -0.644937        1.336649   1.000000  -0.000002
    249         -0.639646        1.353187   1.000000  -0.000001
    250         -0.610107        1.381459   1.000000  -0.000000
    251         -0.596204        1.393709   1.000000  -0.000000
    252         -0.579569        1.404687   1.000000  -0.000000
    253         -0.573137        1.436491   1.000000  -0.000000
    254         -0.559330        1.450725   1.000000  -0.000000
    255         -0.551532        1.475348   1.000000  -0.000000
    256         -0.545253        1.485563   1.000000  -0.000000
    257         -0.532509        1.499823   1.000000  -0.000000
    258         -0.524177        1.509698   1.000000  -0.000000
    259         -0.511643        1.516690   1.000000  -0.000000
    260         -0.506637        1.527427   1.000000  -0.000000
    261         -0.493852        1.541690   1.000000  -0.000000
    262         -0.482912        1.560868   1.000000  -0.000000
    263         -0.471899        1.577859   1.000000  -0.000000
    264         -0.461309        1.598458   1.000000  -0.000000
    265         -0.450983        1.612488   1.000000  -0.000000
    266         -0.443888        1.618950   1.000000  -0.000000
    267         -0.421701        1.633493   1.000000  -0.000000
    268         -0.414633        1.640085   1.000000  -0.000000
    269         -0.408361        1.662415   1.000000  -0.000000
    270         -0.391635        1.677456   1.000000  -0.000000
    271         -0.374471        1.689187   1.000000  -0.000000
    272         -0.364457        1.704491   1.000000  -0.000000
    273         -0.355361        1.713990   1.000000  -0.000000
    274         -0.344665        1.730181   1.000000  -0.000000
    275         -0.334946        1.740292   1.000000  -0.000000
    276         -0.328748        1.748449   1.000000  -0.000000
    277         -0.319477        1.765010   1.000000  -0.000000
    278         -0.309595        1.777044   1.000000  -0.000000
    279         -0.295741        1.800396   1.000000  -0.000000
    280         -0.286347        1.810817   1.000000  -0.000000
    281         -0.256991        1.820562   1.000000  -0.000000
    282         -0.232746        1.830906   1.000000  -0.000000
    283         -0.221684        1.841861   1.000000  -0.000000
    284         -0.210283        1.852922   1.000000  -0.000000
    285         -0.207110        1.857713   1.000000  -0.000000
    286         -0.185170        1.873622   1.000000  -0.000000
    287         -0.152001        1.885809   1.000000  -0.000000
    288         -0.148788        1.891001   1.000000  -0.000000
    289         -0.135515        1.903786   1.000000  -0.000000
    290         -0.125955        1.916774   1.000000  -0.000000
    291         -0.091987        1.928767   1.000000  -0.000000
    292         -0.064137        1.942029   1.000000  -0.000000
    293         -0.042246        1.948369   1.000000  -0.000000
    294         -0.023860        1.958747   1.000000  -0.000000
    295         -0.000801        1.965240   1.000000  -0.000000
    296          0.011646        1.979300   1.000000  -0.000000
    297          0.039497        1.988427   1.000000  -0.000000
    298          0.052244        2.003226   1.000000  -0.000000
    299          0.079177        2.020508   1.000000  -0.000000
    300          0.091764        2.029250   1.000000  -0.000000
    301          0.112851        2.032141   1.000000  -0.000000
    302          0.131020        2.053152   1.000000  -0.000000
    303          0.151598        2.066585   1.000000  -0.000000
    304          0.177174        2.072929   1.000000  -0.000000
    305          0.180821        2.090246   1.000000  -0.000000
    306          0.208566        2.096951   1.000000  -0.000000
    307          0.235876        2.120342   1.000001  -0.000000
    308          0.260627        2.122836   1.000004  -0.000000
    309          0.280755        2.124721   1.000009  -0.000000
    310          0.310095        2.140021   1.000031  -0.000000
    311          0.330124        2.164036   1.000067  -0.000000
    312          0.357582        2.170338   1.000184  -0.000000
    313          0.386447        2.181230   1.000492  -0.000000
    314          0.418540        2.189525   1.001329  -0.000000
    315          0.445107        2.201765   1.002790  -0.000000
    316          0.453604        2.221000   1.003481  -0.000000
    317          0.485421        2.226268   1.007418  -0.000000
    318          0.497148        2.236599   1.009517  -0.000000
    319          0.532986        2.250500   1.018293  -0.000000
    320          0.568361        2.258929   1.028965  -0.000000
    321          0.591566        2.276692   1.034343  -0.000000
    322          0.602220        2.284242   1.035400  -0.000000
    323          0.639657        2.298172   1.024571  -0.000000
    324          0.683433        2.311532   0.960876  -0.000000
    325          0.717765        2.322623   0.855487  -0.000000
    326          0.746475        2.335380   0.728899  -0.000000
    327          0.777016        2.347754   0.566622  -0.000000
    328          0.792910        2.353751   0.477192  -0.000000
    329          0.807136        2.360672   0.397763  -0.000000
    330          0.884543        2.375172   0.063724  -0.000000
    331          0.894142        2.381818   0.039484  -0.000000
    332          0.939634        2.392406  -0.025651  -0.000000
    333          0.956289        2.396929  -0.033361  -0.000000
    334          0.988263        2.402828  -0.034002  -0.000000
    335          1.039866        2.418390  -0.019723  -0.000000
    336          1.079080        2.423398  -0.009814  -0.000000
    337          1.092239        2.444478  -0.007429  -0.000000
    338          1.165482        2.453271  -0.001103  -0.000000
    339          1.192362        2.457775  -0.000475  -0.000000
    340          1.214781        2.466926  -0.000223  -0.000000
    341          1.251647        2.480495  -0.000058  -0.000000
    342          1.285961        2.492982  -0.000015  -0.000000
    343          1.298061        2.511554  -0.000009  -0.000000
    344          1.322895        2.518723  -0.000003  -0.000000
    345          1.368605        2.526767  -0.000000  -0.000000
    346          1.408230        2.540796  -0.000000  -0.000000
    347          1.436132        2.568047  -0.000000  -0.000000
    348          1.471931        2.569592  -0.000000  -0.000000
    349          1.514264        2.587765  -0.000000  -0.000000
    350          1.550439        2.595458  -0.000000  -0.000000
    351          1.559905        2.621645  -0.000000  -0.000000
    352          1.607049        2.638629  -0.000000  -0.000000
    353          1.640725        2.646495  -0.000000  -0.000000
    354          1.662309        2.673660  -0.000000  -0.000000
    355          1.682934        2.683207  -0.000000  -0.000000
    356          1.704839        2.696966  -0.000000  -0.000000
    357          1.744136        2.703082  -0.000000  -0.000000
    358          1.777462        2.730212  -0.000000  -0.000000
    359          1.813479        2.751450  -0.000000  -0.000000
    360          1.844270        2.772916  -0.000000  -0.000000
    361          1.870087        2.793221  -0.000000  -0.000000
    362          1.911616        2.808062  -0.000000  -0.000000
