  63  63   0   0
  0.2705886E+02  0.8504600E-09  0.8509100E-09  0.2355660E-08  0.5000000E-15
  1.000000000000000E-004
  CAR 
 INCAR-For-OPT                           
      5.29027944    -45.72729716  301      0.93367163      1.00000000
    -45.727  0.0000E+00  0.0000E+00  0.0000E+00  0.0000E+00
    -45.557  0.0000E+00  0.0000E+00  0.0000E+00  0.0000E+00
    -45.387  0.0000E+00  0.0000E+00  0.0000E+00  0.0000E+00
    -45.217  0.0000E+00  0.0000E+00  0.0000E+00  0.0000E+00
    -45.047  0.0000E+00  0.0000E+00  0.0000E+00  0.0000E+00
    -44.877  0.0000E+00  0.0000E+00  0.0000E+00  0.0000E+00
    -44.707  0.0000E+00 -0.1577E-33  0.0000E+00 -0.2682E-34
    -44.537  0.0000E+00 -0.1347E-25  0.0000E+00 -0.2291E-26
    -44.367  0.0000E+00 -0.8814E-19  0.0000E+00 -0.1499E-19
    -44.197 -0.1068E-31 -0.4280E-13 -0.1817E-32 -0.7278E-14
    -44.027 -0.4776E-24 -0.1629E-08 -0.8122E-25 -0.2771E-09
    -43.857 -0.1597E-17 -0.4695E-05 -0.2715E-18 -0.7987E-06
    -43.687 -0.3810E-12 -0.9519E-03 -0.6480E-13 -0.1627E-03
    -43.517 -0.6803E-08 -0.5109E-02 -0.1157E-08 -0.1031E-02
    -43.346 -0.8599E-05  0.1192E+00 -0.1463E-05  0.1924E-01
    -43.176 -0.6714E-03  0.2121E+00 -0.1156E-03  0.5531E-01
    -43.006  0.2843E-02  0.9654E-01  0.3678E-03  0.7172E-01
    -42.836  0.4129E-01  0.4700E-01  0.7389E-02  0.7972E-01
    -42.666  0.1697E-01  0.7206E-01  0.1027E-01  0.9197E-01
    -42.496 -0.2177E-02  0.5483E-01  0.9904E-02  0.1013E+00
    -42.326  0.7955E-03  0.2531E-01  0.1004E-01  0.1056E+00
    -42.156  0.4506E-01  0.3449E-01  0.1770E-01  0.1115E+00
    -41.986  0.8654E-01  0.2545E-01  0.3242E-01  0.1158E+00
    -41.816  0.1564E+00  0.1780E-01  0.5902E-01  0.1188E+00
    -41.646  0.1253E+00  0.7667E-02  0.8032E-01  0.1201E+00
    -41.476 -0.1558E-02 -0.6771E-03  0.8006E-01  0.1200E+00
    -41.306  0.6187E-02 -0.3516E-04  0.8111E-01  0.1200E+00
    -41.136  0.4283E-01 -0.6845E-07  0.8839E-01  0.1200E+00
    -40.966  0.1071E-01 -0.8592E-11  0.9021E-01  0.1200E+00
    -40.796 -0.1224E-02 -0.7852E-16  0.9001E-01  0.1200E+00
    -40.626 -0.1500E-03 -0.6342E-13  0.8998E-01  0.1200E+00
    -40.455 -0.2782E-02 -0.1676E-08  0.8951E-01  0.1200E+00
    -40.285  0.2281E-01 -0.3031E-05  0.9339E-01  0.1200E+00
    -40.115  0.1339E+00 -0.3145E-03  0.1162E+00  0.1199E+00
    -39.945  0.8522E-01  0.8390E-03  0.1307E+00  0.1201E+00
    -39.775 -0.3130E-02  0.2086E-01  0.1301E+00  0.1236E+00
    -39.605 -0.7054E-03  0.3068E-01  0.1300E+00  0.1289E+00
    -39.435 -0.3730E-05  0.7616E-02  0.1300E+00  0.1301E+00
    -39.265 -0.1404E-08 -0.8376E-03  0.1300E+00  0.1300E+00
    -39.095 -0.4046E-13 -0.3127E-04  0.1300E+00  0.1300E+00
    -38.925  0.0000E+00 -0.5407E-07  0.1300E+00  0.1300E+00
    -38.755  0.0000E+00 -0.6198E-11  0.1300E+00  0.1300E+00
    -38.585  0.0000E+00 -0.5223E-16  0.1300E+00  0.1300E+00
    -38.415  0.0000E+00  0.0000E+00  0.1300E+00  0.1300E+00
    -38.245  0.0000E+00  0.0000E+00  0.1300E+00  0.1300E+00
    -38.075  0.0000E+00  0.0000E+00  0.1300E+00  0.1300E+00
    -37.905  0.0000E+00  0.0000E+00  0.1300E+00  0.1300E+00
    -37.735  0.0000E+00  0.0000E+00  0.1300E+00  0.1300E+00
    -37.564  0.0000E+00  0.0000E+00  0.1300E+00  0.1300E+00
    -37.394  0.0000E+00  0.0000E+00  0.1300E+00  0.1300E+00
    -37.224  0.0000E+00  0.0000E+00  0.1300E+00  0.1300E+00
    -37.054  0.0000E+00  0.0000E+00  0.1300E+00  0.1300E+00
    -36.884  0.0000E+00  0.0000E+00  0.1300E+00  0.1300E+00
    -36.714  0.0000E+00  0.0000E+00  0.1300E+00  0.1300E+00
    -36.544  0.0000E+00  0.0000E+00  0.1300E+00  0.1300E+00
    -36.374  0.0000E+00  0.0000E+00  0.1300E+00  0.1300E+00
    -36.204  0.0000E+00  0.0000E+00  0.1300E+00  0.1300E+00
    -36.034  0.0000E+00  0.0000E+00  0.1300E+00  0.1300E+00
    -35.864  0.0000E+00  0.0000E+00  0.1300E+00  0.1300E+00
    -35.694  0.0000E+00  0.0000E+00  0.1300E+00  0.1300E+00
    -35.524  0.0000E+00  0.0000E+00  0.1300E+00  0.1300E+00
    -35.354  0.0000E+00  0.0000E+00  0.1300E+00  0.1300E+00
    -35.184  0.0000E+00  0.0000E+00  0.1300E+00  0.1300E+00
    -35.014  0.0000E+00  0.0000E+00  0.1300E+00  0.1300E+00
    -34.844  0.0000E+00  0.0000E+00  0.1300E+00  0.1300E+00
    -34.673  0.0000E+00  0.0000E+00  0.1300E+00  0.1300E+00
    -34.503  0.0000E+00  0.0000E+00  0.1300E+00  0.1300E+00
    -34.333  0.0000E+00  0.0000E+00  0.1300E+00  0.1300E+00
    -34.163  0.0000E+00  0.0000E+00  0.1300E+00  0.1300E+00
    -33.993  0.0000E+00  0.0000E+00  0.1300E+00  0.1300E+00
    -33.823  0.0000E+00  0.0000E+00  0.1300E+00  0.1300E+00
    -33.653  0.0000E+00  0.0000E+00  0.1300E+00  0.1300E+00
    -33.483  0.0000E+00  0.0000E+00  0.1300E+00  0.1300E+00
    -33.313  0.0000E+00  0.0000E+00  0.1300E+00  0.1300E+00
    -33.143  0.0000E+00  0.0000E+00  0.1300E+00  0.1300E+00
    -32.973  0.0000E+00  0.0000E+00  0.1300E+00  0.1300E+00
    -32.803  0.0000E+00  0.0000E+00  0.1300E+00  0.1300E+00
    -32.633  0.0000E+00  0.0000E+00  0.1300E+00  0.1300E+00
    -32.463  0.0000E+00  0.0000E+00  0.1300E+00  0.1300E+00
    -32.293  0.0000E+00  0.0000E+00  0.1300E+00  0.1300E+00
    -32.123  0.0000E+00  0.0000E+00  0.1300E+00  0.1300E+00
    -31.953  0.0000E+00  0.0000E+00  0.1300E+00  0.1300E+00
    -31.782  0.0000E+00  0.0000E+00  0.1300E+00  0.1300E+00
    -31.612  0.0000E+00  0.0000E+00  0.1300E+00  0.1300E+00
    -31.442  0.0000E+00  0.0000E+00  0.1300E+00  0.1300E+00
    -31.272  0.0000E+00  0.0000E+00  0.1300E+00  0.1300E+00
    -31.102  0.0000E+00  0.0000E+00  0.1300E+00  0.1300E+00
    -30.932  0.0000E+00  0.0000E+00  0.1300E+00  0.1300E+00
    -30.762  0.0000E+00  0.0000E+00  0.1300E+00  0.1300E+00
    -30.592  0.0000E+00  0.0000E+00  0.1300E+00  0.1300E+00
    -30.422  0.0000E+00  0.0000E+00  0.1300E+00  0.1300E+00
    -30.252  0.0000E+00  0.0000E+00  0.1300E+00  0.1300E+00
    -30.082  0.0000E+00  0.0000E+00  0.1300E+00  0.1300E+00
    -29.912  0.0000E+00  0.0000E+00  0.1300E+00  0.1300E+00
    -29.742  0.0000E+00  0.0000E+00  0.1300E+00  0.1300E+00
    -29.572  0.0000E+00  0.0000E+00  0.1300E+00  0.1300E+00
    -29.402  0.0000E+00  0.0000E+00  0.1300E+00  0.1300E+00
    -29.232  0.0000E+00  0.0000E+00  0.1300E+00  0.1300E+00
    -29.062  0.0000E+00  0.0000E+00  0.1300E+00  0.1300E+00
    -28.891  0.0000E+00  0.0000E+00  0.1300E+00  0.1300E+00
    -28.721  0.0000E+00  0.0000E+00  0.1300E+00  0.1300E+00
    -28.551  0.0000E+00  0.0000E+00  0.1300E+00  0.1300E+00
    -28.381  0.0000E+00  0.0000E+00  0.1300E+00  0.1300E+00
    -28.211  0.0000E+00  0.0000E+00  0.1300E+00  0.1300E+00
    -28.041  0.0000E+00  0.0000E+00  0.1300E+00  0.1300E+00
    -27.871  0.0000E+00  0.0000E+00  0.1300E+00  0.1300E+00
    -27.701  0.0000E+00  0.0000E+00  0.1300E+00  0.1300E+00
    -27.531  0.0000E+00  0.0000E+00  0.1300E+00  0.1300E+00
    -27.361  0.0000E+00  0.0000E+00  0.1300E+00  0.1300E+00
    -27.191  0.0000E+00  0.0000E+00  0.1300E+00  0.1300E+00
    -27.021  0.0000E+00  0.0000E+00  0.1300E+00  0.1300E+00
    -26.851  0.0000E+00  0.0000E+00  0.1300E+00  0.1300E+00
    -26.681  0.0000E+00  0.0000E+00  0.1300E+00  0.1300E+00
    -26.511  0.0000E+00  0.0000E+00  0.1300E+00  0.1300E+00
    -26.341  0.0000E+00  0.0000E+00  0.1300E+00  0.1300E+00
    -26.171  0.0000E+00  0.0000E+00  0.1300E+00  0.1300E+00
    -26.001  0.0000E+00  0.0000E+00  0.1300E+00  0.1300E+00
    -25.830  0.0000E+00  0.0000E+00  0.1300E+00  0.1300E+00
    -25.660  0.0000E+00  0.0000E+00  0.1300E+00  0.1300E+00
    -25.490  0.0000E+00  0.0000E+00  0.1300E+00  0.1300E+00
    -25.320  0.0000E+00  0.0000E+00  0.1300E+00  0.1300E+00
    -25.150  0.0000E+00  0.0000E+00  0.1300E+00  0.1300E+00
    -24.980  0.0000E+00  0.0000E+00  0.1300E+00  0.1300E+00
    -24.810  0.0000E+00  0.0000E+00  0.1300E+00  0.1300E+00
    -24.640  0.0000E+00  0.0000E+00  0.1300E+00  0.1300E+00
    -24.470  0.0000E+00  0.0000E+00  0.1300E+00  0.1300E+00
    -24.300  0.0000E+00  0.0000E+00  0.1300E+00  0.1300E+00
    -24.130  0.0000E+00  0.0000E+00  0.1300E+00  0.1300E+00
    -23.960  0.0000E+00  0.0000E+00  0.1300E+00  0.1300E+00
    -23.790  0.0000E+00  0.0000E+00  0.1300E+00  0.1300E+00
    -23.620  0.0000E+00  0.0000E+00  0.1300E+00  0.1300E+00
    -23.450  0.0000E+00  0.0000E+00  0.1300E+00  0.1300E+00
    -23.280  0.0000E+00  0.0000E+00  0.1300E+00  0.1300E+00
    -23.110  0.0000E+00  0.0000E+00  0.1300E+00  0.1300E+00
    -22.939  0.0000E+00  0.0000E+00  0.1300E+00  0.1300E+00
    -22.769  0.0000E+00  0.0000E+00  0.1300E+00  0.1300E+00
    -22.599  0.0000E+00  0.0000E+00  0.1300E+00  0.1300E+00
    -22.429  0.0000E+00  0.0000E+00  0.1300E+00  0.1300E+00
    -22.259  0.0000E+00  0.0000E+00  0.1300E+00  0.1300E+00
    -22.089  0.0000E+00  0.0000E+00  0.1300E+00  0.1300E+00
    -21.919  0.0000E+00  0.0000E+00  0.1300E+00  0.1300E+00
    -21.749  0.0000E+00  0.0000E+00  0.1300E+00  0.1300E+00
    -21.579  0.0000E+00  0.0000E+00  0.1300E+00  0.1300E+00
    -21.409  0.0000E+00  0.0000E+00  0.1300E+00  0.1300E+00
    -21.239  0.0000E+00  0.0000E+00  0.1300E+00  0.1300E+00
    -21.069  0.0000E+00  0.0000E+00  0.1300E+00  0.1300E+00
    -20.899  0.0000E+00  0.0000E+00  0.1300E+00  0.1300E+00
    -20.729  0.0000E+00  0.0000E+00  0.1300E+00  0.1300E+00
    -20.559  0.0000E+00  0.0000E+00  0.1300E+00  0.1300E+00
    -20.389  0.0000E+00  0.0000E+00  0.1300E+00  0.1300E+00
    -20.219  0.0000E+00  0.0000E+00  0.1300E+00  0.1300E+00
    -20.048  0.0000E+00  0.0000E+00  0.1300E+00  0.1300E+00
    -19.878  0.0000E+00  0.0000E+00  0.1300E+00  0.1300E+00
    -19.708  0.0000E+00  0.0000E+00  0.1300E+00  0.1300E+00
    -19.538  0.0000E+00  0.0000E+00  0.1300E+00  0.1300E+00
    -19.368  0.0000E+00  0.0000E+00  0.1300E+00  0.1300E+00
    -19.198  0.0000E+00  0.0000E+00  0.1300E+00  0.1300E+00
    -19.028  0.0000E+00  0.0000E+00  0.1300E+00  0.1300E+00
    -18.858  0.0000E+00  0.0000E+00  0.1300E+00  0.1300E+00
    -18.688  0.0000E+00  0.0000E+00  0.1300E+00  0.1300E+00
    -18.518  0.0000E+00  0.0000E+00  0.1300E+00  0.1300E+00
    -18.348  0.0000E+00  0.0000E+00  0.1300E+00  0.1300E+00
    -18.178  0.0000E+00  0.0000E+00  0.1300E+00  0.1300E+00
    -18.008  0.0000E+00  0.0000E+00  0.1300E+00  0.1300E+00
    -17.838  0.0000E+00  0.0000E+00  0.1300E+00  0.1300E+00
    -17.668  0.0000E+00  0.0000E+00  0.1300E+00  0.1300E+00
    -17.498  0.0000E+00  0.0000E+00  0.1300E+00  0.1300E+00
    -17.328  0.0000E+00  0.0000E+00  0.1300E+00  0.1300E+00
    -17.157  0.0000E+00  0.0000E+00  0.1300E+00  0.1300E+00
    -16.987  0.0000E+00  0.0000E+00  0.1300E+00  0.1300E+00
    -16.817 -0.2078E-32 -0.8050E-32  0.1300E+00  0.1300E+00
    -16.647 -0.1350E-24 -0.4324E-24  0.1300E+00  0.1300E+00
    -16.477 -0.6630E-18 -0.1760E-17  0.1300E+00  0.1300E+00
    -16.307 -0.2354E-12 -0.5186E-12  0.1300E+00  0.1300E+00
    -16.137 -0.6286E-08 -0.1152E-07  0.1300E+00  0.1300E+00
    -15.967 -0.1173E-04 -0.1784E-04  0.1300E+00  0.1300E+00
    -15.797 -0.1268E-02 -0.1554E-02  0.1298E+00  0.1297E+00
    -15.627  0.5303E-02  0.8518E-02  0.1307E+00  0.1312E+00
    -15.457  0.7616E-01  0.7791E-01  0.1436E+00  0.1444E+00
    -15.287  0.2027E-01  0.1526E-01  0.1471E+00  0.1470E+00
    -15.117 -0.2395E-02 -0.2074E-02  0.1467E+00  0.1467E+00
    -14.947 -0.5383E-04 -0.3556E-04  0.1467E+00  0.1467E+00
    -14.777 -0.6268E-07 -0.3283E-07  0.1467E+00  0.1467E+00
    -14.607 -0.5189E-11 -0.2142E-11  0.1467E+00  0.1467E+00
    -14.437 -0.3047E-16 -0.8705E-17  0.1467E+00  0.1467E+00
    -14.266  0.0000E+00  0.0000E+00  0.1467E+00  0.1467E+00
    -14.096  0.0000E+00  0.0000E+00  0.1467E+00  0.1467E+00
    -13.926  0.0000E+00  0.0000E+00  0.1467E+00  0.1467E+00
    -13.756  0.0000E+00  0.0000E+00  0.1467E+00  0.1467E+00
    -13.586  0.0000E+00  0.0000E+00  0.1467E+00  0.1467E+00
    -13.416  0.0000E+00  0.0000E+00  0.1467E+00  0.1467E+00
    -13.246  0.0000E+00  0.0000E+00  0.1467E+00  0.1467E+00
    -13.076  0.0000E+00  0.0000E+00  0.1467E+00  0.1467E+00
    -12.906  0.0000E+00  0.0000E+00  0.1467E+00  0.1467E+00
    -12.736  0.0000E+00  0.0000E+00  0.1467E+00  0.1467E+00
    -12.566  0.0000E+00  0.0000E+00  0.1467E+00  0.1467E+00
    -12.396  0.0000E+00  0.0000E+00  0.1467E+00  0.1467E+00
    -12.226  0.0000E+00  0.0000E+00  0.1467E+00  0.1467E+00
    -12.056  0.0000E+00  0.0000E+00  0.1467E+00  0.1467E+00
    -11.886  0.0000E+00  0.0000E+00  0.1467E+00  0.1467E+00
    -11.716  0.0000E+00  0.0000E+00  0.1467E+00  0.1467E+00
    -11.546  0.0000E+00  0.0000E+00  0.1467E+00  0.1467E+00
    -11.375  0.0000E+00  0.0000E+00  0.1467E+00  0.1467E+00
    -11.205  0.0000E+00  0.0000E+00  0.1467E+00  0.1467E+00
    -11.035  0.0000E+00  0.0000E+00  0.1467E+00  0.1467E+00
    -10.865  0.0000E+00  0.0000E+00  0.1467E+00  0.1467E+00
    -10.695  0.0000E+00  0.0000E+00  0.1467E+00  0.1467E+00
    -10.525  0.0000E+00  0.0000E+00  0.1467E+00  0.1467E+00
    -10.355  0.0000E+00  0.0000E+00  0.1467E+00  0.1467E+00
    -10.185  0.0000E+00  0.0000E+00  0.1467E+00  0.1467E+00
    -10.015  0.0000E+00  0.0000E+00  0.1467E+00  0.1467E+00
     -9.845  0.0000E+00  0.0000E+00  0.1467E+00  0.1467E+00
     -9.675  0.0000E+00  0.0000E+00  0.1467E+00  0.1467E+00
     -9.505  0.0000E+00  0.0000E+00  0.1467E+00  0.1467E+00
     -9.335  0.0000E+00  0.0000E+00  0.1467E+00  0.1467E+00
     -9.165 -0.4246E-36 -0.6399E-35  0.1467E+00  0.1467E+00
     -8.995 -0.5434E-28 -0.6046E-27  0.1467E+00  0.1467E+00
     -8.825 -0.5362E-21 -0.4449E-20  0.1467E+00  0.1467E+00
     -8.655 -0.4009E-15 -0.2484E-14  0.1467E+00  0.1467E+00
     -8.484 -0.2419E-10 -0.1109E-09  0.1467E+00  0.1467E+00
     -8.314 -0.1148E-06 -0.3779E-06  0.1467E+00  0.1467E+00
     -8.144 -0.4018E-04 -0.8803E-04  0.1467E+00  0.1467E+00
     -7.974 -0.5605E-03 -0.3977E-03  0.1466E+00  0.1466E+00
     -7.804  0.7938E-02  0.1141E-01  0.1479E+00  0.1485E+00
     -7.634  0.1251E-01  0.9308E-02  0.1500E+00  0.1501E+00
     -7.464 -0.1283E-03 -0.5763E-03  0.1500E+00  0.1500E+00
     -7.294 -0.2210E-03 -0.8524E-04  0.1500E+00  0.1500E+00
     -7.124  0.8573E-03  0.8273E-05  0.1501E+00  0.1500E+00
     -6.954  0.5511E-02  0.2728E-02  0.1511E+00  0.1505E+00
     -6.784  0.4676E-02  0.6266E-02  0.1519E+00  0.1515E+00
     -6.614  0.4468E-02  0.2802E-02  0.1526E+00  0.1520E+00
     -6.444  0.9036E-02  0.7203E-02  0.1542E+00  0.1532E+00
     -6.274  0.1541E-02  0.6720E-02  0.1544E+00  0.1544E+00
     -6.104  0.5377E-02  0.8547E-03  0.1553E+00  0.1545E+00
     -5.934  0.1501E-01  0.9569E-02  0.1579E+00  0.1561E+00
     -5.764  0.1107E-01  0.1391E-01  0.1598E+00  0.1585E+00
     -5.593  0.1059E-01  0.9927E-02  0.1616E+00  0.1602E+00
     -5.423  0.1059E-01  0.1167E-01  0.1634E+00  0.1622E+00
     -5.253  0.8374E-02  0.8108E-02  0.1648E+00  0.1636E+00
     -5.083  0.1928E-01  0.7935E-02  0.1681E+00  0.1649E+00
     -4.913  0.1437E-01  0.1888E-01  0.1705E+00  0.1681E+00
     -4.743  0.1506E-01  0.1302E-01  0.1731E+00  0.1703E+00
     -4.573  0.2006E-01  0.1493E-01  0.1765E+00  0.1729E+00
     -4.403  0.2500E-01  0.1614E-01  0.1807E+00  0.1756E+00
     -4.233  0.2949E-01  0.1460E-01  0.1858E+00  0.1781E+00
     -4.063  0.4354E-01  0.2684E-01  0.1932E+00  0.1827E+00
     -3.893  0.5888E-01  0.2576E-01  0.2032E+00  0.1870E+00
     -3.723  0.9478E-01  0.2251E-01  0.2193E+00  0.1909E+00
     -3.553  0.1274E+00  0.2072E-01  0.2410E+00  0.1944E+00
     -3.383  0.1217E+00  0.3577E-01  0.2617E+00  0.2005E+00
     -3.213  0.1628E+00  0.3635E-01  0.2893E+00  0.2067E+00
     -3.043  0.1679E+00  0.5947E-01  0.3179E+00  0.2168E+00
     -2.873  0.1450E+00  0.6875E-01  0.3426E+00  0.2285E+00
     -2.702  0.1498E+00  0.7507E-01  0.3680E+00  0.2412E+00
     -2.532  0.2188E+00  0.6972E-01  0.4052E+00  0.2531E+00
     -2.362  0.2642E+00  0.9785E-01  0.4502E+00  0.2697E+00
     -2.192  0.2291E+00  0.1165E+00  0.4891E+00  0.2895E+00
     -2.022  0.2403E+00  0.1248E+00  0.5300E+00  0.3108E+00
     -1.852  0.2395E+00  0.1238E+00  0.5707E+00  0.3318E+00
     -1.682  0.2247E+00  0.1152E+00  0.6090E+00  0.3514E+00
     -1.512  0.2157E+00  0.1272E+00  0.6456E+00  0.3731E+00
     -1.342  0.1940E+00  0.1518E+00  0.6786E+00  0.3989E+00
     -1.172  0.1704E+00  0.1676E+00  0.7076E+00  0.4274E+00
     -1.002  0.1623E+00  0.1907E+00  0.7352E+00  0.4598E+00
     -0.832  0.1724E+00  0.1798E+00  0.7645E+00  0.4904E+00
     -0.662  0.2113E+00  0.1969E+00  0.8005E+00  0.5239E+00
     -0.492  0.2784E+00  0.2012E+00  0.8478E+00  0.5581E+00
     -0.322  0.3228E+00  0.2054E+00  0.9027E+00  0.5930E+00
     -0.152  0.2899E+00  0.2006E+00  0.9520E+00  0.6271E+00
      0.018  0.2131E+00  0.1748E+00  0.9882E+00  0.6569E+00
      0.189  0.1553E+00  0.1586E+00  0.1015E+01  0.6838E+00
      0.359  0.1323E+00  0.1385E+00  0.1037E+01  0.7074E+00
      0.529  0.1181E+00  0.1309E+00  0.1057E+01  0.7296E+00
      0.699  0.1060E+00  0.1233E+00  0.1075E+01  0.7506E+00
      0.869  0.8959E-01  0.1129E+00  0.1090E+01  0.7698E+00
      1.039  0.9275E-01  0.1146E+00  0.1106E+01  0.7893E+00
      1.209  0.9792E-01  0.1373E+00  0.1123E+01  0.8127E+00
      1.379  0.8550E-01  0.1580E+00  0.1137E+01  0.8395E+00
      1.549  0.8529E-01  0.1802E+00  0.1152E+01  0.8702E+00
      1.719  0.9055E-01  0.2126E+00  0.1167E+01  0.9063E+00
      1.889  0.1027E+00  0.2459E+00  0.1185E+01  0.9481E+00
      2.059  0.1062E+00  0.2872E+00  0.1203E+01  0.9970E+00
      2.229  0.1096E+00  0.2978E+00  0.1222E+01  0.1048E+01
      2.399  0.5161E-01  0.3076E+00  0.1230E+01  0.1100E+01
      2.569 -0.1307E-02  0.3406E+00  0.1230E+01  0.1158E+01
      2.739 -0.5165E-03  0.2572E+00  0.1230E+01  0.1202E+01
      2.909 -0.3729E-05  0.1492E+00  0.1230E+01  0.1227E+01
      3.080 -0.1921E-08  0.2076E-01  0.1230E+01  0.1231E+01
      3.250 -0.7561E-13 -0.2923E-02  0.1230E+01  0.1230E+01
      3.420  0.0000E+00 -0.1162E-03  0.1230E+01  0.1230E+01
      3.590  0.0000E+00 -0.3835E-06  0.1230E+01  0.1230E+01
      3.760  0.0000E+00 -0.1193E-09  0.1230E+01  0.1230E+01
      3.930  0.0000E+00 -0.3122E-14  0.1230E+01  0.1230E+01
      4.100  0.0000E+00  0.0000E+00  0.1230E+01  0.1230E+01
      4.270  0.0000E+00  0.0000E+00  0.1230E+01  0.1230E+01
      4.440  0.0000E+00  0.0000E+00  0.1230E+01  0.1230E+01
      4.610  0.0000E+00  0.0000E+00  0.1230E+01  0.1230E+01
      4.780  0.0000E+00  0.0000E+00  0.1230E+01  0.1230E+01
      4.950  0.0000E+00  0.0000E+00  0.1230E+01  0.1230E+01
      5.120  0.0000E+00  0.0000E+00  0.1230E+01  0.1230E+01
      5.290  0.0000E+00  0.0000E+00  0.1230E+01  0.1230E+01
