   63   63  300    2
  0.2705886E+02  0.8504600E-09  0.8509100E-09  0.2355660E-08  0.5000000E-15
  1.000000000000000E-004
  CAR 
 INCAR-For-OPT                           
    562     10    369
 
  0.1276756E-14  0.1276756E-14  0.1276756E-14  0.6250000E-01
      1        -42.936890      -43.408316   1.000000   1.000000
      2        -42.871475      -43.390834   1.000000   1.000000
      3        -42.849659      -43.378191   1.000000   1.000000
      4        -42.246039      -43.365017   1.000000   1.000000
      5        -42.195814      -43.354844   1.000000   1.000000
      6        -42.156159      -43.351515   1.000000   1.000000
      7        -42.118443      -43.351229   1.000000   1.000000
      8        -42.051067      -43.320352   1.000000   1.000000
      9        -42.024493      -43.316789   1.000000   1.000000
     10        -41.988740      -43.303973   1.000000   1.000000
     11        -41.976219      -43.286691   1.000000   1.000000
     12        -41.955476      -43.279877   1.000000   1.000000
     13        -41.886028      -43.278200   1.000000   1.000000
     14        -41.870111      -43.255395   1.000000   1.000000
     15        -41.851488      -43.193624   1.000000   1.000000
     16        -41.838085      -43.182088   1.000000   1.000000
     17        -41.832021      -43.161468   1.000000   1.000000
     18        -41.809720      -43.156381   1.000000   1.000000
     19        -41.802796      -43.151209   1.000000   1.000000
     20        -41.800241      -43.138069   1.000000   1.000000
     21        -41.772274      -43.068869   1.000000   1.000000
     22        -41.750484      -42.997944   1.000000   1.000000
     23        -41.746903      -42.925594   1.000000   1.000000
     24        -41.739465      -42.823322   1.000000   1.000000
     25        -41.267889      -42.808288   1.000000   1.000000
     26        -41.208160      -42.784270   1.000000   1.000000
     27        -41.162668      -42.708281   1.000000   1.000000
     28        -40.287534      -42.666923   1.000000   1.000000
     29        -40.253051      -42.630676   1.000000   1.000000
     30        -40.245637      -42.560203   1.000000   1.000000
     31        -40.189426      -42.496555   1.000000   1.000000
     32        -40.174856      -42.349738   1.000000   1.000000
     33        -40.156400      -42.197826   1.000000   1.000000
     34        -40.136954      -42.190793   1.000000   1.000000
     35        -40.111926      -42.021993   1.000000   1.000000
     36        -40.095309      -41.835721   1.000000   1.000000
     37        -40.093252      -39.849044   1.000000   1.000000
     38        -40.090574      -39.727735   1.000000   1.000000
     39        -40.050445      -39.630337   1.000000   1.000000
     40        -15.537757      -15.550752   1.000000   1.000000
     41        -15.530971      -15.540890   1.000000   1.000000
     42        -15.524985      -15.536701   1.000000   1.000000
     43        -15.514966      -15.525162   1.000000   1.000000
     44        -15.491092      -15.506738   1.000000   1.000000
     45         -7.839592       -7.861933   1.000000   1.000000
     46         -7.136010       -7.050167   1.000000   1.000000
     47         -6.121533       -6.030247   1.000000   1.000000
     48         -5.299357       -5.101379   1.000000   1.000000
     49         -5.249127       -5.070660   1.000000   1.000000
     50         -5.244945       -5.062994   1.000000   1.000000
     51         -5.139743       -4.999511   1.000000   1.000000
     52         -4.811989       -4.659317   1.000000   1.000000
     53         -4.671987       -4.395802   1.000000   1.000000
     54         -4.623983       -4.349002   1.000000   1.000000
     55         -4.573697       -4.324691   1.000000   1.000000
     56         -4.477311       -4.155536   1.000000   1.000000
     57         -4.168955       -3.702131   1.000000   1.000000
     58         -4.139927       -3.659340   1.000000   1.000000
     59         -4.118597       -3.629926   1.000000   1.000000
     60         -4.096814       -3.601042   1.000000   1.000000
     61         -4.070892       -3.540987   1.000000   1.000000
     62         -4.040070       -3.515183   1.000000   1.000000
     63         -4.017025       -3.455142   1.000000   1.000000
     64         -3.908025       -3.398419   1.000000   1.000000
     65         -3.868166       -3.155205   1.000000   1.000000
     66         -3.850339       -2.981196   1.000000   1.000000
     67         -3.731382       -2.905502   1.000000   1.000000
     68         -3.685458       -2.881804   1.000000   1.000000
     69         -3.671371       -2.866242   1.000000   1.000000
     70         -3.645115       -2.836707   1.000000   1.000000
     71         -3.586152       -2.818390   1.000000   1.000000
     72         -3.469263       -2.747301   1.000000   1.000000
     73         -3.434453       -2.700418   1.000000   1.000000
     74         -3.424533       -2.636215   1.000000   1.000000
     75         -3.414363       -2.528190   1.000000   1.000000
     76         -3.405508       -2.487531   1.000000   1.000000
     77         -3.392152       -2.437979   1.000000   1.000000
     78         -3.386634       -2.416043   1.000000   1.000000
     79         -3.358911       -2.370693   1.000000   1.000000
     80         -3.342669       -2.361097   1.000000   1.000000
     81         -3.338214       -2.297861   1.000000   1.000000
     82         -3.310524       -2.265957   1.000000   1.000000
     83         -3.306481       -2.231449   1.000000   1.000000
     84         -3.278245       -2.219418   1.000000   1.000000
     85         -3.253636       -2.203182   1.000000   1.000000
     86         -3.236473       -2.175382   1.000000   1.000000
     87         -3.216237       -2.160193   1.000000   1.000000
     88         -3.152024       -2.126535   1.000000   1.000000
     89         -3.129125       -2.118195   1.000000   1.000000
     90         -3.095692       -2.090529   1.000000   1.000000
     91         -3.088682       -2.076554   1.000000   1.000000
     92         -3.044473       -2.046391   1.000000   1.000000
     93         -3.014852       -2.030989   1.000000   1.000000
     94         -2.976453       -2.028711   1.000000   1.000000
     95         -2.972799       -1.985126   1.000000   1.000000
     96         -2.952568       -1.910143   1.000000   1.000000
     97         -2.942616       -1.872976   1.000000   1.000000
     98         -2.925589       -1.865210   1.000000   1.000000
     99         -2.911842       -1.818055   1.000000   1.000000
    100         -2.903551       -1.785608   1.000000   1.000000
    101         -2.876273       -1.765718   1.000000   1.000000
    102         -2.873525       -1.738351   1.000000   1.000000
    103         -2.849108       -1.704020   1.000000   1.000000
    104         -2.815159       -1.650700   1.000000   1.000000
    105         -2.806814       -1.614276   1.000000   1.000000
    106         -2.798898       -1.582900   1.000000   1.000000
    107         -2.737001       -1.550232   1.000000   1.000000
    108         -2.730359       -1.542059   1.000000   1.000000
    109         -2.692524       -1.532601   1.000000   1.000000
    110         -2.641112       -1.509757   1.000000   1.000000
    111         -2.614790       -1.493781   1.000000   1.000000
    112         -2.596099       -1.473456   1.000000   1.000000
    113         -2.565371       -1.459300   1.000000   1.000000
    114         -2.551278       -1.441779   1.000000   1.000000
    115         -2.544880       -1.432268   1.000000   1.000000
    116         -2.537227       -1.421788   1.000000   1.000000
    117         -2.521005       -1.405671   1.000000   1.000000
    118         -2.513627       -1.370674   1.000000   1.000000
    119         -2.511459       -1.354675   1.000000   1.000000
    120         -2.503631       -1.343852   1.000000   1.000000
    121         -2.491975       -1.328231   1.000000   1.000000
    122         -2.487487       -1.303618   1.000000   1.000000
    123         -2.479918       -1.289734   1.000000   1.000000
    124         -2.474365       -1.268954   1.000000   1.000000
    125         -2.451738       -1.247763   1.000000   1.000000
    126         -2.442250       -1.234404   1.000000   1.000000
    127         -2.437706       -1.202590   1.000000   1.000000
    128         -2.433818       -1.171090   1.000000   1.000000
    129         -2.413768       -1.155089   1.000000   1.000000
    130         -2.405196       -1.147068   1.000000   1.000000
    131         -2.393955       -1.122879   1.000000   1.000000
    132         -2.388109       -1.103414   1.000000   1.000000
    133         -2.373855       -1.100339   1.000000   1.000000
    134         -2.362939       -1.089107   1.000000   1.000000
    135         -2.350975       -1.061392   1.000000   1.000000
    136         -2.334028       -1.041045   1.000000   1.000000
    137         -2.331455       -1.036625   1.000000   1.000000
    138         -2.314490       -1.027322   1.000000   1.000000
    139         -2.303475       -1.004782   1.000000   1.000000
    140         -2.289328       -0.985891   1.000000   1.000000
    141         -2.284323       -0.962539   1.000000   1.000000
    142         -2.273471       -0.957652   1.000000   1.000000
    143         -2.259079       -0.946750   1.000000   1.000000
    144         -2.251406       -0.930797   1.000000   1.000000
    145         -2.244965       -0.904200   1.000000   1.000000
    146         -2.231907       -0.898588   1.000000   1.000000
    147         -2.225988       -0.863898   1.000000   1.000000
    148         -2.197631       -0.857450   1.000000   1.000000
    149         -2.190964       -0.852057   1.000000   1.000000
    150         -2.179974       -0.837283   1.000000   1.000000
    151         -2.165363       -0.819553   1.000000   1.000000
    152         -2.154084       -0.793615   1.000000   1.000000
    153         -2.136129       -0.775135   1.000000   1.000000
    154         -2.130893       -0.767582   1.000000   1.000000
    155         -2.098434       -0.745750   1.000000   1.000000
    156         -2.090346       -0.726179   1.000000   1.000000
    157         -2.073604       -0.715598   1.000000   1.000000
    158         -2.070852       -0.706855   1.000000   1.000000
    159         -2.060763       -0.685799   1.000000   1.000000
    160         -2.042969       -0.667091   1.000000   1.000000
    161         -2.036160       -0.662807   1.000000   1.000000
    162         -2.011272       -0.648403   1.000000   1.000000
    163         -2.005225       -0.627462   1.000000   1.000000
    164         -1.982890       -0.622258   1.000000   1.000000
    165         -1.973651       -0.590297   1.000000   1.000000
    166         -1.957354       -0.581230   1.000000   1.000000
    167         -1.941135       -0.565859   1.000000   1.000000
    168         -1.938749       -0.542708   1.000000   1.000000
    169         -1.929209       -0.537164   1.000000   1.000000
    170         -1.910090       -0.512527   1.000000   1.000000
    171         -1.896685       -0.503621   1.000000   1.000000
    172         -1.878011       -0.471522   1.000000   1.000000
    173         -1.875644       -0.446867   1.000000   1.000000
    174         -1.849362       -0.418312   1.000000   1.000000
    175         -1.839763       -0.401163   1.000000   1.000000
    176         -1.816092       -0.390362   1.000000   1.000000
    177         -1.809428       -0.375014   1.000000   1.000000
    178         -1.792526       -0.355321   1.000000   1.000000
    179         -1.774583       -0.335173   1.000000   1.000000
    180         -1.760210       -0.300785   1.000000   1.000000
    181         -1.734168       -0.296061   1.000000   1.000000
    182         -1.717029       -0.256458   1.000000   1.000000
    183         -1.697405       -0.227728   1.000000   1.000000
    184         -1.692085       -0.217107   1.000000   1.000000
    185         -1.661919       -0.196311   1.000000   1.000000
    186         -1.639572       -0.176104   1.000000   1.000000
    187         -1.613184       -0.168340   1.000000   1.000000
    188         -1.600047       -0.131497   1.000000   1.000000
    189         -1.570087       -0.128901   1.000000   1.000000
    190         -1.561180       -0.108800   1.000000   1.000000
    191         -1.551456       -0.086909   1.000000   1.000000
    192         -1.527230       -0.076674   1.000000   1.000000
    193         -1.511178       -0.042994   1.000000   1.000000
    194         -1.493609       -0.032143   1.000000   1.000000
    195         -1.475674        0.015474   1.000000   1.000000
    196         -1.459055        0.033084   1.000000   1.000000
    197         -1.436068        0.061743   1.000000   1.000000
    198         -1.420969        0.075921   1.000000   1.000000
    199         -1.415871        0.104190   1.000000   1.000000
    200         -1.378536        0.117885   1.000000   1.000000
    201         -1.353698        0.146651   1.000000   1.000000
    202         -1.343890        0.160540   1.000000   1.000000
    203         -1.329263        0.188068   1.000000   1.000000
    204         -1.305457        0.195513   1.000000   1.000000
    205         -1.283972        0.216952   1.000000   1.000000
    206         -1.270557        0.233950   1.000000   1.000000
    207         -1.265172        0.249329   1.000000   1.000000
    208         -1.247984        0.265978   1.000000   1.000000
    209         -1.231797        0.277952   1.000000   1.000000
    210         -1.210658        0.307840   1.000000   1.000000
    211         -1.198953        0.323638   1.000000   1.000000
    212         -1.176432        0.330056   1.000000   1.000000
    213         -1.172688        0.349955   1.000000   1.000000
    214         -1.155402        0.386742   1.000000   1.000002
    215         -1.123378        0.407217   1.000000   1.000004
    216         -1.112638        0.437102   1.000000   1.000015
    217         -1.083640        0.467871   1.000000   1.000051
    218         -1.057254        0.477968   1.000000   1.000075
    219         -1.050662        0.515161   1.000000   1.000288
    220         -1.025756        0.543148   1.000000   1.000720
    221         -1.016936        0.556414   1.000000   1.001082
    222         -1.007330        0.595828   1.000000   1.003257
    223         -0.981100        0.608301   1.000000   1.004458
    224         -0.963298        0.643149   1.000000   1.009752
    225         -0.938755        0.671394   1.000000   1.016486
    226         -0.928075        0.690691   1.000000   1.022149
    227         -0.906106        0.716481   1.000000   1.029897
    228         -0.892084        0.724081   1.000000   1.031871
    229         -0.887710        0.776381   1.000000   1.029464
    230         -0.876079        0.811185   1.000000   0.994168
    231         -0.860298        0.836180   1.000000   0.941167
    232         -0.823094        0.882511   1.000000   0.770869
    233         -0.820657        0.925923   1.000000   0.543650
    234         -0.799920        0.976463   1.000000   0.269125
    235         -0.798081        1.003461   1.000000   0.149574
    236         -0.780243        1.024862   1.000000   0.076456
    237         -0.747484        1.050110   1.000000   0.016278
    238         -0.733367        1.069081   1.000000  -0.011867
    239         -0.715604        1.075327   1.000000  -0.018349
    240         -0.695469        1.094721   1.000000  -0.031180
    241         -0.684969        1.107248   1.000000  -0.034688
    242         -0.671673        1.127884   1.000000  -0.034772
    243         -0.660319        1.141364   1.000000  -0.032320
    244         -0.646993        1.180964   1.000000  -0.020836
    245         -0.640403        1.192860   1.000000  -0.017347
    246         -0.604844        1.214428   1.000000  -0.011831
    247         -0.595608        1.221712   1.000000  -0.010255
    248         -0.589420        1.251739   1.000000  -0.005314
    249         -0.566826        1.259590   1.000000  -0.004399
    250         -0.556932        1.283461   1.000000  -0.002373
    251         -0.554904        1.298825   1.000000  -0.001545
    252         -0.538206        1.308863   1.000000  -0.001151
    253         -0.523473        1.316090   1.000000  -0.000926
    254         -0.515348        1.325430   1.000000  -0.000693
    255         -0.494430        1.345328   1.000000  -0.000363
    256         -0.481010        1.352723   1.000000  -0.000282
    257         -0.473777        1.361770   1.000000  -0.000206
    258         -0.470855        1.389914   1.000000  -0.000074
    259         -0.456091        1.404873   1.000000  -0.000041
    260         -0.450828        1.417141   1.000000  -0.000025
    261         -0.440107        1.434875   1.000000  -0.000012
    262         -0.432804        1.441605   1.000000  -0.000009
    263         -0.417151        1.467765   1.000000  -0.000003
    264         -0.410761        1.488826   1.000000  -0.000001
    265         -0.407605        1.517867   1.000000  -0.000000
    266         -0.396089        1.549055   1.000000  -0.000000
    267         -0.390086        1.554765   1.000000  -0.000000
    268         -0.382545        1.582684   1.000000  -0.000000
    269         -0.373761        1.601197   1.000000  -0.000000
    270         -0.360275        1.617063   1.000000  -0.000000
    271         -0.349844        1.642557   1.000000  -0.000000
    272         -0.336223        1.660185   1.000000  -0.000000
    273         -0.326989        1.670418   1.000000  -0.000000
    274         -0.312392        1.686098   1.000000  -0.000000
    275         -0.295304        1.707513   1.000000  -0.000000
    276         -0.285814        1.721670   1.000000  -0.000000
    277         -0.282138        1.738167   1.000000  -0.000000
    278         -0.267927        1.745380   1.000000  -0.000000
    279         -0.263044        1.767150   1.000000  -0.000000
    280         -0.256250        1.776324   1.000000  -0.000000
    281         -0.251105        1.785925   1.000000  -0.000000
    282         -0.235824        1.806984   1.000000  -0.000000
    283         -0.225934        1.834171   1.000000  -0.000000
    284         -0.221767        1.839296   1.000000  -0.000000
    285         -0.211928        1.860456   1.000000  -0.000000
    286         -0.198115        1.872677   1.000000  -0.000000
    287         -0.191327        1.898125   1.000000  -0.000000
    288         -0.172005        1.901720   1.000000  -0.000000
    289         -0.158679        1.918578   1.000000  -0.000000
    290         -0.144344        1.939054   1.000000  -0.000000
    291         -0.137255        1.964771   1.000000  -0.000000
    292         -0.128515        1.978493   1.000000  -0.000000
    293         -0.111631        1.984447   1.000000  -0.000000
    294         -0.110089        1.989589   1.000000  -0.000000
    295         -0.095155        1.995638   1.000000  -0.000000
    296         -0.079378        2.013681   1.000000  -0.000000
    297         -0.063440        2.023175   1.000000  -0.000000
    298         -0.038108        2.043525   1.000000  -0.000000
    299         -0.021819        2.062380   1.000000  -0.000000
    300         -0.019139        2.077071   1.000000  -0.000000
    301          0.018010        2.090754   1.000000  -0.000000
    302          0.032495        2.103827   1.000000  -0.000000
    303          0.059483        2.112519   1.000000  -0.000000
    304          0.086354        2.118626   1.000000  -0.000000
    305          0.109507        2.122278   1.000000  -0.000000
    306          0.122354        2.141561   1.000000  -0.000000
    307          0.156311        2.152933   1.000000  -0.000000
    308          0.197320        2.163610   1.000000  -0.000000
    309          0.204897        2.172774   1.000000  -0.000000
    310          0.233738        2.180932   1.000000  -0.000000
    311          0.271607        2.203504   1.000000  -0.000000
    312          0.323659        2.210939   1.000000  -0.000000
    313          0.397918        2.224862   1.000003  -0.000000
    314          0.411664        2.238701   1.000005  -0.000000
    315          0.469621        2.246682   1.000055  -0.000000
    316          0.478069        2.256306   1.000076  -0.000000
    317          0.513828        2.262606   1.000275  -0.000000
    318          0.524310        2.264427   1.000392  -0.000000
    319          0.585014        2.273268   1.002447  -0.000000
    320          0.588248        2.278099   1.002669  -0.000000
    321          0.615848        2.288213   1.005345  -0.000000
    322          0.641533        2.307750   1.009435  -0.000000
    323          0.659322        2.318642   1.013342  -0.000000
    324          0.689945        2.327030   1.021921  -0.000000
    325          0.708694        2.337027   1.027658  -0.000000
    326          0.734979        2.340340   1.034121  -0.000000
    327          0.789212        2.359376   1.020857  -0.000000
    328          0.819648        2.365693   0.979140  -0.000000
    329          0.848587        2.372251   0.904768  -0.000000
    330          0.873383        2.377294   0.811589  -0.000000
    331          0.932178        2.390858   0.508426  -0.000000
    332          1.003396        2.400873   0.149828  -0.000000
    333          1.050962        2.404747   0.014719  -0.000000
    334          1.079541        2.412571  -0.022028  -0.000000
    335          1.091765        2.424333  -0.029858  -0.000000
    336          1.152318        2.431719  -0.029492  -0.000000
    337          1.188094        2.439356  -0.018716  -0.000000
    338          1.224201        2.447811  -0.009751  -0.000000
    339          1.265875        2.454907  -0.003762  -0.000000
    340          1.305884        2.460732  -0.001258  -0.000000
    341          1.322667        2.465815  -0.000756  -0.000000
    342          1.399237        2.480120  -0.000052  -0.000000
    343          1.424316        2.498743  -0.000019  -0.000000
    344          1.461213        2.502640  -0.000004  -0.000000
    345          1.507996        2.518967  -0.000000  -0.000000
    346          1.562424        2.538236  -0.000000  -0.000000
    347          1.598919        2.567151  -0.000000  -0.000000
    348          1.651923        2.572393  -0.000000  -0.000000
    349          1.680813        2.583753  -0.000000  -0.000000
    350          1.704955        2.612379  -0.000000  -0.000000
    351          1.761722        2.621135  -0.000000  -0.000000
    352          1.774404        2.625247  -0.000000  -0.000000
    353          1.816150        2.629043  -0.000000  -0.000000
    354          1.849610        2.641019  -0.000000  -0.000000
    355          1.876867        2.653716  -0.000000  -0.000000
    356          1.913390        2.662486  -0.000000  -0.000000
    357          1.932856        2.665237  -0.000000  -0.000000
    358          1.958242        2.683770  -0.000000  -0.000000
    359          2.024804        2.703508  -0.000000  -0.000000
    360          2.056500        2.733544  -0.000000  -0.000000
    361          2.066822        2.779103  -0.000000  -0.000000
    362          2.090870        2.787273  -0.000000  -0.000000
    363          2.120443        2.820921  -0.000000  -0.000000
    364          2.143452        2.865596  -0.000000  -0.000000
    365          2.178496        2.873962  -0.000000  -0.000000
    366          2.207471        2.915358  -0.000000  -0.000000
    367          2.232660        2.930711  -0.000000  -0.000000
    368          2.255955        2.963871  -0.000000  -0.000000
    369          2.297271        2.971299  -0.000000  -0.000000
 
  0.2500000E+00  0.8382198E-14  0.1276756E-14  0.1250000E+00
      1        -42.936884      -43.408312   1.000000   1.000000
      2        -42.871472      -43.390828   1.000000   1.000000
      3        -42.849656      -43.378186   1.000000   1.000000
      4        -42.246048      -43.365030   1.000000   1.000000
      5        -42.195818      -43.354840   1.000000   1.000000
      6        -42.156153      -43.351514   1.000000   1.000000
      7        -42.118438      -43.351228   1.000000   1.000000
      8        -42.051065      -43.320338   1.000000   1.000000
      9        -42.024495      -43.316787   1.000000   1.000000
     10        -41.988752      -43.303971   1.000000   1.000000
     11        -41.976191      -43.286686   1.000000   1.000000
     12        -41.955472      -43.279870   1.000000   1.000000
     13        -41.886018      -43.278196   1.000000   1.000000
     14        -41.870105      -43.255394   1.000000   1.000000
     15        -41.851482      -43.193627   1.000000   1.000000
     16        -41.838055      -43.182088   1.000000   1.000000
     17        -41.832018      -43.161455   1.000000   1.000000
     18        -41.809718      -43.156374   1.000000   1.000000
     19        -41.802806      -43.151204   1.000000   1.000000
     20        -41.800248      -43.138060   1.000000   1.000000
     21        -41.772267      -43.068864   1.000000   1.000000
     22        -41.750467      -42.997944   1.000000   1.000000
     23        -41.746918      -42.925588   1.000000   1.000000
     24        -41.739461      -42.823318   1.000000   1.000000
     25        -41.267886      -42.808293   1.000000   1.000000
     26        -41.208157      -42.784271   1.000000   1.000000
     27        -41.162665      -42.708282   1.000000   1.000000
     28        -40.287536      -42.666918   1.000000   1.000000
     29        -40.253043      -42.630668   1.000000   1.000000
     30        -40.245652      -42.560212   1.000000   1.000000
     31        -40.189412      -42.496555   1.000000   1.000000
     32        -40.174845      -42.349720   1.000000   1.000000
     33        -40.156398      -42.197824   1.000000   1.000000
     34        -40.136949      -42.190786   1.000000   1.000000
     35        -40.111919      -42.021988   1.000000   1.000000
     36        -40.095299      -41.835715   1.000000   1.000000
     37        -40.093248      -39.849044   1.000000   1.000000
     38        -40.090577      -39.727730   1.000000   1.000000
     39        -40.050439      -39.630332   1.000000   1.000000
     40        -15.537726      -15.550727   1.000000   1.000000
     41        -15.530970      -15.540897   1.000000   1.000000
     42        -15.525001      -15.536708   1.000000   1.000000
     43        -15.514950      -15.525149   1.000000   1.000000
     44        -15.491094      -15.506739   1.000000   1.000000
     45         -7.806385       -7.837062   1.000000   1.000000
     46         -7.018290       -6.926328   1.000000   1.000000
     47         -6.089046       -5.990343   1.000000   1.000000
     48         -5.960309       -5.827186   1.000000   1.000000
     49         -5.207887       -5.058552   1.000000   1.000000
     50         -5.142402       -4.954207   1.000000   1.000000
     51         -5.097396       -4.918497   1.000000   1.000000
     52         -4.728981       -4.534246   1.000000   1.000000
     53         -4.517788       -4.247505   1.000000   1.000000
     54         -4.477421       -4.196783   1.000000   1.000000
     55         -4.440093       -4.158023   1.000000   1.000000
     56         -4.422870       -4.126083   1.000000   1.000000
     57         -4.360572       -4.086815   1.000000   1.000000
     58         -4.214009       -3.836732   1.000000   1.000000
     59         -4.134277       -3.622122   1.000000   1.000000
     60         -4.016881       -3.440850   1.000000   1.000000
     61         -3.953205       -3.402823   1.000000   1.000000
     62         -3.934342       -3.379397   1.000000   1.000000
     63         -3.865324       -3.320824   1.000000   1.000000
     64         -3.834454       -3.240910   1.000000   1.000000
     65         -3.813523       -3.225248   1.000000   1.000000
     66         -3.783238       -3.157123   1.000000   1.000000
     67         -3.762941       -3.039095   1.000000   1.000000
     68         -3.716436       -2.906897   1.000000   1.000000
     69         -3.695249       -2.847681   1.000000   1.000000
     70         -3.638841       -2.747705   1.000000   1.000000
     71         -3.587811       -2.719294   1.000000   1.000000
     72         -3.550731       -2.660062   1.000000   1.000000
     73         -3.538607       -2.614863   1.000000   1.000000
     74         -3.523070       -2.589357   1.000000   1.000000
     75         -3.504719       -2.571219   1.000000   1.000000
     76         -3.475484       -2.541322   1.000000   1.000000
     77         -3.442813       -2.519442   1.000000   1.000000
     78         -3.423949       -2.483971   1.000000   1.000000
     79         -3.365581       -2.452397   1.000000   1.000000
     80         -3.336247       -2.412440   1.000000   1.000000
     81         -3.303874       -2.372947   1.000000   1.000000
     82         -3.276050       -2.340889   1.000000   1.000000
     83         -3.251128       -2.319565   1.000000   1.000000
     84         -3.238489       -2.235301   1.000000   1.000000
     85         -3.227047       -2.203325   1.000000   1.000000
     86         -3.204900       -2.169937   1.000000   1.000000
     87         -3.193705       -2.152425   1.000000   1.000000
     88         -3.185513       -2.132853   1.000000   1.000000
     89         -3.169146       -2.114959   1.000000   1.000000
     90         -3.149372       -2.091121   1.000000   1.000000
     91         -3.115740       -2.061967   1.000000   1.000000
     92         -3.081134       -2.026416   1.000000   1.000000
     93         -3.064888       -1.995947   1.000000   1.000000
     94         -3.036170       -1.976831   1.000000   1.000000
     95         -3.025887       -1.958153   1.000000   1.000000
     96         -3.015641       -1.943910   1.000000   1.000000
     97         -2.995746       -1.934770   1.000000   1.000000
     98         -2.957331       -1.895162   1.000000   1.000000
     99         -2.950241       -1.876462   1.000000   1.000000
    100         -2.927905       -1.832783   1.000000   1.000000
    101         -2.912690       -1.778521   1.000000   1.000000
    102         -2.892211       -1.760857   1.000000   1.000000
    103         -2.863008       -1.747096   1.000000   1.000000
    104         -2.850296       -1.723033   1.000000   1.000000
    105         -2.819108       -1.662657   1.000000   1.000000
    106         -2.782958       -1.634853   1.000000   1.000000
    107         -2.744947       -1.607934   1.000000   1.000000
    108         -2.724346       -1.583340   1.000000   1.000000
    109         -2.713221       -1.565090   1.000000   1.000000
    110         -2.693968       -1.546579   1.000000   1.000000
    111         -2.672275       -1.522198   1.000000   1.000000
    112         -2.660471       -1.498827   1.000000   1.000000
    113         -2.628478       -1.482353   1.000000   1.000000
    114         -2.620729       -1.474928   1.000000   1.000000
    115         -2.606618       -1.446560   1.000000   1.000000
    116         -2.573019       -1.433933   1.000000   1.000000
    117         -2.566053       -1.395425   1.000000   1.000000
    118         -2.553448       -1.375645   1.000000   1.000000
    119         -2.545493       -1.357103   1.000000   1.000000
    120         -2.535040       -1.336140   1.000000   1.000000
    121         -2.518534       -1.316665   1.000000   1.000000
    122         -2.509282       -1.284137   1.000000   1.000000
    123         -2.503500       -1.261004   1.000000   1.000000
    124         -2.483278       -1.252011   1.000000   1.000000
    125         -2.477140       -1.229654   1.000000   1.000000
    126         -2.460648       -1.211709   1.000000   1.000000
    127         -2.449484       -1.203390   1.000000   1.000000
    128         -2.443464       -1.165947   1.000000   1.000000
    129         -2.421090       -1.147485   1.000000   1.000000
    130         -2.416203       -1.138959   1.000000   1.000000
    131         -2.404169       -1.120408   1.000000   1.000000
    132         -2.392565       -1.105569   1.000000   1.000000
    133         -2.382051       -1.089944   1.000000   1.000000
    134         -2.364276       -1.063701   1.000000   1.000000
    135         -2.349309       -1.052598   1.000000   1.000000
    136         -2.339853       -1.038878   1.000000   1.000000
    137         -2.324079       -1.006795   1.000000   1.000000
    138         -2.309945       -1.005215   1.000000   1.000000
    139         -2.302984       -0.985496   1.000000   1.000000
    140         -2.287357       -0.968282   1.000000   1.000000
    141         -2.268160       -0.958690   1.000000   1.000000
    142         -2.261735       -0.945451   1.000000   1.000000
    143         -2.251919       -0.929976   1.000000   1.000000
    144         -2.237305       -0.913153   1.000000   1.000000
    145         -2.220599       -0.904063   1.000000   1.000000
    146         -2.212707       -0.883534   1.000000   1.000000
    147         -2.194757       -0.864737   1.000000   1.000000
    148         -2.182336       -0.848525   1.000000   1.000000
    149         -2.168782       -0.834050   1.000000   1.000000
    150         -2.159386       -0.817255   1.000000   1.000000
    151         -2.140158       -0.792313   1.000000   1.000000
    152         -2.130899       -0.780032   1.000000   1.000000
    153         -2.124502       -0.766125   1.000000   1.000000
    154         -2.114918       -0.758542   1.000000   1.000000
    155         -2.109389       -0.739110   1.000000   1.000000
    156         -2.077514       -0.721438   1.000000   1.000000
    157         -2.062170       -0.709000   1.000000   1.000000
    158         -2.054539       -0.696166   1.000000   1.000000
    159         -2.041414       -0.684232   1.000000   1.000000
    160         -2.024465       -0.659896   1.000000   1.000000
    161         -2.009340       -0.648222   1.000000   1.000000
    162         -2.004438       -0.629639   1.000000   1.000000
    163         -1.982810       -0.611186   1.000000   1.000000
    164         -1.966087       -0.589795   1.000000   1.000000
    165         -1.954315       -0.562934   1.000000   1.000000
    166         -1.945423       -0.544297   1.000000   1.000000
    167         -1.931520       -0.531443   1.000000   1.000000
    168         -1.903061       -0.517306   1.000000   1.000000
    169         -1.885152       -0.496385   1.000000   1.000000
    170         -1.874298       -0.474916   1.000000   1.000000
    171         -1.857417       -0.448550   1.000000   1.000000
    172         -1.846121       -0.426289   1.000000   1.000000
    173         -1.820990       -0.402863   1.000000   1.000000
    174         -1.811889       -0.396043   1.000000   1.000000
    175         -1.802628       -0.370528   1.000000   1.000000
    176         -1.777933       -0.360268   1.000000   1.000000
    177         -1.766681       -0.344816   1.000000   1.000000
    178         -1.740350       -0.336494   1.000000   1.000000
    179         -1.731491       -0.325810   1.000000   1.000000
    180         -1.719278       -0.294283   1.000000   1.000000
    181         -1.709016       -0.285504   1.000000   1.000000
    182         -1.691832       -0.273015   1.000000   1.000000
    183         -1.671920       -0.247264   1.000000   1.000000
    184         -1.657348       -0.239030   1.000000   1.000000
    185         -1.640108       -0.218828   1.000000   1.000000
    186         -1.637569       -0.183810   1.000000   1.000000
    187         -1.624196       -0.161348   1.000000   1.000000
    188         -1.611620       -0.151841   1.000000   1.000000
    189         -1.593166       -0.131712   1.000000   1.000000
    190         -1.582561       -0.124401   1.000000   1.000000
    191         -1.565222       -0.112142   1.000000   1.000000
    192         -1.553519       -0.090297   1.000000   1.000000
    193         -1.529521       -0.064258   1.000000   1.000000
    194         -1.511863       -0.041540   1.000000   1.000000
    195         -1.494304       -0.020833   1.000000   1.000000
    196         -1.484708       -0.012311   1.000000   1.000000
    197         -1.460493        0.021631   1.000000   1.000000
    198         -1.454762        0.047774   1.000000   1.000000
    199         -1.445510        0.059645   1.000000   1.000000
    200         -1.411493        0.078212   1.000000   1.000000
    201         -1.395507        0.088122   1.000000   1.000000
    202         -1.371369        0.099444   1.000000   1.000000
    203         -1.358203        0.120018   1.000000   1.000000
    204         -1.336439        0.145669   1.000000   1.000000
    205         -1.327217        0.182385   1.000000   1.000000
    206         -1.313679        0.186898   1.000000   1.000000
    207         -1.296988        0.205418   1.000000   1.000000
    208         -1.284330        0.247721   1.000000   1.000000
    209         -1.263384        0.262781   1.000000   1.000000
    210         -1.251613        0.299441   1.000000   1.000000
    211         -1.227394        0.347962   1.000000   1.000000
    212         -1.209155        0.357442   1.000000   1.000000
    213         -1.182322        0.367432   1.000000   1.000001
    214         -1.169037        0.386215   1.000000   1.000002
    215         -1.154016        0.412050   1.000000   1.000005
    216         -1.121391        0.436235   1.000000   1.000014
    217         -1.110218        0.475812   1.000000   1.000069
    218         -1.098642        0.499695   1.000000   1.000168
    219         -1.086123        0.520435   1.000000   1.000344
    220         -1.067993        0.542166   1.000000   1.000698
    221         -1.036723        0.548045   1.000000   1.000839
    222         -1.009453        0.581138   1.000000   1.002202
    223         -0.988527        0.608857   1.000000   1.004519
    224         -0.963472        0.645767   1.000000   1.010283
    225         -0.946700        0.664634   1.000000   1.014680
    226         -0.921085        0.684299   1.000000   1.020209
    227         -0.901055        0.723072   1.000000   1.031625
    228         -0.881985        0.772635   1.000000   1.031174
    229         -0.857954        0.779793   1.000000   1.027607
    230         -0.833969        0.805215   1.000000   1.003098
    231         -0.815114        0.843750   1.000000   0.919780
    232         -0.808012        0.885825   1.000000   0.755318
    233         -0.781679        0.897358   1.000000   0.698367
    234         -0.773283        0.955423   1.000000   0.378704
    235         -0.760440        0.987753   1.000000   0.215756
    236         -0.742433        0.996402   1.000000   0.178074
    237         -0.732432        1.035957   1.000000   0.046604
    238         -0.713451        1.052725   1.000000   0.011584
    239         -0.696241        1.063526   1.000000  -0.004998
    240         -0.683989        1.119441   1.000000  -0.035429
    241         -0.676153        1.127755   1.000000  -0.034788
    242         -0.667026        1.146626   1.000000  -0.031030
    243         -0.649549        1.186647   1.000000  -0.019139
    244         -0.629535        1.200065   1.000000  -0.015373
    245         -0.622194        1.223279   1.000000  -0.009936
    246         -0.603630        1.241545   1.000000  -0.006723
    247         -0.597744        1.263171   1.000000  -0.004026
    248         -0.575731        1.285288   1.000000  -0.002258
    249         -0.563291        1.298489   1.000000  -0.001560
    250         -0.550285        1.314868   1.000000  -0.000961
    251         -0.536463        1.341617   1.000000  -0.000411
    252         -0.533654        1.364953   1.000000  -0.000184
    253         -0.512083        1.387329   1.000000  -0.000081
    254         -0.510858        1.391058   1.000000  -0.000071
    255         -0.500146        1.414412   1.000000  -0.000028
    256         -0.487729        1.426234   1.000000  -0.000018
    257         -0.482217        1.440488   1.000000  -0.000010
    258         -0.467591        1.459812   1.000000  -0.000004
    259         -0.452590        1.485457   1.000000  -0.000001
    260         -0.444599        1.494401   1.000000  -0.000001
    261         -0.429746        1.516205   1.000000  -0.000000
    262         -0.425788        1.522835   1.000000  -0.000000
    263         -0.417662        1.542205   1.000000  -0.000000
    264         -0.410798        1.555429   1.000000  -0.000000
    265         -0.403599        1.576037   1.000000  -0.000000
    266         -0.390583        1.592219   1.000000  -0.000000
    267         -0.384697        1.609574   1.000000  -0.000000
    268         -0.369521        1.623966   1.000000  -0.000000
    269         -0.352466        1.633491   1.000000  -0.000000
    270         -0.347513        1.648296   1.000000  -0.000000
    271         -0.333480        1.664754   1.000000  -0.000000
    272         -0.326444        1.678434   1.000000  -0.000000
    273         -0.311006        1.696027   1.000000  -0.000000
    274         -0.304823        1.707287   1.000000  -0.000000
    275         -0.288932        1.729398   1.000000  -0.000000
    276         -0.277435        1.741886   1.000000  -0.000000
    277         -0.263922        1.750413   1.000000  -0.000000
    278         -0.249635        1.761786   1.000000  -0.000000
    279         -0.239647        1.788825   1.000000  -0.000000
    280         -0.232008        1.796707   1.000000  -0.000000
    281         -0.226900        1.807338   1.000000  -0.000000
    282         -0.209950        1.823425   1.000000  -0.000000
    283         -0.199587        1.840823   1.000000  -0.000000
    284         -0.190922        1.865317   1.000000  -0.000000
    285         -0.173695        1.873962   1.000000  -0.000000
    286         -0.169077        1.891265   1.000000  -0.000000
    287         -0.155437        1.911350   1.000000  -0.000000
    288         -0.140521        1.919800   1.000000  -0.000000
    289         -0.123046        1.928294   1.000000  -0.000000
    290         -0.113404        1.939366   1.000000  -0.000000
    291         -0.103990        1.949541   1.000000  -0.000000
    292         -0.093108        1.964877   1.000000  -0.000000
    293         -0.075510        1.973396   1.000000  -0.000000
    294         -0.062413        1.979892   1.000000  -0.000000
    295         -0.030164        2.008589   1.000000  -0.000000
    296         -0.014195        2.019264   1.000000  -0.000000
    297         -0.004641        2.029135   1.000000  -0.000000
    298          0.016275        2.039592   1.000000  -0.000000
    299          0.040967        2.062407   1.000000  -0.000000
    300          0.056254        2.071950   1.000000  -0.000000
    301          0.069155        2.078407   1.000000  -0.000000
    302          0.094254        2.090947   1.000000  -0.000000
    303          0.120026        2.094573   1.000000  -0.000000
    304          0.126212        2.110245   1.000000  -0.000000
    305          0.165666        2.113473   1.000000  -0.000000
    306          0.178311        2.133768   1.000000  -0.000000
    307          0.218847        2.142257   1.000000  -0.000000
    308          0.240492        2.157230   1.000000  -0.000000
    309          0.260136        2.166907   1.000000  -0.000000
    310          0.278858        2.174258   1.000000  -0.000000
    311          0.316935        2.178610   1.000000  -0.000000
    312          0.351778        2.194114   1.000000  -0.000000
    313          0.391891        2.206217   1.000002  -0.000000
    314          0.407887        2.218971   1.000004  -0.000000
    315          0.441996        2.228930   1.000018  -0.000000
    316          0.474156        2.243259   1.000065  -0.000000
    317          0.527509        2.258575   1.000436  -0.000000
    318          0.542466        2.276028   1.000705  -0.000000
    319          0.556588        2.291352   1.001088  -0.000000
    320          0.581600        2.293722   1.002230  -0.000000
    321          0.611632        2.305057   1.004834  -0.000000
    322          0.634686        2.311883   1.008171  -0.000000
    323          0.668238        2.322941   1.015629  -0.000000
    324          0.701419        2.334424   1.025455  -0.000000
    325          0.725688        2.347855   1.032252  -0.000000
    326          0.785132        2.356677   1.024087  -0.000000
    327          0.801120        2.361131   1.008467  -0.000000
    328          0.860100        2.378953   0.864822  -0.000000
    329          0.912126        2.388389   0.620177  -0.000000
    330          0.964932        2.392004   0.327813  -0.000000
    331          0.982004        2.398395   0.242380  -0.000000
    332          1.009925        2.421096   0.125348  -0.000000
    333          1.044328        2.427119   0.027648  -0.000000
    334          1.072451        2.438886  -0.015522  -0.000000
    335          1.085507        2.448016  -0.026351  -0.000000
    336          1.144408        2.453904  -0.031591  -0.000000
    337          1.169881        2.460870  -0.024236  -0.000000
    338          1.199563        2.473685  -0.015506  -0.000000
    339          1.264054        2.478693  -0.003938  -0.000000
    340          1.298791        2.488117  -0.001546  -0.000000
    341          1.312422        2.493191  -0.001035  -0.000000
    342          1.389672        2.500469  -0.000075  -0.000000
    343          1.420513        2.513874  -0.000022  -0.000000
    344          1.461330        2.520675  -0.000004  -0.000000
    345          1.507538        2.542966  -0.000000  -0.000000
    346          1.551249        2.550639  -0.000000  -0.000000
    347          1.587952        2.561534  -0.000000  -0.000000
    348          1.607757        2.570778  -0.000000  -0.000000
    349          1.635897        2.575596  -0.000000  -0.000000
    350          1.702272        2.589067  -0.000000  -0.000000
    351          1.739515        2.607817  -0.000000  -0.000000
    352          1.767886        2.612442  -0.000000  -0.000000
    353          1.800619        2.618197  -0.000000  -0.000000
    354          1.835550        2.633360  -0.000000  -0.000000
    355          1.860841        2.640630  -0.000000  -0.000000
    356          1.903892        2.655544  -0.000000  -0.000000
    357          1.917393        2.674747  -0.000000  -0.000000
    358          1.955196        2.704240  -0.000000  -0.000000
    359          1.992087        2.722810  -0.000000  -0.000000
    360          2.010506        2.746559  -0.000000  -0.000000
    361          2.040978        2.757690  -0.000000  -0.000000
    362          2.090909        2.769647  -0.000000  -0.000000
    363          2.136416        2.786107  -0.000000  -0.000000
    364          2.152314        2.800737  -0.000000  -0.000000
    365          2.162886        2.816550  -0.000000  -0.000000
    366          2.197946        2.834700  -0.000000  -0.000000
    367          2.227254        2.839312  -0.000000  -0.000000
    368          2.257935        2.855502  -0.000000  -0.000000
    369          2.264124        2.873412  -0.000000  -0.000000
 
  0.5000000E+00  0.1276781E-14  0.1276756E-14  0.6250000E-01
      1        -42.936878      -43.408305   1.000000   1.000000
      2        -42.871467      -43.390818   1.000000   1.000000
      3        -42.849650      -43.378178   1.000000   1.000000
      4        -42.246060      -43.365043   1.000000   1.000000
      5        -42.195817      -43.354833   1.000000   1.000000
      6        -42.156137      -43.351511   1.000000   1.000000
      7        -42.118449      -43.351224   1.000000   1.000000
      8        -42.051050      -43.320320   1.000000   1.000000
      9        -42.024490      -43.316782   1.000000   1.000000
     10        -41.988762      -43.303968   1.000000   1.000000
     11        -41.976163      -43.286677   1.000000   1.000000
     12        -41.955471      -43.279862   1.000000   1.000000
     13        -41.886007      -43.278190   1.000000   1.000000
     14        -41.870101      -43.255391   1.000000   1.000000
     15        -41.851463      -43.193627   1.000000   1.000000
     16        -41.838023      -43.182085   1.000000   1.000000
     17        -41.832012      -43.161436   1.000000   1.000000
     18        -41.809713      -43.156367   1.000000   1.000000
     19        -41.802791      -43.151197   1.000000   1.000000
     20        -41.800254      -43.138045   1.000000   1.000000
     21        -41.772284      -43.068855   1.000000   1.000000
     22        -41.750443      -42.997939   1.000000   1.000000
     23        -41.746928      -42.925578   1.000000   1.000000
     24        -41.739452      -42.823312   1.000000   1.000000
     25        -41.267881      -42.808295   1.000000   1.000000
     26        -41.208151      -42.784274   1.000000   1.000000
     27        -41.162657      -42.708278   1.000000   1.000000
     28        -40.287534      -42.666926   1.000000   1.000000
     29        -40.253033      -42.630668   1.000000   1.000000
     30        -40.245668      -42.560212   1.000000   1.000000
     31        -40.189394      -42.496552   1.000000   1.000000
     32        -40.174830      -42.349700   1.000000   1.000000
     33        -40.156394      -42.197823   1.000000   1.000000
     34        -40.136940      -42.190772   1.000000   1.000000
     35        -40.111903      -42.021979   1.000000   1.000000
     36        -40.095288      -41.835701   1.000000   1.000000
     37        -40.093244      -39.849041   1.000000   1.000000
     38        -40.090579      -39.727722   1.000000   1.000000
     39        -40.050430      -39.630323   1.000000   1.000000
     40        -15.537696      -15.550701   1.000000   1.000000
     41        -15.530969      -15.540904   1.000000   1.000000
     42        -15.525016      -15.536715   1.000000   1.000000
     43        -15.514934      -15.525136   1.000000   1.000000
     44        -15.491096      -15.506741   1.000000   1.000000
     45         -7.772104       -7.811727   1.000000   1.000000
     46         -6.678481       -6.575416   1.000000   1.000000
     47         -6.624282       -6.516173   1.000000   1.000000
     48         -5.801246       -5.662679   1.000000   1.000000
     49         -5.588763       -5.489679   1.000000   1.000000
     50         -4.888756       -4.653836   1.000000   1.000000
     51         -4.841247       -4.629219   1.000000   1.000000
     52         -4.819523       -4.613018   1.000000   1.000000
     53         -4.760879       -4.583230   1.000000   1.000000
     54         -4.609446       -4.352066   1.000000   1.000000
     55         -4.403039       -4.215897   1.000000   1.000000
     56         -4.232519       -3.932788   1.000000   1.000000
     57         -4.185998       -3.889717   1.000000   1.000000
     58         -4.098344       -3.837908   1.000000   1.000000
     59         -4.044275       -3.739848   1.000000   1.000000
     60         -4.010097       -3.258703   1.000000   1.000000
     61         -3.970322       -3.236552   1.000000   1.000000
     62         -3.786986       -3.170821   1.000000   1.000000
     63         -3.773455       -3.143390   1.000000   1.000000
     64         -3.741111       -3.122759   1.000000   1.000000
     65         -3.731385       -3.092940   1.000000   1.000000
     66         -3.716958       -3.075795   1.000000   1.000000
     67         -3.702271       -3.042968   1.000000   1.000000
     68         -3.689591       -3.007386   1.000000   1.000000
     69         -3.672702       -2.968550   1.000000   1.000000
     70         -3.662333       -2.914063   1.000000   1.000000
     71         -3.652204       -2.859568   1.000000   1.000000
     72         -3.642575       -2.831896   1.000000   1.000000
     73         -3.622983       -2.765932   1.000000   1.000000
     74         -3.607166       -2.746261   1.000000   1.000000
     75         -3.591951       -2.556686   1.000000   1.000000
     76         -3.565029       -2.553084   1.000000   1.000000
     77         -3.552348       -2.491774   1.000000   1.000000
     78         -3.502990       -2.441811   1.000000   1.000000
     79         -3.397564       -2.421466   1.000000   1.000000
     80         -3.351024       -2.394587   1.000000   1.000000
     81         -3.324672       -2.337898   1.000000   1.000000
     82         -3.290403       -2.299672   1.000000   1.000000
     83         -3.275253       -2.283297   1.000000   1.000000
     84         -3.268334       -2.265799   1.000000   1.000000
     85         -3.233436       -2.234615   1.000000   1.000000
     86         -3.221072       -2.194601   1.000000   1.000000
     87         -3.180703       -2.177778   1.000000   1.000000
     88         -3.157043       -2.153115   1.000000   1.000000
     89         -3.145033       -2.111082   1.000000   1.000000
     90         -3.121678       -2.072800   1.000000   1.000000
     91         -3.111250       -2.059807   1.000000   1.000000
     92         -3.106409       -2.020094   1.000000   1.000000
     93         -3.085965       -1.994575   1.000000   1.000000
     94         -3.045747       -1.971631   1.000000   1.000000
     95         -3.031655       -1.963403   1.000000   1.000000
     96         -3.030837       -1.945647   1.000000   1.000000
     97         -3.002578       -1.940463   1.000000   1.000000
     98         -2.995898       -1.912515   1.000000   1.000000
     99         -2.987135       -1.894305   1.000000   1.000000
    100         -2.939703       -1.859139   1.000000   1.000000
    101         -2.917382       -1.839729   1.000000   1.000000
    102         -2.888905       -1.802092   1.000000   1.000000
    103         -2.880035       -1.788042   1.000000   1.000000
    104         -2.872181       -1.754103   1.000000   1.000000
    105         -2.844047       -1.719361   1.000000   1.000000
    106         -2.833525       -1.696784   1.000000   1.000000
    107         -2.813494       -1.663361   1.000000   1.000000
    108         -2.794690       -1.620676   1.000000   1.000000
    109         -2.769091       -1.587782   1.000000   1.000000
    110         -2.755686       -1.577583   1.000000   1.000000
    111         -2.727307       -1.572937   1.000000   1.000000
    112         -2.708661       -1.542572   1.000000   1.000000
    113         -2.665047       -1.530025   1.000000   1.000000
    114         -2.639262       -1.515844   1.000000   1.000000
    115         -2.624190       -1.483142   1.000000   1.000000
    116         -2.615301       -1.427716   1.000000   1.000000
    117         -2.598207       -1.408400   1.000000   1.000000
    118         -2.583592       -1.394610   1.000000   1.000000
    119         -2.572462       -1.362984   1.000000   1.000000
    120         -2.567576       -1.360146   1.000000   1.000000
    121         -2.545542       -1.329429   1.000000   1.000000
    122         -2.534053       -1.314544   1.000000   1.000000
    123         -2.512865       -1.285762   1.000000   1.000000
    124         -2.506242       -1.252873   1.000000   1.000000
    125         -2.504285       -1.222707   1.000000   1.000000
    126         -2.485710       -1.214142   1.000000   1.000000
    127         -2.471470       -1.189953   1.000000   1.000000
    128         -2.459327       -1.172070   1.000000   1.000000
    129         -2.440290       -1.140718   1.000000   1.000000
    130         -2.435986       -1.133656   1.000000   1.000000
    131         -2.413220       -1.113502   1.000000   1.000000
    132         -2.392593       -1.091084   1.000000   1.000000
    133         -2.385570       -1.085292   1.000000   1.000000
    134         -2.374921       -1.056973   1.000000   1.000000
    135         -2.363296       -1.032471   1.000000   1.000000
    136         -2.344895       -1.017680   1.000000   1.000000
    137         -2.331425       -1.008345   1.000000   1.000000
    138         -2.313261       -0.986942   1.000000   1.000000
    139         -2.286663       -0.980609   1.000000   1.000000
    140         -2.279261       -0.954463   1.000000   1.000000
    141         -2.278295       -0.947324   1.000000   1.000000
    142         -2.274596       -0.934186   1.000000   1.000000
    143         -2.258988       -0.931505   1.000000   1.000000
    144         -2.224300       -0.919027   1.000000   1.000000
    145         -2.214129       -0.867155   1.000000   1.000000
    146         -2.202061       -0.853587   1.000000   1.000000
    147         -2.175972       -0.849988   1.000000   1.000000
    148         -2.148194       -0.822826   1.000000   1.000000
    149         -2.127082       -0.804095   1.000000   1.000000
    150         -2.124077       -0.781199   1.000000   1.000000
    151         -2.104314       -0.757809   1.000000   1.000000
    152         -2.096282       -0.744292   1.000000   1.000000
    153         -2.077107       -0.733870   1.000000   1.000000
    154         -2.071646       -0.709440   1.000000   1.000000
    155         -2.058872       -0.686750   1.000000   1.000000
    156         -2.056717       -0.673042   1.000000   1.000000
    157         -2.042132       -0.658831   1.000000   1.000000
    158         -2.031429       -0.626796   1.000000   1.000000
    159         -2.001087       -0.614103   1.000000   1.000000
    160         -1.996425       -0.594216   1.000000   1.000000
    161         -1.995092       -0.579622   1.000000   1.000000
    162         -1.967012       -0.565374   1.000000   1.000000
    163         -1.953244       -0.559397   1.000000   1.000000
    164         -1.934950       -0.557978   1.000000   1.000000
    165         -1.926918       -0.523146   1.000000   1.000000
    166         -1.920605       -0.515244   1.000000   1.000000
    167         -1.905764       -0.500482   1.000000   1.000000
    168         -1.897353       -0.488908   1.000000   1.000000
    169         -1.887215       -0.470751   1.000000   1.000000
    170         -1.885149       -0.460304   1.000000   1.000000
    171         -1.848908       -0.453540   1.000000   1.000000
    172         -1.841948       -0.434387   1.000000   1.000000
    173         -1.803156       -0.414397   1.000000   1.000000
    174         -1.798285       -0.400111   1.000000   1.000000
    175         -1.790860       -0.397575   1.000000   1.000000
    176         -1.767068       -0.376283   1.000000   1.000000
    177         -1.762225       -0.362682   1.000000   1.000000
    178         -1.747464       -0.324328   1.000000   1.000000
    179         -1.729561       -0.315954   1.000000   1.000000
    180         -1.714034       -0.304926   1.000000   1.000000
    181         -1.709909       -0.284955   1.000000   1.000000
    182         -1.698050       -0.258834   1.000000   1.000000
    183         -1.682235       -0.244542   1.000000   1.000000
    184         -1.665615       -0.228897   1.000000   1.000000
    185         -1.664050       -0.210222   1.000000   1.000000
    186         -1.651484       -0.195692   1.000000   1.000000
    187         -1.639418       -0.188224   1.000000   1.000000
    188         -1.610470       -0.170337   1.000000   1.000000
    189         -1.597199       -0.166284   1.000000   1.000000
    190         -1.591215       -0.149386   1.000000   1.000000
    191         -1.582286       -0.138668   1.000000   1.000000
    192         -1.536759       -0.113621   1.000000   1.000000
    193         -1.528690       -0.105524   1.000000   1.000000
    194         -1.524102       -0.091848   1.000000   1.000000
    195         -1.501269       -0.077670   1.000000   1.000000
    196         -1.489906       -0.068084   1.000000   1.000000
    197         -1.482267       -0.046143   1.000000   1.000000
    198         -1.476678       -0.006841   1.000000   1.000000
    199         -1.449644        0.037575   1.000000   1.000000
    200         -1.422252        0.042449   1.000000   1.000000
    201         -1.409786        0.066443   1.000000   1.000000
    202         -1.404167        0.126622   1.000000   1.000000
    203         -1.379427        0.138135   1.000000   1.000000
    204         -1.348790        0.154331   1.000000   1.000000
    205         -1.334556        0.160593   1.000000   1.000000
    206         -1.317183        0.174191   1.000000   1.000000
    207         -1.303360        0.186660   1.000000   1.000000
    208         -1.297946        0.208533   1.000000   1.000000
    209         -1.286516        0.235724   1.000000   1.000000
    210         -1.265951        0.262622   1.000000   1.000000
    211         -1.228127        0.287059   1.000000   1.000000
    212         -1.220334        0.310067   1.000000   1.000000
    213         -1.209058        0.328618   1.000000   1.000000
    214         -1.177722        0.382481   1.000000   1.000001
    215         -1.162590        0.397260   1.000000   1.000003
    216         -1.135760        0.426235   1.000000   1.000009
    217         -1.130292        0.481555   1.000000   1.000086
    218         -1.100518        0.516049   1.000000   1.000297
    219         -1.073285        0.520476   1.000000   1.000345
    220         -1.051816        0.544306   1.000000   1.000747
    221         -1.035887        0.561079   1.000000   1.001244
    222         -1.005742        0.581662   1.000000   1.002234
    223         -0.972582        0.620931   1.000000   1.006018
    224         -0.941924        0.653746   1.000000   1.012021
    225         -0.924339        0.697454   1.000000   1.024233
    226         -0.907066        0.712544   1.000000   1.028786
    227         -0.889072        0.733697   1.000000   1.033902
    228         -0.880369        0.760032   1.000000   1.034698
    229         -0.874747        0.772872   1.000000   1.031076
    230         -0.818621        0.794295   1.000000   1.016131
    231         -0.811163        0.835250   1.000000   0.943621
    232         -0.805789        0.873235   1.000000   0.812222
    233         -0.792571        0.876886   1.000000   0.796340
    234         -0.775243        0.935833   1.000000   0.487805
    235         -0.756056        0.954341   1.000000   0.384606
    236         -0.720502        0.987445   1.000000   0.217152
    237         -0.714729        1.039085   1.000000   0.039168
    238         -0.697209        1.075106   1.000000  -0.018141
    239         -0.686717        1.108328   1.000000  -0.034849
    240         -0.661400        1.137243   1.000000  -0.033217
    241         -0.647507        1.165785   1.000000  -0.025497
    242         -0.646495        1.189975   1.000000  -0.018170
    243         -0.632401        1.195653   1.000000  -0.016568
    244         -0.601960        1.220610   1.000000  -0.010484
    245         -0.597440        1.242751   1.000000  -0.006542
    246         -0.592941        1.267182   1.000000  -0.003639
    247         -0.576712        1.291587   1.000000  -0.001897
    248         -0.573375        1.323995   1.000000  -0.000725
    249         -0.568497        1.345182   1.000000  -0.000365
    250         -0.553205        1.376922   1.000000  -0.000120
    251         -0.546265        1.382863   1.000000  -0.000096
    252         -0.534534        1.398605   1.000000  -0.000053
    253         -0.521630        1.428601   1.000000  -0.000016
    254         -0.516455        1.455032   1.000000  -0.000005
    255         -0.510025        1.471204   1.000000  -0.000002
    256         -0.496767        1.491409   1.000000  -0.000001
    257         -0.486745        1.504008   1.000000  -0.000001
    258         -0.469497        1.523882   1.000000  -0.000000
    259         -0.458544        1.533773   1.000000  -0.000000
    260         -0.450673        1.550229   1.000000  -0.000000
    261         -0.433132        1.555404   1.000000  -0.000000
    262         -0.425292        1.576378   1.000000  -0.000000
    263         -0.409579        1.592532   1.000000  -0.000000
    264         -0.402455        1.596723   1.000000  -0.000000
    265         -0.392219        1.622432   1.000000  -0.000000
    266         -0.382486        1.645691   1.000000  -0.000000
    267         -0.378469        1.652431   1.000000  -0.000000
    268         -0.357392        1.663823   1.000000  -0.000000
    269         -0.350810        1.684575   1.000000  -0.000000
    270         -0.346393        1.694097   1.000000  -0.000000
    271         -0.330183        1.707376   1.000000  -0.000000
    272         -0.311608        1.725546   1.000000  -0.000000
    273         -0.305565        1.735206   1.000000  -0.000000
    274         -0.291620        1.746937   1.000000  -0.000000
    275         -0.284122        1.770725   1.000000  -0.000000
    276         -0.271213        1.782178   1.000000  -0.000000
    277         -0.269542        1.785363   1.000000  -0.000000
    278         -0.255567        1.798747   1.000000  -0.000000
    279         -0.243078        1.822447   1.000000  -0.000000
    280         -0.224442        1.832318   1.000000  -0.000000
    281         -0.221248        1.853073   1.000000  -0.000000
    282         -0.201480        1.867264   1.000000  -0.000000
    283         -0.192342        1.874129   1.000000  -0.000000
    284         -0.169270        1.894893   1.000000  -0.000000
    285         -0.157803        1.906462   1.000000  -0.000000
    286         -0.148654        1.919888   1.000000  -0.000000
    287         -0.135024        1.928400   1.000000  -0.000000
    288         -0.120265        1.940197   1.000000  -0.000000
    289         -0.114765        1.949807   1.000000  -0.000000
    290         -0.081038        1.958997   1.000000  -0.000000
    291         -0.064868        1.967382   1.000000  -0.000000
    292         -0.056728        1.973689   1.000000  -0.000000
    293         -0.025842        1.981161   1.000000  -0.000000
    294         -0.014785        1.985351   1.000000  -0.000000
    295          0.001348        1.998436   1.000000  -0.000000
    296          0.005175        2.009526   1.000000  -0.000000
    297          0.040344        2.012652   1.000000  -0.000000
    298          0.063452        2.024538   1.000000  -0.000000
    299          0.066536        2.039255   1.000000  -0.000000
    300          0.128922        2.050378   1.000000  -0.000000
    301          0.133605        2.060854   1.000000  -0.000000
    302          0.151437        2.073651   1.000000  -0.000000
    303          0.174764        2.080203   1.000000  -0.000000
    304          0.188023        2.088229   1.000000  -0.000000
    305          0.231501        2.104743   1.000000  -0.000000
    306          0.236673        2.113612   1.000000  -0.000000
    307          0.258881        2.123167   1.000000  -0.000000
    308          0.276596        2.135249   1.000000  -0.000000
    309          0.290536        2.138501   1.000000  -0.000000
    310          0.323554        2.160816   1.000000  -0.000000
    311          0.340855        2.163484   1.000000  -0.000000
    312          0.390352        2.183200   1.000002  -0.000000
    313          0.406269        2.189394   1.000004  -0.000000
    314          0.437604        2.209577   1.000015  -0.000000
    315          0.479721        2.230303   1.000081  -0.000000
    316          0.504920        2.232054   1.000202  -0.000000
    317          0.541255        2.248499   1.000679  -0.000000
    318          0.555622        2.258140   1.001057  -0.000000
    319          0.585833        2.271190   1.002502  -0.000000
    320          0.645054        2.277140   1.010137  -0.000000
    321          0.651155        2.286545   1.011437  -0.000000
    322          0.668505        2.294654   1.015700  -0.000000
    323          0.724394        2.308141   1.031947  -0.000000
    324          0.754031        2.321956   1.035340  -0.000000
    325          0.809537        2.327046   0.996768  -0.000000
    326          0.849513        2.352155   0.901773  -0.000000
    327          0.893644        2.369454   0.717159  -0.000000
    328          0.909917        2.388761   0.632175  -0.000000
    329          0.931088        2.390271   0.514574  -0.000000
    330          0.980165        2.400593   0.251142  -0.000000
    331          1.007372        2.407172   0.134697  -0.000000
    332          1.018207        2.419715   0.097004  -0.000000
    333          1.098738        2.447885  -0.032656  -0.000000
    334          1.114245        2.451754  -0.035388  -0.000000
    335          1.130442        2.466965  -0.034423  -0.000000
    336          1.143291        2.476970  -0.031865  -0.000000
    337          1.163582        2.486469  -0.026171  -0.000000
    338          1.207143        2.492030  -0.013558  -0.000000
    339          1.239533        2.495239  -0.007032  -0.000000
    340          1.302711        2.508341  -0.001380  -0.000000
    341          1.340775        2.522728  -0.000422  -0.000000
    342          1.378703        2.526438  -0.000112  -0.000000
    343          1.410667        2.537188  -0.000033  -0.000000
    344          1.455689        2.548229  -0.000005  -0.000000
    345          1.481244        2.557248  -0.000002  -0.000000
    346          1.518388        2.560491  -0.000000  -0.000000
    347          1.581800        2.574774  -0.000000  -0.000000
    348          1.603997        2.581097  -0.000000  -0.000000
    349          1.618525        2.587370  -0.000000  -0.000000
    350          1.640502        2.594708  -0.000000  -0.000000
    351          1.697215        2.607109  -0.000000  -0.000000
    352          1.752158        2.613714  -0.000000  -0.000000
    353          1.781253        2.631403  -0.000000  -0.000000
    354          1.802951        2.643376  -0.000000  -0.000000
    355          1.872882        2.657055  -0.000000  -0.000000
    356          1.885076        2.663816  -0.000000  -0.000000
    357          1.907142        2.684056  -0.000000  -0.000000
    358          1.941788        2.696837  -0.000000  -0.000000
    359          1.971273        2.706960  -0.000000  -0.000000
    360          1.978186        2.733994  -0.000000  -0.000000
    361          2.010476        2.749760  -0.000000  -0.000000
    362          2.070403        2.770431  -0.000000  -0.000000
    363          2.101651        2.788209  -0.000000  -0.000000
    364          2.105984        2.797906  -0.000000  -0.000000
    365          2.162179        2.839892  -0.000000  -0.000000
    366          2.176756        2.860858  -0.000000  -0.000000
    367          2.211064        2.879531  -0.000000  -0.000000
    368          2.244407        2.900692  -0.000000  -0.000000
    369          2.278194        2.917369  -0.000000  -0.000000
 
  0.1276756E-14  0.2500000E+00  0.1276756E-14  0.1250000E+00
      1        -42.936880      -43.408310   1.000000   1.000000
      2        -42.871469      -43.390825   1.000000   1.000000
      3        -42.849655      -43.378186   1.000000   1.000000
      4        -42.246028      -43.364979   1.000000   1.000000
      5        -42.195840      -43.354838   1.000000   1.000000
      6        -42.156158      -43.351516   1.000000   1.000000
      7        -42.118428      -43.351224   1.000000   1.000000
      8        -42.051096      -43.320346   1.000000   1.000000
      9        -42.024452      -43.316784   1.000000   1.000000
     10        -41.988782      -43.303966   1.000000   1.000000
     11        -41.976183      -43.286709   1.000000   1.000000
     12        -41.955441      -43.279878   1.000000   1.000000
     13        -41.886016      -43.278196   1.000000   1.000000
     14        -41.870105      -43.255387   1.000000   1.000000
     15        -41.851419      -43.193615   1.000000   1.000000
     16        -41.838126      -43.182079   1.000000   1.000000
     17        -41.832015      -43.161463   1.000000   1.000000
     18        -41.809712      -43.156374   1.000000   1.000000
     19        -41.802813      -43.151204   1.000000   1.000000
     20        -41.800234      -43.138063   1.000000   1.000000
     21        -41.772252      -43.068864   1.000000   1.000000
     22        -41.750459      -42.997937   1.000000   1.000000
     23        -41.746913      -42.925590   1.000000   1.000000
     24        -41.739459      -42.823317   1.000000   1.000000
     25        -41.267883      -42.808280   1.000000   1.000000
     26        -41.208153      -42.784266   1.000000   1.000000
     27        -41.162664      -42.708272   1.000000   1.000000
     28        -40.287525      -42.666922   1.000000   1.000000
     29        -40.253046      -42.630669   1.000000   1.000000
     30        -40.245583      -42.560210   1.000000   1.000000
     31        -40.189419      -42.496547   1.000000   1.000000
     32        -40.174868      -42.349720   1.000000   1.000000
     33        -40.156420      -42.197823   1.000000   1.000000
     34        -40.136948      -42.190775   1.000000   1.000000
     35        -40.111913      -42.021987   1.000000   1.000000
     36        -40.095306      -41.835711   1.000000   1.000000
     37        -40.093246      -39.849036   1.000000   1.000000
     38        -40.090569      -39.727730   1.000000   1.000000
     39        -40.050438      -39.630330   1.000000   1.000000
     40        -15.537694      -15.550697   1.000000   1.000000
     41        -15.530998      -15.540894   1.000000   1.000000
     42        -15.524980      -15.536712   1.000000   1.000000
     43        -15.514962      -15.525157   1.000000   1.000000
     44        -15.491094      -15.506740   1.000000   1.000000
     45         -7.807943       -7.835509   1.000000   1.000000
     46         -7.018791       -6.925926   1.000000   1.000000
     47         -6.077492       -5.971453   1.000000   1.000000
     48         -5.971751       -5.853594   1.000000   1.000000
     49         -5.207535       -5.062381   1.000000   1.000000
     50         -5.138418       -4.958292   1.000000   1.000000
     51         -5.086547       -4.894035   1.000000   1.000000
     52         -4.718712       -4.553708   1.000000   1.000000
     53         -4.541217       -4.257027   1.000000   1.000000
     54         -4.472962       -4.187796   1.000000   1.000000
     55         -4.434849       -4.161848   1.000000   1.000000
     56         -4.422357       -4.120955   1.000000   1.000000
     57         -4.353051       -4.071854   1.000000   1.000000
     58         -4.214435       -3.851908   1.000000   1.000000
     59         -4.127109       -3.627232   1.000000   1.000000
     60         -4.021756       -3.444593   1.000000   1.000000
     61         -3.982953       -3.389890   1.000000   1.000000
     62         -3.913538       -3.380229   1.000000   1.000000
     63         -3.878659       -3.336547   1.000000   1.000000
     64         -3.834035       -3.240475   1.000000   1.000000
     65         -3.809932       -3.210287   1.000000   1.000000
     66         -3.782370       -3.166624   1.000000   1.000000
     67         -3.760409       -3.052611   1.000000   1.000000
     68         -3.732643       -2.884710   1.000000   1.000000
     69         -3.655357       -2.861524   1.000000   1.000000
     70         -3.640257       -2.765146   1.000000   1.000000
     71         -3.586349       -2.686470   1.000000   1.000000
     72         -3.570715       -2.656558   1.000000   1.000000
     73         -3.542487       -2.622336   1.000000   1.000000
     74         -3.524545       -2.609225   1.000000   1.000000
     75         -3.499592       -2.569976   1.000000   1.000000
     76         -3.483966       -2.537499   1.000000   1.000000
     77         -3.430468       -2.510697   1.000000   1.000000
     78         -3.384933       -2.481425   1.000000   1.000000
     79         -3.363910       -2.442503   1.000000   1.000000
     80         -3.332936       -2.386671   1.000000   1.000000
     81         -3.295780       -2.366202   1.000000   1.000000
     82         -3.275791       -2.351345   1.000000   1.000000
     83         -3.262398       -2.279436   1.000000   1.000000
     84         -3.243150       -2.260625   1.000000   1.000000
     85         -3.219673       -2.234466   1.000000   1.000000
     86         -3.194116       -2.193920   1.000000   1.000000
     87         -3.181897       -2.164969   1.000000   1.000000
     88         -3.175896       -2.142227   1.000000   1.000000
     89         -3.156231       -2.113070   1.000000   1.000000
     90         -3.145105       -2.091946   1.000000   1.000000
     91         -3.119680       -2.054093   1.000000   1.000000
     92         -3.103107       -2.037961   1.000000   1.000000
     93         -3.074018       -2.022258   1.000000   1.000000
     94         -3.040679       -1.987094   1.000000   1.000000
     95         -3.033454       -1.950485   1.000000   1.000000
     96         -3.014446       -1.946451   1.000000   1.000000
     97         -3.002882       -1.924117   1.000000   1.000000
     98         -2.977141       -1.884863   1.000000   1.000000
     99         -2.955465       -1.864830   1.000000   1.000000
    100         -2.931957       -1.844704   1.000000   1.000000
    101         -2.910020       -1.823096   1.000000   1.000000
    102         -2.869562       -1.766089   1.000000   1.000000
    103         -2.856402       -1.719389   1.000000   1.000000
    104         -2.842428       -1.685215   1.000000   1.000000
    105         -2.817576       -1.676263   1.000000   1.000000
    106         -2.761038       -1.631001   1.000000   1.000000
    107         -2.744059       -1.603707   1.000000   1.000000
    108         -2.727922       -1.582746   1.000000   1.000000
    109         -2.711685       -1.572220   1.000000   1.000000
    110         -2.693115       -1.549305   1.000000   1.000000
    111         -2.686502       -1.531090   1.000000   1.000000
    112         -2.651646       -1.492830   1.000000   1.000000
    113         -2.641641       -1.476477   1.000000   1.000000
    114         -2.621566       -1.453298   1.000000   1.000000
    115         -2.593323       -1.435591   1.000000   1.000000
    116         -2.580037       -1.421387   1.000000   1.000000
    117         -2.567985       -1.386600   1.000000   1.000000
    118         -2.558946       -1.369012   1.000000   1.000000
    119         -2.551152       -1.344992   1.000000   1.000000
    120         -2.540358       -1.327976   1.000000   1.000000
    121         -2.528097       -1.311637   1.000000   1.000000
    122         -2.513335       -1.285552   1.000000   1.000000
    123         -2.497432       -1.263538   1.000000   1.000000
    124         -2.488025       -1.242710   1.000000   1.000000
    125         -2.477790       -1.215302   1.000000   1.000000
    126         -2.469195       -1.197148   1.000000   1.000000
    127         -2.456361       -1.175905   1.000000   1.000000
    128         -2.445111       -1.167042   1.000000   1.000000
    129         -2.442210       -1.155185   1.000000   1.000000
    130         -2.428136       -1.143163   1.000000   1.000000
    131         -2.409328       -1.125501   1.000000   1.000000
    132         -2.398467       -1.105412   1.000000   1.000000
    133         -2.392715       -1.093242   1.000000   1.000000
    134         -2.375528       -1.084781   1.000000   1.000000
    135         -2.362051       -1.059508   1.000000   1.000000
    136         -2.341161       -1.053736   1.000000   1.000000
    137         -2.329180       -1.027682   1.000000   1.000000
    138         -2.324724       -1.013530   1.000000   1.000000
    139         -2.304365       -1.000017   1.000000   1.000000
    140         -2.296237       -0.983096   1.000000   1.000000
    141         -2.286269       -0.964837   1.000000   1.000000
    142         -2.265644       -0.955103   1.000000   1.000000
    143         -2.252217       -0.924225   1.000000   1.000000
    144         -2.238421       -0.903330   1.000000   1.000000
    145         -2.218637       -0.884346   1.000000   1.000000
    146         -2.208274       -0.873867   1.000000   1.000000
    147         -2.204666       -0.848361   1.000000   1.000000
    148         -2.178135       -0.833402   1.000000   1.000000
    149         -2.168943       -0.820897   1.000000   1.000000
    150         -2.153087       -0.811837   1.000000   1.000000
    151         -2.142647       -0.786559   1.000000   1.000000
    152         -2.135176       -0.781814   1.000000   1.000000
    153         -2.121090       -0.756531   1.000000   1.000000
    154         -2.100733       -0.736408   1.000000   1.000000
    155         -2.093823       -0.731274   1.000000   1.000000
    156         -2.079877       -0.718233   1.000000   1.000000
    157         -2.074783       -0.695689   1.000000   1.000000
    158         -2.054114       -0.689582   1.000000   1.000000
    159         -2.049031       -0.686002   1.000000   1.000000
    160         -2.036057       -0.666580   1.000000   1.000000
    161         -2.017491       -0.652413   1.000000   1.000000
    162         -1.997503       -0.635122   1.000000   1.000000
    163         -1.983538       -0.615187   1.000000   1.000000
    164         -1.971539       -0.601919   1.000000   1.000000
    165         -1.956018       -0.565534   1.000000   1.000000
    166         -1.940963       -0.561113   1.000000   1.000000
    167         -1.929317       -0.545042   1.000000   1.000000
    168         -1.908446       -0.517105   1.000000   1.000000
    169         -1.895618       -0.486327   1.000000   1.000000
    170         -1.876114       -0.465513   1.000000   1.000000
    171         -1.860734       -0.447889   1.000000   1.000000
    172         -1.841243       -0.429315   1.000000   1.000000
    173         -1.825967       -0.418536   1.000000   1.000000
    174         -1.817680       -0.409618   1.000000   1.000000
    175         -1.809966       -0.378732   1.000000   1.000000
    176         -1.796252       -0.368757   1.000000   1.000000
    177         -1.774704       -0.357633   1.000000   1.000000
    178         -1.755491       -0.330791   1.000000   1.000000
    179         -1.741850       -0.318778   1.000000   1.000000
    180         -1.723848       -0.290174   1.000000   1.000000
    181         -1.709263       -0.277492   1.000000   1.000000
    182         -1.684099       -0.251259   1.000000   1.000000
    183         -1.674464       -0.225758   1.000000   1.000000
    184         -1.669906       -0.221002   1.000000   1.000000
    185         -1.646726       -0.204206   1.000000   1.000000
    186         -1.625331       -0.179742   1.000000   1.000000
    187         -1.614734       -0.162441   1.000000   1.000000
    188         -1.599113       -0.157215   1.000000   1.000000
    189         -1.578157       -0.144029   1.000000   1.000000
    190         -1.569962       -0.125786   1.000000   1.000000
    191         -1.560640       -0.118037   1.000000   1.000000
    192         -1.549542       -0.094610   1.000000   1.000000
    193         -1.535095       -0.079165   1.000000   1.000000
    194         -1.521166       -0.055023   1.000000   1.000000
    195         -1.502385       -0.030357   1.000000   1.000000
    196         -1.487998       -0.009941   1.000000   1.000000
    197         -1.472290        0.012088   1.000000   1.000000
    198         -1.461793        0.036785   1.000000   1.000000
    199         -1.445336        0.056497   1.000000   1.000000
    200         -1.428946        0.066920   1.000000   1.000000
    201         -1.406090        0.083233   1.000000   1.000000
    202         -1.395077        0.115152   1.000000   1.000000
    203         -1.372567        0.131399   1.000000   1.000000
    204         -1.334622        0.141318   1.000000   1.000000
    205         -1.320425        0.162960   1.000000   1.000000
    206         -1.306127        0.192302   1.000000   1.000000
    207         -1.286139        0.207995   1.000000   1.000000
    208         -1.272488        0.236979   1.000000   1.000000
    209         -1.251834        0.267302   1.000000   1.000000
    210         -1.234228        0.277528   1.000000   1.000000
    211         -1.220443        0.309955   1.000000   1.000000
    212         -1.208417        0.339835   1.000000   1.000000
    213         -1.188868        0.347641   1.000000   1.000000
    214         -1.163245        0.368466   1.000000   1.000001
    215         -1.138266        0.397665   1.000000   1.000003
    216         -1.119771        0.454124   1.000000   1.000030
    217         -1.108230        0.463233   1.000000   1.000043
    218         -1.079457        0.488847   1.000000   1.000113
    219         -1.067085        0.525317   1.000000   1.000405
    220         -1.034865        0.544020   1.000000   1.000740
    221         -1.009316        0.570307   1.000000   1.001626
    222         -0.988628        0.578528   1.000000   1.002049
    223         -0.965925        0.632435   1.000000   1.007784
    224         -0.951228        0.665439   1.000000   1.014889
    225         -0.932037        0.698115   1.000000   1.024437
    226         -0.908195        0.724255   1.000000   1.031913
    227         -0.898698        0.762057   1.000000   1.034342
    228         -0.872442        0.805907   1.000000   1.002130
    229         -0.852709        0.816592   1.000000   0.984897
    230         -0.841800        0.839630   1.000000   0.931738
    231         -0.820172        0.866482   1.000000   0.840175
    232         -0.811246        0.888363   1.000000   0.743154
    233         -0.792644        0.919430   1.000000   0.579949
    234         -0.780199        0.945109   1.000000   0.435680
    235         -0.768508        0.949820   1.000000   0.409474
    236         -0.755427        0.981464   1.000000   0.244939
    237         -0.731715        1.010720   1.000000   0.122496
    238         -0.713523        1.025419   1.000000   0.074826
    239         -0.706238        1.077991   1.000000  -0.020737
    240         -0.694634        1.104118   1.000000  -0.034103
    241         -0.668808        1.145160   1.000000  -0.031404
    242         -0.661174        1.158540   1.000000  -0.027691
    243         -0.654165        1.181979   1.000000  -0.020530
    244         -0.642225        1.204135   1.000000  -0.014313
    245         -0.619626        1.215232   1.000000  -0.011650
    246         -0.603956        1.237672   1.000000  -0.007328
    247         -0.591405        1.265533   1.000000  -0.003794
    248         -0.579362        1.269181   1.000000  -0.003459
    249         -0.572661        1.297590   1.000000  -0.001601
    250         -0.557895        1.316205   1.000000  -0.000923
    251         -0.548493        1.328873   1.000000  -0.000621
    252         -0.536044        1.350215   1.000000  -0.000308
    253         -0.515886        1.357337   1.000000  -0.000241
    254         -0.512253        1.382342   1.000000  -0.000098
    255         -0.505238        1.393916   1.000000  -0.000063
    256         -0.487201        1.400219   1.000000  -0.000050
    257         -0.475051        1.425279   1.000000  -0.000018
    258         -0.459118        1.449757   1.000000  -0.000006
    259         -0.451538        1.477853   1.000000  -0.000002
    260         -0.436185        1.493341   1.000000  -0.000001
    261         -0.430599        1.511031   1.000000  -0.000000
    262         -0.422972        1.532440   1.000000  -0.000000
    263         -0.415897        1.550675   1.000000  -0.000000
    264         -0.403795        1.566846   1.000000  -0.000000
    265         -0.385145        1.574545   1.000000  -0.000000
    266         -0.382498        1.588614   1.000000  -0.000000
    267         -0.376436        1.600488   1.000000  -0.000000
    268         -0.368741        1.617321   1.000000  -0.000000
    269         -0.357339        1.638888   1.000000  -0.000000
    270         -0.340392        1.657543   1.000000  -0.000000
    271         -0.328688        1.666833   1.000000  -0.000000
    272         -0.324712        1.683700   1.000000  -0.000000
    273         -0.305180        1.704775   1.000000  -0.000000
    274         -0.294194        1.721689   1.000000  -0.000000
    275         -0.287376        1.731298   1.000000  -0.000000
    276         -0.283026        1.746663   1.000000  -0.000000
    277         -0.264444        1.766962   1.000000  -0.000000
    278         -0.251372        1.778317   1.000000  -0.000000
    279         -0.240771        1.789443   1.000000  -0.000000
    280         -0.228370        1.804946   1.000000  -0.000000
    281         -0.213377        1.820711   1.000000  -0.000000
    282         -0.204598        1.835449   1.000000  -0.000000
    283         -0.198110        1.843178   1.000000  -0.000000
    284         -0.186151        1.855943   1.000000  -0.000000
    285         -0.174045        1.863081   1.000000  -0.000000
    286         -0.166593        1.885851   1.000000  -0.000000
    287         -0.154707        1.890768   1.000000  -0.000000
    288         -0.139213        1.911478   1.000000  -0.000000
    289         -0.121032        1.923293   1.000000  -0.000000
    290         -0.114996        1.939927   1.000000  -0.000000
    291         -0.104145        1.942979   1.000000  -0.000000
    292         -0.093143        1.949020   1.000000  -0.000000
    293         -0.068685        1.962018   1.000000  -0.000000
    294         -0.058509        1.985062   1.000000  -0.000000
    295         -0.053075        2.000420   1.000000  -0.000000
    296         -0.023747        2.010389   1.000000  -0.000000
    297         -0.014790        2.025954   1.000000  -0.000000
    298          0.002168        2.033780   1.000000  -0.000000
    299          0.031024        2.045218   1.000000  -0.000000
    300          0.057196        2.057709   1.000000  -0.000000
    301          0.073344        2.072065   1.000000  -0.000000
    302          0.091720        2.092646   1.000000  -0.000000
    303          0.118364        2.096148   1.000000  -0.000000
    304          0.131947        2.110950   1.000000  -0.000000
    305          0.156780        2.121328   1.000000  -0.000000
    306          0.198020        2.126341   1.000000  -0.000000
    307          0.210813        2.135427   1.000000  -0.000000
    308          0.251335        2.144800   1.000000  -0.000000
    309          0.290977        2.157131   1.000000  -0.000000
    310          0.312389        2.175935   1.000000  -0.000000
    311          0.326181        2.178577   1.000000  -0.000000
    312          0.347906        2.195072   1.000000  -0.000000
    313          0.393528        2.203653   1.000002  -0.000000
    314          0.412979        2.230426   1.000005  -0.000000
    315          0.435126        2.235774   1.000014  -0.000000
    316          0.463087        2.247381   1.000042  -0.000000
    317          0.503210        2.250993   1.000190  -0.000000
    318          0.536030        2.265224   1.000575  -0.000000
    319          0.569872        2.279202   1.001606  -0.000000
    320          0.580909        2.289085   1.002188  -0.000000
    321          0.619711        2.304024   1.005851  -0.000000
    322          0.643655        2.320031   1.009853  -0.000000
    323          0.687949        2.324554   1.021312  -0.000000
    324          0.720030        2.337078   1.030851  -0.000000
    325          0.749811        2.353216   1.035458  -0.000000
    326          0.777832        2.361158   1.028710  -0.000000
    327          0.805161        2.374267   1.003173  -0.000000
    328          0.872998        2.387713   0.813235  -0.000000
    329          0.902216        2.393412   0.673214  -0.000000
    330          0.919438        2.394888   0.579906  -0.000000
    331          0.960849        2.404844   0.349425  -0.000000
    332          1.004190        2.414307   0.146751  -0.000000
    333          1.073490        2.426537  -0.016573  -0.000000
    334          1.087152        2.442733  -0.027371  -0.000000
    335          1.105310        2.455493  -0.034347  -0.000000
    336          1.181753        2.456620  -0.020598  -0.000000
    337          1.194881        2.462499  -0.016782  -0.000000
    338          1.208220        2.473036  -0.013293  -0.000000
    339          1.240667        2.481654  -0.006856  -0.000000
    340          1.289797        2.489026  -0.001994  -0.000000
    341          1.346529        2.508169  -0.000349  -0.000000
    342          1.381527        2.513085  -0.000101  -0.000000
    343          1.406146        2.524761  -0.000039  -0.000000
    344          1.464559        2.532982  -0.000003  -0.000000
    345          1.501274        2.538595  -0.000001  -0.000000
    346          1.546886        2.553625  -0.000000  -0.000000
    347          1.577649        2.560889  -0.000000  -0.000000
    348          1.638095        2.565151  -0.000000  -0.000000
    349          1.660256        2.583024  -0.000000  -0.000000
    350          1.691164        2.594891  -0.000000  -0.000000
    351          1.723846        2.605202  -0.000000  -0.000000
    352          1.784694        2.611829  -0.000000  -0.000000
    353          1.797022        2.618237  -0.000000  -0.000000
    354          1.839720        2.625546  -0.000000  -0.000000
    355          1.864958        2.645268  -0.000000  -0.000000
    356          1.884893        2.662615  -0.000000  -0.000000
    357          1.922808        2.681610  -0.000000  -0.000000
    358          1.949346        2.686126  -0.000000  -0.000000
    359          1.972776        2.699392  -0.000000  -0.000000
    360          2.020050        2.729373  -0.000000  -0.000000
    361          2.047972        2.741167  -0.000000  -0.000000
    362          2.099348        2.771204  -0.000000  -0.000000
    363          2.119324        2.788876  -0.000000  -0.000000
    364          2.148638        2.809934  -0.000000  -0.000000
    365          2.162849        2.814996  -0.000000  -0.000000
    366          2.193939        2.822609  -0.000000  -0.000000
    367          2.245353        2.839058  -0.000000  -0.000000
    368          2.264890        2.868164  -0.000000  -0.000000
    369          2.273078        2.889162  -0.000000  -0.000000
 
  0.2500000E+00  0.2500000E+00  0.1276756E-14  0.1250000E+00
      1        -42.936878      -43.408312   1.000000   1.000000
      2        -42.871468      -43.390828   1.000000   1.000000
      3        -42.849645      -43.378188   1.000000   1.000000
      4        -42.246026      -43.364977   1.000000   1.000000
      5        -42.195837      -43.354832   1.000000   1.000000
      6        -42.156157      -43.351519   1.000000   1.000000
      7        -42.118424      -43.351215   1.000000   1.000000
      8        -42.051081      -43.320327   1.000000   1.000000
      9        -42.024462      -43.316778   1.000000   1.000000
     10        -41.988785      -43.303958   1.000000   1.000000
     11        -41.976168      -43.286706   1.000000   1.000000
     12        -41.955442      -43.279868   1.000000   1.000000
     13        -41.886008      -43.278185   1.000000   1.000000
     14        -41.870110      -43.255385   1.000000   1.000000
     15        -41.851419      -43.193611   1.000000   1.000000
     16        -41.838083      -43.182075   1.000000   1.000000
     17        -41.832006      -43.161452   1.000000   1.000000
     18        -41.809706      -43.156372   1.000000   1.000000
     19        -41.802792      -43.151192   1.000000   1.000000
     20        -41.800254      -43.138057   1.000000   1.000000
     21        -41.772271      -43.068865   1.000000   1.000000
     22        -41.750444      -42.997939   1.000000   1.000000
     23        -41.746902      -42.925582   1.000000   1.000000
     24        -41.739461      -42.823319   1.000000   1.000000
     25        -41.267873      -42.808280   1.000000   1.000000
     26        -41.208150      -42.784262   1.000000   1.000000
     27        -41.162662      -42.708276   1.000000   1.000000
     28        -40.287519      -42.666915   1.000000   1.000000
     29        -40.253034      -42.630660   1.000000   1.000000
     30        -40.245580      -42.560212   1.000000   1.000000
     31        -40.189405      -42.496547   1.000000   1.000000
     32        -40.174853      -42.349704   1.000000   1.000000
     33        -40.156418      -42.197821   1.000000   1.000000
     34        -40.136951      -42.190767   1.000000   1.000000
     35        -40.111916      -42.021987   1.000000   1.000000
     36        -40.095293      -41.835699   1.000000   1.000000
     37        -40.093249      -39.849031   1.000000   1.000000
     38        -40.090567      -39.727718   1.000000   1.000000
     39        -40.050441      -39.630333   1.000000   1.000000
     40        -15.537663      -15.550671   1.000000   1.000000
     41        -15.530998      -15.540901   1.000000   1.000000
     42        -15.524996      -15.536718   1.000000   1.000000
     43        -15.514945      -15.525143   1.000000   1.000000
     44        -15.491096      -15.506741   1.000000   1.000000
     45         -7.781084       -7.815056   1.000000   1.000000
     46         -6.895735       -6.798711   1.000000   1.000000
     47         -5.988539       -5.870030   1.000000   1.000000
     48         -5.928689       -5.809471   1.000000   1.000000
     49         -5.800077       -5.678806   1.000000   1.000000
     50         -5.157534       -4.984919   1.000000   1.000000
     51         -5.043247       -4.883498   1.000000   1.000000
     52         -4.970862       -4.798601   1.000000   1.000000
     53         -4.625745       -4.424478   1.000000   1.000000
     54         -4.339691       -4.042615   1.000000   1.000000
     55         -4.273818       -4.023311   1.000000   1.000000
     56         -4.228855       -3.971747   1.000000   1.000000
     57         -4.198051       -3.859540   1.000000   1.000000
     58         -4.049229       -3.653119   1.000000   1.000000
     59         -4.037689       -3.533260   1.000000   1.000000
     60         -3.991896       -3.493938   1.000000   1.000000
     61         -3.971768       -3.441010   1.000000   1.000000
     62         -3.927770       -3.435754   1.000000   1.000000
     63         -3.914168       -3.161175   1.000000   1.000000
     64         -3.861197       -3.115614   1.000000   1.000000
     65         -3.796485       -3.098895   1.000000   1.000000
     66         -3.749497       -3.012961   1.000000   1.000000
     67         -3.737803       -2.936742   1.000000   1.000000
     68         -3.701161       -2.874171   1.000000   1.000000
     69         -3.658232       -2.846887   1.000000   1.000000
     70         -3.645252       -2.799704   1.000000   1.000000
     71         -3.594080       -2.791735   1.000000   1.000000
     72         -3.525639       -2.738355   1.000000   1.000000
     73         -3.448024       -2.710091   1.000000   1.000000
     74         -3.435884       -2.606571   1.000000   1.000000
     75         -3.427171       -2.586417   1.000000   1.000000
     76         -3.417977       -2.565897   1.000000   1.000000
     77         -3.389085       -2.495907   1.000000   1.000000
     78         -3.378224       -2.464527   1.000000   1.000000
     79         -3.361483       -2.406374   1.000000   1.000000
     80         -3.351581       -2.389405   1.000000   1.000000
     81         -3.340941       -2.354342   1.000000   1.000000
     82         -3.318749       -2.323381   1.000000   1.000000
     83         -3.306078       -2.298117   1.000000   1.000000
     84         -3.285047       -2.278079   1.000000   1.000000
     85         -3.271425       -2.252650   1.000000   1.000000
     86         -3.257443       -2.231814   1.000000   1.000000
     87         -3.226405       -2.221034   1.000000   1.000000
     88         -3.220596       -2.192102   1.000000   1.000000
     89         -3.199015       -2.173782   1.000000   1.000000
     90         -3.187024       -2.134396   1.000000   1.000000
     91         -3.150468       -2.102196   1.000000   1.000000
     92         -3.132951       -2.088320   1.000000   1.000000
     93         -3.117544       -2.056603   1.000000   1.000000
     94         -3.094264       -2.038439   1.000000   1.000000
     95         -3.081355       -2.001502   1.000000   1.000000
     96         -3.064281       -1.976377   1.000000   1.000000
     97         -3.038874       -1.956228   1.000000   1.000000
     98         -3.011490       -1.917513   1.000000   1.000000
     99         -2.990564       -1.884670   1.000000   1.000000
    100         -2.970328       -1.863789   1.000000   1.000000
    101         -2.922799       -1.825337   1.000000   1.000000
    102         -2.898771       -1.785903   1.000000   1.000000
    103         -2.855721       -1.757548   1.000000   1.000000
    104         -2.831429       -1.732780   1.000000   1.000000
    105         -2.814153       -1.715814   1.000000   1.000000
    106         -2.795365       -1.670381   1.000000   1.000000
    107         -2.784866       -1.667358   1.000000   1.000000
    108         -2.764861       -1.630781   1.000000   1.000000
    109         -2.739002       -1.580978   1.000000   1.000000
    110         -2.715106       -1.555644   1.000000   1.000000
    111         -2.686575       -1.525681   1.000000   1.000000
    112         -2.657812       -1.513993   1.000000   1.000000
    113         -2.650968       -1.477863   1.000000   1.000000
    114         -2.649112       -1.463802   1.000000   1.000000
    115         -2.627140       -1.456642   1.000000   1.000000
    116         -2.613577       -1.431744   1.000000   1.000000
    117         -2.605590       -1.415266   1.000000   1.000000
    118         -2.585661       -1.393038   1.000000   1.000000
    119         -2.571369       -1.362935   1.000000   1.000000
    120         -2.560068       -1.341564   1.000000   1.000000
    121         -2.550591       -1.325504   1.000000   1.000000
    122         -2.533862       -1.310329   1.000000   1.000000
    123         -2.520428       -1.278862   1.000000   1.000000
    124         -2.514811       -1.262865   1.000000   1.000000
    125         -2.496390       -1.242249   1.000000   1.000000
    126         -2.485190       -1.211038   1.000000   1.000000
    127         -2.482471       -1.197865   1.000000   1.000000
    128         -2.470595       -1.188106   1.000000   1.000000
    129         -2.454005       -1.160056   1.000000   1.000000
    130         -2.449033       -1.151584   1.000000   1.000000
    131         -2.432969       -1.123486   1.000000   1.000000
    132         -2.412942       -1.119388   1.000000   1.000000
    133         -2.409146       -1.094682   1.000000   1.000000
    134         -2.387965       -1.077241   1.000000   1.000000
    135         -2.376137       -1.069112   1.000000   1.000000
    136         -2.352481       -1.033228   1.000000   1.000000
    137         -2.332245       -1.018842   1.000000   1.000000
    138         -2.317633       -1.001908   1.000000   1.000000
    139         -2.303196       -0.992658   1.000000   1.000000
    140         -2.288913       -0.976026   1.000000   1.000000
    141         -2.273619       -0.961882   1.000000   1.000000
    142         -2.264902       -0.941427   1.000000   1.000000
    143         -2.246206       -0.919774   1.000000   1.000000
    144         -2.235257       -0.892186   1.000000   1.000000
    145         -2.222804       -0.884486   1.000000   1.000000
    146         -2.203597       -0.861167   1.000000   1.000000
    147         -2.183809       -0.844612   1.000000   1.000000
    148         -2.174639       -0.823317   1.000000   1.000000
    149         -2.162669       -0.811435   1.000000   1.000000
    150         -2.156136       -0.798277   1.000000   1.000000
    151         -2.151567       -0.778796   1.000000   1.000000
    152         -2.123592       -0.757617   1.000000   1.000000
    153         -2.111676       -0.735249   1.000000   1.000000
    154         -2.090222       -0.732112   1.000000   1.000000
    155         -2.080359       -0.705344   1.000000   1.000000
    156         -2.070423       -0.687076   1.000000   1.000000
    157         -2.058507       -0.673269   1.000000   1.000000
    158         -2.048978       -0.650033   1.000000   1.000000
    159         -2.030068       -0.635488   1.000000   1.000000
    160         -2.019595       -0.616578   1.000000   1.000000
    161         -2.010788       -0.601704   1.000000   1.000000
    162         -2.001003       -0.592094   1.000000   1.000000
    163         -1.977651       -0.574194   1.000000   1.000000
    164         -1.961024       -0.557526   1.000000   1.000000
    165         -1.956746       -0.540128   1.000000   1.000000
    166         -1.943977       -0.539579   1.000000   1.000000
    167         -1.922063       -0.515687   1.000000   1.000000
    168         -1.906781       -0.501923   1.000000   1.000000
    169         -1.894667       -0.490357   1.000000   1.000000
    170         -1.875774       -0.472191   1.000000   1.000000
    171         -1.855386       -0.453217   1.000000   1.000000
    172         -1.842622       -0.443024   1.000000   1.000000
    173         -1.827885       -0.424210   1.000000   1.000000
    174         -1.814438       -0.407684   1.000000   1.000000
    175         -1.796894       -0.391437   1.000000   1.000000
    176         -1.792553       -0.374091   1.000000   1.000000
    177         -1.783046       -0.358528   1.000000   1.000000
    178         -1.766102       -0.342811   1.000000   1.000000
    179         -1.740917       -0.311636   1.000000   1.000000
    180         -1.718558       -0.304792   1.000000   1.000000
    181         -1.711235       -0.285654   1.000000   1.000000
    182         -1.693719       -0.264151   1.000000   1.000000
    183         -1.676354       -0.236699   1.000000   1.000000
    184         -1.667683       -0.225549   1.000000   1.000000
    185         -1.656826       -0.206332   1.000000   1.000000
    186         -1.631745       -0.184651   1.000000   1.000000
    187         -1.624311       -0.169296   1.000000   1.000000
    188         -1.610460       -0.141186   1.000000   1.000000
    189         -1.596672       -0.126719   1.000000   1.000000
    190         -1.579260       -0.106029   1.000000   1.000000
    191         -1.555615       -0.093300   1.000000   1.000000
    192         -1.545175       -0.065160   1.000000   1.000000
    193         -1.529423       -0.052469   1.000000   1.000000
    194         -1.509052       -0.039551   1.000000   1.000000
    195         -1.493447       -0.024722   1.000000   1.000000
    196         -1.486046       -0.003984   1.000000   1.000000
    197         -1.477624        0.011902   1.000000   1.000000
    198         -1.457302        0.035180   1.000000   1.000000
    199         -1.438182        0.046300   1.000000   1.000000
    200         -1.430437        0.064173   1.000000   1.000000
    201         -1.413257        0.078137   1.000000   1.000000
    202         -1.398065        0.097322   1.000000   1.000000
    203         -1.380013        0.123648   1.000000   1.000000
    204         -1.338264        0.137542   1.000000   1.000000
    205         -1.322764        0.165370   1.000000   1.000000
    206         -1.310428        0.196715   1.000000   1.000000
    207         -1.291344        0.207067   1.000000   1.000000
    208         -1.270382        0.240770   1.000000   1.000000
    209         -1.254251        0.279494   1.000000   1.000000
    210         -1.231788        0.302199   1.000000   1.000000
    211         -1.213851        0.322647   1.000000   1.000000
    212         -1.191740        0.359431   1.000000   1.000000
    213         -1.174021        0.374789   1.000000   1.000001
    214         -1.152333        0.382632   1.000000   1.000001
    215         -1.129613        0.430828   1.000000   1.000011
    216         -1.118191        0.451610   1.000000   1.000027
    217         -1.101806        0.464366   1.000000   1.000045
    218         -1.077106        0.516280   1.000000   1.000299
    219         -1.031932        0.531802   1.000000   1.000501
    220         -1.022378        0.549346   1.000000   1.000873
    221         -0.998080        0.577991   1.000000   1.002019
    222         -0.973474        0.600595   1.000000   1.003680
    223         -0.963732        0.617155   1.000000   1.005512
    224         -0.937896        0.652256   1.000000   1.011682
    225         -0.914912        0.692659   1.000000   1.022754
    226         -0.898801        0.707323   1.000000   1.027249
    227         -0.876475        0.724599   1.000000   1.031996
    228         -0.859180        0.737604   1.000000   1.034525
    229         -0.846393        0.778662   1.000000   1.028255
    230         -0.832367        0.810224   1.000000   0.995696
    231         -0.797094        0.847658   1.000000   0.907731
    232         -0.780977        0.860078   1.000000   0.864906
    233         -0.762734        0.905505   1.000000   0.655844
    234         -0.752246        0.949552   1.000000   0.410963
    235         -0.745814        0.974229   1.000000   0.280192
    236         -0.725827        1.002569   1.000000   0.153060
    237         -0.714627        1.035954   1.000000   0.046612
    238         -0.697886        1.055651   1.000000   0.006652
    239         -0.679739        1.076110   1.000000  -0.019074
    240         -0.660664        1.087928   1.000000  -0.027827
    241         -0.645649        1.132291   1.000000  -0.034133
    242         -0.635295        1.160994   1.000000  -0.026956
    243         -0.624903        1.186572   1.000000  -0.019161
    244         -0.619254        1.194223   1.000000  -0.016965
    245         -0.604214        1.210776   1.000000  -0.012678
    246         -0.595567        1.234862   1.000000  -0.007792
    247         -0.577782        1.261793   1.000000  -0.004166
    248         -0.568183        1.283257   1.000000  -0.002387
    249         -0.563038        1.304267   1.000000  -0.001319
    250         -0.550346        1.337996   1.000000  -0.000463
    251         -0.532837        1.351553   1.000000  -0.000294
    252         -0.522319        1.368708   1.000000  -0.000161
    253         -0.515848        1.398844   1.000000  -0.000052
    254         -0.499712        1.435599   1.000000  -0.000012
    255         -0.483285        1.446989   1.000000  -0.000007
    256         -0.479420        1.470337   1.000000  -0.000003
    257         -0.463036        1.485885   1.000000  -0.000001
    258         -0.454362        1.494271   1.000000  -0.000001
    259         -0.449934        1.506547   1.000000  -0.000000
    260         -0.437012        1.534984   1.000000  -0.000000
    261         -0.424239        1.544753   1.000000  -0.000000
    262         -0.419452        1.563228   1.000000  -0.000000
    263         -0.400793        1.587602   1.000000  -0.000000
    264         -0.390322        1.595579   1.000000  -0.000000
    265         -0.381155        1.616780   1.000000  -0.000000
    266         -0.366321        1.637755   1.000000  -0.000000
    267         -0.361289        1.641518   1.000000  -0.000000
    268         -0.349035        1.651120   1.000000  -0.000000
    269         -0.344232        1.676535   1.000000  -0.000000
    270         -0.327961        1.698171   1.000000  -0.000000
    271         -0.316147        1.705133   1.000000  -0.000000
    272         -0.307302        1.713600   1.000000  -0.000000
    273         -0.301120        1.724531   1.000000  -0.000000
    274         -0.286735        1.728977   1.000000  -0.000000
    275         -0.275228        1.754085   1.000000  -0.000000
    276         -0.266615        1.763326   1.000000  -0.000000
    277         -0.254437        1.774286   1.000000  -0.000000
    278         -0.243970        1.791414   1.000000  -0.000000
    279         -0.235839        1.807975   1.000000  -0.000000
    280         -0.223759        1.823396   1.000000  -0.000000
    281         -0.214614        1.830696   1.000000  -0.000000
    282         -0.202270        1.860073   1.000000  -0.000000
    283         -0.189271        1.867143   1.000000  -0.000000
    284         -0.171131        1.873629   1.000000  -0.000000
    285         -0.167126        1.878997   1.000000  -0.000000
    286         -0.153662        1.898972   1.000000  -0.000000
    287         -0.137685        1.915845   1.000000  -0.000000
    288         -0.129920        1.929502   1.000000  -0.000000
    289         -0.116832        1.939960   1.000000  -0.000000
    290         -0.102638        1.946509   1.000000  -0.000000
    291         -0.092530        1.959587   1.000000  -0.000000
    292         -0.070891        1.965146   1.000000  -0.000000
    293         -0.063470        1.978453   1.000000  -0.000000
    294         -0.044033        1.996465   1.000000  -0.000000
    295         -0.020011        2.007636   1.000000  -0.000000
    296          0.002004        2.016416   1.000000  -0.000000
    297          0.020307        2.034577   1.000000  -0.000000
    298          0.032921        2.046735   1.000000  -0.000000
    299          0.057967        2.053798   1.000000  -0.000000
    300          0.066984        2.068446   1.000000  -0.000000
    301          0.110992        2.073252   1.000000  -0.000000
    302          0.141357        2.083689   1.000000  -0.000000
    303          0.156772        2.098753   1.000000  -0.000000
    304          0.172905        2.105251   1.000000  -0.000000
    305          0.190095        2.114240   1.000000  -0.000000
    306          0.197286        2.128150   1.000000  -0.000000
    307          0.216730        2.131859   1.000000  -0.000000
    308          0.249059        2.144991   1.000000  -0.000000
    309          0.272388        2.152070   1.000000  -0.000000
    310          0.304504        2.168929   1.000000  -0.000000
    311          0.343832        2.180303   1.000000  -0.000000
    312          0.360384        2.188937   1.000000  -0.000000
    313          0.403258        2.207701   1.000003  -0.000000
    314          0.429336        2.216297   1.000011  -0.000000
    315          0.438577        2.223127   1.000016  -0.000000
    316          0.477763        2.238164   1.000075  -0.000000
    317          0.503702        2.248751   1.000193  -0.000000
    318          0.522198        2.253892   1.000365  -0.000000
    319          0.557417        2.272797   1.001115  -0.000000
    320          0.575565        2.285824   1.001887  -0.000000
    321          0.610699        2.292095   1.004726  -0.000000
    322          0.655569        2.307076   1.012443  -0.000000
    323          0.678169        2.318373   1.018401  -0.000000
    324          0.712017        2.327635   1.028634  -0.000000
    325          0.749466        2.339622   1.035456  -0.000000
    326          0.799835        2.359860   1.010030  -0.000000
    327          0.847851        2.363992   0.907120  -0.000000
    328          0.890061        2.368540   0.734892  -0.000000
    329          0.938685        2.375693   0.471735  -0.000000
    330          0.961458        2.390149   0.346176  -0.000000
    331          0.984997        2.392976   0.228368  -0.000000
    332          1.034674        2.413324   0.049776  -0.000000
    333          1.067806        2.426272  -0.010384  -0.000000
    334          1.094664        2.430115  -0.031156  -0.000000
    335          1.121417        2.436656  -0.035350  -0.000000
    336          1.178409        2.441267  -0.021612  -0.000000
    337          1.187524        2.453259  -0.018882  -0.000000
    338          1.213868        2.467374  -0.011959  -0.000000
    339          1.260296        2.478660  -0.004323  -0.000000
    340          1.301261        2.493241  -0.001440  -0.000000
    341          1.324095        2.499880  -0.000723  -0.000000
    342          1.369589        2.510039  -0.000156  -0.000000
    343          1.432958        2.517927  -0.000013  -0.000000
    344          1.459723        2.522478  -0.000004  -0.000000
    345          1.494912        2.531394  -0.000001  -0.000000
    346          1.557614        2.546684  -0.000000  -0.000000
    347          1.610250        2.554375  -0.000000  -0.000000
    348          1.651321        2.566780  -0.000000  -0.000000
    349          1.676045        2.580671  -0.000000  -0.000000
    350          1.693685        2.600848  -0.000000  -0.000000
    351          1.738787        2.614921  -0.000000  -0.000000
    352          1.757294        2.636889  -0.000000  -0.000000
    353          1.790666        2.656487  -0.000000  -0.000000
    354          1.820903        2.670658  -0.000000  -0.000000
    355          1.865727        2.684594  -0.000000  -0.000000
    356          1.876623        2.694631  -0.000000  -0.000000
    357          1.917305        2.706549  -0.000000  -0.000000
    358          1.944053        2.720789  -0.000000  -0.000000
    359          1.995502        2.728239  -0.000000  -0.000000
    360          2.019022        2.753904  -0.000000  -0.000000
    361          2.061923        2.759353  -0.000000  -0.000000
    362          2.087040        2.774449  -0.000000  -0.000000
    363          2.133464        2.790610  -0.000000  -0.000000
    364          2.142069        2.801638  -0.000000  -0.000000
    365          2.168436        2.812667  -0.000000  -0.000000
    366          2.203034        2.823510  -0.000000  -0.000000
    367          2.218304        2.835031  -0.000000  -0.000000
    368          2.244249        2.847943  -0.000000  -0.000000
    369          2.311483        2.866845  -0.000000  -0.000000
 
  0.5000000E+00  0.2500000E+00  0.1276756E-14  0.1250000E+00
      1        -42.936872      -43.408308   1.000000   1.000000
      2        -42.871461      -43.390827   1.000000   1.000000
      3        -42.849637      -43.378186   1.000000   1.000000
      4        -42.246026      -43.364957   1.000000   1.000000
      5        -42.195826      -43.354822   1.000000   1.000000
      6        -42.156140      -43.351510   1.000000   1.000000
      7        -42.118427      -43.351208   1.000000   1.000000
      8        -42.051052      -43.320319   1.000000   1.000000
      9        -42.024464      -43.316766   1.000000   1.000000
     10        -41.988790      -43.303952   1.000000   1.000000
     11        -41.976144      -43.286709   1.000000   1.000000
     12        -41.955435      -43.279858   1.000000   1.000000
     13        -41.886001      -43.278178   1.000000   1.000000
     14        -41.870104      -43.255378   1.000000   1.000000
     15        -41.851395      -43.193604   1.000000   1.000000
     16        -41.838061      -43.182065   1.000000   1.000000
     17        -41.831998      -43.161439   1.000000   1.000000
     18        -41.809694      -43.156366   1.000000   1.000000
     19        -41.802795      -43.151185   1.000000   1.000000
     20        -41.800264      -43.138046   1.000000   1.000000
     21        -41.772280      -43.068862   1.000000   1.000000
     22        -41.750424      -42.997933   1.000000   1.000000
     23        -41.746903      -42.925571   1.000000   1.000000
     24        -41.739457      -42.823317   1.000000   1.000000
     25        -41.267865      -42.808274   1.000000   1.000000
     26        -41.208142      -42.784260   1.000000   1.000000
     27        -41.162654      -42.708273   1.000000   1.000000
     28        -40.287511      -42.666913   1.000000   1.000000
     29        -40.253022      -42.630655   1.000000   1.000000
     30        -40.245556      -42.560199   1.000000   1.000000
     31        -40.189390      -42.496539   1.000000   1.000000
     32        -40.174855      -42.349694   1.000000   1.000000
     33        -40.156413      -42.197802   1.000000   1.000000
     34        -40.136947      -42.190773   1.000000   1.000000
     35        -40.111920      -42.021981   1.000000   1.000000
     36        -40.095283      -41.835691   1.000000   1.000000
     37        -40.093238      -39.849019   1.000000   1.000000
     38        -40.090557      -39.727709   1.000000   1.000000
     39        -40.050436      -39.630329   1.000000   1.000000
     40        -15.537632      -15.550646   1.000000   1.000000
     41        -15.530997      -15.540908   1.000000   1.000000
     42        -15.525011      -15.536725   1.000000   1.000000
     43        -15.514929      -15.525130   1.000000   1.000000
     44        -15.491098      -15.506742   1.000000   1.000000
     45         -7.753221       -7.794199   1.000000   1.000000
     46         -6.543587       -6.438068   1.000000   1.000000
     47         -6.505709       -6.392552   1.000000   1.000000
     48         -5.689039       -5.546490   1.000000   1.000000
     49         -5.590371       -5.488241   1.000000   1.000000
     50         -5.521928       -5.382294   1.000000   1.000000
     51         -5.454618       -5.317168   1.000000   1.000000
     52         -4.761865       -4.580546   1.000000   1.000000
     53         -4.694452       -4.556019   1.000000   1.000000
     54         -4.512138       -4.229634   1.000000   1.000000
     55         -4.254915       -4.048290   1.000000   1.000000
     56         -4.118689       -3.777415   1.000000   1.000000
     57         -4.100032       -3.745259   1.000000   1.000000
     58         -3.931749       -3.465487   1.000000   1.000000
     59         -3.880855       -3.422676   1.000000   1.000000
     60         -3.849623       -3.248243   1.000000   1.000000
     61         -3.838466       -3.223757   1.000000   1.000000
     62         -3.795693       -3.153262   1.000000   1.000000
     63         -3.776749       -3.131722   1.000000   1.000000
     64         -3.759976       -3.064749   1.000000   1.000000
     65         -3.711789       -3.027586   1.000000   1.000000
     66         -3.695539       -2.993978   1.000000   1.000000
     67         -3.669706       -2.972142   1.000000   1.000000
     68         -3.661684       -2.910955   1.000000   1.000000
     69         -3.636433       -2.885685   1.000000   1.000000
     70         -3.609510       -2.855430   1.000000   1.000000
     71         -3.602916       -2.838385   1.000000   1.000000
     72         -3.585981       -2.797487   1.000000   1.000000
     73         -3.575964       -2.751833   1.000000   1.000000
     74         -3.551661       -2.714377   1.000000   1.000000
     75         -3.535112       -2.561916   1.000000   1.000000
     76         -3.524972       -2.541696   1.000000   1.000000
     77         -3.511973       -2.525039   1.000000   1.000000
     78         -3.452089       -2.502473   1.000000   1.000000
     79         -3.410776       -2.449618   1.000000   1.000000
     80         -3.365456       -2.421049   1.000000   1.000000
     81         -3.335857       -2.395459   1.000000   1.000000
     82         -3.301225       -2.366665   1.000000   1.000000
     83         -3.273388       -2.347198   1.000000   1.000000
     84         -3.257436       -2.305878   1.000000   1.000000
     85         -3.251521       -2.297117   1.000000   1.000000
     86         -3.242699       -2.275909   1.000000   1.000000
     87         -3.230114       -2.233607   1.000000   1.000000
     88         -3.222690       -2.196495   1.000000   1.000000
     89         -3.206576       -2.185472   1.000000   1.000000
     90         -3.194762       -2.174298   1.000000   1.000000
     91         -3.173867       -2.133630   1.000000   1.000000
     92         -3.156713       -2.067875   1.000000   1.000000
     93         -3.140689       -2.045681   1.000000   1.000000
     94         -3.119381       -2.037064   1.000000   1.000000
     95         -3.114739       -1.995409   1.000000   1.000000
     96         -3.089009       -1.986339   1.000000   1.000000
     97         -3.080593       -1.946813   1.000000   1.000000
     98         -3.032099       -1.928701   1.000000   1.000000
     99         -3.011385       -1.911842   1.000000   1.000000
    100         -2.979294       -1.890213   1.000000   1.000000
    101         -2.962215       -1.854630   1.000000   1.000000
    102         -2.918772       -1.838668   1.000000   1.000000
    103         -2.898673       -1.788924   1.000000   1.000000
    104         -2.874893       -1.768092   1.000000   1.000000
    105         -2.866341       -1.732809   1.000000   1.000000
    106         -2.842733       -1.716964   1.000000   1.000000
    107         -2.798130       -1.683860   1.000000   1.000000
    108         -2.777707       -1.648213   1.000000   1.000000
    109         -2.754684       -1.640160   1.000000   1.000000
    110         -2.749122       -1.616181   1.000000   1.000000
    111         -2.729724       -1.576273   1.000000   1.000000
    112         -2.692063       -1.552171   1.000000   1.000000
    113         -2.680204       -1.506893   1.000000   1.000000
    114         -2.656072       -1.492923   1.000000   1.000000
    115         -2.630719       -1.470651   1.000000   1.000000
    116         -2.621934       -1.456101   1.000000   1.000000
    117         -2.611368       -1.431243   1.000000   1.000000
    118         -2.600954       -1.408122   1.000000   1.000000
    119         -2.589798       -1.382555   1.000000   1.000000
    120         -2.573217       -1.370077   1.000000   1.000000
    121         -2.554129       -1.351274   1.000000   1.000000
    122         -2.545274       -1.323755   1.000000   1.000000
    123         -2.531778       -1.304667   1.000000   1.000000
    124         -2.523972       -1.274219   1.000000   1.000000
    125         -2.511547       -1.253796   1.000000   1.000000
    126         -2.499206       -1.235707   1.000000   1.000000
    127         -2.497535       -1.224216   1.000000   1.000000
    128         -2.482584       -1.205223   1.000000   1.000000
    129         -2.472553       -1.183071   1.000000   1.000000
    130         -2.459878       -1.146076   1.000000   1.000000
    131         -2.447454       -1.134886   1.000000   1.000000
    132         -2.437735       -1.122030   1.000000   1.000000
    133         -2.422477       -1.102026   1.000000   1.000000
    134         -2.403454       -1.092552   1.000000   1.000000
    135         -2.385034       -1.063993   1.000000   1.000000
    136         -2.374530       -1.044767   1.000000   1.000000
    137         -2.358864       -1.040663   1.000000   1.000000
    138         -2.327483       -1.021614   1.000000   1.000000
    139         -2.316574       -1.004030   1.000000   1.000000
    140         -2.308511       -0.972310   1.000000   1.000000
    141         -2.295196       -0.950528   1.000000   1.000000
    142         -2.289644       -0.942659   1.000000   1.000000
    143         -2.261692       -0.904844   1.000000   1.000000
    144         -2.237030       -0.885254   1.000000   1.000000
    145         -2.232210       -0.870561   1.000000   1.000000
    146         -2.216856       -0.842581   1.000000   1.000000
    147         -2.199694       -0.811304   1.000000   1.000000
    148         -2.177074       -0.795206   1.000000   1.000000
    149         -2.175184       -0.782631   1.000000   1.000000
    150         -2.152819       -0.743829   1.000000   1.000000
    151         -2.138737       -0.734821   1.000000   1.000000
    152         -2.122745       -0.724392   1.000000   1.000000
    153         -2.105716       -0.707525   1.000000   1.000000
    154         -2.085064       -0.687781   1.000000   1.000000
    155         -2.066957       -0.680550   1.000000   1.000000
    156         -2.055483       -0.669932   1.000000   1.000000
    157         -2.040091       -0.647555   1.000000   1.000000
    158         -2.027512       -0.631837   1.000000   1.000000
    159         -2.018463       -0.618782   1.000000   1.000000
    160         -2.005252       -0.598019   1.000000   1.000000
    161         -1.989174       -0.572504   1.000000   1.000000
    162         -1.981704       -0.555855   1.000000   1.000000
    163         -1.973143       -0.544711   1.000000   1.000000
    164         -1.945203       -0.530503   1.000000   1.000000
    165         -1.932807       -0.509907   1.000000   1.000000
    166         -1.918776       -0.497682   1.000000   1.000000
    167         -1.911156       -0.477716   1.000000   1.000000
    168         -1.901357       -0.462830   1.000000   1.000000
    169         -1.892562       -0.450205   1.000000   1.000000
    170         -1.876343       -0.442238   1.000000   1.000000
    171         -1.867873       -0.429551   1.000000   1.000000
    172         -1.848052       -0.411083   1.000000   1.000000
    173         -1.836551       -0.395877   1.000000   1.000000
    174         -1.830406       -0.384227   1.000000   1.000000
    175         -1.814069       -0.369710   1.000000   1.000000
    176         -1.793991       -0.343395   1.000000   1.000000
    177         -1.777618       -0.326781   1.000000   1.000000
    178         -1.764537       -0.316708   1.000000   1.000000
    179         -1.752551       -0.306363   1.000000   1.000000
    180         -1.736262       -0.293338   1.000000   1.000000
    181         -1.724676       -0.276291   1.000000   1.000000
    182         -1.701183       -0.258768   1.000000   1.000000
    183         -1.692225       -0.251744   1.000000   1.000000
    184         -1.675776       -0.235508   1.000000   1.000000
    185         -1.660525       -0.220989   1.000000   1.000000
    186         -1.641489       -0.208134   1.000000   1.000000
    187         -1.624044       -0.195270   1.000000   1.000000
    188         -1.607380       -0.177552   1.000000   1.000000
    189         -1.603907       -0.167206   1.000000   1.000000
    190         -1.575069       -0.147264   1.000000   1.000000
    191         -1.567516       -0.130822   1.000000   1.000000
    192         -1.547512       -0.094229   1.000000   1.000000
    193         -1.532188       -0.083610   1.000000   1.000000
    194         -1.515433       -0.050407   1.000000   1.000000
    195         -1.496382       -0.033879   1.000000   1.000000
    196         -1.483661       -0.011650   1.000000   1.000000
    197         -1.468049        0.007939   1.000000   1.000000
    198         -1.447240        0.021371   1.000000   1.000000
    199         -1.437270        0.062034   1.000000   1.000000
    200         -1.412904        0.077419   1.000000   1.000000
    201         -1.407795        0.095464   1.000000   1.000000
    202         -1.392449        0.119230   1.000000   1.000000
    203         -1.359375        0.125675   1.000000   1.000000
    204         -1.347316        0.152798   1.000000   1.000000
    205         -1.320177        0.185713   1.000000   1.000000
    206         -1.298369        0.204418   1.000000   1.000000
    207         -1.273742        0.211184   1.000000   1.000000
    208         -1.240044        0.223797   1.000000   1.000000
    209         -1.227246        0.262545   1.000000   1.000000
    210         -1.209269        0.295098   1.000000   1.000000
    211         -1.187183        0.304209   1.000000   1.000000
    212         -1.169660        0.336447   1.000000   1.000000
    213         -1.124120        0.361295   1.000000   1.000000
    214         -1.114965        0.411576   1.000000   1.000005
    215         -1.108041        0.419217   1.000000   1.000007
    216         -1.087895        0.453302   1.000000   1.000029
    217         -1.067283        0.470464   1.000000   1.000057
    218         -1.049783        0.508863   1.000000   1.000232
    219         -1.038570        0.514343   1.000000   1.000280
    220         -1.000171        0.543290   1.000000   1.000724
    221         -0.982019        0.564869   1.000000   1.001390
    222         -0.966392        0.589253   1.000000   1.002742
    223         -0.952150        0.627861   1.000000   1.007040
    224         -0.907703        0.645122   1.000000   1.010150
    225         -0.902005        0.681677   1.000000   1.019429
    226         -0.882449        0.708263   1.000000   1.027530
    227         -0.865639        0.727407   1.000000   1.032643
    228         -0.851873        0.757505   1.000000   1.035041
    229         -0.837793        0.779197   1.000000   1.027953
    230         -0.818277        0.820810   1.000000   0.976852
    231         -0.804890        0.852833   1.000000   0.890722
    232         -0.781958        0.887122   1.000000   0.749131
    233         -0.769622        0.914194   1.000000   0.608866
    234         -0.753671        0.963661   1.000000   0.334499
    235         -0.733162        0.979123   1.000000   0.256159
    236         -0.705852        1.012469   1.000000   0.116317
    237         -0.701205        1.031278   1.000000   0.058527
    238         -0.681905        1.051023   1.000000   0.014608
    239         -0.667056        1.059771   1.000000   0.000268
    240         -0.656284        1.106318   1.000000  -0.034532
    241         -0.650046        1.136665   1.000000  -0.033333
    242         -0.638323        1.157216   1.000000  -0.028082
    243         -0.622136        1.180463   1.000000  -0.020987
    244         -0.609741        1.213114   1.000000  -0.012132
    245         -0.599518        1.234548   1.000000  -0.007845
    246         -0.574385        1.263871   1.000000  -0.003956
    247         -0.565501        1.300050   1.000000  -0.001491
    248         -0.554600        1.325605   1.000000  -0.000689
    249         -0.531764        1.348845   1.000000  -0.000322
    250         -0.525112        1.372163   1.000000  -0.000143
    251         -0.522171        1.378250   1.000000  -0.000114
    252         -0.510585        1.413740   1.000000  -0.000029
    253         -0.505382        1.427186   1.000000  -0.000017
    254         -0.486724        1.433909   1.000000  -0.000013
    255         -0.478853        1.458841   1.000000  -0.000004
    256         -0.469484        1.483158   1.000000  -0.000001
    257         -0.467653        1.491745   1.000000  -0.000001
    258         -0.450942        1.516296   1.000000  -0.000000
    259         -0.444073        1.526925   1.000000  -0.000000
    260         -0.428738        1.547616   1.000000  -0.000000
    261         -0.420607        1.563612   1.000000  -0.000000
    262         -0.408003        1.567198   1.000000  -0.000000
    263         -0.404686        1.597618   1.000000  -0.000000
    264         -0.393768        1.608401   1.000000  -0.000000
    265         -0.371837        1.628808   1.000000  -0.000000
    266         -0.361816        1.659063   1.000000  -0.000000
    267         -0.357268        1.679672   1.000000  -0.000000
    268         -0.347974        1.687713   1.000000  -0.000000
    269         -0.334430        1.698736   1.000000  -0.000000
    270         -0.329973        1.715016   1.000000  -0.000000
    271         -0.313403        1.722746   1.000000  -0.000000
    272         -0.308995        1.740371   1.000000  -0.000000
    273         -0.302071        1.763153   1.000000  -0.000000
    274         -0.291550        1.772160   1.000000  -0.000000
    275         -0.279545        1.786312   1.000000  -0.000000
    276         -0.267822        1.793696   1.000000  -0.000000
    277         -0.255469        1.810001   1.000000  -0.000000
    278         -0.247925        1.821466   1.000000  -0.000000
    279         -0.240380        1.838854   1.000000  -0.000000
    280         -0.223905        1.850594   1.000000  -0.000000
    281         -0.208790        1.852249   1.000000  -0.000000
    282         -0.193624        1.868615   1.000000  -0.000000
    283         -0.178499        1.881941   1.000000  -0.000000
    284         -0.166429        1.892249   1.000000  -0.000000
    285         -0.157583        1.908208   1.000000  -0.000000
    286         -0.131972        1.919081   1.000000  -0.000000
    287         -0.123784        1.935789   1.000000  -0.000000
    288         -0.113778        1.940126   1.000000  -0.000000
    289         -0.097377        1.954043   1.000000  -0.000000
    290         -0.082036        1.964361   1.000000  -0.000000
    291         -0.064698        1.971621   1.000000  -0.000000
    292         -0.055617        1.981130   1.000000  -0.000000
    293         -0.022466        1.989341   1.000000  -0.000000
    294         -0.008531        2.003956   1.000000  -0.000000
    295          0.014953        2.014775   1.000000  -0.000000
    296          0.027140        2.016558   1.000000  -0.000000
    297          0.053826        2.031578   1.000000  -0.000000
    298          0.064293        2.039586   1.000000  -0.000000
    299          0.087679        2.046924   1.000000  -0.000000
    300          0.105244        2.058825   1.000000  -0.000000
    301          0.119883        2.071695   1.000000  -0.000000
    302          0.142559        2.080839   1.000000  -0.000000
    303          0.175204        2.096025   1.000000  -0.000000
    304          0.187294        2.103559   1.000000  -0.000000
    305          0.209079        2.121131   1.000000  -0.000000
    306          0.241725        2.133061   1.000000  -0.000000
    307          0.266166        2.139122   1.000000  -0.000000
    308          0.292071        2.153439   1.000000  -0.000000
    309          0.306974        2.165391   1.000000  -0.000000
    310          0.320592        2.179029   1.000000  -0.000000
    311          0.344452        2.185058   1.000000  -0.000000
    312          0.371872        2.202329   1.000001  -0.000000
    313          0.400241        2.214760   1.000003  -0.000000
    314          0.419027        2.224443   1.000007  -0.000000
    315          0.451349        2.241562   1.000027  -0.000000
    316          0.479632        2.251580   1.000080  -0.000000
    317          0.507428        2.258315   1.000220  -0.000000
    318          0.538007        2.271304   1.000612  -0.000000
    319          0.567668        2.280753   1.001507  -0.000000
    320          0.608451        2.292484   1.004474  -0.000000
    321          0.640374        2.306469   1.009212  -0.000000
    322          0.685109        2.313230   1.020453  -0.000000
    323          0.726149        2.319780   1.032359  -0.000000
    324          0.737856        2.326852   1.034561  -0.000000
    325          0.797943        2.336661   1.012229  -0.000000
    326          0.852760        2.349743   0.890973  -0.000000
    327          0.869429        2.354815   0.828206  -0.000000
    328          0.899222        2.369043   0.688792  -0.000000
    329          0.929910        2.379962   0.521217  -0.000000
    330          0.957282        2.395758   0.368610  -0.000000
    331          1.001376        2.410269   0.157772  -0.000000
    332          1.039712        2.415536   0.037729  -0.000000
    333          1.052976        2.428691   0.011149  -0.000000
    334          1.091662        2.445071  -0.029809  -0.000000
    335          1.137487        2.448742  -0.033167  -0.000000
    336          1.173162        2.453503  -0.023223  -0.000000
    337          1.216689        2.460630  -0.011326  -0.000000
    338          1.237796        2.474951  -0.007308  -0.000000
    339          1.259281        2.484389  -0.004432  -0.000000
    340          1.296246        2.499527  -0.001663  -0.000000
    341          1.361891        2.511117  -0.000206  -0.000000
    342          1.419161        2.518366  -0.000023  -0.000000
    343          1.446449        2.519778  -0.000007  -0.000000
    344          1.466655        2.528718  -0.000003  -0.000000
    345          1.522640        2.538505  -0.000000  -0.000000
    346          1.556193        2.554352  -0.000000  -0.000000
    347          1.584665        2.560786  -0.000000  -0.000000
    348          1.617177        2.568412  -0.000000  -0.000000
    349          1.643649        2.577033  -0.000000  -0.000000
    350          1.662918        2.582328  -0.000000  -0.000000
    351          1.737657        2.591524  -0.000000  -0.000000
    352          1.778149        2.603132  -0.000000  -0.000000
    353          1.799358        2.609966  -0.000000  -0.000000
    354          1.816209        2.619614  -0.000000  -0.000000
    355          1.872250        2.630843  -0.000000  -0.000000
    356          1.886144        2.638399  -0.000000  -0.000000
    357          1.923533        2.647727  -0.000000  -0.000000
    358          1.957423        2.666541  -0.000000  -0.000000
    359          1.991667        2.698661  -0.000000  -0.000000
    360          2.009522        2.724987  -0.000000  -0.000000
    361          2.039560        2.740900  -0.000000  -0.000000
    362          2.080067        2.770701  -0.000000  -0.000000
    363          2.122924        2.780946  -0.000000  -0.000000
    364          2.151218        2.801916  -0.000000  -0.000000
    365          2.173132        2.812398  -0.000000  -0.000000
    366          2.211261        2.821524  -0.000000  -0.000000
    367          2.241865        2.838287  -0.000000  -0.000000
    368          2.284296        2.883064  -0.000000  -0.000000
    369          2.309067        2.898874  -0.000000  -0.000000
 
 -0.2500000E+00  0.2500000E+00  0.1276756E-14  0.1250000E+00
      1        -42.936879      -43.408311   1.000000   1.000000
      2        -42.871467      -43.390827   1.000000   1.000000
      3        -42.849647      -43.378188   1.000000   1.000000
      4        -42.246039      -43.364976   1.000000   1.000000
      5        -42.195839      -43.354830   1.000000   1.000000
      6        -42.156149      -43.351518   1.000000   1.000000
      7        -42.118428      -43.351217   1.000000   1.000000
      8        -42.051078      -43.320332   1.000000   1.000000
      9        -42.024461      -43.316775   1.000000   1.000000
     10        -41.988790      -43.303961   1.000000   1.000000
     11        -41.976165      -43.286707   1.000000   1.000000
     12        -41.955440      -43.279865   1.000000   1.000000
     13        -41.886016      -43.278188   1.000000   1.000000
     14        -41.870102      -43.255384   1.000000   1.000000
     15        -41.851405      -43.193613   1.000000   1.000000
     16        -41.838092      -43.182073   1.000000   1.000000
     17        -41.832008      -43.161452   1.000000   1.000000
     18        -41.809704      -43.156371   1.000000   1.000000
     19        -41.802817      -43.151195   1.000000   1.000000
     20        -41.800246      -43.138055   1.000000   1.000000
     21        -41.772247      -43.068865   1.000000   1.000000
     22        -41.750435      -42.997938   1.000000   1.000000
     23        -41.746917      -42.925581   1.000000   1.000000
     24        -41.739461      -42.823318   1.000000   1.000000
     25        -41.267875      -42.808279   1.000000   1.000000
     26        -41.208149      -42.784267   1.000000   1.000000
     27        -41.162659      -42.708276   1.000000   1.000000
     28        -40.287521      -42.666915   1.000000   1.000000
     29        -40.253033      -42.630664   1.000000   1.000000
     30        -40.245581      -42.560210   1.000000   1.000000
     31        -40.189400      -42.496546   1.000000   1.000000
     32        -40.174864      -42.349708   1.000000   1.000000
     33        -40.156413      -42.197814   1.000000   1.000000
     34        -40.136950      -42.190771   1.000000   1.000000
     35        -40.111914      -42.021984   1.000000   1.000000
     36        -40.095294      -41.835698   1.000000   1.000000
     37        -40.093249      -39.849030   1.000000   1.000000
     38        -40.090567      -39.727720   1.000000   1.000000
     39        -40.050440      -39.630332   1.000000   1.000000
     40        -15.537663      -15.550671   1.000000   1.000000
     41        -15.530998      -15.540901   1.000000   1.000000
     42        -15.524996      -15.536718   1.000000   1.000000
     43        -15.514945      -15.525143   1.000000   1.000000
     44        -15.491096      -15.506741   1.000000   1.000000
     45         -7.780858       -7.815030   1.000000   1.000000
     46         -6.896955       -6.799107   1.000000   1.000000
     47         -5.968770       -5.874488   1.000000   1.000000
     48         -5.950200       -5.799815   1.000000   1.000000
     49         -5.802362       -5.684891   1.000000   1.000000
     50         -5.106865       -4.964749   1.000000   1.000000
     51         -5.054133       -4.883204   1.000000   1.000000
     52         -5.000410       -4.816415   1.000000   1.000000
     53         -4.627773       -4.434541   1.000000   1.000000
     54         -4.352890       -4.043756   1.000000   1.000000
     55         -4.298781       -4.023656   1.000000   1.000000
     56         -4.209898       -3.966335   1.000000   1.000000
     57         -4.154516       -3.838069   1.000000   1.000000
     58         -4.094070       -3.694948   1.000000   1.000000
     59         -4.047247       -3.530788   1.000000   1.000000
     60         -3.992305       -3.479839   1.000000   1.000000
     61         -3.954823       -3.439734   1.000000   1.000000
     62         -3.920322       -3.414518   1.000000   1.000000
     63         -3.899523       -3.161582   1.000000   1.000000
     64         -3.870943       -3.128790   1.000000   1.000000
     65         -3.819836       -3.085888   1.000000   1.000000
     66         -3.750066       -3.034795   1.000000   1.000000
     67         -3.741854       -2.913626   1.000000   1.000000
     68         -3.699074       -2.866155   1.000000   1.000000
     69         -3.655105       -2.842989   1.000000   1.000000
     70         -3.634379       -2.821432   1.000000   1.000000
     71         -3.596834       -2.770166   1.000000   1.000000
     72         -3.503406       -2.736866   1.000000   1.000000
     73         -3.460209       -2.696326   1.000000   1.000000
     74         -3.427075       -2.651300   1.000000   1.000000
     75         -3.413515       -2.592435   1.000000   1.000000
     76         -3.403364       -2.553448   1.000000   1.000000
     77         -3.390823       -2.501086   1.000000   1.000000
     78         -3.380921       -2.471648   1.000000   1.000000
     79         -3.365233       -2.419261   1.000000   1.000000
     80         -3.345389       -2.393906   1.000000   1.000000
     81         -3.337151       -2.365269   1.000000   1.000000
     82         -3.328108       -2.327052   1.000000   1.000000
     83         -3.311276       -2.303875   1.000000   1.000000
     84         -3.305195       -2.281015   1.000000   1.000000
     85         -3.281601       -2.241171   1.000000   1.000000
     86         -3.262340       -2.212700   1.000000   1.000000
     87         -3.239481       -2.200299   1.000000   1.000000
     88         -3.225440       -2.186823   1.000000   1.000000
     89         -3.197174       -2.169251   1.000000   1.000000
     90         -3.166886       -2.148197   1.000000   1.000000
     91         -3.156599       -2.127531   1.000000   1.000000
     92         -3.148808       -2.088975   1.000000   1.000000
     93         -3.112888       -2.065859   1.000000   1.000000
     94         -3.095918       -2.018580   1.000000   1.000000
     95         -3.073305       -1.996058   1.000000   1.000000
     96         -3.038243       -1.984846   1.000000   1.000000
     97         -3.024431       -1.957629   1.000000   1.000000
     98         -3.012207       -1.938626   1.000000   1.000000
     99         -2.997627       -1.909050   1.000000   1.000000
    100         -2.948962       -1.835860   1.000000   1.000000
    101         -2.937367       -1.802113   1.000000   1.000000
    102         -2.884018       -1.772408   1.000000   1.000000
    103         -2.867202       -1.767133   1.000000   1.000000
    104         -2.841651       -1.723814   1.000000   1.000000
    105         -2.816771       -1.712879   1.000000   1.000000
    106         -2.788862       -1.674688   1.000000   1.000000
    107         -2.777932       -1.664493   1.000000   1.000000
    108         -2.753284       -1.623719   1.000000   1.000000
    109         -2.739653       -1.567958   1.000000   1.000000
    110         -2.719925       -1.541852   1.000000   1.000000
    111         -2.694415       -1.537814   1.000000   1.000000
    112         -2.672606       -1.502689   1.000000   1.000000
    113         -2.647820       -1.478482   1.000000   1.000000
    114         -2.639338       -1.465555   1.000000   1.000000
    115         -2.622952       -1.452153   1.000000   1.000000
    116         -2.615823       -1.432468   1.000000   1.000000
    117         -2.602745       -1.405389   1.000000   1.000000
    118         -2.587505       -1.394452   1.000000   1.000000
    119         -2.570854       -1.383569   1.000000   1.000000
    120         -2.563229       -1.328328   1.000000   1.000000
    121         -2.553111       -1.313253   1.000000   1.000000
    122         -2.533857       -1.307274   1.000000   1.000000
    123         -2.521093       -1.273260   1.000000   1.000000
    124         -2.511127       -1.258005   1.000000   1.000000
    125         -2.502636       -1.246394   1.000000   1.000000
    126         -2.489380       -1.235036   1.000000   1.000000
    127         -2.484418       -1.204191   1.000000   1.000000
    128         -2.472973       -1.177199   1.000000   1.000000
    129         -2.468697       -1.166922   1.000000   1.000000
    130         -2.442086       -1.146291   1.000000   1.000000
    131         -2.433087       -1.131711   1.000000   1.000000
    132         -2.424433       -1.118246   1.000000   1.000000
    133         -2.397492       -1.101085   1.000000   1.000000
    134         -2.394614       -1.089282   1.000000   1.000000
    135         -2.377779       -1.071939   1.000000   1.000000
    136         -2.359066       -1.047921   1.000000   1.000000
    137         -2.343948       -1.036101   1.000000   1.000000
    138         -2.320591       -1.008626   1.000000   1.000000
    139         -2.309287       -0.981187   1.000000   1.000000
    140         -2.298862       -0.968462   1.000000   1.000000
    141         -2.279434       -0.953463   1.000000   1.000000
    142         -2.259131       -0.943254   1.000000   1.000000
    143         -2.251117       -0.921464   1.000000   1.000000
    144         -2.233987       -0.900933   1.000000   1.000000
    145         -2.226500       -0.884412   1.000000   1.000000
    146         -2.206540       -0.856910   1.000000   1.000000
    147         -2.202193       -0.846352   1.000000   1.000000
    148         -2.181019       -0.818437   1.000000   1.000000
    149         -2.158535       -0.794824   1.000000   1.000000
    150         -2.142948       -0.779027   1.000000   1.000000
    151         -2.129036       -0.771927   1.000000   1.000000
    152         -2.122250       -0.757437   1.000000   1.000000
    153         -2.106990       -0.742706   1.000000   1.000000
    154         -2.093958       -0.731639   1.000000   1.000000
    155         -2.079328       -0.712850   1.000000   1.000000
    156         -2.070047       -0.685154   1.000000   1.000000
    157         -2.055569       -0.675474   1.000000   1.000000
    158         -2.038606       -0.661255   1.000000   1.000000
    159         -2.025820       -0.640923   1.000000   1.000000
    160         -2.018380       -0.626181   1.000000   1.000000
    161         -1.999582       -0.610023   1.000000   1.000000
    162         -1.993453       -0.587717   1.000000   1.000000
    163         -1.972570       -0.584249   1.000000   1.000000
    164         -1.959119       -0.556718   1.000000   1.000000
    165         -1.941405       -0.545158   1.000000   1.000000
    166         -1.925835       -0.533716   1.000000   1.000000
    167         -1.917889       -0.517687   1.000000   1.000000
    168         -1.907078       -0.494761   1.000000   1.000000
    169         -1.885007       -0.490232   1.000000   1.000000
    170         -1.862728       -0.475862   1.000000   1.000000
    171         -1.857475       -0.467563   1.000000   1.000000
    172         -1.851507       -0.445512   1.000000   1.000000
    173         -1.839574       -0.420990   1.000000   1.000000
    174         -1.816552       -0.403626   1.000000   1.000000
    175         -1.799849       -0.389288   1.000000   1.000000
    176         -1.786269       -0.367274   1.000000   1.000000
    177         -1.773705       -0.344744   1.000000   1.000000
    178         -1.757062       -0.327900   1.000000   1.000000
    179         -1.751904       -0.317390   1.000000   1.000000
    180         -1.736533       -0.287638   1.000000   1.000000
    181         -1.722727       -0.271081   1.000000   1.000000
    182         -1.701575       -0.254116   1.000000   1.000000
    183         -1.690212       -0.237194   1.000000   1.000000
    184         -1.669667       -0.213834   1.000000   1.000000
    185         -1.658637       -0.199908   1.000000   1.000000
    186         -1.651786       -0.193786   1.000000   1.000000
    187         -1.633449       -0.182910   1.000000   1.000000
    188         -1.613787       -0.176320   1.000000   1.000000
    189         -1.601090       -0.146629   1.000000   1.000000
    190         -1.591834       -0.125003   1.000000   1.000000
    191         -1.566738       -0.091502   1.000000   1.000000
    192         -1.552157       -0.076687   1.000000   1.000000
    193         -1.536734       -0.058716   1.000000   1.000000
    194         -1.519581       -0.037742   1.000000   1.000000
    195         -1.498028       -0.009339   1.000000   1.000000
    196         -1.482932        0.010424   1.000000   1.000000
    197         -1.462512        0.018354   1.000000   1.000000
    198         -1.448156        0.043361   1.000000   1.000000
    199         -1.442008        0.059374   1.000000   1.000000
    200         -1.434326        0.070983   1.000000   1.000000
    201         -1.414726        0.086683   1.000000   1.000000
    202         -1.398939        0.104388   1.000000   1.000000
    203         -1.356318        0.119369   1.000000   1.000000
    204         -1.341104        0.133477   1.000000   1.000000
    205         -1.316047        0.158725   1.000000   1.000000
    206         -1.305596        0.187521   1.000000   1.000000
    207         -1.291696        0.203674   1.000000   1.000000
    208         -1.253809        0.230267   1.000000   1.000000
    209         -1.233409        0.259305   1.000000   1.000000
    210         -1.225312        0.293348   1.000000   1.000000
    211         -1.210315        0.342499   1.000000   1.000000
    212         -1.190729        0.356327   1.000000   1.000000
    213         -1.161509        0.375759   1.000000   1.000001
    214         -1.143560        0.382216   1.000000   1.000001
    215         -1.108221        0.428818   1.000000   1.000010
    216         -1.090390        0.451038   1.000000   1.000026
    217         -1.088025        0.468812   1.000000   1.000053
    218         -1.054040        0.496550   1.000000   1.000150
    219         -1.038401        0.525805   1.000000   1.000412
    220         -1.011957        0.546918   1.000000   1.000810
    221         -0.989623        0.582825   1.000000   1.002306
    222         -0.980677        0.607889   1.000000   1.004413
    223         -0.967583        0.631633   1.000000   1.007649
    224         -0.950337        0.647289   1.000000   1.010600
    225         -0.945144        0.682567   1.000000   1.019692
    226         -0.909087        0.704764   1.000000   1.026476
    227         -0.895897        0.716829   1.000000   1.029993
    228         -0.870519        0.772271   1.000000   1.031323
    229         -0.836729        0.804889   1.000000   1.003548
    230         -0.826198        0.816435   1.000000   0.985183
    231         -0.813123        0.828779   1.000000   0.959624
    232         -0.797635        0.884845   1.000000   0.759958
    233         -0.785086        0.907107   1.000000   0.647299
    234         -0.751579        0.940881   1.000000   0.459376
    235         -0.737422        0.976337   1.000000   0.269746
    236         -0.721650        1.005057   1.000000   0.143425
    237         -0.716891        1.040793   1.000000   0.035285
    238         -0.697714        1.062356   1.000000  -0.003412
    239         -0.682736        1.097580   1.000000  -0.032266
    240         -0.658332        1.107933   1.000000  -0.034792
    241         -0.652145        1.125312   1.000000  -0.035057
    242         -0.644308        1.151444   1.000000  -0.029736
    243         -0.626443        1.169105   1.000000  -0.024475
    244         -0.619815        1.194997   1.000000  -0.016749
    245         -0.607184        1.218657   1.000000  -0.010898
    246         -0.590441        1.238175   1.000000  -0.007247
    247         -0.580139        1.241671   1.000000  -0.006704
    248         -0.564888        1.258342   1.000000  -0.004535
    249         -0.555735        1.272590   1.000000  -0.003168
    250         -0.546428        1.326108   1.000000  -0.000678
    251         -0.526565        1.347949   1.000000  -0.000332
    252         -0.513570        1.365865   1.000000  -0.000179
    253         -0.504238        1.399586   1.000000  -0.000051
    254         -0.495597        1.423418   1.000000  -0.000020
    255         -0.492354        1.438030   1.000000  -0.000011
    256         -0.485951        1.464864   1.000000  -0.000003
    257         -0.464851        1.482541   1.000000  -0.000001
    258         -0.460201        1.493574   1.000000  -0.000001
    259         -0.439399        1.514457   1.000000  -0.000000
    260         -0.433292        1.528296   1.000000  -0.000000
    261         -0.428303        1.552855   1.000000  -0.000000
    262         -0.416459        1.564239   1.000000  -0.000000
    263         -0.404329        1.586047   1.000000  -0.000000
    264         -0.396151        1.600675   1.000000  -0.000000
    265         -0.381882        1.620502   1.000000  -0.000000
    266         -0.372361        1.635233   1.000000  -0.000000
    267         -0.363710        1.651272   1.000000  -0.000000
    268         -0.360972        1.664890   1.000000  -0.000000
    269         -0.345275        1.677660   1.000000  -0.000000
    270         -0.329987        1.686066   1.000000  -0.000000
    271         -0.317582        1.699665   1.000000  -0.000000
    272         -0.310743        1.714439   1.000000  -0.000000
    273         -0.304321        1.732150   1.000000  -0.000000
    274         -0.294761        1.739340   1.000000  -0.000000
    275         -0.279269        1.760489   1.000000  -0.000000
    276         -0.267954        1.775153   1.000000  -0.000000
    277         -0.262719        1.777756   1.000000  -0.000000
    278         -0.251807        1.807238   1.000000  -0.000000
    279         -0.235887        1.810364   1.000000  -0.000000
    280         -0.229721        1.814779   1.000000  -0.000000
    281         -0.216609        1.829801   1.000000  -0.000000
    282         -0.202925        1.839215   1.000000  -0.000000
    283         -0.197455        1.857814   1.000000  -0.000000
    284         -0.182076        1.870720   1.000000  -0.000000
    285         -0.159736        1.893583   1.000000  -0.000000
    286         -0.150700        1.903153   1.000000  -0.000000
    287         -0.144043        1.912613   1.000000  -0.000000
    288         -0.118646        1.916243   1.000000  -0.000000
    289         -0.093796        1.936146   1.000000  -0.000000
    290         -0.090434        1.946496   1.000000  -0.000000
    291         -0.079832        1.959843   1.000000  -0.000000
    292         -0.066859        1.982002   1.000000  -0.000000
    293         -0.049218        1.986053   1.000000  -0.000000
    294         -0.034135        2.001618   1.000000  -0.000000
    295         -0.018588        2.007497   1.000000  -0.000000
    296          0.003602        2.019979   1.000000  -0.000000
    297          0.010999        2.027860   1.000000  -0.000000
    298          0.049960        2.043738   1.000000  -0.000000
    299          0.059675        2.050189   1.000000  -0.000000
    300          0.067286        2.062509   1.000000  -0.000000
    301          0.095024        2.075473   1.000000  -0.000000
    302          0.125868        2.083051   1.000000  -0.000000
    303          0.143220        2.098961   1.000000  -0.000000
    304          0.164010        2.107967   1.000000  -0.000000
    305          0.181378        2.121606   1.000000  -0.000000
    306          0.224528        2.129807   1.000000  -0.000000
    307          0.237011        2.142584   1.000000  -0.000000
    308          0.274965        2.159615   1.000000  -0.000000
    309          0.294043        2.165144   1.000000  -0.000000
    310          0.312119        2.173199   1.000000  -0.000000
    311          0.331486        2.183541   1.000000  -0.000000
    312          0.374264        2.195834   1.000001  -0.000000
    313          0.395682        2.204726   1.000002  -0.000000
    314          0.409608        2.218036   1.000005  -0.000000
    315          0.450818        2.224752   1.000026  -0.000000
    316          0.468916        2.238559   1.000053  -0.000000
    317          0.486982        2.242949   1.000106  -0.000000
    318          0.512418        2.266267   1.000262  -0.000000
    319          0.554748        2.274443   1.001029  -0.000000
    320          0.608415        2.278519   1.004470  -0.000000
    321          0.621615        2.295860   1.006113  -0.000000
    322          0.632569        2.306294   1.007806  -0.000000
    323          0.698127        2.315441   1.024441  -0.000000
    324          0.748010        2.319900   1.035432  -0.000000
    325          0.762751        2.339734   1.034203  -0.000000
    326          0.790198        2.354429   1.020003  -0.000000
    327          0.819040        2.362277   0.980317  -0.000000
    328          0.841635        2.376777   0.926014  -0.000000
    329          0.894838        2.384360   0.711163  -0.000000
    330          0.916170        2.393220   0.598001  -0.000000
    331          0.985688        2.401542   0.225179  -0.000000
    332          1.023508        2.406469   0.080474  -0.000000
    333          1.069633        2.415744  -0.012491  -0.000000
    334          1.100805        2.428090  -0.033281  -0.000000
    335          1.125759        2.439252  -0.035013  -0.000000
    336          1.157073        2.446509  -0.028124  -0.000000
    337          1.196231        2.458812  -0.016408  -0.000000
    338          1.260976        2.469174  -0.004251  -0.000000
    339          1.289261        2.479283  -0.002024  -0.000000
    340          1.309431        2.483761  -0.001132  -0.000000
    341          1.376758        2.500606  -0.000121  -0.000000
    342          1.403332        2.503758  -0.000044  -0.000000
    343          1.436272        2.511871  -0.000012  -0.000000
    344          1.480953        2.527728  -0.000002  -0.000000
    345          1.502070        2.531665  -0.000001  -0.000000
    346          1.507091        2.545560  -0.000000  -0.000000
    347          1.554127        2.555489  -0.000000  -0.000000
    348          1.608166        2.574828  -0.000000  -0.000000
    349          1.636401        2.585589  -0.000000  -0.000000
    350          1.685437        2.595970  -0.000000  -0.000000
    351          1.710512        2.605015  -0.000000  -0.000000
    352          1.766688        2.634543  -0.000000  -0.000000
    353          1.794238        2.657381  -0.000000  -0.000000
    354          1.840361        2.668841  -0.000000  -0.000000
    355          1.853212        2.684404  -0.000000  -0.000000
    356          1.896047        2.694484  -0.000000  -0.000000
    357          1.935485        2.706079  -0.000000  -0.000000
    358          1.941454        2.709842  -0.000000  -0.000000
    359          2.001527        2.723918  -0.000000  -0.000000
    360          2.027267        2.735346  -0.000000  -0.000000
    361          2.048722        2.748670  -0.000000  -0.000000
    362          2.094479        2.762820  -0.000000  -0.000000
    363          2.118575        2.781650  -0.000000  -0.000000
    364          2.124381        2.794474  -0.000000  -0.000000
    365          2.166710        2.802923  -0.000000  -0.000000
    366          2.194573        2.816898  -0.000000  -0.000000
    367          2.235471        2.827571  -0.000000  -0.000000
    368          2.280522        2.843385  -0.000000  -0.000000
    369          2.313743        2.871249  -0.000000  -0.000000
 
  0.1276756E-14  0.5000000E+00  0.1276756E-14  0.6250000E-01
      1        -42.936876      -43.408306   1.000000   1.000000
      2        -42.871465      -43.390822   1.000000   1.000000
      3        -42.849657      -43.378181   1.000000   1.000000
      4        -42.246030      -43.364904   1.000000   1.000000
      5        -42.195879      -43.354838   1.000000   1.000000
      6        -42.156154      -43.351511   1.000000   1.000000
      7        -42.118423      -43.351223   1.000000   1.000000
      8        -42.051109      -43.320349   1.000000   1.000000
      9        -42.024410      -43.316786   1.000000   1.000000
     10        -41.988838      -43.303967   1.000000   1.000000
     11        -41.976159      -43.286768   1.000000   1.000000
     12        -41.955427      -43.279888   1.000000   1.000000
     13        -41.886011      -43.278198   1.000000   1.000000
     14        -41.870105      -43.255383   1.000000   1.000000
     15        -41.851350      -43.193611   1.000000   1.000000
     16        -41.838179      -43.182077   1.000000   1.000000
     17        -41.832017      -43.161465   1.000000   1.000000
     18        -41.809712      -43.156372   1.000000   1.000000
     19        -41.802831      -43.151207   1.000000   1.000000
     20        -41.800224      -43.138063   1.000000   1.000000
     21        -41.772242      -43.068859   1.000000   1.000000
     22        -41.750428      -42.997931   1.000000   1.000000
     23        -41.746926      -42.925591   1.000000   1.000000
     24        -41.739453      -42.823315   1.000000   1.000000
     25        -41.267885      -42.808275   1.000000   1.000000
     26        -41.208150      -42.784275   1.000000   1.000000
     27        -41.162661      -42.708262   1.000000   1.000000
     28        -40.287522      -42.666929   1.000000   1.000000
     29        -40.253050      -42.630676   1.000000   1.000000
     30        -40.245483      -42.560217   1.000000   1.000000
     31        -40.189426      -42.496548   1.000000   1.000000
     32        -40.174913      -42.349716   1.000000   1.000000
     33        -40.156468      -42.197818   1.000000   1.000000
     34        -40.136942      -42.190770   1.000000   1.000000
     35        -40.111914      -42.021980   1.000000   1.000000
     36        -40.095312      -41.835703   1.000000   1.000000
     37        -40.093230      -39.849034   1.000000   1.000000
     38        -40.090569      -39.727733   1.000000   1.000000
     39        -40.050433      -39.630325   1.000000   1.000000
     40        -15.537630      -15.550641   1.000000   1.000000
     41        -15.531026      -15.540898   1.000000   1.000000
     42        -15.524976      -15.536722   1.000000   1.000000
     43        -15.514957      -15.525151   1.000000   1.000000
     44        -15.491097      -15.506742   1.000000   1.000000
     45         -7.775496       -7.808411   1.000000   1.000000
     46         -6.699251       -6.577130   1.000000   1.000000
     47         -6.598680       -6.510598   1.000000   1.000000
     48         -5.812799       -5.684966   1.000000   1.000000
     49         -5.571953       -5.479830   1.000000   1.000000
     50         -4.873710       -4.647865   1.000000   1.000000
     51         -4.848739       -4.636339   1.000000   1.000000
     52         -4.821168       -4.601023   1.000000   1.000000
     53         -4.762958       -4.572636   1.000000   1.000000
     54         -4.562879       -4.385799   1.000000   1.000000
     55         -4.414974       -4.204778   1.000000   1.000000
     56         -4.217005       -3.926832   1.000000   1.000000
     57         -4.201057       -3.901085   1.000000   1.000000
     58         -4.138596       -3.869876   1.000000   1.000000
     59         -4.027104       -3.699387   1.000000   1.000000
     60         -4.016357       -3.274289   1.000000   1.000000
     61         -3.961895       -3.240053   1.000000   1.000000
     62         -3.792526       -3.171047   1.000000   1.000000
     63         -3.772686       -3.160389   1.000000   1.000000
     64         -3.743276       -3.124997   1.000000   1.000000
     65         -3.737332       -3.121921   1.000000   1.000000
     66         -3.720877       -3.074389   1.000000   1.000000
     67         -3.693607       -3.052587   1.000000   1.000000
     68         -3.687025       -2.998924   1.000000   1.000000
     69         -3.676367       -2.957645   1.000000   1.000000
     70         -3.667846       -2.900592   1.000000   1.000000
     71         -3.658106       -2.860544   1.000000   1.000000
     72         -3.650733       -2.812654   1.000000   1.000000
     73         -3.611843       -2.787275   1.000000   1.000000
     74         -3.603512       -2.767437   1.000000   1.000000
     75         -3.585009       -2.514331   1.000000   1.000000
     76         -3.569435       -2.473077   1.000000   1.000000
     77         -3.540975       -2.455438   1.000000   1.000000
     78         -3.489588       -2.419798   1.000000   1.000000
     79         -3.371265       -2.413231   1.000000   1.000000
     80         -3.335935       -2.401413   1.000000   1.000000
     81         -3.307979       -2.348239   1.000000   1.000000
     82         -3.293721       -2.336618   1.000000   1.000000
     83         -3.283347       -2.297894   1.000000   1.000000
     84         -3.247725       -2.271801   1.000000   1.000000
     85         -3.215274       -2.246208   1.000000   1.000000
     86         -3.201426       -2.220287   1.000000   1.000000
     87         -3.174827       -2.207709   1.000000   1.000000
     88         -3.154070       -2.181067   1.000000   1.000000
     89         -3.130886       -2.160687   1.000000   1.000000
     90         -3.119439       -2.088628   1.000000   1.000000
     91         -3.105742       -2.069124   1.000000   1.000000
     92         -3.082178       -2.035586   1.000000   1.000000
     93         -3.078649       -2.016227   1.000000   1.000000
     94         -3.067135       -1.985506   1.000000   1.000000
     95         -3.043407       -1.975527   1.000000   1.000000
     96         -3.021197       -1.953931   1.000000   1.000000
     97         -3.006410       -1.908237   1.000000   1.000000
     98         -2.985155       -1.871142   1.000000   1.000000
     99         -2.970672       -1.853846   1.000000   1.000000
    100         -2.955564       -1.841247   1.000000   1.000000
    101         -2.915232       -1.836404   1.000000   1.000000
    102         -2.896732       -1.798196   1.000000   1.000000
    103         -2.876579       -1.778822   1.000000   1.000000
    104         -2.864900       -1.772789   1.000000   1.000000
    105         -2.844437       -1.728718   1.000000   1.000000
    106         -2.830959       -1.699871   1.000000   1.000000
    107         -2.807753       -1.671515   1.000000   1.000000
    108         -2.794684       -1.642812   1.000000   1.000000
    109         -2.778324       -1.590962   1.000000   1.000000
    110         -2.764214       -1.572033   1.000000   1.000000
    111         -2.754643       -1.569989   1.000000   1.000000
    112         -2.726170       -1.549766   1.000000   1.000000
    113         -2.716409       -1.522876   1.000000   1.000000
    114         -2.696797       -1.496027   1.000000   1.000000
    115         -2.670936       -1.481616   1.000000   1.000000
    116         -2.644608       -1.453942   1.000000   1.000000
    117         -2.598178       -1.407376   1.000000   1.000000
    118         -2.586259       -1.375464   1.000000   1.000000
    119         -2.574314       -1.366972   1.000000   1.000000
    120         -2.559492       -1.328013   1.000000   1.000000
    121         -2.543891       -1.311861   1.000000   1.000000
    122         -2.534631       -1.270181   1.000000   1.000000
    123         -2.522703       -1.238193   1.000000   1.000000
    124         -2.511843       -1.215077   1.000000   1.000000
    125         -2.492515       -1.206994   1.000000   1.000000
    126         -2.478929       -1.198463   1.000000   1.000000
    127         -2.472423       -1.175645   1.000000   1.000000
    128         -2.468112       -1.167772   1.000000   1.000000
    129         -2.444011       -1.153805   1.000000   1.000000
    130         -2.439444       -1.139527   1.000000   1.000000
    131         -2.434157       -1.120138   1.000000   1.000000
    132         -2.409072       -1.104339   1.000000   1.000000
    133         -2.404171       -1.076849   1.000000   1.000000
    134         -2.396485       -1.058340   1.000000   1.000000
    135         -2.392715       -1.050299   1.000000   1.000000
    136         -2.360984       -1.029707   1.000000   1.000000
    137         -2.343483       -1.022061   1.000000   1.000000
    138         -2.321545       -1.001703   1.000000   1.000000
    139         -2.315815       -0.993670   1.000000   1.000000
    140         -2.303955       -0.978280   1.000000   1.000000
    141         -2.289897       -0.949645   1.000000   1.000000
    142         -2.254503       -0.915571   1.000000   1.000000
    143         -2.226793       -0.907502   1.000000   1.000000
    144         -2.213176       -0.877526   1.000000   1.000000
    145         -2.207936       -0.865076   1.000000   1.000000
    146         -2.187794       -0.838577   1.000000   1.000000
    147         -2.163845       -0.826376   1.000000   1.000000
    148         -2.161891       -0.805214   1.000000   1.000000
    149         -2.145982       -0.795772   1.000000   1.000000
    150         -2.115609       -0.772974   1.000000   1.000000
    151         -2.105587       -0.766747   1.000000   1.000000
    152         -2.091136       -0.738398   1.000000   1.000000
    153         -2.084730       -0.717948   1.000000   1.000000
    154         -2.074231       -0.713503   1.000000   1.000000
    155         -2.067014       -0.683804   1.000000   1.000000
    156         -2.045575       -0.676052   1.000000   1.000000
    157         -2.037623       -0.671985   1.000000   1.000000
    158         -2.022001       -0.649159   1.000000   1.000000
    159         -2.006927       -0.612177   1.000000   1.000000
    160         -1.991424       -0.591590   1.000000   1.000000
    161         -1.985087       -0.574296   1.000000   1.000000
    162         -1.975425       -0.560396   1.000000   1.000000
    163         -1.956961       -0.550017   1.000000   1.000000
    164         -1.942227       -0.547024   1.000000   1.000000
    165         -1.935676       -0.537080   1.000000   1.000000
    166         -1.917651       -0.508689   1.000000   1.000000
    167         -1.905747       -0.506680   1.000000   1.000000
    168         -1.898902       -0.487743   1.000000   1.000000
    169         -1.889226       -0.475205   1.000000   1.000000
    170         -1.870801       -0.459060   1.000000   1.000000
    171         -1.862739       -0.440028   1.000000   1.000000
    172         -1.850101       -0.428763   1.000000   1.000000
    173         -1.833391       -0.408922   1.000000   1.000000
    174         -1.830274       -0.405037   1.000000   1.000000
    175         -1.804190       -0.384987   1.000000   1.000000
    176         -1.782572       -0.365391   1.000000   1.000000
    177         -1.773093       -0.353882   1.000000   1.000000
    178         -1.763513       -0.348527   1.000000   1.000000
    179         -1.742264       -0.339844   1.000000   1.000000
    180         -1.731129       -0.311218   1.000000   1.000000
    181         -1.703463       -0.296405   1.000000   1.000000
    182         -1.685000       -0.289167   1.000000   1.000000
    183         -1.680732       -0.273341   1.000000   1.000000
    184         -1.673999       -0.252796   1.000000   1.000000
    185         -1.654620       -0.240123   1.000000   1.000000
    186         -1.648147       -0.223766   1.000000   1.000000
    187         -1.622155       -0.208221   1.000000   1.000000
    188         -1.591743       -0.189104   1.000000   1.000000
    189         -1.590004       -0.173729   1.000000   1.000000
    190         -1.575419       -0.150246   1.000000   1.000000
    191         -1.561830       -0.125337   1.000000   1.000000
    192         -1.541751       -0.110048   1.000000   1.000000
    193         -1.537346       -0.083028   1.000000   1.000000
    194         -1.529262       -0.079627   1.000000   1.000000
    195         -1.505083       -0.060291   1.000000   1.000000
    196         -1.493223       -0.028277   1.000000   1.000000
    197         -1.476276       -0.020755   1.000000   1.000000
    198         -1.463328        0.016004   1.000000   1.000000
    199         -1.451975        0.027475   1.000000   1.000000
    200         -1.437880        0.043606   1.000000   1.000000
    201         -1.406105        0.074298   1.000000   1.000000
    202         -1.393530        0.096013   1.000000   1.000000
    203         -1.366666        0.108074   1.000000   1.000000
    204         -1.363001        0.120667   1.000000   1.000000
    205         -1.343292        0.148814   1.000000   1.000000
    206         -1.327794        0.174436   1.000000   1.000000
    207         -1.319390        0.186683   1.000000   1.000000
    208         -1.306089        0.209683   1.000000   1.000000
    209         -1.275832        0.235173   1.000000   1.000000
    210         -1.252560        0.260817   1.000000   1.000000
    211         -1.244580        0.281965   1.000000   1.000000
    212         -1.227156        0.287440   1.000000   1.000000
    213         -1.193115        0.305094   1.000000   1.000000
    214         -1.160341        0.339235   1.000000   1.000000
    215         -1.129407        0.390018   1.000000   1.000002
    216         -1.125148        0.460153   1.000000   1.000038
    217         -1.091950        0.474458   1.000000   1.000066
    218         -1.064876        0.486126   1.000000   1.000102
    219         -1.051082        0.517401   1.000000   1.000311
    220         -1.042388        0.541782   1.000000   1.000690
    221         -1.003878        0.574955   1.000000   1.001855
    222         -0.995456        0.618991   1.000000   1.005754
    223         -0.977175        0.640787   1.000000   1.009291
    224         -0.969106        0.675913   1.000000   1.017753
    225         -0.935885        0.709255   1.000000   1.027824
    226         -0.906938        0.719297   1.000000   1.030658
    227         -0.897994        0.770683   1.000000   1.031937
    228         -0.882662        0.793381   1.000000   1.017040
    229         -0.865544        0.830901   1.000000   0.954577
    230         -0.843297        0.833096   1.000000   0.949151
    231         -0.831731        0.861792   1.000000   0.858460
    232         -0.791185        0.895208   1.000000   0.709294
    233         -0.775657        0.905175   1.000000   0.657602
    234         -0.762465        0.931090   1.000000   0.514560
    235         -0.733498        0.982907   1.000000   0.238116
    236         -0.713111        1.026002   1.000000   0.073136
    237         -0.708442        1.068873   1.000000  -0.011629
    238         -0.688172        1.077953   1.000000  -0.020705
    239         -0.674808        1.100257   1.000000  -0.033124
    240         -0.666266        1.110779   1.000000  -0.035141
    241         -0.652845        1.156821   1.000000  -0.028198
    242         -0.647820        1.169692   1.000000  -0.024294
    243         -0.633048        1.175137   1.000000  -0.022614
    244         -0.629959        1.221142   1.000000  -0.010373
    245         -0.623632        1.243781   1.000000  -0.006391
    246         -0.611427        1.257459   1.000000  -0.004633
    247         -0.597995        1.285427   1.000000  -0.002250
    248         -0.589943        1.291419   1.000000  -0.001906
    249         -0.573001        1.300693   1.000000  -0.001464
    250         -0.556168        1.334699   1.000000  -0.000515
    251         -0.551007        1.379321   1.000000  -0.000110
    252         -0.535224        1.392652   1.000000  -0.000067
    253         -0.529332        1.407004   1.000000  -0.000038
    254         -0.505085        1.421566   1.000000  -0.000021
    255         -0.497238        1.429262   1.000000  -0.000015
    256         -0.490320        1.451478   1.000000  -0.000006
    257         -0.470921        1.485440   1.000000  -0.000001
    258         -0.457033        1.503763   1.000000  -0.000001
    259         -0.450944        1.517194   1.000000  -0.000000
    260         -0.446487        1.545017   1.000000  -0.000000
    261         -0.433696        1.576294   1.000000  -0.000000
    262         -0.427960        1.583435   1.000000  -0.000000
    263         -0.421647        1.595663   1.000000  -0.000000
    264         -0.397198        1.596456   1.000000  -0.000000
    265         -0.389354        1.619823   1.000000  -0.000000
    266         -0.380533        1.635499   1.000000  -0.000000
    267         -0.373678        1.643317   1.000000  -0.000000
    268         -0.357865        1.664779   1.000000  -0.000000
    269         -0.345424        1.683203   1.000000  -0.000000
    270         -0.331370        1.700520   1.000000  -0.000000
    271         -0.322509        1.720763   1.000000  -0.000000
    272         -0.316432        1.740247   1.000000  -0.000000
    273         -0.298760        1.754271   1.000000  -0.000000
    274         -0.295635        1.767081   1.000000  -0.000000
    275         -0.282783        1.776409   1.000000  -0.000000
    276         -0.269838        1.789062   1.000000  -0.000000
    277         -0.258694        1.803214   1.000000  -0.000000
    278         -0.237291        1.819927   1.000000  -0.000000
    279         -0.232287        1.823281   1.000000  -0.000000
    280         -0.225488        1.834804   1.000000  -0.000000
    281         -0.202202        1.855048   1.000000  -0.000000
    282         -0.199723        1.862836   1.000000  -0.000000
    283         -0.186453        1.875883   1.000000  -0.000000
    284         -0.169142        1.889954   1.000000  -0.000000
    285         -0.164975        1.895068   1.000000  -0.000000
    286         -0.146295        1.912345   1.000000  -0.000000
    287         -0.126155        1.921367   1.000000  -0.000000
    288         -0.123880        1.923792   1.000000  -0.000000
    289         -0.111859        1.934419   1.000000  -0.000000
    290         -0.078539        1.945288   1.000000  -0.000000
    291         -0.076099        1.955152   1.000000  -0.000000
    292         -0.057178        1.961295   1.000000  -0.000000
    293         -0.035893        1.978515   1.000000  -0.000000
    294         -0.016179        1.987300   1.000000  -0.000000
    295         -0.005184        1.992606   1.000000  -0.000000
    296          0.013579        1.999702   1.000000  -0.000000
    297          0.045208        2.014393   1.000000  -0.000000
    298          0.061872        2.023748   1.000000  -0.000000
    299          0.096320        2.037688   1.000000  -0.000000
    300          0.100156        2.054963   1.000000  -0.000000
    301          0.128850        2.060239   1.000000  -0.000000
    302          0.173084        2.068617   1.000000  -0.000000
    303          0.179407        2.079480   1.000000  -0.000000
    304          0.201273        2.081474   1.000000  -0.000000
    305          0.236178        2.093884   1.000000  -0.000000
    306          0.265900        2.097814   1.000000  -0.000000
    307          0.285666        2.119982   1.000000  -0.000000
    308          0.312393        2.132563   1.000000  -0.000000
    309          0.319800        2.137886   1.000000  -0.000000
    310          0.342881        2.151674   1.000000  -0.000000
    311          0.373900        2.156236   1.000001  -0.000000
    312          0.388680        2.162368   1.000002  -0.000000
    313          0.420398        2.174968   1.000007  -0.000000
    314          0.460225        2.180050   1.000038  -0.000000
    315          0.464619        2.209486   1.000045  -0.000000
    316          0.499134        2.222821   1.000164  -0.000000
    317          0.536499        2.230495   1.000583  -0.000000
    318          0.579523        2.254587   1.002107  -0.000000
    319          0.625815        2.264000   1.006725  -0.000000
    320          0.636772        2.276238   1.008542  -0.000000
    321          0.660196        2.293074   1.013557  -0.000000
    322          0.668329        2.309527   1.015653  -0.000000
    323          0.733582        2.330322   1.033881  -0.000000
    324          0.766099        2.342076   1.033402  -0.000000
    325          0.785995        2.358840   1.023444  -0.000000
    326          0.839659        2.377558   0.931657  -0.000000
    327          0.875679        2.380888   0.801648  -0.000000
    328          0.911194        2.387001   0.625249  -0.000000
    329          0.953469        2.397513   0.389377  -0.000000
    330          0.982585        2.418437   0.239632  -0.000000
    331          1.020476        2.422870   0.089776  -0.000000
    332          1.041946        2.434767   0.032737  -0.000000
    333          1.066833        2.439149  -0.009217  -0.000000
    334          1.104172        2.454132  -0.034114  -0.000000
    335          1.140846        2.463882  -0.032439  -0.000000
    336          1.159046        2.466392  -0.027540  -0.000000
    337          1.209121        2.486618  -0.013074  -0.000000
    338          1.247684        2.499604  -0.005844  -0.000000
    339          1.296197        2.501412  -0.001666  -0.000000
    340          1.318092        2.513847  -0.000871  -0.000000
    341          1.329231        2.526604  -0.000614  -0.000000
    342          1.382227        2.539635  -0.000099  -0.000000
    343          1.432791        2.542857  -0.000013  -0.000000
    344          1.460734        2.549321  -0.000004  -0.000000
    345          1.502375        2.557524  -0.000001  -0.000000
    346          1.559506        2.562391  -0.000000  -0.000000
    347          1.573969        2.569965  -0.000000  -0.000000
    348          1.625929        2.581616  -0.000000  -0.000000
    349          1.633805        2.587973  -0.000000  -0.000000
    350          1.644972        2.596329  -0.000000  -0.000000
    351          1.679109        2.606948  -0.000000  -0.000000
    352          1.746379        2.621789  -0.000000  -0.000000
    353          1.788268        2.636471  -0.000000  -0.000000
    354          1.816999        2.642924  -0.000000  -0.000000
    355          1.843992        2.655603  -0.000000  -0.000000
    356          1.853601        2.667860  -0.000000  -0.000000
    357          1.885438        2.676885  -0.000000  -0.000000
    358          1.917969        2.688800  -0.000000  -0.000000
    359          1.968189        2.711485  -0.000000  -0.000000
    360          1.995800        2.721922  -0.000000  -0.000000
    361          2.030943        2.731150  -0.000000  -0.000000
    362          2.043724        2.759519  -0.000000  -0.000000
    363          2.077509        2.769077  -0.000000  -0.000000
    364          2.106494        2.799194  -0.000000  -0.000000
    365          2.146389        2.816276  -0.000000  -0.000000
    366          2.180048        2.869969  -0.000000  -0.000000
    367          2.204138        2.882930  -0.000000  -0.000000
    368          2.247135        2.896057  -0.000000  -0.000000
    369          2.290250        2.920974  -0.000000  -0.000000
 
  0.2500000E+00  0.5000000E+00  0.1276756E-14  0.1250000E+00
      1        -42.936876      -43.408310   1.000000   1.000000
      2        -42.871466      -43.390827   1.000000   1.000000
      3        -42.849644      -43.378187   1.000000   1.000000
      4        -42.246021      -43.364917   1.000000   1.000000
      5        -42.195865      -43.354828   1.000000   1.000000
      6        -42.156147      -43.351512   1.000000   1.000000
      7        -42.118406      -43.351215   1.000000   1.000000
      8        -42.051087      -43.320325   1.000000   1.000000
      9        -42.024429      -43.316773   1.000000   1.000000
     10        -41.988843      -43.303958   1.000000   1.000000
     11        -41.976138      -43.286759   1.000000   1.000000
     12        -41.955423      -43.279869   1.000000   1.000000
     13        -41.886012      -43.278184   1.000000   1.000000
     14        -41.870112      -43.255384   1.000000   1.000000
     15        -41.851345      -43.193614   1.000000   1.000000
     16        -41.838140      -43.182073   1.000000   1.000000
     17        -41.832005      -43.161448   1.000000   1.000000
     18        -41.809702      -43.156369   1.000000   1.000000
     19        -41.802806      -43.151191   1.000000   1.000000
     20        -41.800251      -43.138053   1.000000   1.000000
     21        -41.772266      -43.068864   1.000000   1.000000
     22        -41.750418      -42.997937   1.000000   1.000000
     23        -41.746921      -42.925576   1.000000   1.000000
     24        -41.739459      -42.823317   1.000000   1.000000
     25        -41.267872      -42.808277   1.000000   1.000000
     26        -41.208147      -42.784265   1.000000   1.000000
     27        -41.162658      -42.708272   1.000000   1.000000
     28        -40.287520      -42.666908   1.000000   1.000000
     29        -40.253029      -42.630662   1.000000   1.000000
     30        -40.245499      -42.560214   1.000000   1.000000
     31        -40.189397      -42.496551   1.000000   1.000000
     32        -40.174895      -42.349705   1.000000   1.000000
     33        -40.156454      -42.197809   1.000000   1.000000
     34        -40.136949      -42.190772   1.000000   1.000000
     35        -40.111920      -42.021983   1.000000   1.000000
     36        -40.095290      -41.835697   1.000000   1.000000
     37        -40.093238      -39.849028   1.000000   1.000000
     38        -40.090572      -39.727716   1.000000   1.000000
     39        -40.050438      -39.630331   1.000000   1.000000
     40        -15.537599      -15.550616   1.000000   1.000000
     41        -15.531026      -15.540905   1.000000   1.000000
     42        -15.524991      -15.536729   1.000000   1.000000
     43        -15.514940      -15.525138   1.000000   1.000000
     44        -15.491098      -15.506743   1.000000   1.000000
     45         -7.754994       -7.792481   1.000000   1.000000
     46         -6.564957       -6.440559   1.000000   1.000000
     47         -6.480058       -6.387178   1.000000   1.000000
     48         -5.686192       -5.560964   1.000000   1.000000
     49         -5.597113       -5.497685   1.000000   1.000000
     50         -5.557656       -5.406280   1.000000   1.000000
     51         -5.407145       -5.266859   1.000000   1.000000
     52         -4.772820       -4.595058   1.000000   1.000000
     53         -4.695243       -4.546456   1.000000   1.000000
     54         -4.469905       -4.261809   1.000000   1.000000
     55         -4.288261       -4.021138   1.000000   1.000000
     56         -4.112566       -3.770358   1.000000   1.000000
     57         -4.103387       -3.752231   1.000000   1.000000
     58         -3.931479       -3.464384   1.000000   1.000000
     59         -3.879914       -3.416152   1.000000   1.000000
     60         -3.858864       -3.254021   1.000000   1.000000
     61         -3.824866       -3.216090   1.000000   1.000000
     62         -3.803142       -3.164958   1.000000   1.000000
     63         -3.771432       -3.128305   1.000000   1.000000
     64         -3.748826       -3.062726   1.000000   1.000000
     65         -3.732486       -3.039829   1.000000   1.000000
     66         -3.700515       -3.019357   1.000000   1.000000
     67         -3.674539       -2.963471   1.000000   1.000000
     68         -3.655151       -2.921052   1.000000   1.000000
     69         -3.629933       -2.900001   1.000000   1.000000
     70         -3.617051       -2.875099   1.000000   1.000000
     71         -3.599325       -2.839768   1.000000   1.000000
     72         -3.589046       -2.795592   1.000000   1.000000
     73         -3.581028       -2.755337   1.000000   1.000000
     74         -3.561456       -2.694997   1.000000   1.000000
     75         -3.537736       -2.556998   1.000000   1.000000
     76         -3.508850       -2.504268   1.000000   1.000000
     77         -3.487386       -2.483681   1.000000   1.000000
     78         -3.441718       -2.457532   1.000000   1.000000
     79         -3.414568       -2.436567   1.000000   1.000000
     80         -3.370984       -2.415307   1.000000   1.000000
     81         -3.319415       -2.408415   1.000000   1.000000
     82         -3.297031       -2.369712   1.000000   1.000000
     83         -3.281001       -2.351963   1.000000   1.000000
     84         -3.260478       -2.328052   1.000000   1.000000
     85         -3.247162       -2.297816   1.000000   1.000000
     86         -3.240697       -2.259568   1.000000   1.000000
     87         -3.228670       -2.244609   1.000000   1.000000
     88         -3.220948       -2.222106   1.000000   1.000000
     89         -3.201254       -2.200901   1.000000   1.000000
     90         -3.176055       -2.169155   1.000000   1.000000
     91         -3.152829       -2.140677   1.000000   1.000000
     92         -3.139041       -2.112574   1.000000   1.000000
     93         -3.132495       -2.084458   1.000000   1.000000
     94         -3.116805       -2.035335   1.000000   1.000000
     95         -3.111601       -2.021277   1.000000   1.000000
     96         -3.098297       -1.985159   1.000000   1.000000
     97         -3.050217       -1.952160   1.000000   1.000000
     98         -3.036851       -1.927545   1.000000   1.000000
     99         -3.007286       -1.900840   1.000000   1.000000
    100         -2.971261       -1.881602   1.000000   1.000000
    101         -2.957925       -1.832555   1.000000   1.000000
    102         -2.935025       -1.799074   1.000000   1.000000
    103         -2.912068       -1.791242   1.000000   1.000000
    104         -2.896720       -1.763036   1.000000   1.000000
    105         -2.873288       -1.745547   1.000000   1.000000
    106         -2.856956       -1.727528   1.000000   1.000000
    107         -2.797889       -1.688138   1.000000   1.000000
    108         -2.779117       -1.673187   1.000000   1.000000
    109         -2.765331       -1.644886   1.000000   1.000000
    110         -2.747289       -1.615488   1.000000   1.000000
    111         -2.736444       -1.591490   1.000000   1.000000
    112         -2.714200       -1.557951   1.000000   1.000000
    113         -2.695822       -1.523752   1.000000   1.000000
    114         -2.678021       -1.482370   1.000000   1.000000
    115         -2.649724       -1.474709   1.000000   1.000000
    116         -2.634368       -1.435577   1.000000   1.000000
    117         -2.620719       -1.425678   1.000000   1.000000
    118         -2.606310       -1.398203   1.000000   1.000000
    119         -2.598489       -1.357948   1.000000   1.000000
    120         -2.570765       -1.336260   1.000000   1.000000
    121         -2.563702       -1.323203   1.000000   1.000000
    122         -2.553299       -1.304047   1.000000   1.000000
    123         -2.542964       -1.290517   1.000000   1.000000
    124         -2.526567       -1.273148   1.000000   1.000000
    125         -2.517748       -1.243529   1.000000   1.000000
    126         -2.506585       -1.231095   1.000000   1.000000
    127         -2.500469       -1.216443   1.000000   1.000000
    128         -2.492998       -1.195899   1.000000   1.000000
    129         -2.473660       -1.186573   1.000000   1.000000
    130         -2.460713       -1.159538   1.000000   1.000000
    131         -2.450966       -1.136121   1.000000   1.000000
    132         -2.436386       -1.130443   1.000000   1.000000
    133         -2.429031       -1.113464   1.000000   1.000000
    134         -2.399822       -1.086672   1.000000   1.000000
    135         -2.389381       -1.076399   1.000000   1.000000
    136         -2.376391       -1.044063   1.000000   1.000000
    137         -2.361125       -1.030956   1.000000   1.000000
    138         -2.345184       -1.023238   1.000000   1.000000
    139         -2.325729       -0.999752   1.000000   1.000000
    140         -2.306341       -0.972246   1.000000   1.000000
    141         -2.280205       -0.964808   1.000000   1.000000
    142         -2.269862       -0.939560   1.000000   1.000000
    143         -2.253997       -0.908805   1.000000   1.000000
    144         -2.235918       -0.879750   1.000000   1.000000
    145         -2.223579       -0.852121   1.000000   1.000000
    146         -2.216750       -0.829584   1.000000   1.000000
    147         -2.180219       -0.812598   1.000000   1.000000
    148         -2.173414       -0.801726   1.000000   1.000000
    149         -2.152663       -0.776646   1.000000   1.000000
    150         -2.145314       -0.762807   1.000000   1.000000
    151         -2.131502       -0.743001   1.000000   1.000000
    152         -2.117911       -0.733840   1.000000   1.000000
    153         -2.112290       -0.727160   1.000000   1.000000
    154         -2.095929       -0.698633   1.000000   1.000000
    155         -2.074947       -0.680921   1.000000   1.000000
    156         -2.067071       -0.661453   1.000000   1.000000
    157         -2.053977       -0.644355   1.000000   1.000000
    158         -2.042743       -0.614071   1.000000   1.000000
    159         -2.027915       -0.605571   1.000000   1.000000
    160         -2.008020       -0.585330   1.000000   1.000000
    161         -1.999877       -0.568798   1.000000   1.000000
    162         -1.982368       -0.549428   1.000000   1.000000
    163         -1.971794       -0.546042   1.000000   1.000000
    164         -1.955327       -0.533794   1.000000   1.000000
    165         -1.937974       -0.513425   1.000000   1.000000
    166         -1.934087       -0.489170   1.000000   1.000000
    167         -1.915146       -0.484690   1.000000   1.000000
    168         -1.905060       -0.453148   1.000000   1.000000
    169         -1.886121       -0.445341   1.000000   1.000000
    170         -1.867987       -0.428781   1.000000   1.000000
    171         -1.858229       -0.408925   1.000000   1.000000
    172         -1.852648       -0.391720   1.000000   1.000000
    173         -1.836891       -0.385873   1.000000   1.000000
    174         -1.821230       -0.376812   1.000000   1.000000
    175         -1.804786       -0.371926   1.000000   1.000000
    176         -1.793802       -0.349367   1.000000   1.000000
    177         -1.785837       -0.339589   1.000000   1.000000
    178         -1.766411       -0.328005   1.000000   1.000000
    179         -1.749201       -0.309982   1.000000   1.000000
    180         -1.734407       -0.303152   1.000000   1.000000
    181         -1.713207       -0.292720   1.000000   1.000000
    182         -1.693789       -0.275872   1.000000   1.000000
    183         -1.686986       -0.251783   1.000000   1.000000
    184         -1.668997       -0.244272   1.000000   1.000000
    185         -1.655059       -0.236214   1.000000   1.000000
    186         -1.641226       -0.210238   1.000000   1.000000
    187         -1.625665       -0.199562   1.000000   1.000000
    188         -1.613258       -0.183445   1.000000   1.000000
    189         -1.593700       -0.166287   1.000000   1.000000
    190         -1.578248       -0.154593   1.000000   1.000000
    191         -1.558324       -0.123487   1.000000   1.000000
    192         -1.553533       -0.109425   1.000000   1.000000
    193         -1.532493       -0.095849   1.000000   1.000000
    194         -1.510389       -0.073974   1.000000   1.000000
    195         -1.498495       -0.037413   1.000000   1.000000
    196         -1.474110       -0.019396   1.000000   1.000000
    197         -1.460492       -0.008487   1.000000   1.000000
    198         -1.443751        0.011258   1.000000   1.000000
    199         -1.427387        0.048139   1.000000   1.000000
    200         -1.409290        0.089224   1.000000   1.000000
    201         -1.397117        0.104079   1.000000   1.000000
    202         -1.377399        0.120965   1.000000   1.000000
    203         -1.367463        0.141269   1.000000   1.000000
    204         -1.341333        0.166730   1.000000   1.000000
    205         -1.328976        0.177095   1.000000   1.000000
    206         -1.301305        0.211822   1.000000   1.000000
    207         -1.274874        0.226980   1.000000   1.000000
    208         -1.267918        0.250201   1.000000   1.000000
    209         -1.231153        0.277376   1.000000   1.000000
    210         -1.203055        0.294860   1.000000   1.000000
    211         -1.190995        0.321701   1.000000   1.000000
    212         -1.158920        0.338148   1.000000   1.000000
    213         -1.150335        0.362396   1.000000   1.000001
    214         -1.130573        0.383871   1.000000   1.000001
    215         -1.107192        0.421832   1.000000   1.000008
    216         -1.099924        0.435844   1.000000   1.000014
    217         -1.069791        0.470578   1.000000   1.000057
    218         -1.048255        0.479507   1.000000   1.000080
    219         -1.032876        0.497020   1.000000   1.000152
    220         -1.008229        0.547100   1.000000   1.000815
    221         -0.984906        0.570172   1.000000   1.001620
    222         -0.979125        0.582235   1.000000   1.002269
    223         -0.956191        0.633956   1.000000   1.008044
    224         -0.928176        0.646235   1.000000   1.010380
    225         -0.917519        0.696550   1.000000   1.023954
    226         -0.894492        0.716151   1.000000   1.029806
    227         -0.886455        0.740506   1.000000   1.034897
    228         -0.848869        0.774345   1.000000   1.030435
    229         -0.837847        0.830326   1.000000   0.955965
    230         -0.805215        0.855008   1.000000   0.883216
    231         -0.784167        0.872670   1.000000   0.814632
    232         -0.779161        0.888894   1.000000   0.740580
    233         -0.766464        0.918863   1.000000   0.583100
    234         -0.749725        0.937994   1.000000   0.475624
    235         -0.716636        0.972007   1.000000   0.291353
    236         -0.707394        0.991702   1.000000   0.198188
    237         -0.682581        1.025807   1.000000   0.073701
    238         -0.672278        1.057833   1.000000   0.003191
    239         -0.667635        1.077846   1.000000  -0.020613
    240         -0.651385        1.105975   1.000000  -0.034471
    241         -0.637065        1.126734   1.000000  -0.034908
    242         -0.628057        1.185327   1.000000  -0.019529
    243         -0.618192        1.194752   1.000000  -0.016817
    244         -0.602436        1.204675   1.000000  -0.014176
    245         -0.595700        1.245128   1.000000  -0.006198
    246         -0.580177        1.253121   1.000000  -0.005143
    247         -0.564475        1.267441   1.000000  -0.003616
    248         -0.557311        1.299590   1.000000  -0.001511
    249         -0.542378        1.328940   1.000000  -0.000620
    250         -0.529972        1.352713   1.000000  -0.000283
    251         -0.519912        1.384121   1.000000  -0.000092
    252         -0.511811        1.401083   1.000000  -0.000048
    253         -0.499723        1.413418   1.000000  -0.000030
    254         -0.491354        1.429381   1.000000  -0.000015
    255         -0.485445        1.444776   1.000000  -0.000008
    256         -0.471374        1.484757   1.000000  -0.000001
    257         -0.460659        1.504242   1.000000  -0.000001
    258         -0.454392        1.517766   1.000000  -0.000000
    259         -0.440390        1.541148   1.000000  -0.000000
    260         -0.428228        1.546998   1.000000  -0.000000
    261         -0.419346        1.563263   1.000000  -0.000000
    262         -0.410376        1.589139   1.000000  -0.000000
    263         -0.404674        1.593001   1.000000  -0.000000
    264         -0.395075        1.617721   1.000000  -0.000000
    265         -0.382725        1.638232   1.000000  -0.000000
    266         -0.377865        1.653180   1.000000  -0.000000
    267         -0.366821        1.664592   1.000000  -0.000000
    268         -0.354620        1.678073   1.000000  -0.000000
    269         -0.345388        1.699790   1.000000  -0.000000
    270         -0.333648        1.710112   1.000000  -0.000000
    271         -0.324234        1.730726   1.000000  -0.000000
    272         -0.304224        1.743441   1.000000  -0.000000
    273         -0.294178        1.752557   1.000000  -0.000000
    274         -0.282279        1.762656   1.000000  -0.000000
    275         -0.276822        1.779650   1.000000  -0.000000
    276         -0.264439        1.796125   1.000000  -0.000000
    277         -0.256379        1.809118   1.000000  -0.000000
    278         -0.247164        1.818601   1.000000  -0.000000
    279         -0.241604        1.833025   1.000000  -0.000000
    280         -0.212755        1.835110   1.000000  -0.000000
    281         -0.201891        1.857767   1.000000  -0.000000
    282         -0.198272        1.872477   1.000000  -0.000000
    283         -0.180969        1.879258   1.000000  -0.000000
    284         -0.161191        1.889755   1.000000  -0.000000
    285         -0.149883        1.901843   1.000000  -0.000000
    286         -0.128518        1.914646   1.000000  -0.000000
    287         -0.109414        1.923886   1.000000  -0.000000
    288         -0.102205        1.929782   1.000000  -0.000000
    289         -0.081629        1.944100   1.000000  -0.000000
    290         -0.065343        1.954798   1.000000  -0.000000
    291         -0.045611        1.961594   1.000000  -0.000000
    292         -0.039342        1.973770   1.000000  -0.000000
    293         -0.030190        1.991348   1.000000  -0.000000
    294         -0.006163        2.004725   1.000000  -0.000000
    295          0.009660        2.007875   1.000000  -0.000000
    296          0.032170        2.021385   1.000000  -0.000000
    297          0.057307        2.028654   1.000000  -0.000000
    298          0.065290        2.039183   1.000000  -0.000000
    299          0.082085        2.045993   1.000000  -0.000000
    300          0.106125        2.052024   1.000000  -0.000000
    301          0.144545        2.073455   1.000000  -0.000000
    302          0.164085        2.086850   1.000000  -0.000000
    303          0.190223        2.098255   1.000000  -0.000000
    304          0.202316        2.113482   1.000000  -0.000000
    305          0.219148        2.118465   1.000000  -0.000000
    306          0.236364        2.139106   1.000000  -0.000000
    307          0.264577        2.149058   1.000000  -0.000000
    308          0.277855        2.152608   1.000000  -0.000000
    309          0.298643        2.162919   1.000000  -0.000000
    310          0.319225        2.179294   1.000000  -0.000000
    311          0.343697        2.188628   1.000000  -0.000000
    312          0.390390        2.200007   1.000002  -0.000000
    313          0.409798        2.207180   1.000005  -0.000000
    314          0.439334        2.214988   1.000016  -0.000000
    315          0.465039        2.233161   1.000046  -0.000000
    316          0.487781        2.248413   1.000109  -0.000000
    317          0.513878        2.254235   1.000275  -0.000000
    318          0.543812        2.259475   1.000735  -0.000000
    319          0.569811        2.276850   1.001603  -0.000000
    320          0.600807        2.283963   1.003699  -0.000000
    321          0.636125        2.297896   1.008425  -0.000000
    322          0.660198        2.304830   1.013557  -0.000000
    323          0.726032        2.317773   1.032332  -0.000000
    324          0.751189        2.331395   1.035447  -0.000000
    325          0.795710        2.349762   1.014670  -0.000000
    326          0.837649        2.362250   0.937219  -0.000000
    327          0.864402        2.363557   0.848399  -0.000000
    328          0.903983        2.370809   0.663915  -0.000000
    329          0.935203        2.390682   0.491358  -0.000000
    330          0.976492        2.404922   0.268982  -0.000000
    331          1.028843        2.416544   0.065116  -0.000000
    332          1.059255        2.429372   0.001033  -0.000000
    333          1.078863        2.432016  -0.021473  -0.000000
    334          1.090380        2.444699  -0.029167  -0.000000
    335          1.120065        2.449729  -0.035410  -0.000000
    336          1.191757        2.463338  -0.017660  -0.000000
    337          1.207193        2.469967  -0.013545  -0.000000
    338          1.242575        2.476108  -0.006569  -0.000000
    339          1.287374        2.485210  -0.002133  -0.000000
    340          1.348438        2.493283  -0.000327  -0.000000
    341          1.382007        2.501903  -0.000099  -0.000000
    342          1.403626        2.517895  -0.000044  -0.000000
    343          1.445857        2.522146  -0.000008  -0.000000
    344          1.485106        2.528358  -0.000001  -0.000000
    345          1.511568        2.543274  -0.000000  -0.000000
    346          1.553308        2.552341  -0.000000  -0.000000
    347          1.586464        2.559341  -0.000000  -0.000000
    348          1.627288        2.572482  -0.000000  -0.000000
    349          1.648943        2.581383  -0.000000  -0.000000
    350          1.680132        2.589089  -0.000000  -0.000000
    351          1.729629        2.598533  -0.000000  -0.000000
    352          1.751377        2.605032  -0.000000  -0.000000
    353          1.792638        2.612727  -0.000000  -0.000000
    354          1.835372        2.618759  -0.000000  -0.000000
    355          1.856259        2.628478  -0.000000  -0.000000
    356          1.880782        2.637719  -0.000000  -0.000000
    357          1.913416        2.649229  -0.000000  -0.000000
    358          1.941468        2.664627  -0.000000  -0.000000
    359          1.990857        2.698968  -0.000000  -0.000000
    360          2.016927        2.722488  -0.000000  -0.000000
    361          2.052216        2.739026  -0.000000  -0.000000
    362          2.072067        2.759812  -0.000000  -0.000000
    363          2.127234        2.778301  -0.000000  -0.000000
    364          2.140670        2.803105  -0.000000  -0.000000
    365          2.186998        2.809722  -0.000000  -0.000000
    366          2.212572        2.835733  -0.000000  -0.000000
    367          2.234405        2.847854  -0.000000  -0.000000
    368          2.258248        2.857766  -0.000000  -0.000000
    369          2.286935        2.891696  -0.000000  -0.000000
 
  0.5000000E+00  0.5000000E+00  0.1276756E-14  0.6250000E-01
      1        -42.936879      -43.408307   1.000000   1.000000
      2        -42.871468      -43.390822   1.000000   1.000000
      3        -42.849653      -43.378181   1.000000   1.000000
      4        -42.246035      -43.364931   1.000000   1.000000
      5        -42.195868      -43.354837   1.000000   1.000000
      6        -42.156144      -43.351513   1.000000   1.000000
      7        -42.118435      -43.351224   1.000000   1.000000
      8        -42.051089      -43.320335   1.000000   1.000000
      9        -42.024438      -43.316785   1.000000   1.000000
     10        -41.988852      -43.303966   1.000000   1.000000
     11        -41.976121      -43.286765   1.000000   1.000000
     12        -41.955435      -43.279877   1.000000   1.000000
     13        -41.886018      -43.278194   1.000000   1.000000
     14        -41.870116      -43.255389   1.000000   1.000000
     15        -41.851355      -43.193621   1.000000   1.000000
     16        -41.838109      -43.182083   1.000000   1.000000
     17        -41.832013      -43.161444   1.000000   1.000000
     18        -41.809714      -43.156370   1.000000   1.000000
     19        -41.802798      -43.151200   1.000000   1.000000
     20        -41.800261      -43.138050   1.000000   1.000000
     21        -41.772308      -43.068858   1.000000   1.000000
     22        -41.750416      -42.997939   1.000000   1.000000
     23        -41.746923      -42.925584   1.000000   1.000000
     24        -41.739454      -42.823319   1.000000   1.000000
     25        -41.267882      -42.808290   1.000000   1.000000
     26        -41.208152      -42.784273   1.000000   1.000000
     27        -41.162660      -42.708275   1.000000   1.000000
     28        -40.287529      -42.666932   1.000000   1.000000
     29        -40.253042      -42.630667   1.000000   1.000000
     30        -40.245516      -42.560223   1.000000   1.000000
     31        -40.189408      -42.496554   1.000000   1.000000
     32        -40.174903      -42.349705   1.000000   1.000000
     33        -40.156465      -42.197822   1.000000   1.000000
     34        -40.136943      -42.190769   1.000000   1.000000
     35        -40.111914      -42.021976   1.000000   1.000000
     36        -40.095300      -41.835699   1.000000   1.000000
     37        -40.093229      -39.849040   1.000000   1.000000
     38        -40.090582      -39.727727   1.000000   1.000000
     39        -40.050432      -39.630325   1.000000   1.000000
     40        -15.537568      -15.550591   1.000000   1.000000
     41        -15.531025      -15.540912   1.000000   1.000000
     42        -15.525006      -15.536736   1.000000   1.000000
     43        -15.514924      -15.525125   1.000000   1.000000
     44        -15.491100      -15.506744   1.000000   1.000000
     45         -7.733813       -7.776181   1.000000   1.000000
     46         -6.226362       -6.071706   1.000000   1.000000
     47         -6.189532       -6.057438   1.000000   1.000000
     48         -6.110181       -6.011286   1.000000   1.000000
     49         -6.051723       -5.978909   1.000000   1.000000
     50         -5.361721       -5.222510   1.000000   1.000000
     51         -5.293344       -5.158714   1.000000   1.000000
     52         -5.268615       -5.128665   1.000000   1.000000
     53         -5.001656       -4.898354   1.000000   1.000000
     54         -4.263763       -4.003615   1.000000   1.000000
     55         -4.211661       -3.958944   1.000000   1.000000
     56         -4.118454       -3.852309   1.000000   1.000000
     57         -3.916111       -3.591207   1.000000   1.000000
     58         -3.854264       -3.092182   1.000000   1.000000
     59         -3.829258       -3.052366   1.000000   1.000000
     60         -3.676988       -3.033920   1.000000   1.000000
     61         -3.668132       -3.014990   1.000000   1.000000
     62         -3.665649       -3.009911   1.000000   1.000000
     63         -3.647224       -2.998526   1.000000   1.000000
     64         -3.639705       -2.963257   1.000000   1.000000
     65         -3.635837       -2.959936   1.000000   1.000000
     66         -3.623466       -2.947374   1.000000   1.000000
     67         -3.618742       -2.888707   1.000000   1.000000
     68         -3.606781       -2.857698   1.000000   1.000000
     69         -3.583276       -2.826306   1.000000   1.000000
     70         -3.561826       -2.787678   1.000000   1.000000
     71         -3.553031       -2.770099   1.000000   1.000000
     72         -3.536115       -2.763401   1.000000   1.000000
     73         -3.511192       -2.735384   1.000000   1.000000
     74         -3.492457       -2.723488   1.000000   1.000000
     75         -3.483909       -2.703060   1.000000   1.000000
     76         -3.472283       -2.684152   1.000000   1.000000
     77         -3.465272       -2.647807   1.000000   1.000000
     78         -3.443439       -2.627983   1.000000   1.000000
     79         -3.434831       -2.602122   1.000000   1.000000
     80         -3.431710       -2.582817   1.000000   1.000000
     81         -3.415619       -2.568641   1.000000   1.000000
     82         -3.413243       -2.542975   1.000000   1.000000
     83         -3.391598       -2.448021   1.000000   1.000000
     84         -3.371996       -2.408565   1.000000   1.000000
     85         -3.361556       -2.331720   1.000000   1.000000
     86         -3.338670       -2.305790   1.000000   1.000000
     87         -3.325630       -2.260768   1.000000   1.000000
     88         -3.320711       -2.241006   1.000000   1.000000
     89         -3.297125       -2.200658   1.000000   1.000000
     90         -3.277733       -2.153252   1.000000   1.000000
     91         -3.255954       -2.141817   1.000000   1.000000
     92         -3.183720       -2.080321   1.000000   1.000000
     93         -3.172275       -2.072208   1.000000   1.000000
     94         -3.160685       -2.053087   1.000000   1.000000
     95         -3.105500       -2.016948   1.000000   1.000000
     96         -3.073219       -1.982381   1.000000   1.000000
     97         -3.065325       -1.976899   1.000000   1.000000
     98         -3.035450       -1.945831   1.000000   1.000000
     99         -3.001872       -1.929027   1.000000   1.000000
    100         -2.970361       -1.890653   1.000000   1.000000
    101         -2.942726       -1.847180   1.000000   1.000000
    102         -2.927446       -1.835835   1.000000   1.000000
    103         -2.913609       -1.819070   1.000000   1.000000
    104         -2.895366       -1.806427   1.000000   1.000000
    105         -2.863006       -1.750715   1.000000   1.000000
    106         -2.844620       -1.741429   1.000000   1.000000
    107         -2.829562       -1.720347   1.000000   1.000000
    108         -2.788169       -1.682332   1.000000   1.000000
    109         -2.778751       -1.663280   1.000000   1.000000
    110         -2.759815       -1.627683   1.000000   1.000000
    111         -2.733823       -1.613041   1.000000   1.000000
    112         -2.720295       -1.607569   1.000000   1.000000
    113         -2.689368       -1.557153   1.000000   1.000000
    114         -2.685892       -1.518707   1.000000   1.000000
    115         -2.681369       -1.490961   1.000000   1.000000
    116         -2.663310       -1.461048   1.000000   1.000000
    117         -2.640246       -1.441919   1.000000   1.000000
    118         -2.620023       -1.418375   1.000000   1.000000
    119         -2.611821       -1.390258   1.000000   1.000000
    120         -2.595260       -1.385764   1.000000   1.000000
    121         -2.573554       -1.363498   1.000000   1.000000
    122         -2.568650       -1.357800   1.000000   1.000000
    123         -2.557922       -1.318305   1.000000   1.000000
    124         -2.548980       -1.312574   1.000000   1.000000
    125         -2.543456       -1.297145   1.000000   1.000000
    126         -2.532064       -1.282012   1.000000   1.000000
    127         -2.521269       -1.243660   1.000000   1.000000
    128         -2.497541       -1.211569   1.000000   1.000000
    129         -2.491008       -1.197920   1.000000   1.000000
    130         -2.476279       -1.171074   1.000000   1.000000
    131         -2.473588       -1.155465   1.000000   1.000000
    132         -2.458339       -1.144585   1.000000   1.000000
    133         -2.429034       -1.123006   1.000000   1.000000
    134         -2.422085       -1.108937   1.000000   1.000000
    135         -2.408401       -1.090972   1.000000   1.000000
    136         -2.400187       -1.070683   1.000000   1.000000
    137         -2.383919       -1.058529   1.000000   1.000000
    138         -2.364712       -1.040774   1.000000   1.000000
    139         -2.354260       -1.019505   1.000000   1.000000
    140         -2.343497       -0.990444   1.000000   1.000000
    141         -2.315699       -0.980663   1.000000   1.000000
    142         -2.296168       -0.919963   1.000000   1.000000
    143         -2.293150       -0.894269   1.000000   1.000000
    144         -2.277381       -0.862985   1.000000   1.000000
    145         -2.259967       -0.856345   1.000000   1.000000
    146         -2.233284       -0.830136   1.000000   1.000000
    147         -2.218274       -0.792675   1.000000   1.000000
    148         -2.209888       -0.780725   1.000000   1.000000
    149         -2.183037       -0.774859   1.000000   1.000000
    150         -2.163725       -0.737515   1.000000   1.000000
    151         -2.142372       -0.729192   1.000000   1.000000
    152         -2.140690       -0.717103   1.000000   1.000000
    153         -2.114937       -0.693493   1.000000   1.000000
    154         -2.099669       -0.680090   1.000000   1.000000
    155         -2.085481       -0.664677   1.000000   1.000000
    156         -2.068036       -0.649135   1.000000   1.000000
    157         -2.057526       -0.636746   1.000000   1.000000
    158         -2.044367       -0.630209   1.000000   1.000000
    159         -2.029050       -0.605996   1.000000   1.000000
    160         -2.012205       -0.589394   1.000000   1.000000
    161         -1.996254       -0.568609   1.000000   1.000000
    162         -1.986782       -0.528919   1.000000   1.000000
    163         -1.964518       -0.524122   1.000000   1.000000
    164         -1.960855       -0.502385   1.000000   1.000000
    165         -1.947977       -0.488682   1.000000   1.000000
    166         -1.931241       -0.475759   1.000000   1.000000
    167         -1.919392       -0.451397   1.000000   1.000000
    168         -1.889809       -0.422061   1.000000   1.000000
    169         -1.881879       -0.411797   1.000000   1.000000
    170         -1.880275       -0.402606   1.000000   1.000000
    171         -1.854347       -0.381884   1.000000   1.000000
    172         -1.850139       -0.368539   1.000000   1.000000
    173         -1.841113       -0.346808   1.000000   1.000000
    174         -1.824149       -0.336053   1.000000   1.000000
    175         -1.806653       -0.328208   1.000000   1.000000
    176         -1.794822       -0.324427   1.000000   1.000000
    177         -1.775017       -0.311983   1.000000   1.000000
    178         -1.769182       -0.289574   1.000000   1.000000
    179         -1.759862       -0.277085   1.000000   1.000000
    180         -1.734783       -0.270987   1.000000   1.000000
    181         -1.722417       -0.268698   1.000000   1.000000
    182         -1.689555       -0.241636   1.000000   1.000000
    183         -1.685349       -0.226538   1.000000   1.000000
    184         -1.669968       -0.206914   1.000000   1.000000
    185         -1.660441       -0.190875   1.000000   1.000000
    186         -1.645557       -0.173288   1.000000   1.000000
    187         -1.635852       -0.162416   1.000000   1.000000
    188         -1.616486       -0.141534   1.000000   1.000000
    189         -1.608664       -0.128766   1.000000   1.000000
    190         -1.576774       -0.114456   1.000000   1.000000
    191         -1.536642       -0.105939   1.000000   1.000000
    192         -1.529502       -0.101124   1.000000   1.000000
    193         -1.518982       -0.083328   1.000000   1.000000
    194         -1.500404       -0.071038   1.000000   1.000000
    195         -1.476597       -0.044294   1.000000   1.000000
    196         -1.457068       -0.038675   1.000000   1.000000
    197         -1.441182       -0.023203   1.000000   1.000000
    198         -1.433125       -0.012450   1.000000   1.000000
    199         -1.422031        0.013795   1.000000   1.000000
    200         -1.392580        0.045349   1.000000   1.000000
    201         -1.381596        0.066292   1.000000   1.000000
    202         -1.364643        0.069198   1.000000   1.000000
    203         -1.334648        0.098039   1.000000   1.000000
    204         -1.317691        0.135621   1.000000   1.000000
    205         -1.292224        0.217531   1.000000   1.000000
    206         -1.287066        0.234830   1.000000   1.000000
    207         -1.263993        0.268938   1.000000   1.000000
    208         -1.230650        0.275008   1.000000   1.000000
    209         -1.203721        0.296061   1.000000   1.000000
    210         -1.188484        0.338861   1.000000   1.000000
    211         -1.185914        0.351568   1.000000   1.000000
    212         -1.156627        0.383859   1.000000   1.000001
    213         -1.116200        0.385200   1.000000   1.000001
    214         -1.092707        0.414762   1.000000   1.000006
    215         -1.064729        0.424268   1.000000   1.000009
    216         -1.041204        0.463299   1.000000   1.000043
    217         -1.036494        0.469001   1.000000   1.000053
    218         -1.022435        0.485498   1.000000   1.000100
    219         -0.991148        0.497456   1.000000   1.000155
    220         -0.983561        0.540312   1.000000   1.000659
    221         -0.964420        0.567093   1.000000   1.001483
    222         -0.942161        0.571073   1.000000   1.001662
    223         -0.922174        0.598538   1.000000   1.003492
    224         -0.896322        0.638476   1.000000   1.008854
    225         -0.875753        0.674061   1.000000   1.017228
    226         -0.866168        0.696334   1.000000   1.023887
    227         -0.861223        0.736519   1.000000   1.034366
    228         -0.828287        0.790849   1.000000   1.019422
    229         -0.804200        0.798225   1.000000   1.011910
    230         -0.794006        0.820501   1.000000   0.977466
    231         -0.778914        0.874036   1.000000   0.808783
    232         -0.766208        0.900564   1.000000   0.681835
    233         -0.753127        0.956781   1.000000   0.371320
    234         -0.731923        0.970485   1.000000   0.299080
    235         -0.707986        0.999008   1.000000   0.167307
    236         -0.684693        1.011990   1.000000   0.117993
    237         -0.673320        1.033130   1.000000   0.053693
    238         -0.665410        1.078657   1.000000  -0.021301
    239         -0.662969        1.124863   1.000000  -0.035100
    240         -0.646190        1.128865   1.000000  -0.034646
    241         -0.636039        1.142378   1.000000  -0.032083
    242         -0.618196        1.170560   1.000000  -0.024026
    243         -0.608416        1.181475   1.000000  -0.020682
    244         -0.584850        1.223301   1.000000  -0.009931
    245         -0.562442        1.227629   1.000000  -0.009086
    246         -0.550451        1.258820   1.000000  -0.004482
    247         -0.539494        1.276080   1.000000  -0.002891
    248         -0.534683        1.291692   1.000000  -0.001892
    249         -0.512946        1.341632   1.000000  -0.000410
    250         -0.499383        1.354642   1.000000  -0.000264
    251         -0.489851        1.376804   1.000000  -0.000120
    252         -0.483432        1.392267   1.000000  -0.000068
    253         -0.470899        1.422432   1.000000  -0.000020
    254         -0.467836        1.438923   1.000000  -0.000010
    255         -0.460484        1.470633   1.000000  -0.000003
    256         -0.456002        1.478607   1.000000  -0.000002
    257         -0.443368        1.482764   1.000000  -0.000001
    258         -0.427577        1.499958   1.000000  -0.000001
    259         -0.426993        1.519847   1.000000  -0.000000
    260         -0.418893        1.529849   1.000000  -0.000000
    261         -0.408443        1.566315   1.000000  -0.000000
    262         -0.401072        1.572777   1.000000  -0.000000
    263         -0.394912        1.581869   1.000000  -0.000000
    264         -0.375473        1.609063   1.000000  -0.000000
    265         -0.371568        1.620068   1.000000  -0.000000
    266         -0.370704        1.631166   1.000000  -0.000000
    267         -0.346107        1.651112   1.000000  -0.000000
    268         -0.338484        1.659294   1.000000  -0.000000
    269         -0.321221        1.673918   1.000000  -0.000000
    270         -0.319621        1.696380   1.000000  -0.000000
    271         -0.307645        1.716100   1.000000  -0.000000
    272         -0.293898        1.735062   1.000000  -0.000000
    273         -0.290436        1.740681   1.000000  -0.000000
    274         -0.283795        1.757779   1.000000  -0.000000
    275         -0.275994        1.781388   1.000000  -0.000000
    276         -0.262142        1.789175   1.000000  -0.000000
    277         -0.249210        1.807543   1.000000  -0.000000
    278         -0.242021        1.820929   1.000000  -0.000000
    279         -0.228462        1.837591   1.000000  -0.000000
    280         -0.211373        1.860759   1.000000  -0.000000
    281         -0.202690        1.885089   1.000000  -0.000000
    282         -0.192806        1.900213   1.000000  -0.000000
    283         -0.171078        1.904717   1.000000  -0.000000
    284         -0.156236        1.911230   1.000000  -0.000000
    285         -0.149878        1.932676   1.000000  -0.000000
    286         -0.129563        1.954199   1.000000  -0.000000
    287         -0.117106        1.958023   1.000000  -0.000000
    288         -0.114028        1.964625   1.000000  -0.000000
    289         -0.087241        1.976527   1.000000  -0.000000
    290         -0.084687        1.988936   1.000000  -0.000000
    291         -0.053586        1.997214   1.000000  -0.000000
    292         -0.032288        2.004166   1.000000  -0.000000
    293         -0.011629        2.022371   1.000000  -0.000000
    294          0.000260        2.032792   1.000000  -0.000000
    295          0.010230        2.043149   1.000000  -0.000000
    296          0.016250        2.045590   1.000000  -0.000000
    297          0.041089        2.059330   1.000000  -0.000000
    298          0.049832        2.069482   1.000000  -0.000000
    299          0.081920        2.085045   1.000000  -0.000000
    300          0.105659        2.091825   1.000000  -0.000000
    301          0.127216        2.107862   1.000000  -0.000000
    302          0.139471        2.126310   1.000000  -0.000000
    303          0.147247        2.130371   1.000000  -0.000000
    304          0.171831        2.141551   1.000000  -0.000000
    305          0.218684        2.143825   1.000000  -0.000000
    306          0.236807        2.157506   1.000000  -0.000000
    307          0.268707        2.167953   1.000000  -0.000000
    308          0.289023        2.171967   1.000000  -0.000000
    309          0.313168        2.191398   1.000000  -0.000000
    310          0.316648        2.199094   1.000000  -0.000000
    311          0.339292        2.206473   1.000000  -0.000000
    312          0.386485        2.215412   1.000002  -0.000000
    313          0.406497        2.229623   1.000004  -0.000000
    314          0.422991        2.236431   1.000008  -0.000000
    315          0.456098        2.243842   1.000032  -0.000000
    316          0.479177        2.260919   1.000079  -0.000000
    317          0.533779        2.267878   1.000534  -0.000000
    318          0.555067        2.281303   1.001039  -0.000000
    319          0.579807        2.291338   1.002123  -0.000000
    320          0.620142        2.297194   1.005909  -0.000000
    321          0.654102        2.303457   1.012102  -0.000000
    322          0.686953        2.317675   1.021009  -0.000000
    323          0.726131        2.345341   1.032355  -0.000000
    324          0.792817        2.359535   1.017588  -0.000000
    325          0.832628        2.365762   0.950327  -0.000000
    326          0.854959        2.377231   0.883389  -0.000000
    327          0.903927        2.383915   0.664208  -0.000000
    328          0.911552        2.390191   0.623301  -0.000000
    329          0.944396        2.407796   0.439666  -0.000000
    330          0.975605        2.410464   0.273358  -0.000000
    331          1.008935        2.418887   0.128938  -0.000000
    332          1.029090        2.431735   0.064435  -0.000000
    333          1.047251        2.444899   0.021729  -0.000000
    334          1.111771        2.449518  -0.035231  -0.000000
    335          1.126152        2.453835  -0.034972  -0.000000
    336          1.148372        2.460315  -0.030572  -0.000000
    337          1.215288        2.469411  -0.011637  -0.000000
    338          1.231211        2.475730  -0.008427  -0.000000
    339          1.295470        2.482537  -0.001700  -0.000000
    340          1.306607        2.487303  -0.001231  -0.000000
    341          1.362156        2.498469  -0.000204  -0.000000
    342          1.409515        2.499559  -0.000035  -0.000000
    343          1.424360        2.504454  -0.000019  -0.000000
    344          1.460518        2.512747  -0.000004  -0.000000
    345          1.524056        2.525273  -0.000000  -0.000000
    346          1.540127        2.530799  -0.000000  -0.000000
    347          1.668521        2.537205  -0.000000  -0.000000
    348          1.682275        2.551321  -0.000000  -0.000000
    349          1.692946        2.562524  -0.000000  -0.000000
    350          1.736872        2.567005  -0.000000  -0.000000
    351          1.789983        2.568107  -0.000000  -0.000000
    352          1.796420        2.580263  -0.000000  -0.000000
    353          1.818417        2.586110  -0.000000  -0.000000
    354          1.838809        2.591057  -0.000000  -0.000000
    355          1.853534        2.594836  -0.000000  -0.000000
    356          1.883991        2.602743  -0.000000  -0.000000
    357          1.927204        2.612047  -0.000000  -0.000000
    358          1.958173        2.623354  -0.000000  -0.000000
    359          1.985484        2.635038  -0.000000  -0.000000
    360          1.987564        2.645203  -0.000000  -0.000000
    361          2.048164        2.657123  -0.000000  -0.000000
    362          2.057217        2.689903  -0.000000  -0.000000
    363          2.121700        2.706316  -0.000000  -0.000000
    364          2.166878        2.718795  -0.000000  -0.000000
    365          2.178209        2.777985  -0.000000  -0.000000
    366          2.208215        2.805903  -0.000000  -0.000000
    367          2.234607        2.822557  -0.000000  -0.000000
    368          2.283389        2.859519  -0.000000  -0.000000
    369          2.324862        2.902527  -0.000000  -0.000000
