<?xml version="1.0" encoding="ISO-8859-1"?>
<modeling>
 <generator>
  <i name="program" type="string">vasp </i>
  <i name="version" type="string">6.5.1  </i>
  <i name="subversion" type="string">10Mar25 (build Oct 09 2025 23:55:08) complex                          parallel </i>
  <i name="platform" type="string">LinuxIFC </i>
  <i name="date" type="string">2025 10 22 </i>
  <i name="time" type="string">17:03:56 </i>
 </generator>
 <incar>
  <i type="string" name="SYSTEM">INCAR-For-OPT</i>
  <i type="int" name="ISTART">     1</i>
  <i type="string" name="PREC">Accurate</i>
  <i type="string" name="ALGO">Fast</i>
  <i type="int" name="ISPIN">     2</i>
  <i type="int" name="IMIX">     4</i>
  <i name="AMIX">      0.05000000</i>
  <i name="BMIX">      0.00010000</i>
  <i name="AMIN">      0.01000000</i>
  <i type="int" name="ICHARG">     1</i>
  <i type="int" name="NELM">   150</i>
  <i type="int" name="IBRION">     2</i>
  <i name="EDIFF">      0.00001000</i>
  <i name="EDIFFG">     -0.02000000</i>
  <i type="int" name="NSW">   300</i>
  <i type="int" name="ISIF">     2</i>
  <i name="ENCUT">    450.00000000</i>
  <i type="string" name="LREAL">Auto</i>
  <i type="int" name="ISMEAR">     1</i>
  <i name="SIGMA">      0.15000000</i>
  <i type="int" name="LMAXMIX">     4</i>
  <i type="logical" name="LWAVE"> F  </i>
  <i type="logical" name="LCHARG"> F  </i>
  <i type="logical" name="LDIPOL"> T  </i>
  <i type="int" name="IDIPOL">     3</i>
 </incar>
 <primitive_cell>
  <structure name="primitive_cell" >
   <crystal>
    <varray name="basis" >
     <v>       8.50460000       0.00000000       0.00000000 </v>
     <v>      -0.00109899       8.50909993       0.00000000 </v>
     <v>       0.00000000       0.00000000      23.55660000 </v>
    </varray>
    <i name="volume">   1704.70848813 </i>
    <varray name="rec_basis" >
     <v>       0.11758343       0.00001519       0.00000000 </v>
     <v>       0.00000000       0.11752124       0.00000000 </v>
     <v>       0.00000000       0.00000000       0.04245095 </v>
    </varray>
   </crystal>
   <varray name="positions" >
    <v>       0.99760000       0.00330000       0.24221000 </v>
    <v>       0.66561000       0.99834000       0.00060000 </v>
    <v>       0.65780000       0.99175000       0.36915000 </v>
    <v>       0.83467000       0.16589000       0.18209000 </v>
    <v>       0.99866000       0.33404000       0.12198000 </v>
    <v>       0.33421000       0.33147000       0.00101000 </v>
    <v>       0.33550000       0.32849000       0.36462000 </v>
    <v>       0.83220000       0.50025000       0.06275000 </v>
    <v>       0.83521000       0.49603000       0.30307000 </v>
    <v>       0.33512000       0.67037000       0.00000000 </v>
    <v>       0.33145000       0.66488000       0.12292000 </v>
    <v>       0.49962000       0.83335000       0.30679000 </v>
    <v>       0.67111000       0.66550000       0.12148000 </v>
    <v>       0.99950000       0.00032000       0.00103000 </v>
    <v>       0.00316000       0.99914000       0.36086000 </v>
    <v>       0.16670000       0.16592000       0.06160000 </v>
    <v>       0.99930000       0.00013000       0.12183000 </v>
    <v>       0.16670000       0.16692000       0.18170000 </v>
    <v>       0.16360000       0.16604000       0.30346000 </v>
    <v>       0.33368000       0.99986000       0.00108000 </v>
    <v>       0.32756000       0.01025000       0.36209000 </v>
    <v>       0.50008000       0.16606000       0.06164000 </v>
    <v>       0.33365000       0.99945000       0.12194000 </v>
    <v>       0.50013000       0.16657000       0.18176000 </v>
    <v>       0.33374000       0.99994000       0.24252000 </v>
    <v>       0.50066000       0.16830000       0.30318000 </v>
    <v>       0.83412000       0.16807000       0.06130000 </v>
    <v>       0.66767000       0.99972000       0.12168000 </v>
    <v>       0.66792000       0.00032000       0.24233000 </v>
    <v>       0.83272000       0.16753000       0.30371000 </v>
    <v>       0.00033000       0.33346000       0.00076000 </v>
    <v>       0.00522000       0.33193000       0.36210000 </v>
    <v>       0.16704000       0.50116000       0.06077000 </v>
    <v>       0.16627000       0.49940000       0.18238000 </v>
    <v>       1.00000000       0.33319000       0.24260000 </v>
    <v>       0.16947000       0.50324000       0.30406000 </v>
    <v>       0.49811000       0.50186000       0.06112000 </v>
    <v>       0.33328000       0.33434000       0.12148000 </v>
    <v>       0.50051000       0.50053000       0.18145000 </v>
    <v>       0.33392000       0.33269000       0.24229000 </v>
    <v>       0.49943000       0.50325000       0.30315000 </v>
    <v>       0.66687000       0.33418000       0.00129000 </v>
    <v>       0.66046000       0.33421000       0.36172000 </v>
    <v>       0.66670000       0.33332000       0.12177000 </v>
    <v>       0.83466000       0.49916000       0.18181000 </v>
    <v>       0.66748000       0.33291000       0.24234000 </v>
    <v>       0.99949000       0.66581000       0.00112000 </v>
    <v>       0.99206000       0.66651000       0.36146000 </v>
    <v>       0.16773000       0.83295000       0.06141000 </v>
    <v>       0.00149000       0.66672000       0.12196000 </v>
    <v>       0.16592000       0.83389000       0.18235000 </v>
    <v>       0.99950000       0.66635000       0.24245000 </v>
    <v>       0.16845000       0.83046000       0.30381000 </v>
    <v>       0.49825000       0.83185000       0.06189000 </v>
    <v>       0.50064000       0.83335000       0.18189000 </v>
    <v>       0.33424000       0.66627000       0.24239000 </v>
    <v>       0.66521000       0.66629000       0.00100000 </v>
    <v>       0.67829000       0.65494000       0.36178000 </v>
    <v>       0.83382000       0.83268000       0.06128000 </v>
    <v>       0.83390000       0.83311000       0.18191000 </v>
    <v>       0.66721000       0.66675000       0.24221000 </v>
    <v>       0.83457000       0.83216000       0.30292000 </v>
    <v>       0.33574000       0.66271000       0.40844000 </v>
   </varray>
  </structure>
  <varray name="primitive_index" >
   <v type="int" >        1 </v>
   <v type="int" >        2 </v>
   <v type="int" >        3 </v>
   <v type="int" >        4 </v>
   <v type="int" >        5 </v>
   <v type="int" >        6 </v>
   <v type="int" >        7 </v>
   <v type="int" >        8 </v>
   <v type="int" >        9 </v>
   <v type="int" >       10 </v>
   <v type="int" >       11 </v>
   <v type="int" >       12 </v>
   <v type="int" >       13 </v>
   <v type="int" >       14 </v>
   <v type="int" >       15 </v>
   <v type="int" >       16 </v>
   <v type="int" >       17 </v>
   <v type="int" >       18 </v>
   <v type="int" >       19 </v>
   <v type="int" >       20 </v>
   <v type="int" >       21 </v>
   <v type="int" >       22 </v>
   <v type="int" >       23 </v>
   <v type="int" >       24 </v>
   <v type="int" >       25 </v>
   <v type="int" >       26 </v>
   <v type="int" >       27 </v>
   <v type="int" >       28 </v>
   <v type="int" >       29 </v>
   <v type="int" >       30 </v>
   <v type="int" >       31 </v>
   <v type="int" >       32 </v>
   <v type="int" >       33 </v>
   <v type="int" >       34 </v>
   <v type="int" >       35 </v>
   <v type="int" >       36 </v>
   <v type="int" >       37 </v>
   <v type="int" >       38 </v>
   <v type="int" >       39 </v>
   <v type="int" >       40 </v>
   <v type="int" >       41 </v>
   <v type="int" >       42 </v>
   <v type="int" >       43 </v>
   <v type="int" >       44 </v>
   <v type="int" >       45 </v>
   <v type="int" >       46 </v>
   <v type="int" >       47 </v>
   <v type="int" >       48 </v>
   <v type="int" >       49 </v>
   <v type="int" >       50 </v>
   <v type="int" >       51 </v>
   <v type="int" >       52 </v>
   <v type="int" >       53 </v>
   <v type="int" >       54 </v>
   <v type="int" >       55 </v>
   <v type="int" >       56 </v>
   <v type="int" >       57 </v>
   <v type="int" >       58 </v>
   <v type="int" >       59 </v>
   <v type="int" >       60 </v>
   <v type="int" >       61 </v>
   <v type="int" >       62 </v>
   <v type="int" >       63 </v>
  </varray>
 </primitive_cell>
 <kpoints>
  <generation param="Gamma">
   <v type="int" name="divisions">       4        4        1 </v>
   <v name="usershift">      0.00000000       0.00000000       0.00000000 </v>
   <v name="genvec1">      0.25000000      -0.00000000       0.00000000 </v>
   <v name="genvec2">      0.00000000       0.25000000       0.00000000 </v>
   <v name="genvec3">      0.00000000       0.00000000       1.00000000 </v>
   <v name="shift">      0.00000000       0.00000000       0.00000000 </v>
  </generation>
  <varray name="kpointlist" >
   <v>       0.00000000       0.00000000       0.00000000 </v>
   <v>       0.25000000       0.00000000       0.00000000 </v>
   <v>       0.50000000       0.00000000       0.00000000 </v>
   <v>       0.00000000       0.25000000       0.00000000 </v>
   <v>       0.25000000       0.25000000       0.00000000 </v>
   <v>       0.50000000       0.25000000       0.00000000 </v>
   <v>      -0.25000000       0.25000000       0.00000000 </v>
   <v>       0.00000000       0.50000000       0.00000000 </v>
   <v>       0.25000000       0.50000000       0.00000000 </v>
   <v>       0.50000000       0.50000000       0.00000000 </v>
  </varray>
  <varray name="weights" >
   <v>       0.06250000 </v>
   <v>       0.12500000 </v>
   <v>       0.06250000 </v>
   <v>       0.12500000 </v>
   <v>       0.12500000 </v>
   <v>       0.12500000 </v>
   <v>       0.12500000 </v>
   <v>       0.06250000 </v>
   <v>       0.12500000 </v>
   <v>       0.06250000 </v>
  </varray>
 </kpoints>
 <parameters>
  <separator name="general" >
   <i type="string" name="SYSTEM">INCAR-For-OPT</i>
   <i type="logical" name="LCOMPAT"> F  </i>
  </separator>
  <separator name="electronic" >
   <i type="string" name="PREC">accura</i>
   <i name="ENMAX">    450.00000000</i>
   <i name="ENAUG">    519.42400000</i>
   <i name="EDIFF">      0.00001000</i>
   <i type="int" name="IALGO">    68</i>
   <i type="int" name="IWAVPR">    11</i>
   <i type="int" name="NBANDS">   369</i>
   <i type="int" name="NBANDSLOW">    -1</i>
   <i type="int" name="NBANDSHIGH">    -1</i>
   <i name="NELECT">    562.00000000</i>
   <i type="int" name="TURBO">     0</i>
   <i type="int" name="IRESTART">     0</i>
   <i type="int" name="NREBOOT">     0</i>
   <i type="int" name="NMIN">     0</i>
   <i name="EREF">      0.00000000</i>
   <separator name="electronic smearing" >
    <i type="int" name="ISMEAR">     1</i>
    <i name="SIGMA">      0.15000000</i>
    <i name="KSPACING">      0.50000000</i>
    <i type="logical" name="KGAMMA"> T  </i>
    <i type="logical" name="KBLOWUP"> T  </i>
   </separator>
   <separator name="electronic projectors" >
    <i type="logical" name="LREAL"> T  </i>
    <v name="ROPT">     -0.00025000     -0.00025000     -0.00025000</v>
    <i type="int" name="LMAXPAW">  -100</i>
    <i type="int" name="LMAXMIX">     4</i>
    <i type="logical" name="NLSPLINE"> F  </i>
   </separator>
   <separator name="electronic startup" >
    <i type="int" name="ISTART">     0</i>
    <i type="int" name="ICHARG">     1</i>
    <i type="int" name="INIWAV">     1</i>
   </separator>
   <separator name="electronic spin" >
    <i type="int" name="ISPIN">     2</i>
    <i type="logical" name="LNONCOLLINEAR"> F  </i>
    <v name="MAGMOM">      1.00000000      1.00000000      1.00000000      1.00000000      1.00000000      1.00000000      1.00000000      1.00000000      1.00000000      1.00000000      1.00000000      1.00000000      1.00000000      1.00000000      1.00000000      1.00000000      1.00000000      1.00000000      1.00000000      1.00000000
      1.00000000      1.00000000      1.00000000      1.00000000      1.00000000      1.00000000      1.00000000      1.00000000      1.00000000      1.00000000      1.00000000      1.00000000      1.00000000      1.00000000      1.00000000      1.00000000      1.00000000      1.00000000      1.00000000      1.00000000
      1.00000000      1.00000000      1.00000000      1.00000000      1.00000000      1.00000000      1.00000000      1.00000000      1.00000000      1.00000000      1.00000000      1.00000000      1.00000000      1.00000000      1.00000000      1.00000000      1.00000000      1.00000000      1.00000000      1.00000000
      1.00000000      1.00000000      1.00000000</v>
    <i name="NUPDOWN">     -1.00000000</i>
    <i type="logical" name="LSORBIT"> F  </i>
    <v name="SAXIS">      0.00000000      0.00000000      1.00000000</v>
    <i type="logical" name="LSPIRAL"> F  </i>
    <v name="QSPIRAL">      0.00000000      0.00000000      0.00000000</v>
    <i type="logical" name="LZEROZ"> F  </i>
   </separator>
   <separator name="electronic exchange-correlation" >
    <i type="logical" name="LASPH"> F  </i>
   </separator>
   <separator name="electronic convergence" >
    <i type="int" name="NELM">   150</i>
    <i type="int" name="NELMDL">     0</i>
    <i type="int" name="NELMIN">     2</i>
    <i name="ENINI">    450.00000000</i>
    <separator name="electronic convergence detail" >
     <i type="logical" name="LDIAG"> T  </i>
     <i type="logical" name="LSUBROT"> F  </i>
     <i type="logical" name="LROBUST"> F  </i>
     <i type="int" name="ISEARCH">     0</i>
     <i name="WEIMIN">      0.00100000</i>
     <i name="EBREAK">      0.00000001</i>
     <i name="DEPER">      0.30000000</i>
     <i type="int" name="NRMM">     4</i>
     <i name="TIME">      0.40000000</i>
    </separator>
   </separator>
   <separator name="electronic mixer" >
    <i name="AMIX">      0.05000000</i>
    <i name="BMIX">      0.00010000</i>
    <i name="AMIN">      0.01000000</i>
    <i name="AMIX_MAG">      0.20000000</i>
    <i name="BMIX_MAG">      0.00010000</i>
    <separator name="electronic mixer details" >
     <i type="int" name="IMIX">     4</i>
     <i type="logical" name="MIXFIRST"> F  </i>
     <i type="int" name="MAXMIX">   -45</i>
     <i name="WC">    100.00000000</i>
     <i type="int" name="INIMIX">     1</i>
     <i type="int" name="MIXPRE">     1</i>
     <i type="int" name="MREMOVE">     5</i>
    </separator>
   </separator>
   <separator name="electronic dipolcorrection" >
    <i type="logical" name="LDIPOL"> T  </i>
    <i type="logical" name="LMONO"> F  </i>
    <i type="int" name="IDIPOL">     3</i>
    <i name="EPSILON">      1.00000000</i>
    <v name="DIPOL">   -100.00000000   -100.00000000   -100.00000000</v>
    <i name="EFIELD">      0.00000000</i>
    <i type="logical" name="LVACPOTAV"> F  </i>
   </separator>
  </separator>
  <separator name="grids" >
   <i type="int" name="NGX">    60</i>
   <i type="int" name="NGY">    60</i>
   <i type="int" name="NGZ">   168</i>
   <i type="int" name="NGXF">   120</i>
   <i type="int" name="NGYF">   120</i>
   <i type="int" name="NGZF">   336</i>
   <i type="logical" name="ADDGRID"> F  </i>
  </separator>
  <separator name="ionic" >
   <i type="int" name="NSW">   300</i>
   <i type="int" name="IBRION">     2</i>
   <i type="int" name="MDALGO">     0</i>
   <i type="int" name="ISIF">     2</i>
   <i name="PSTRESS">      0.00000000</i>
   <i name="EDIFFG">     -0.02000000</i>
   <i type="int" name="NFREE">     1</i>
   <i name="POTIM">      0.50000000</i>
   <i name="SMASS">     -3.00000000</i>
   <i name="SCALEE">      1.00000000</i>
  </separator>
  <separator name="ionic md" >
   <i name="TEBEG">      0.00010000</i>
   <i name="TEEND">      0.00010000</i>
   <i type="int" name="NBLOCK">     1</i>
   <i type="int" name="KBLOCK">   300</i>
   <i type="int" name="NPACO">   256</i>
   <i name="APACO">     10.00000000</i>
  </separator>
  <separator name="symmetry" >
   <i type="int" name="ISYM">     2</i>
   <i name="SYMPREC">      0.00001000</i>
  </separator>
  <separator name="dos" >
   <i type="int" name="LORBIT">     0</i>
   <v name="RWIGS">     -1.00000000     -1.00000000     -1.00000000</v>
   <i type="int" name="NEDOS">   301</i>
   <i name="EMIN">     10.00000000</i>
   <i name="EMAX">    -10.00000000</i>
   <i name="EFERMI">      0.00000000</i>
  </separator>
  <separator name="writing" >
   <i type="int" name="NWRITE">     2</i>
   <i type="logical" name="LWAVE"> F  </i>
   <i type="logical" name="LDOWNSAMPLE"> F  </i>
   <i type="logical" name="LCHARG"> F  </i>
   <i type="logical" name="LPARD"> F  </i>
   <i type="logical" name="LVTOT"> F  </i>
   <i type="logical" name="LVHAR"> F  </i>
   <i type="logical" name="LELF"> F  </i>
   <i type="logical" name="LOPTICS"> F  </i>
   <v name="STM">      0.00000000      0.00000000      0.00000000      0.00000000      0.00000000      0.00000000      0.00000000</v>
  </separator>
  <separator name="performance" >
   <i type="int" name="NPAR">     3</i>
   <i type="int" name="NSIM">     4</i>
   <i type="int" name="NBLK">    -1</i>
   <i type="logical" name="LPLANE"> T  </i>
   <i type="logical" name="LSCALAPACK"> T  </i>
   <i type="logical" name="LSCAAWARE"> F  </i>
   <i type="logical" name="LSCALU"> F  </i>
   <i type="logical" name="LASYNC"> F  </i>
   <i type="logical" name="LORBITALREAL"> F  </i>
  </separator>
  <separator name="miscellaneous" >
   <i type="int" name="IDIOT">     3</i>
   <i type="int" name="PHON_NSTRUCT">    -1</i>
   <i type="logical" name="LMUSIC"> F  </i>
   <v name="POMASS">     51.99600000     55.84700000    207.20000000</v>
   <v name="DARWINR">      0.00000000      0.00000000      0.00000000</v>
   <v name="DARWINV">      1.00000000      1.00000000      1.00000000</v>
   <i type="logical" name="LCORR"> T  </i>
  </separator>
  <i type="logical" name="GGA_COMPAT"> T  </i>
  <i type="logical" name="LBERRY"> F  </i>
  <i type="int" name="ICORELEVEL">     0</i>
  <i type="logical" name="LDAU"> F  </i>
  <i type="int" name="I_CONSTRAINED_M">     0</i>
  <separator name="electronic exchange-correlation" >
   <i type="string" name="GGA    ">PE</i>
   <i type="string" name="XC_C">1</i>
   <i type="int" name="VOSKOWN">     0</i>
   <i type="logical" name="LHFCALC"> F  </i>
   <i type="string" name="PRECFOCK"></i>
   <i type="logical" name="LSYMGRAD"> F  </i>
   <i type="logical" name="LHFONE"> F  </i>
   <i type="logical" name="LRHFCALC"> F  </i>
   <i type="logical" name="LTHOMAS"> F  </i>
   <i type="logical" name="LMODELHF"> F  </i>
   <i type="logical" name="LFOCKACE"> F  </i>
   <i name="ENCUT4O">     -1.00000000</i>
   <i type="int" name="EXXOEP">     0</i>
   <i type="int" name="FOURORBIT">     0</i>
   <i name="AEXX">      0.00000000</i>
   <i name="HFALPHA">      0.00000000</i>
   <i name="MCALPHA">      0.00000000</i>
   <i name="ALDAX">      1.00000000</i>
   <i name="AGGAX">      1.00000000</i>
   <i name="AMGGAX">      1.00000000</i>
   <i name="ALDAC">      1.00000000</i>
   <i name="AGGAC">      1.00000000</i>
   <i name="AMGGAC">      1.00000000</i>
   <i type="int" name="NKREDX">     1</i>
   <i type="int" name="NKREDY">     1</i>
   <i type="int" name="NKREDZ">     1</i>
   <i type="logical" name="SHIFTRED"> F  </i>
   <i type="logical" name="ODDONLY"> F  </i>
   <i type="logical" name="EVENONLY"> F  </i>
   <i type="int" name="LMAXFOCK">     0</i>
   <i type="int" name="NMAXFOCKAE">     0</i>
   <i type="logical" name="LFOCKAEDFT"> F  </i>
   <i name="HFSCREEN">      0.00000000</i>
   <i name="HFSCREENC">      0.00000000</i>
   <i type="int" name="NBANDSGWLOW">     0</i>
  </separator>
  <separator name="vdW DFT" >
   <i type="logical" name="LUSE_VDW"> F  </i>
   <i type="int" name="IVDW_NL">    -1</i>
   <i type="logical" name="LSPIN_VDW"> F  </i>
   <i name="ZAB_VDW">     -0.84910000</i>
   <i name="GAMMA_VDW">      1.39626340</i>
   <i name="ALPHA_VDW">      0.00000000</i>
   <i name="PARAM1">      0.12340000</i>
   <i name="PARAM2">      1.00000000</i>
   <i name="BPARAM">      6.30000000</i>
   <i name="CPARAM">      0.00930000</i>
  </separator>
  <separator name="model GW" >
   <i type="int" name="MODEL_GW">     0</i>
   <i name="MODEL_EPS0">     16.23531893</i>
   <i name="MODEL_ALPHA">      1.00000000</i>
  </separator>
  <separator name="linear response parameters" >
   <i type="logical" name="LEPSILON"> F  </i>
   <i type="logical" name="LRPA"> F  </i>
   <i type="logical" name="LNABLA"> F  </i>
   <i type="logical" name="LVEL"> F  </i>
   <i name="CSHIFT">      0.10000000</i>
   <i name="OMEGAMAX">     -1.00000000</i>
   <i name="DEG_THRESHOLD">      0.00200000</i>
   <i name="RTIME">     -0.10000000</i>
   <i name="WPLASMAI">      0.00000000</i>
   <v name="DFIELD">      0.00000000      0.00000000      0.00000000</v>
   <v name="WPLASMA">      0.00000000      0.00000000      0.00000000      0.00000000      0.00000000      0.00000000      0.00000000      0.00000000      0.00000000</v>
  </separator>
  <separator name="orbital magnetization" >
   <i type="logical" name="NUCIND"> F  </i>
   <v name="MAGPOS">      0.00000000      0.00000000      0.00000000</v>
   <i type="logical" name="LNICSALL"> T  </i>
   <i type="logical" name="ORBITALMAG"> F  </i>
   <i type="logical" name="LMAGBLOCH"> F  </i>
   <i type="logical" name="LCHIMAG"> F  </i>
   <i type="logical" name="LGAUGE"> T  </i>
   <i type="int" name="MAGATOM">     0</i>
   <v name="MAGDIPOL">      0.00000000      0.00000000      0.00000000</v>
   <v name="AVECCONST">      0.00000000      0.00000000      0.00000000</v>
  </separator>
  <separator name="response functions" >
   <i type="logical" name="LALL_IN_ONE"> F  </i>
   <i type="int" name="IALL_IN_ONE">    -1</i>
   <i type="int" name="NBANDS_WAVE">    -1</i>
   <i type="logical" name="LFINITE_TEMPERATURE"> F  </i>
   <i type="logical" name="LADDER"> F  </i>
   <i type="logical" name="LRPAFORCE"> F  </i>
   <i type="logical" name="LFXC"> F  </i>
   <i type="logical" name="LHARTREE"> T  </i>
   <i type="int" name="IBSE">     2</i>
   <v type="int" name="KPOINT">    -1     0     0     0</v>
   <i type="logical" name="LTCTC"> F  </i>
   <i type="logical" name="LTCTE"> F  </i>
   <i type="logical" name="LTETE"> F  </i>
   <i type="logical" name="LTRIPLET"> F  </i>
   <i type="logical" name="LFXCEPS"> F  </i>
   <i type="logical" name="LFXHEG"> F  </i>
   <i type="int" name="NATURALO">     2</i>
   <i type="logical" name="LHOLEGF"> F  </i>
   <i type="logical" name="L2ORDER"> F  </i>
   <i type="logical" name="LDMP1"> F  </i>
   <i type="logical" name="LMP2LT"> F  </i>
   <i type="logical" name="LSMP2LT"> F  </i>
   <i type="logical" name="LGWLF"> F  </i>
   <i name="ENCUTGW">     -1.60000002</i>
   <i name="ENCUTGWSOFT">     -1.60000002</i>
   <i name="ENCUTLF">     -1.00000000</i>
   <i type="logical" name="ESF_SPLINES"> F  </i>
   <i name="ESF_CONV">      0.01000000</i>
   <i type="int" name="ESF_NINTER">    15</i>
   <i type="int" name="LMAXMP2">    -1</i>
   <i name="SCISSOR">      0.00000000</i>
   <i type="int" name="NOMEGA">     0</i>
   <i type="int" name="NOMEGAR">     0</i>
   <i type="int" name="NBANDSGW">    -1</i>
   <i type="int" name="NBANDSO">    -1</i>
   <i type="int" name="NBANDSV">    -1</i>
   <i type="int" name="NELMGW">     1</i>
   <i type="int" name="NELMHF">     1</i>
   <i type="int" name="DIM">     3</i>
   <i type="int" name="IESPILON">     4</i>
   <i type="int" name="ANTIRES">     0</i>
   <i name="OMEGAMAX">    -30.00000000</i>
   <i name="OMEGAMIN">    -30.00000000</i>
   <i name="OMEGATL">   -200.00000000</i>
   <i type="int" name="OMEGAGRID">     0</i>
   <i name="CSHIFT">     -0.10000000</i>
   <i type="logical" name="LSELFENERGY"> F  </i>
   <i type="logical" name="LSPECTRAL"> F  </i>
   <i type="logical" name="LSPECTRALGW"> F  </i>
   <i type="logical" name="LSINGLES"> F  </i>
   <i type="logical" name="LFERMIGW"> F  </i>
   <i type="logical" name="ODDONLYGW"> F  </i>
   <i type="logical" name="EVENONLYGW"> F  </i>
   <i type="int" name="NKREDLFX">     1</i>
   <i type="int" name="NKREDLFY">     1</i>
   <i type="int" name="NKREDLFZ">     1</i>
   <i type="int" name="MAXMEM">  2800</i>
   <i type="int" name="TELESCOPE">     0</i>
   <i type="int" name="NTAUPAR">    -1</i>
   <i type="int" name="NOMEGAPAR">    -1</i>
   <i name="DAMP_NEWTON">      0.80000001</i>
   <i name="LAMBDA">      1.00000000</i>
  </separator>
  <separator name="External order field" >
   <i name="OFIELD_KAPPA">      0.00000000</i>
   <v name="OFIELD_K">      0.00000000      0.00000000      0.00000000</v>
   <i name="OFIELD_Q6_NEAR">      0.00000000</i>
   <i name="OFIELD_Q6_FAR">      0.00000000</i>
   <i name="OFIELD_A">      0.00000000</i>
  </separator>
  <separator name="optional k-points parameters" >
   <i type="int" name="KPOINTS_OPT_MODE">     1</i>
   <i type="logical" name="LKPOINTS_OPT"> F  </i>
  </separator>
 </parameters>
 <atominfo>
  <atoms>      63 </atoms>
  <types>       3 </types>
  <array name="atoms" >
   <dimension dim="1">ion</dimension>
   <field type="string">element</field>
   <field type="int">atomtype</field>
   <set>
    <rc><c>Cr</c><c>   1</c></rc>
    <rc><c>Cr</c><c>   1</c></rc>
    <rc><c>Cr</c><c>   1</c></rc>
    <rc><c>Cr</c><c>   1</c></rc>
    <rc><c>Cr</c><c>   1</c></rc>
    <rc><c>Cr</c><c>   1</c></rc>
    <rc><c>Cr</c><c>   1</c></rc>
    <rc><c>Cr</c><c>   1</c></rc>
    <rc><c>Cr</c><c>   1</c></rc>
    <rc><c>Cr</c><c>   1</c></rc>
    <rc><c>Cr</c><c>   1</c></rc>
    <rc><c>Cr</c><c>   1</c></rc>
    <rc><c>Cr</c><c>   1</c></rc>
    <rc><c>Fe</c><c>   2</c></rc>
    <rc><c>Fe</c><c>   2</c></rc>
    <rc><c>Fe</c><c>   2</c></rc>
    <rc><c>Fe</c><c>   2</c></rc>
    <rc><c>Fe</c><c>   2</c></rc>
    <rc><c>Fe</c><c>   2</c></rc>
    <rc><c>Fe</c><c>   2</c></rc>
    <rc><c>Fe</c><c>   2</c></rc>
    <rc><c>Fe</c><c>   2</c></rc>
    <rc><c>Fe</c><c>   2</c></rc>
    <rc><c>Fe</c><c>   2</c></rc>
    <rc><c>Fe</c><c>   2</c></rc>
    <rc><c>Fe</c><c>   2</c></rc>
    <rc><c>Fe</c><c>   2</c></rc>
    <rc><c>Fe</c><c>   2</c></rc>
    <rc><c>Fe</c><c>   2</c></rc>
    <rc><c>Fe</c><c>   2</c></rc>
    <rc><c>Fe</c><c>   2</c></rc>
    <rc><c>Fe</c><c>   2</c></rc>
    <rc><c>Fe</c><c>   2</c></rc>
    <rc><c>Fe</c><c>   2</c></rc>
    <rc><c>Fe</c><c>   2</c></rc>
    <rc><c>Fe</c><c>   2</c></rc>
    <rc><c>Fe</c><c>   2</c></rc>
    <rc><c>Fe</c><c>   2</c></rc>
    <rc><c>Fe</c><c>   2</c></rc>
    <rc><c>Fe</c><c>   2</c></rc>
    <rc><c>Fe</c><c>   2</c></rc>
    <rc><c>Fe</c><c>   2</c></rc>
    <rc><c>Fe</c><c>   2</c></rc>
    <rc><c>Fe</c><c>   2</c></rc>
    <rc><c>Fe</c><c>   2</c></rc>
    <rc><c>Fe</c><c>   2</c></rc>
    <rc><c>Fe</c><c>   2</c></rc>
    <rc><c>Fe</c><c>   2</c></rc>
    <rc><c>Fe</c><c>   2</c></rc>
    <rc><c>Fe</c><c>   2</c></rc>
    <rc><c>Fe</c><c>   2</c></rc>
    <rc><c>Fe</c><c>   2</c></rc>
    <rc><c>Fe</c><c>   2</c></rc>
    <rc><c>Fe</c><c>   2</c></rc>
    <rc><c>Fe</c><c>   2</c></rc>
    <rc><c>Fe</c><c>   2</c></rc>
    <rc><c>Fe</c><c>   2</c></rc>
    <rc><c>Fe</c><c>   2</c></rc>
    <rc><c>Fe</c><c>   2</c></rc>
    <rc><c>Fe</c><c>   2</c></rc>
    <rc><c>Fe</c><c>   2</c></rc>
    <rc><c>Fe</c><c>   2</c></rc>
    <rc><c>Pb</c><c>   3</c></rc>
   </set>
  </array>
  <array name="atomtypes" >
   <dimension dim="1">type</dimension>
   <field type="int">atomspertype</field>
   <field type="string">element</field>
   <field>mass</field>
   <field>valence</field>
   <field type="string">pseudopotential</field>
   <set>
    <rc><c>  13</c><c>Cr</c><c>     51.99600000</c><c>     12.00000000</c><c>  PAW_PBE Cr_pv 02Aug2007               </c></rc>
    <rc><c>  49</c><c>Fe</c><c>     55.84700000</c><c>      8.00000000</c><c>  PAW_PBE Fe 06Sep2000                  </c></rc>
    <rc><c>   1</c><c>Pb</c><c>    207.20000000</c><c>     14.00000000</c><c>  PAW_PBE Pb_d 06Sep2000                </c></rc>
   </set>
  </array>
 </atominfo>
 <structure name="initialpos" >
  <crystal>
   <varray name="basis" >
    <v>       8.50460000       0.00000000       0.00000000 </v>
    <v>      -0.00109899       8.50909993       0.00000000 </v>
    <v>       0.00000000       0.00000000      23.55660000 </v>
   </varray>
   <i name="volume">   1704.70848813 </i>
   <varray name="rec_basis" >
    <v>       0.11758343       0.00001519       0.00000000 </v>
    <v>       0.00000000       0.11752124       0.00000000 </v>
    <v>       0.00000000       0.00000000       0.04245095 </v>
   </varray>
  </crystal>
  <varray name="positions" >
   <v>       0.99760000       0.00330000       0.24221000 </v>
   <v>       0.66561000       0.99834000       0.00060000 </v>
   <v>       0.65780000       0.99175000       0.36915000 </v>
   <v>       0.83467000       0.16589000       0.18209000 </v>
   <v>       0.99866000       0.33404000       0.12198000 </v>
   <v>       0.33421000       0.33147000       0.00101000 </v>
   <v>       0.33550000       0.32849000       0.36462000 </v>
   <v>       0.83220000       0.50025000       0.06275000 </v>
   <v>       0.83521000       0.49603000       0.30307000 </v>
   <v>       0.33512000       0.67037000       0.00000000 </v>
   <v>       0.33145000       0.66488000       0.12292000 </v>
   <v>       0.49962000       0.83335000       0.30679000 </v>
   <v>       0.67111000       0.66550000       0.12148000 </v>
   <v>       0.99950000       0.00032000       0.00103000 </v>
   <v>       0.00316000       0.99914000       0.36086000 </v>
   <v>       0.16670000       0.16592000       0.06160000 </v>
   <v>       0.99930000       0.00013000       0.12183000 </v>
   <v>       0.16670000       0.16692000       0.18170000 </v>
   <v>       0.16360000       0.16604000       0.30346000 </v>
   <v>       0.33368000       0.99986000       0.00108000 </v>
   <v>       0.32756000       0.01025000       0.36209000 </v>
   <v>       0.50008000       0.16606000       0.06164000 </v>
   <v>       0.33365000       0.99945000       0.12194000 </v>
   <v>       0.50013000       0.16657000       0.18176000 </v>
   <v>       0.33374000       0.99994000       0.24252000 </v>
   <v>       0.50066000       0.16830000       0.30318000 </v>
   <v>       0.83412000       0.16807000       0.06130000 </v>
   <v>       0.66767000       0.99972000       0.12168000 </v>
   <v>       0.66792000       0.00032000       0.24233000 </v>
   <v>       0.83272000       0.16753000       0.30371000 </v>
   <v>       0.00033000       0.33346000       0.00076000 </v>
   <v>       0.00522000       0.33193000       0.36210000 </v>
   <v>       0.16704000       0.50116000       0.06077000 </v>
   <v>       0.16627000       0.49940000       0.18238000 </v>
   <v>       0.00000000       0.33319000       0.24260000 </v>
   <v>       0.16947000       0.50324000       0.30406000 </v>
   <v>       0.49811000       0.50186000       0.06112000 </v>
   <v>       0.33328000       0.33434000       0.12148000 </v>
   <v>       0.50051000       0.50053000       0.18145000 </v>
   <v>       0.33392000       0.33269000       0.24229000 </v>
   <v>       0.49943000       0.50325000       0.30315000 </v>
   <v>       0.66687000       0.33418000       0.00129000 </v>
   <v>       0.66046000       0.33421000       0.36172000 </v>
   <v>       0.66670000       0.33332000       0.12177000 </v>
   <v>       0.83466000       0.49916000       0.18181000 </v>
   <v>       0.66748000       0.33291000       0.24234000 </v>
   <v>       0.99949000       0.66581000       0.00112000 </v>
   <v>       0.99206000       0.66651000       0.36146000 </v>
   <v>       0.16773000       0.83295000       0.06141000 </v>
   <v>       0.00149000       0.66672000       0.12196000 </v>
   <v>       0.16592000       0.83389000       0.18235000 </v>
   <v>       0.99950000       0.66635000       0.24245000 </v>
   <v>       0.16845000       0.83046000       0.30381000 </v>
   <v>       0.49825000       0.83185000       0.06189000 </v>
   <v>       0.50064000       0.83335000       0.18189000 </v>
   <v>       0.33424000       0.66627000       0.24239000 </v>
   <v>       0.66521000       0.66629000       0.00100000 </v>
   <v>       0.67829000       0.65494000       0.36178000 </v>
   <v>       0.83382000       0.83268000       0.06128000 </v>
   <v>       0.83390000       0.83311000       0.18191000 </v>
   <v>       0.66721000       0.66675000       0.24221000 </v>
   <v>       0.83457000       0.83216000       0.30292000 </v>
   <v>       0.33574000       0.66271000       0.40844000 </v>
  </varray>
  <varray name="selective"  type="logical" >
   <v type="logical" >  F  F  F </v>
   <v type="logical" >  F  F  F </v>
   <v type="logical" >  T  T  T </v>
   <v type="logical" >  F  F  F </v>
   <v type="logical" >  F  F  F </v>
   <v type="logical" >  F  F  F </v>
   <v type="logical" >  T  T  T </v>
   <v type="logical" >  F  F  F </v>
   <v type="logical" >  T  T  T </v>
   <v type="logical" >  F  F  F </v>
   <v type="logical" >  F  F  F </v>
   <v type="logical" >  T  T  T </v>
   <v type="logical" >  F  F  F </v>
   <v type="logical" >  F  F  F </v>
   <v type="logical" >  T  T  T </v>
   <v type="logical" >  F  F  F </v>
   <v type="logical" >  F  F  F </v>
   <v type="logical" >  F  F  F </v>
   <v type="logical" >  T  T  T </v>
   <v type="logical" >  F  F  F </v>
   <v type="logical" >  T  T  T </v>
   <v type="logical" >  F  F  F </v>
   <v type="logical" >  F  F  F </v>
   <v type="logical" >  F  F  F </v>
   <v type="logical" >  F  F  F </v>
   <v type="logical" >  T  T  T </v>
   <v type="logical" >  F  F  F </v>
   <v type="logical" >  F  F  F </v>
   <v type="logical" >  F  F  F </v>
   <v type="logical" >  T  T  T </v>
   <v type="logical" >  F  F  F </v>
   <v type="logical" >  T  T  T </v>
   <v type="logical" >  F  F  F </v>
   <v type="logical" >  F  F  F </v>
   <v type="logical" >  F  F  F </v>
   <v type="logical" >  T  T  T </v>
   <v type="logical" >  F  F  F </v>
   <v type="logical" >  F  F  F </v>
   <v type="logical" >  F  F  F </v>
   <v type="logical" >  F  F  F </v>
   <v type="logical" >  T  T  T </v>
   <v type="logical" >  F  F  F </v>
   <v type="logical" >  T  T  T </v>
   <v type="logical" >  F  F  F </v>
   <v type="logical" >  F  F  F </v>
   <v type="logical" >  F  F  F </v>
   <v type="logical" >  F  F  F </v>
   <v type="logical" >  T  T  T </v>
   <v type="logical" >  F  F  F </v>
   <v type="logical" >  F  F  F </v>
   <v type="logical" >  F  F  F </v>
   <v type="logical" >  F  F  F </v>
   <v type="logical" >  T  T  T </v>
   <v type="logical" >  F  F  F </v>
   <v type="logical" >  F  F  F </v>
   <v type="logical" >  F  F  F </v>
   <v type="logical" >  F  F  F </v>
   <v type="logical" >  T  T  T </v>
   <v type="logical" >  F  F  F </v>
   <v type="logical" >  F  F  F </v>
   <v type="logical" >  F  F  F </v>
   <v type="logical" >  T  T  T </v>
   <v type="logical" >  T  T  T </v>
  </varray>
  <nose>
   <v>      -3.00000000       0.00000000       0.00010000       0.00010000 </v>
  </nose>
 </structure>
 <calculation>
  <scstep>
   <time name="dav">   15.54   15.65</time>
   <time name="total">   15.97   16.08</time>
   <dipole>
    <v name="dipole">      0.00000000       0.00000000      -0.00002314 </v>
    <i name="Tr[quadrupol]">  -7035.46810316 </i>
    <i name="Echarged">      0.00000000 </i>
    <i name="Edipol_quadrupol">      0.00000000 </i>
    <i name="Eion">      0.00000000 </i>
   </dipole>
   <energy>
    <i name="alphaZ">   1807.56327127 </i>
    <i name="ewald"> 205150.33274223 </i>
    <i name="hartreedc">-255514.64487604 </i>
    <i name="XCdc">    942.62501317 </i>
    <i name="pawpsdc">  45612.52296067 </i>
    <i name="pawaedc"> -46602.56091303 </i>
    <i name="eentropy">      0.00592110 </i>
    <i name="bandstr">   1927.42779621 </i>
    <i name="atom">  52205.67765473 </i>
    <i name="e_fr_energy">   5528.94957031 </i>
    <i name="e_wo_entrp">   5528.94364921 </i>
    <i name="e_0_energy">   5528.94759661 </i>
   </energy>
  </scstep>
  <scstep>
   <time name="dav">   14.91   15.00</time>
   <time name="total">   14.91   15.00</time>
   <dipole>
    <v name="dipole">      0.00000000       0.00000000      -0.00002314 </v>
    <i name="Tr[quadrupol]">  -7035.46810316 </i>
    <i name="Echarged">      0.00000000 </i>
    <i name="Edipol_quadrupol">      0.00000000 </i>
    <i name="Eion">      0.00000000 </i>
   </dipole>
   <energy>
    <i name="e_fr_energy">    -70.13873600 </i>
    <i name="e_wo_entrp">    -70.13886428 </i>
    <i name="e_0_energy">    -70.13877876 </i>
   </energy>
  </scstep>
  <scstep>
   <time name="dav">   15.23   15.32</time>
   <time name="total">   15.23   15.32</time>
   <dipole>
    <v name="dipole">      0.00000000       0.00000000      -0.00002314 </v>
    <i name="Tr[quadrupol]">  -7035.46810316 </i>
    <i name="Echarged">      0.00000000 </i>
    <i name="Edipol_quadrupol">      0.00000000 </i>
    <i name="Eion">      0.00000000 </i>
   </dipole>
   <energy>
    <i name="e_fr_energy">   -521.29258243 </i>
    <i name="e_wo_entrp">   -521.29045931 </i>
    <i name="e_0_energy">   -521.29187472 </i>
   </energy>
  </scstep>
  <scstep>
   <time name="dav">   23.62   23.77</time>
   <time name="total">   23.62   23.77</time>
   <dipole>
    <v name="dipole">      0.00000000       0.00000000      -0.00002314 </v>
    <i name="Tr[quadrupol]">  -7035.46810316 </i>
    <i name="Echarged">      0.00000000 </i>
    <i name="Edipol_quadrupol">      0.00000000 </i>
    <i name="Eion">      0.00000000 </i>
   </dipole>
   <energy>
    <i name="e_fr_energy">   -578.87637563 </i>
    <i name="e_wo_entrp">   -578.88574931 </i>
    <i name="e_0_energy">   -578.87950019 </i>
   </energy>
  </scstep>
  <scstep>
   <time name="dav">   22.06   22.24</time>
   <time name="total">   22.60   22.79</time>
   <dipole>
    <v name="dipole">      0.00000000       0.00000000      -0.00002314 </v>
    <i name="Tr[quadrupol]">  -7035.46810316 </i>
    <i name="Echarged">      0.00000000 </i>
    <i name="Edipol_quadrupol">      0.00000000 </i>
    <i name="Eion">      0.00000000 </i>
   </dipole>
   <energy>
    <i name="e_fr_energy">   -581.98411147 </i>
    <i name="e_wo_entrp">   -581.99879055 </i>
    <i name="e_0_energy">   -581.98900450 </i>
   </energy>
  </scstep>
  <scstep>
   <time name="diag">    1.90    1.92</time>
   <time name="diis">   10.22   10.36</time>
   <time name="orth">    0.44    0.44</time>
   <time name="total">   13.49   13.68</time>
   <dipole>
    <v name="dipole">      0.00000000       0.00000000       0.58991868 </v>
    <i name="Tr[quadrupol]">  -7057.97260097 </i>
    <i name="Echarged">      0.00000000 </i>
    <i name="Edipol_quadrupol">      0.00000000 </i>
    <i name="Eion">      0.00000000 </i>
   </dipole>
   <energy>
    <i name="e_fr_energy">   -654.17558574 </i>
    <i name="e_wo_entrp">   -654.19499970 </i>
    <i name="e_0_energy">   -654.18205706 </i>
   </energy>
  </scstep>
  <scstep>
   <time name="diag">    1.94    1.97</time>
   <time name="diis">    8.00    8.10</time>
   <time name="orth">    0.44    0.44</time>
   <time name="total">   11.33   11.48</time>
   <dipole>
    <v name="dipole">      0.00000000       0.00000000      -0.44934437 </v>
    <i name="Tr[quadrupol]">  -7046.19363955 </i>
    <i name="Echarged">      0.00000000 </i>
    <i name="Edipol_quadrupol">      0.00000000 </i>
    <i name="Eion">      0.00000000 </i>
   </dipole>
   <energy>
    <i name="e_fr_energy">   -562.02813341 </i>
    <i name="e_wo_entrp">   -562.00768806 </i>
    <i name="e_0_energy">   -562.02131830 </i>
   </energy>
  </scstep>
  <scstep>
   <time name="diag">    1.95    1.96</time>
   <time name="diis">   10.38   10.47</time>
   <time name="orth">    0.44    0.44</time>
   <time name="total">   13.71   13.82</time>
   <dipole>
    <v name="dipole">      0.00000000       0.00000000       1.29769656 </v>
    <i name="Tr[quadrupol]">  -7044.12511224 </i>
    <i name="Echarged">      0.00000000 </i>
    <i name="Edipol_quadrupol">      0.00000000 </i>
    <i name="Eion">      0.00000000 </i>
   </dipole>
   <energy>
    <i name="e_fr_energy">   -611.87206471 </i>
    <i name="e_wo_entrp">   -611.85463122 </i>
    <i name="e_0_energy">   -611.86625355 </i>
   </energy>
  </scstep>
  <scstep>
   <time name="diag">    1.90    1.92</time>
   <time name="diis">    8.41    8.49</time>
   <time name="orth">    0.44    0.44</time>
   <time name="total">   11.69   11.80</time>
   <dipole>
    <v name="dipole">      0.00000000       0.00000000      -0.46446613 </v>
    <i name="Tr[quadrupol]">  -7045.41303244 </i>
    <i name="Echarged">      0.00000000 </i>
    <i name="Edipol_quadrupol">      0.00000000 </i>
    <i name="Eion">      0.00000000 </i>
   </dipole>
   <energy>
    <i name="e_fr_energy">   -533.97884896 </i>
    <i name="e_wo_entrp">   -533.96186572 </i>
    <i name="e_0_energy">   -533.97318788 </i>
   </energy>
  </scstep>
  <scstep>
   <time name="diag">    1.90    1.92</time>
   <time name="diis">   10.13   10.19</time>
   <time name="orth">    0.44    0.44</time>
   <time name="total">   13.39   13.48</time>
   <dipole>
    <v name="dipole">      0.00000000       0.00000000       0.08598129 </v>
    <i name="Tr[quadrupol]">  -7048.25660276 </i>
    <i name="Echarged">      0.00000000 </i>
    <i name="Edipol_quadrupol">      0.00000000 </i>
    <i name="Eion">      0.00000000 </i>
   </dipole>
   <energy>
    <i name="e_fr_energy">   -503.53752064 </i>
    <i name="e_wo_entrp">   -503.54560161 </i>
    <i name="e_0_energy">   -503.54021430 </i>
   </energy>
  </scstep>
  <scstep>
   <time name="diag">    1.94    1.96</time>
   <time name="diis">   10.14   10.23</time>
   <time name="orth">    0.44    0.44</time>
   <time name="total">   13.49   13.61</time>
   <dipole>
    <v name="dipole">      0.00000000       0.00000000      -0.06833838 </v>
    <i name="Tr[quadrupol]">  -7052.60181067 </i>
    <i name="Echarged">      0.00000000 </i>
    <i name="Edipol_quadrupol">      0.00000000 </i>
    <i name="Eion">      0.00000000 </i>
   </dipole>
   <energy>
    <i name="e_fr_energy">   -491.66836993 </i>
    <i name="e_wo_entrp">   -491.72168251 </i>
    <i name="e_0_energy">   -491.68614079 </i>
   </energy>
  </scstep>
  <scstep>
   <time name="diag">    1.93    1.95</time>
   <time name="diis">    9.97   10.04</time>
   <time name="orth">    0.44    0.44</time>
   <time name="total">   13.31   13.42</time>
   <dipole>
    <v name="dipole">      0.00000000       0.00000000      -0.17939966 </v>
    <i name="Tr[quadrupol]">  -7055.47435999 </i>
    <i name="Echarged">      0.00000000 </i>
    <i name="Edipol_quadrupol">      0.00000000 </i>
    <i name="Eion">      0.00000000 </i>
   </dipole>
   <energy>
    <i name="e_fr_energy">   -492.28772887 </i>
    <i name="e_wo_entrp">   -492.31882624 </i>
    <i name="e_0_energy">   -492.29809466 </i>
   </energy>
  </scstep>
  <scstep>
   <time name="diag">    1.91    1.93</time>
   <time name="diis">   11.27   11.42</time>
   <time name="orth">    0.44    0.44</time>
   <time name="total">   14.56   14.74</time>
   <dipole>
    <v name="dipole">      0.00000000       0.00000000      -0.10568191 </v>
    <i name="Tr[quadrupol]">  -7056.89994805 </i>
    <i name="Echarged">      0.00000000 </i>
    <i name="Edipol_quadrupol">      0.00000000 </i>
    <i name="Eion">      0.00000000 </i>
   </dipole>
   <energy>
    <i name="e_fr_energy">   -491.46586550 </i>
    <i name="e_wo_entrp">   -491.51397515 </i>
    <i name="e_0_energy">   -491.48190205 </i>
   </energy>
  </scstep>
  <scstep>
   <time name="diag">    1.90    1.93</time>
   <time name="diis">   12.48   12.64</time>
   <time name="orth">    0.44    0.44</time>
   <time name="total">   15.77   15.98</time>
   <dipole>
    <v name="dipole">      0.00000000       0.00000000      -0.10886378 </v>
    <i name="Tr[quadrupol]">  -7057.03270687 </i>
    <i name="Echarged">      0.00000000 </i>
    <i name="Edipol_quadrupol">      0.00000000 </i>
    <i name="Eion">      0.00000000 </i>
   </dipole>
   <energy>
    <i name="e_fr_energy">   -491.67409783 </i>
    <i name="e_wo_entrp">   -491.72000526 </i>
    <i name="e_0_energy">   -491.68940030 </i>
   </energy>
  </scstep>
  <scstep>
   <time name="diag">    1.90    1.92</time>
   <time name="diis">   10.47   10.53</time>
   <time name="orth">    0.44    0.44</time>
   <time name="total">   13.75   13.84</time>
   <dipole>
    <v name="dipole">      0.00000000       0.00000000      -0.08037908 </v>
    <i name="Tr[quadrupol]">  -7056.40439476 </i>
    <i name="Echarged">      0.00000000 </i>
    <i name="Edipol_quadrupol">      0.00000000 </i>
    <i name="Eion">      0.00000000 </i>
   </dipole>
   <energy>
    <i name="e_fr_energy">   -491.08254543 </i>
    <i name="e_wo_entrp">   -491.13179284 </i>
    <i name="e_0_energy">   -491.09896123 </i>
   </energy>
  </scstep>
  <scstep>
   <time name="diag">    1.95    1.98</time>
   <time name="diis">   10.11   10.20</time>
   <time name="orth">    0.44    0.44</time>
   <time name="total">   13.44   13.57</time>
   <dipole>
    <v name="dipole">      0.00000000       0.00000000      -0.17622920 </v>
    <i name="Tr[quadrupol]">  -7058.78119779 </i>
    <i name="Echarged">      0.00000000 </i>
    <i name="Edipol_quadrupol">      0.00000000 </i>
    <i name="Eion">      0.00000000 </i>
   </dipole>
   <energy>
    <i name="e_fr_energy">   -494.16979752 </i>
    <i name="e_wo_entrp">   -494.17325422 </i>
    <i name="e_0_energy">   -494.17094975 </i>
   </energy>
  </scstep>
  <scstep>
   <time name="diag">    1.94    1.95</time>
   <time name="diis">   13.36   13.44</time>
   <time name="orth">    0.44    0.44</time>
   <time name="total">   16.70   16.80</time>
   <dipole>
    <v name="dipole">      0.00000000       0.00000000       0.00014284 </v>
    <i name="Tr[quadrupol]">  -7063.31192473 </i>
    <i name="Echarged">      0.00000000 </i>
    <i name="Edipol_quadrupol">      0.00000000 </i>
    <i name="Eion">      0.00000000 </i>
   </dipole>
   <energy>
    <i name="e_fr_energy">   -496.88107120 </i>
    <i name="e_wo_entrp">   -496.88304956 </i>
    <i name="e_0_energy">   -496.88173065 </i>
   </energy>
  </scstep>
  <scstep>
   <time name="diag">    1.94    1.95</time>
   <time name="diis">   12.68   12.77</time>
   <time name="orth">    0.44    0.44</time>
   <time name="total">   16.00   16.10</time>
   <dipole>
    <v name="dipole">      0.00000000       0.00000000      -0.04815229 </v>
    <i name="Tr[quadrupol]">  -7065.74510400 </i>
    <i name="Echarged">      0.00000000 </i>
    <i name="Edipol_quadrupol">      0.00000000 </i>
    <i name="Eion">      0.00000000 </i>
   </dipole>
   <energy>
    <i name="e_fr_energy">   -498.75313971 </i>
    <i name="e_wo_entrp">   -498.73012095 </i>
    <i name="e_0_energy">   -498.74546679 </i>
   </energy>
  </scstep>
  <scstep>
   <time name="diag">    1.95    1.96</time>
   <time name="diis">   12.81   12.90</time>
   <time name="orth">    0.44    0.44</time>
   <time name="total">   16.13   16.24</time>
   <dipole>
    <v name="dipole">      0.00000000       0.00000000       0.05285253 </v>
    <i name="Tr[quadrupol]">  -7067.15486692 </i>
    <i name="Echarged">      0.00000000 </i>
    <i name="Edipol_quadrupol">      0.00000000 </i>
    <i name="Eion">      0.00000000 </i>
   </dipole>
   <energy>
    <i name="e_fr_energy">   -500.97454216 </i>
    <i name="e_wo_entrp">   -500.97560745 </i>
    <i name="e_0_energy">   -500.97489726 </i>
   </energy>
  </scstep>
  <scstep>
   <time name="diag">    1.93    1.95</time>
   <time name="diis">   12.18   12.25</time>
   <time name="orth">    0.44    0.44</time>
   <time name="total">   15.50   15.60</time>
   <dipole>
    <v name="dipole">      0.00000000       0.00000000       0.03019675 </v>
    <i name="Tr[quadrupol]">  -7066.52071067 </i>
    <i name="Echarged">      0.00000000 </i>
    <i name="Edipol_quadrupol">      0.00000000 </i>
    <i name="Eion">      0.00000000 </i>
   </dipole>
   <energy>
    <i name="e_fr_energy">   -501.09374796 </i>
    <i name="e_wo_entrp">   -501.09162100 </i>
    <i name="e_0_energy">   -501.09303897 </i>
   </energy>
  </scstep>
  <scstep>
   <time name="diag">    1.92    1.93</time>
   <time name="diis">   11.96   12.03</time>
   <time name="orth">    0.44    0.45</time>
   <time name="total">   15.28   15.38</time>
   <dipole>
    <v name="dipole">      0.00000000       0.00000000       0.05228122 </v>
    <i name="Tr[quadrupol]">  -7066.03864037 </i>
    <i name="Echarged">      0.00000000 </i>
    <i name="Edipol_quadrupol">      0.00000000 </i>
    <i name="Eion">      0.00000000 </i>
   </dipole>
   <energy>
    <i name="e_fr_energy">   -501.52012573 </i>
    <i name="e_wo_entrp">   -501.52385879 </i>
    <i name="e_0_energy">   -501.52137008 </i>
   </energy>
  </scstep>
  <scstep>
   <time name="diag">    1.93    1.94</time>
   <time name="diis">   11.99   12.06</time>
   <time name="orth">    0.44    0.44</time>
   <time name="total">   15.29   15.38</time>
   <dipole>
    <v name="dipole">      0.00000000       0.00000000       0.04365155 </v>
    <i name="Tr[quadrupol]">  -7065.40007671 </i>
    <i name="Echarged">      0.00000000 </i>
    <i name="Edipol_quadrupol">      0.00000000 </i>
    <i name="Eion">      0.00000000 </i>
   </dipole>
   <energy>
    <i name="e_fr_energy">   -502.04374889 </i>
    <i name="e_wo_entrp">   -502.04885512 </i>
    <i name="e_0_energy">   -502.04545097 </i>
   </energy>
  </scstep>
  <scstep>
   <time name="diag">    1.90    1.92</time>
   <time name="diis">   12.73   12.82</time>
   <time name="orth">    0.44    0.44</time>
   <time name="total">   16.03   16.15</time>
   <dipole>
    <v name="dipole">      0.00000000       0.00000000       0.02381920 </v>
    <i name="Tr[quadrupol]">  -7065.14741278 </i>
    <i name="Echarged">      0.00000000 </i>
    <i name="Edipol_quadrupol">      0.00000000 </i>
    <i name="Eion">      0.00000000 </i>
   </dipole>
   <energy>
    <i name="e_fr_energy">   -503.14109400 </i>
    <i name="e_wo_entrp">   -503.15146773 </i>
    <i name="e_0_energy">   -503.14455191 </i>
   </energy>
  </scstep>
  <scstep>
   <time name="diag">    1.91    1.94</time>
   <time name="diis">   12.31   12.45</time>
   <time name="orth">    0.44    0.44</time>
   <time name="total">   15.62   15.80</time>
   <dipole>
    <v name="dipole">      0.00000000       0.00000000      -0.00850567 </v>
    <i name="Tr[quadrupol]">  -7065.66897748 </i>
    <i name="Echarged">      0.00000000 </i>
    <i name="Edipol_quadrupol">      0.00000000 </i>
    <i name="Eion">      0.00000000 </i>
   </dipole>
   <energy>
    <i name="e_fr_energy">   -503.66916604 </i>
    <i name="e_wo_entrp">   -503.68370493 </i>
    <i name="e_0_energy">   -503.67401234 </i>
   </energy>
  </scstep>
  <scstep>
   <time name="diag">    1.91    1.93</time>
   <time name="diis">   12.41   12.51</time>
   <time name="orth">    0.45    0.45</time>
   <time name="total">   15.72   15.86</time>
   <dipole>
    <v name="dipole">      0.00000000       0.00000000      -0.01932057 </v>
    <i name="Tr[quadrupol]">  -7066.14653283 </i>
    <i name="Echarged">      0.00000000 </i>
    <i name="Edipol_quadrupol">      0.00000000 </i>
    <i name="Eion">      0.00000000 </i>
   </dipole>
   <energy>
    <i name="e_fr_energy">   -504.24043708 </i>
    <i name="e_wo_entrp">   -504.25538441 </i>
    <i name="e_0_energy">   -504.24541952 </i>
   </energy>
  </scstep>
  <scstep>
   <time name="diag">    1.95    1.96</time>
   <time name="diis">   12.71   12.79</time>
   <time name="orth">    0.44    0.44</time>
   <time name="total">   16.03   16.13</time>
   <dipole>
    <v name="dipole">      0.00000000       0.00000000      -0.00367876 </v>
    <i name="Tr[quadrupol]">  -7066.18736478 </i>
    <i name="Echarged">      0.00000000 </i>
    <i name="Edipol_quadrupol">      0.00000000 </i>
    <i name="Eion">      0.00000000 </i>
   </dipole>
   <energy>
    <i name="e_fr_energy">   -505.02069995 </i>
    <i name="e_wo_entrp">   -505.03318563 </i>
    <i name="e_0_energy">   -505.02486184 </i>
   </energy>
  </scstep>
  <scstep>
   <time name="diag">    1.93    1.95</time>
   <time name="diis">   13.52   13.61</time>
   <time name="orth">    0.44    0.45</time>
   <time name="total">   16.83   16.95</time>
   <dipole>
    <v name="dipole">      0.00000000       0.00000000      -0.05167773 </v>
    <i name="Tr[quadrupol]">  -7065.40715221 </i>
    <i name="Echarged">      0.00000000 </i>
    <i name="Edipol_quadrupol">      0.00000000 </i>
    <i name="Eion">      0.00000000 </i>
   </dipole>
   <energy>
    <i name="e_fr_energy">   -505.46136713 </i>
    <i name="e_wo_entrp">   -505.46906554 </i>
    <i name="e_0_energy">   -505.46393327 </i>
   </energy>
  </scstep>
  <scstep>
   <time name="diag">    1.93    1.94</time>
   <time name="diis">   12.65   12.74</time>
   <time name="orth">    0.44    0.44</time>
   <time name="total">   15.95   16.07</time>
   <dipole>
    <v name="dipole">      0.00000000       0.00000000      -0.02625095 </v>
    <i name="Tr[quadrupol]">  -7065.48965498 </i>
    <i name="Echarged">      0.00000000 </i>
    <i name="Edipol_quadrupol">      0.00000000 </i>
    <i name="Eion">      0.00000000 </i>
   </dipole>
   <energy>
    <i name="e_fr_energy">   -505.54958898 </i>
    <i name="e_wo_entrp">   -505.55151849 </i>
    <i name="e_0_energy">   -505.55023215 </i>
   </energy>
  </scstep>
  <scstep>
   <time name="diag">    1.94    1.96</time>
   <time name="diis">   12.63   12.80</time>
   <time name="orth">    0.44    0.44</time>
   <time name="total">   15.94   16.16</time>
   <dipole>
    <v name="dipole">      0.00000000       0.00000000      -0.02505573 </v>
    <i name="Tr[quadrupol]">  -7065.41546534 </i>
    <i name="Echarged">      0.00000000 </i>
    <i name="Edipol_quadrupol">      0.00000000 </i>
    <i name="Eion">      0.00000000 </i>
   </dipole>
   <energy>
    <i name="e_fr_energy">   -505.61186443 </i>
    <i name="e_wo_entrp">   -505.61682502 </i>
    <i name="e_0_energy">   -505.61351796 </i>
   </energy>
  </scstep>
  <scstep>
   <time name="diag">    1.94    1.96</time>
   <time name="diis">   10.18   10.24</time>
   <time name="orth">    0.44    0.44</time>
   <time name="total">   13.50   13.59</time>
   <dipole>
    <v name="dipole">      0.00000000       0.00000000      -0.02764640 </v>
    <i name="Tr[quadrupol]">  -7065.46691554 </i>
    <i name="Echarged">      0.00000000 </i>
    <i name="Edipol_quadrupol">      0.00000000 </i>
    <i name="Eion">      0.00000000 </i>
   </dipole>
   <energy>
    <i name="e_fr_energy">   -505.52664327 </i>
    <i name="e_wo_entrp">   -505.52861432 </i>
    <i name="e_0_energy">   -505.52730029 </i>
   </energy>
  </scstep>
  <scstep>
   <time name="diag">    1.94    1.96</time>
   <time name="diis">   12.54   12.64</time>
   <time name="orth">    0.44    0.44</time>
   <time name="total">   15.87   16.00</time>
   <dipole>
    <v name="dipole">      0.00000000       0.00000000      -0.01957935 </v>
    <i name="Tr[quadrupol]">  -7065.46482617 </i>
    <i name="Echarged">      0.00000000 </i>
    <i name="Edipol_quadrupol">      0.00000000 </i>
    <i name="Eion">      0.00000000 </i>
   </dipole>
   <energy>
    <i name="e_fr_energy">   -505.84480687 </i>
    <i name="e_wo_entrp">   -505.85749766 </i>
    <i name="e_0_energy">   -505.84903714 </i>
   </energy>
  </scstep>
  <scstep>
   <time name="diag">    1.96    1.97</time>
   <time name="diis">   12.19   12.34</time>
   <time name="orth">    0.44    0.44</time>
   <time name="total">   15.54   15.71</time>
   <dipole>
    <v name="dipole">      0.00000000       0.00000000      -0.02340701 </v>
    <i name="Tr[quadrupol]">  -7065.46912339 </i>
    <i name="Echarged">      0.00000000 </i>
    <i name="Edipol_quadrupol">      0.00000000 </i>
    <i name="Eion">      0.00000000 </i>
   </dipole>
   <energy>
    <i name="e_fr_energy">   -505.98021335 </i>
    <i name="e_wo_entrp">   -505.99452512 </i>
    <i name="e_0_energy">   -505.98498394 </i>
   </energy>
  </scstep>
  <scstep>
   <time name="diag">    1.96    1.97</time>
   <time name="diis">   12.36   12.44</time>
   <time name="orth">    0.44    0.44</time>
   <time name="total">   15.71   15.81</time>
   <dipole>
    <v name="dipole">      0.00000000       0.00000000      -0.02319451 </v>
    <i name="Tr[quadrupol]">  -7065.43026931 </i>
    <i name="Echarged">      0.00000000 </i>
    <i name="Edipol_quadrupol">      0.00000000 </i>
    <i name="Eion">      0.00000000 </i>
   </dipole>
   <energy>
    <i name="e_fr_energy">   -506.04960010 </i>
    <i name="e_wo_entrp">   -506.06450401 </i>
    <i name="e_0_energy">   -506.05456807 </i>
   </energy>
  </scstep>
  <scstep>
   <time name="diag">    1.92    1.95</time>
   <time name="diis">   11.16   11.29</time>
   <time name="orth">    0.44    0.44</time>
   <time name="total">   14.46   14.63</time>
   <dipole>
    <v name="dipole">      0.00000000       0.00000000      -0.02032036 </v>
    <i name="Tr[quadrupol]">  -7065.31736398 </i>
    <i name="Echarged">      0.00000000 </i>
    <i name="Edipol_quadrupol">      0.00000000 </i>
    <i name="Eion">      0.00000000 </i>
   </dipole>
   <energy>
    <i name="e_fr_energy">   -506.16904149 </i>
    <i name="e_wo_entrp">   -506.18648548 </i>
    <i name="e_0_energy">   -506.17485615 </i>
   </energy>
  </scstep>
  <scstep>
   <time name="diag">    1.95    1.97</time>
   <time name="diis">   13.44   13.62</time>
   <time name="orth">    0.44    0.44</time>
   <time name="total">   16.75   16.97</time>
   <dipole>
    <v name="dipole">      0.00000000       0.00000000      -0.01357671 </v>
    <i name="Tr[quadrupol]">  -7064.75325756 </i>
    <i name="Echarged">      0.00000000 </i>
    <i name="Edipol_quadrupol">      0.00000000 </i>
    <i name="Eion">      0.00000000 </i>
   </dipole>
   <energy>
    <i name="e_fr_energy">   -506.48325359 </i>
    <i name="e_wo_entrp">   -506.50171997 </i>
    <i name="e_0_energy">   -506.48940905 </i>
   </energy>
  </scstep>
  <scstep>
   <time name="diag">    1.94    1.97</time>
   <time name="diis">   13.36   13.46</time>
   <time name="orth">    0.45    0.45</time>
   <time name="total">   16.69   16.82</time>
   <dipole>
    <v name="dipole">      0.00000000       0.00000000      -0.03872868 </v>
    <i name="Tr[quadrupol]">  -7064.67137557 </i>
    <i name="Echarged">      0.00000000 </i>
    <i name="Edipol_quadrupol">      0.00000000 </i>
    <i name="Eion">      0.00000000 </i>
   </dipole>
   <energy>
    <i name="e_fr_energy">   -506.40855433 </i>
    <i name="e_wo_entrp">   -506.42320599 </i>
    <i name="e_0_energy">   -506.41343821 </i>
   </energy>
  </scstep>
  <scstep>
   <time name="diag">    1.97    1.98</time>
   <time name="diis">   12.30   12.37</time>
   <time name="orth">    0.44    0.44</time>
   <time name="total">   15.66   15.75</time>
   <dipole>
    <v name="dipole">      0.00000000       0.00000000      -0.03739768 </v>
    <i name="Tr[quadrupol]">  -7064.67721299 </i>
    <i name="Echarged">      0.00000000 </i>
    <i name="Edipol_quadrupol">      0.00000000 </i>
    <i name="Eion">      0.00000000 </i>
   </dipole>
   <energy>
    <i name="e_fr_energy">   -506.43108235 </i>
    <i name="e_wo_entrp">   -506.44582573 </i>
    <i name="e_0_energy">   -506.43599681 </i>
   </energy>
  </scstep>
  <scstep>
   <time name="diag">    1.95    1.96</time>
   <time name="diis">   12.30   12.42</time>
   <time name="orth">    0.44    0.44</time>
   <time name="total">   15.64   15.78</time>
   <dipole>
    <v name="dipole">      0.00000000       0.00000000      -0.03591975 </v>
    <i name="Tr[quadrupol]">  -7064.64398712 </i>
    <i name="Echarged">      0.00000000 </i>
    <i name="Edipol_quadrupol">      0.00000000 </i>
    <i name="Eion">      0.00000000 </i>
   </dipole>
   <energy>
    <i name="e_fr_energy">   -506.48366131 </i>
    <i name="e_wo_entrp">   -506.49742687 </i>
    <i name="e_0_energy">   -506.48824983 </i>
   </energy>
  </scstep>
  <scstep>
   <time name="diag">    1.97    1.98</time>
   <time name="diis">   12.31   12.46</time>
   <time name="orth">    0.44    0.44</time>
   <time name="total">   15.67   15.84</time>
   <dipole>
    <v name="dipole">      0.00000000       0.00000000      -0.03614896 </v>
    <i name="Tr[quadrupol]">  -7064.46677579 </i>
    <i name="Echarged">      0.00000000 </i>
    <i name="Edipol_quadrupol">      0.00000000 </i>
    <i name="Eion">      0.00000000 </i>
   </dipole>
   <energy>
    <i name="e_fr_energy">   -506.56208841 </i>
    <i name="e_wo_entrp">   -506.57401414 </i>
    <i name="e_0_energy">   -506.56606365 </i>
   </energy>
  </scstep>
  <scstep>
   <time name="diag">    1.95    1.97</time>
   <time name="diis">   11.56   11.67</time>
   <time name="orth">    0.44    0.44</time>
   <time name="total">   14.91   15.05</time>
   <dipole>
    <v name="dipole">      0.00000000       0.00000000      -0.03508331 </v>
    <i name="Tr[quadrupol]">  -7064.48793150 </i>
    <i name="Echarged">      0.00000000 </i>
    <i name="Edipol_quadrupol">      0.00000000 </i>
    <i name="Eion">      0.00000000 </i>
   </dipole>
   <energy>
    <i name="e_fr_energy">   -506.58326022 </i>
    <i name="e_wo_entrp">   -506.59499863 </i>
    <i name="e_0_energy">   -506.58717303 </i>
   </energy>
  </scstep>
  <scstep>
   <time name="diag">    1.95    1.97</time>
   <time name="diis">   11.07   11.15</time>
   <time name="orth">    0.43    0.44</time>
   <time name="total">   14.40   14.52</time>
   <dipole>
    <v name="dipole">      0.00000000       0.00000000      -0.04002787 </v>
    <i name="Tr[quadrupol]">  -7064.56141695 </i>
    <i name="Echarged">      0.00000000 </i>
    <i name="Edipol_quadrupol">      0.00000000 </i>
    <i name="Eion">      0.00000000 </i>
   </dipole>
   <energy>
    <i name="e_fr_energy">   -506.58604306 </i>
    <i name="e_wo_entrp">   -506.59801483 </i>
    <i name="e_0_energy">   -506.59003365 </i>
   </energy>
  </scstep>
  <scstep>
   <time name="diag">    1.95    1.97</time>
   <time name="diis">   10.34   10.42</time>
   <time name="orth">    0.44    0.44</time>
   <time name="total">   13.70   13.80</time>
   <dipole>
    <v name="dipole">      0.00000000       0.00000000      -0.04074230 </v>
    <i name="Tr[quadrupol]">  -7064.61722648 </i>
    <i name="Echarged">      0.00000000 </i>
    <i name="Edipol_quadrupol">      0.00000000 </i>
    <i name="Eion">      0.00000000 </i>
   </dipole>
   <energy>
    <i name="e_fr_energy">   -506.58109003 </i>
    <i name="e_wo_entrp">   -506.59367369 </i>
    <i name="e_0_energy">   -506.58528459 </i>
   </energy>
  </scstep>
  <scstep>
   <time name="diag">    1.96    1.97</time>
   <time name="diis">   10.86   10.93</time>
   <time name="orth">    0.44    0.44</time>
   <time name="total">   14.21   14.30</time>
   <dipole>
    <v name="dipole">      0.00000000       0.00000000      -0.03223386 </v>
    <i name="Tr[quadrupol]">  -7064.58886503 </i>
    <i name="Echarged">      0.00000000 </i>
    <i name="Edipol_quadrupol">      0.00000000 </i>
    <i name="Eion">      0.00000000 </i>
   </dipole>
   <energy>
    <i name="e_fr_energy">   -506.58378809 </i>
    <i name="e_wo_entrp">   -506.59688880 </i>
    <i name="e_0_energy">   -506.58815500 </i>
   </energy>
  </scstep>
  <scstep>
   <time name="diag">    1.93    1.95</time>
   <time name="diis">   10.70   10.78</time>
   <time name="orth">    0.45    0.45</time>
   <time name="total">   14.04   14.14</time>
   <dipole>
    <v name="dipole">      0.00000000       0.00000000      -0.02847559 </v>
    <i name="Tr[quadrupol]">  -7064.67285980 </i>
    <i name="Echarged">      0.00000000 </i>
    <i name="Edipol_quadrupol">      0.00000000 </i>
    <i name="Eion">      0.00000000 </i>
   </dipole>
   <energy>
    <i name="e_fr_energy">   -506.58896483 </i>
    <i name="e_wo_entrp">   -506.60248828 </i>
    <i name="e_0_energy">   -506.59347265 </i>
   </energy>
  </scstep>
  <scstep>
   <time name="diag">    1.95    1.96</time>
   <time name="diis">   10.92   11.00</time>
   <time name="orth">    0.44    0.44</time>
   <time name="total">   14.27   14.38</time>
   <dipole>
    <v name="dipole">      0.00000000       0.00000000      -0.03110640 </v>
    <i name="Tr[quadrupol]">  -7064.72062105 </i>
    <i name="Echarged">      0.00000000 </i>
    <i name="Edipol_quadrupol">      0.00000000 </i>
    <i name="Eion">      0.00000000 </i>
   </dipole>
   <energy>
    <i name="e_fr_energy">   -506.58742820 </i>
    <i name="e_wo_entrp">   -506.60092838 </i>
    <i name="e_0_energy">   -506.59192826 </i>
   </energy>
  </scstep>
  <scstep>
   <time name="diag">    1.94    1.95</time>
   <time name="diis">   11.31   11.44</time>
   <time name="orth">    0.44    0.44</time>
   <time name="total">   14.65   14.81</time>
   <dipole>
    <v name="dipole">      0.00000000       0.00000000      -0.03220324 </v>
    <i name="Tr[quadrupol]">  -7064.73410212 </i>
    <i name="Echarged">      0.00000000 </i>
    <i name="Edipol_quadrupol">      0.00000000 </i>
    <i name="Eion">      0.00000000 </i>
   </dipole>
   <energy>
    <i name="e_fr_energy">   -506.58804319 </i>
    <i name="e_wo_entrp">   -506.60153999 </i>
    <i name="e_0_energy">   -506.59254212 </i>
   </energy>
  </scstep>
  <scstep>
   <time name="diag">    1.94    1.96</time>
   <time name="diis">   11.93   12.04</time>
   <time name="orth">    0.44    0.44</time>
   <time name="total">   15.27   15.40</time>
   <dipole>
    <v name="dipole">      0.00000000       0.00000000      -0.03159212 </v>
    <i name="Tr[quadrupol]">  -7064.71889489 </i>
    <i name="Echarged">      0.00000000 </i>
    <i name="Edipol_quadrupol">      0.00000000 </i>
    <i name="Eion">      0.00000000 </i>
   </dipole>
   <energy>
    <i name="e_fr_energy">   -506.58922260 </i>
    <i name="e_wo_entrp">   -506.60273039 </i>
    <i name="e_0_energy">   -506.59372520 </i>
   </energy>
  </scstep>
  <scstep>
   <time name="diag">    1.95    1.96</time>
   <time name="diis">   10.64   10.72</time>
   <time name="orth">    0.44    0.44</time>
   <time name="total">   13.97   14.07</time>
   <dipole>
    <v name="dipole">      0.00000000       0.00000000      -0.03273839 </v>
    <i name="Tr[quadrupol]">  -7064.72455259 </i>
    <i name="Echarged">      0.00000000 </i>
    <i name="Edipol_quadrupol">      0.00000000 </i>
    <i name="Eion">      0.00000000 </i>
   </dipole>
   <energy>
    <i name="e_fr_energy">   -506.58984736 </i>
    <i name="e_wo_entrp">   -506.60321057 </i>
    <i name="e_0_energy">   -506.59430176 </i>
   </energy>
  </scstep>
  <scstep>
   <time name="diag">    1.94    1.96</time>
   <time name="diis">   11.17   11.26</time>
   <time name="orth">    0.44    0.44</time>
   <time name="total">   14.52   14.64</time>
   <dipole>
    <v name="dipole">      0.00000000       0.00000000      -0.03284337 </v>
    <i name="Tr[quadrupol]">  -7064.72595101 </i>
    <i name="Echarged">      0.00000000 </i>
    <i name="Edipol_quadrupol">      0.00000000 </i>
    <i name="Eion">      0.00000000 </i>
   </dipole>
   <energy>
    <i name="e_fr_energy">   -506.59026501 </i>
    <i name="e_wo_entrp">   -506.60381459 </i>
    <i name="e_0_energy">   -506.59478153 </i>
   </energy>
  </scstep>
  <scstep>
   <time name="diag">    1.94    1.95</time>
   <time name="diis">   11.82   11.92</time>
   <time name="orth">    0.44    0.44</time>
   <time name="total">   15.16   15.28</time>
   <dipole>
    <v name="dipole">      0.00000000       0.00000000      -0.03316440 </v>
    <i name="Tr[quadrupol]">  -7064.72148117 </i>
    <i name="Echarged">      0.00000000 </i>
    <i name="Edipol_quadrupol">      0.00000000 </i>
    <i name="Eion">      0.00000000 </i>
   </dipole>
   <energy>
    <i name="e_fr_energy">   -506.59009932 </i>
    <i name="e_wo_entrp">   -506.60374639 </i>
    <i name="e_0_energy">   -506.59464835 </i>
   </energy>
  </scstep>
  <scstep>
   <time name="diag">    1.94    1.96</time>
   <time name="diis">   10.08   10.21</time>
   <time name="orth">    0.44    0.44</time>
   <time name="total">   13.42   13.58</time>
   <dipole>
    <v name="dipole">      0.00000000       0.00000000      -0.03329847 </v>
    <i name="Tr[quadrupol]">  -7064.72016087 </i>
    <i name="Echarged">      0.00000000 </i>
    <i name="Edipol_quadrupol">      0.00000000 </i>
    <i name="Eion">      0.00000000 </i>
   </dipole>
   <energy>
    <i name="e_fr_energy">   -506.59042510 </i>
    <i name="e_wo_entrp">   -506.60414264 </i>
    <i name="e_0_energy">   -506.59499761 </i>
   </energy>
  </scstep>
  <scstep>
   <time name="diag">    1.97    1.99</time>
   <time name="diis">   12.29   12.36</time>
   <time name="orth">    0.44    0.44</time>
   <time name="total">   15.66   15.74</time>
   <dipole>
    <v name="dipole">      0.00000000       0.00000000      -0.03258244 </v>
    <i name="Tr[quadrupol]">  -7064.70432453 </i>
    <i name="Echarged">      0.00000000 </i>
    <i name="Edipol_quadrupol">      0.00000000 </i>
    <i name="Eion">      0.00000000 </i>
   </dipole>
   <energy>
    <i name="e_fr_energy">   -506.59051891 </i>
    <i name="e_wo_entrp">   -506.60415900 </i>
    <i name="e_0_energy">   -506.59506560 </i>
   </energy>
  </scstep>
  <scstep>
   <time name="diag">    1.94    1.95</time>
   <time name="diis">   10.98   11.04</time>
   <time name="orth">    0.44    0.44</time>
   <time name="total">   14.33   14.41</time>
   <dipole>
    <v name="dipole">      0.00000000       0.00000000      -0.03258838 </v>
    <i name="Tr[quadrupol]">  -7064.71448570 </i>
    <i name="Echarged">      0.00000000 </i>
    <i name="Edipol_quadrupol">      0.00000000 </i>
    <i name="Eion">      0.00000000 </i>
   </dipole>
   <energy>
    <i name="e_fr_energy">   -506.59067727 </i>
    <i name="e_wo_entrp">   -506.60424288 </i>
    <i name="e_0_energy">   -506.59519914 </i>
   </energy>
  </scstep>
  <scstep>
   <time name="diag">    1.96    1.97</time>
   <time name="diis">   10.81   10.91</time>
   <time name="orth">    0.44    0.44</time>
   <time name="total">   14.18   14.30</time>
   <dipole>
    <v name="dipole">      0.00000000       0.00000000      -0.03259343 </v>
    <i name="Tr[quadrupol]">  -7064.72558118 </i>
    <i name="Echarged">      0.00000000 </i>
    <i name="Edipol_quadrupol">      0.00000000 </i>
    <i name="Eion">      0.00000000 </i>
   </dipole>
   <energy>
    <i name="e_fr_energy">   -506.59080992 </i>
    <i name="e_wo_entrp">   -506.60437448 </i>
    <i name="e_0_energy">   -506.59533144 </i>
   </energy>
  </scstep>
  <scstep>
   <time name="diag">    1.94    1.96</time>
   <time name="diis">    9.62    9.73</time>
   <time name="orth">    0.44    0.44</time>
   <time name="total">   12.96   13.10</time>
   <dipole>
    <v name="dipole">      0.00000000       0.00000000      -0.03275129 </v>
    <i name="Tr[quadrupol]">  -7064.72727203 </i>
    <i name="Echarged">      0.00000000 </i>
    <i name="Edipol_quadrupol">      0.00000000 </i>
    <i name="Eion">      0.00000000 </i>
   </dipole>
   <energy>
    <i name="e_fr_energy">   -506.59086102 </i>
    <i name="e_wo_entrp">   -506.60440823 </i>
    <i name="e_0_energy">   -506.59537676 </i>
   </energy>
  </scstep>
  <scstep>
   <time name="diag">    1.97    1.98</time>
   <time name="diis">    9.52    9.59</time>
   <time name="orth">    0.44    0.44</time>
   <time name="total">   12.91   13.01</time>
   <dipole>
    <v name="dipole">      0.00000000       0.00000000      -0.03259233 </v>
    <i name="Tr[quadrupol]">  -7064.72721988 </i>
    <i name="Echarged">      0.00000000 </i>
    <i name="Edipol_quadrupol">      0.00000000 </i>
    <i name="Eion">      0.00000000 </i>
   </dipole>
   <energy>
    <i name="e_fr_energy">   -506.59091109 </i>
    <i name="e_wo_entrp">   -506.60446465 </i>
    <i name="e_0_energy">   -506.59542894 </i>
   </energy>
  </scstep>
  <scstep>
   <time name="diag">    1.94    1.96</time>
   <time name="diis">   10.77   10.92</time>
   <time name="orth">    0.44    0.44</time>
   <time name="total">   14.13   14.31</time>
   <dipole>
    <v name="dipole">      0.00000000       0.00000000      -0.03258871 </v>
    <i name="Tr[quadrupol]">  -7064.72859486 </i>
    <i name="Echarged">      0.00000000 </i>
    <i name="Edipol_quadrupol">      0.00000000 </i>
    <i name="Eion">      0.00000000 </i>
   </dipole>
   <energy>
    <i name="e_fr_energy">   -506.59093401 </i>
    <i name="e_wo_entrp">   -506.60453473 </i>
    <i name="e_0_energy">   -506.59546758 </i>
   </energy>
  </scstep>
  <scstep>
   <time name="diag">    1.98    2.01</time>
   <time name="diis">    9.82    9.96</time>
   <time name="orth">    0.44    0.44</time>
   <time name="total">   13.20   13.37</time>
   <dipole>
    <v name="dipole">      0.00000000       0.00000000      -0.03247711 </v>
    <i name="Tr[quadrupol]">  -7064.72892572 </i>
    <i name="Echarged">      0.00000000 </i>
    <i name="Edipol_quadrupol">      0.00000000 </i>
    <i name="Eion">      0.00000000 </i>
   </dipole>
   <energy>
    <i name="e_fr_energy">   -506.59097223 </i>
    <i name="e_wo_entrp">   -506.60459989 </i>
    <i name="e_0_energy">   -506.59551478 </i>
   </energy>
  </scstep>
  <scstep>
   <time name="diag">    1.94    1.96</time>
   <time name="diis">    8.63    8.68</time>
   <time name="orth">    0.44    0.44</time>
   <time name="total">   11.97   12.04</time>
   <dipole>
    <v name="dipole">      0.00000000       0.00000000      -0.03267850 </v>
    <i name="Tr[quadrupol]">  -7064.72725025 </i>
    <i name="Echarged">      0.00000000 </i>
    <i name="Edipol_quadrupol">      0.00000000 </i>
    <i name="Eion">      0.00000000 </i>
   </dipole>
   <energy>
    <i name="e_fr_energy">   -506.59100278 </i>
    <i name="e_wo_entrp">   -506.60464872 </i>
    <i name="e_0_energy">   -506.59555142 </i>
   </energy>
  </scstep>
  <scstep>
   <time name="diag">    1.94    1.96</time>
   <time name="diis">    9.27    9.38</time>
   <time name="orth">    0.44    0.44</time>
   <time name="total">   12.62   12.76</time>
   <dipole>
    <v name="dipole">      0.00000000       0.00000000      -0.03260621 </v>
    <i name="Tr[quadrupol]">  -7064.72459553 </i>
    <i name="Echarged">      0.00000000 </i>
    <i name="Edipol_quadrupol">      0.00000000 </i>
    <i name="Eion">      0.00000000 </i>
   </dipole>
   <energy>
    <i name="e_fr_energy">   -506.59103141 </i>
    <i name="e_wo_entrp">   -506.60469889 </i>
    <i name="e_0_energy">   -506.59558724 </i>
   </energy>
  </scstep>
  <scstep>
   <time name="diag">    2.07    2.10</time>
   <time name="diis">    8.46    8.55</time>
   <time name="orth">    0.44    0.44</time>
   <time name="total">   11.92   12.05</time>
   <dipole>
    <v name="dipole">      0.00000000       0.00000000      -0.03263745 </v>
    <i name="Tr[quadrupol]">  -7064.72660436 </i>
    <i name="Echarged">      0.00000000 </i>
    <i name="Edipol_quadrupol">      0.00000000 </i>
    <i name="Eion">      0.00000000 </i>
   </dipole>
   <energy>
    <i name="e_fr_energy">   -506.59105160 </i>
    <i name="e_wo_entrp">   -506.60469830 </i>
    <i name="e_0_energy">   -506.59560050 </i>
   </energy>
  </scstep>
  <scstep>
   <time name="diag">    1.94    1.95</time>
   <time name="diis">    7.05    7.13</time>
   <time name="orth">    0.44    0.44</time>
   <time name="total">   10.40   10.50</time>
   <dipole>
    <v name="dipole">      0.00000000       0.00000000      -0.03254652 </v>
    <i name="Tr[quadrupol]">  -7064.72832335 </i>
    <i name="Echarged">      0.00000000 </i>
    <i name="Edipol_quadrupol">      0.00000000 </i>
    <i name="Eion">      0.00000000 </i>
   </dipole>
   <energy>
    <i name="e_fr_energy">   -506.59106232 </i>
    <i name="e_wo_entrp">   -506.60472405 </i>
    <i name="e_0_energy">   -506.59561623 </i>
   </energy>
  </scstep>
  <scstep>
   <time name="diag">    1.93    1.96</time>
   <time name="diis">    6.37    6.43</time>
   <time name="orth">    0.44    0.45</time>
   <time name="total">    9.15    9.25</time>
   <dipole>
    <v name="dipole">      0.00000000       0.00000000      -0.03250905 </v>
    <i name="Tr[quadrupol]">  -7064.72860075 </i>
    <i name="Echarged">      0.00000000 </i>
    <i name="Edipol_quadrupol">      0.00000000 </i>
    <i name="Eion">      0.00000000 </i>
   </dipole>
   <energy>
    <i name="alphaZ">   1807.40574207 </i>
    <i name="ewald"> 205150.33274223 </i>
    <i name="hartreedc">-255392.12502331 </i>
    <i name="XCdc">    951.07922403 </i>
    <i name="pawpsdc">  54530.80095801 </i>
    <i name="pawaedc"> -55611.01450884 </i>
    <i name="eentropy">      0.01365583 </i>
    <i name="bandstr">  -4148.76151305 </i>
    <i name="atom">  52205.67765473 </i>
    <i name="e_fr_energy">   -506.59106830 </i>
    <i name="e_wo_entrp">   -506.60472413 </i>
    <i name="e_0_energy">   -506.59562024 </i>
   </energy>
  </scstep>
  <structure>
   <crystal>
    <varray name="basis" >
     <v>       8.50460000       0.00000000       0.00000000 </v>
     <v>      -0.00109899       8.50909993       0.00000000 </v>
     <v>       0.00000000       0.00000000      23.55660000 </v>
    </varray>
    <i name="volume">   1704.70848813 </i>
    <varray name="rec_basis" >
     <v>       0.11758343       0.00001519       0.00000000 </v>
     <v>       0.00000000       0.11752124       0.00000000 </v>
     <v>       0.00000000       0.00000000       0.04245095 </v>
    </varray>
   </crystal>
   <varray name="positions" >
    <v>       0.99760000       0.00330000       0.24221000 </v>
    <v>       0.66561000       0.99834000       0.00060000 </v>
    <v>       0.65780000       0.99175000       0.36915000 </v>
    <v>       0.83467000       0.16589000       0.18209000 </v>
    <v>       0.99866000       0.33404000       0.12198000 </v>
    <v>       0.33421000       0.33147000       0.00101000 </v>
    <v>       0.33550000       0.32849000       0.36462000 </v>
    <v>       0.83220000       0.50025000       0.06275000 </v>
    <v>       0.83521000       0.49603000       0.30307000 </v>
    <v>       0.33512000       0.67037000       0.00000000 </v>
    <v>       0.33145000       0.66488000       0.12292000 </v>
    <v>       0.49962000       0.83335000       0.30679000 </v>
    <v>       0.67111000       0.66550000       0.12148000 </v>
    <v>       0.99950000       0.00032000       0.00103000 </v>
    <v>       0.00316000       0.99914000       0.36086000 </v>
    <v>       0.16670000       0.16592000       0.06160000 </v>
    <v>       0.99930000       0.00013000       0.12183000 </v>
    <v>       0.16670000       0.16692000       0.18170000 </v>
    <v>       0.16360000       0.16604000       0.30346000 </v>
    <v>       0.33368000       0.99986000       0.00108000 </v>
    <v>       0.32756000       0.01025000       0.36209000 </v>
    <v>       0.50008000       0.16606000       0.06164000 </v>
    <v>       0.33365000       0.99945000       0.12194000 </v>
    <v>       0.50013000       0.16657000       0.18176000 </v>
    <v>       0.33374000       0.99994000       0.24252000 </v>
    <v>       0.50066000       0.16830000       0.30318000 </v>
    <v>       0.83412000       0.16807000       0.06130000 </v>
    <v>       0.66767000       0.99972000       0.12168000 </v>
    <v>       0.66792000       0.00032000       0.24233000 </v>
    <v>       0.83272000       0.16753000       0.30371000 </v>
    <v>       0.00033000       0.33346000       0.00076000 </v>
    <v>       0.00522000       0.33193000       0.36210000 </v>
    <v>       0.16704000       0.50116000       0.06077000 </v>
    <v>       0.16627000       0.49940000       0.18238000 </v>
    <v>       0.00000000       0.33319000       0.24260000 </v>
    <v>       0.16947000       0.50324000       0.30406000 </v>
    <v>       0.49811000       0.50186000       0.06112000 </v>
    <v>       0.33328000       0.33434000       0.12148000 </v>
    <v>       0.50051000       0.50053000       0.18145000 </v>
    <v>       0.33392000       0.33269000       0.24229000 </v>
    <v>       0.49943000       0.50325000       0.30315000 </v>
    <v>       0.66687000       0.33418000       0.00129000 </v>
    <v>       0.66046000       0.33421000       0.36172000 </v>
    <v>       0.66670000       0.33332000       0.12177000 </v>
    <v>       0.83466000       0.49916000       0.18181000 </v>
    <v>       0.66748000       0.33291000       0.24234000 </v>
    <v>       0.99949000       0.66581000       0.00112000 </v>
    <v>       0.99206000       0.66651000       0.36146000 </v>
    <v>       0.16773000       0.83295000       0.06141000 </v>
    <v>       0.00149000       0.66672000       0.12196000 </v>
    <v>       0.16592000       0.83389000       0.18235000 </v>
    <v>       0.99950000       0.66635000       0.24245000 </v>
    <v>       0.16845000       0.83046000       0.30381000 </v>
    <v>       0.49825000       0.83185000       0.06189000 </v>
    <v>       0.50064000       0.83335000       0.18189000 </v>
    <v>       0.33424000       0.66627000       0.24239000 </v>
    <v>       0.66521000       0.66629000       0.00100000 </v>
    <v>       0.67829000       0.65494000       0.36178000 </v>
    <v>       0.83382000       0.83268000       0.06128000 </v>
    <v>       0.83390000       0.83311000       0.18191000 </v>
    <v>       0.66721000       0.66675000       0.24221000 </v>
    <v>       0.83457000       0.83216000       0.30292000 </v>
    <v>       0.33574000       0.66271000       0.40844000 </v>
   </varray>
  </structure>
  <varray name="forces" >
   <v>      -0.01872919      -0.10524216       0.00592637 </v>
   <v>       0.04770766       0.04387953      -0.18595964 </v>
   <v>      -0.00364008      -0.06380132       0.02449750 </v>
   <v>       0.04275995       0.19590960      -0.09308597 </v>
   <v>      -0.08748774      -0.07579012       0.18109212 </v>
   <v>      -0.04644978      -0.32790209      -0.10373324 </v>
   <v>      -0.04883984      -0.24111063      -0.04313570 </v>
   <v>      -0.01786622       0.03114763      -0.16236318 </v>
   <v>      -0.01439426       0.00886859       0.05040466 </v>
   <v>      -0.08975222       0.21564705      -0.23306518 </v>
   <v>      -0.01658131       0.04721261       0.06656573 </v>
   <v>       0.05125460       0.03668137      -0.06703290 </v>
   <v>       0.11052842       0.01629600       0.02524199 </v>
   <v>      -0.01916888      -0.00885673       0.41097448 </v>
   <v>       0.00191749      -0.04746417      -0.04709462 </v>
   <v>      -0.28200534      -0.12726145      -0.37103050 </v>
   <v>      -0.01923488       0.01626481       0.07968041 </v>
   <v>       0.02268518       0.01418937       0.07225124 </v>
   <v>       0.02694999       0.05478960       0.00688804 </v>
   <v>       0.06298342      -0.02046924       0.52600795 </v>
   <v>      -0.00415768      -0.11070234       0.11635817 </v>
   <v>       0.06904817       0.07017431      -0.19688710 </v>
   <v>       0.05945242       0.04365982      -0.04994982 </v>
   <v>      -0.03734221       0.01251323      -0.03732789 </v>
   <v>      -0.04662933       0.02161092       0.03019546 </v>
   <v>      -0.04395100       0.01062677       0.00280415 </v>
   <v>       0.17468707       0.09713806      -0.34298196 </v>
   <v>      -0.02845120      -0.02655912       0.20678196 </v>
   <v>      -0.09039939      -0.10725096       0.13324518 </v>
   <v>       0.00701200      -0.03056061       0.03541006 </v>
   <v>       0.14641770      -0.01255182       0.35766344 </v>
   <v>       0.00030764       0.08082798       0.03056851 </v>
   <v>      -0.26650931       0.03990545      -0.47309062 </v>
   <v>      -0.02456995      -0.08323711      -0.03239165 </v>
   <v>       0.07870396      -0.01253713      -0.11029378 </v>
   <v>      -0.05924983      -0.01929973       0.09410061 </v>
   <v>       0.32647675      -0.00846561      -0.33302784 </v>
   <v>      -0.00400613      -0.01333137       0.21564699 </v>
   <v>       0.00258999      -0.05761690      -0.06393629 </v>
   <v>       0.02176258       0.10083186       0.01136140 </v>
   <v>       0.01142136       0.09325490       0.19466663 </v>
   <v>      -0.12393196       0.00645690       0.41177565 </v>
   <v>       0.03441335       0.04314520       0.00152797 </v>
   <v>       0.04146482      -0.08151850       0.07561543 </v>
   <v>      -0.00517015       0.05703760       0.03215999 </v>
   <v>      -0.08597195      -0.00232419      -0.04969471 </v>
   <v>       0.11233720       0.02736608       0.38597956 </v>
   <v>       0.02565938       0.01210274       0.02144612 </v>
   <v>      -0.25270934       0.16349198      -0.32948971 </v>
   <v>      -0.03322654       0.02802645       0.13855966 </v>
   <v>       0.01801549       0.03694021       0.04046185 </v>
   <v>       0.05058438       0.03980203      -0.08647644 </v>
   <v>       0.07944523      -0.02103857       0.20951093 </v>
   <v>      -0.00983069      -0.10904516      -0.06440644 </v>
   <v>       0.01279687      -0.00875530      -0.06544906 </v>
   <v>      -0.00528537      -0.01562751       0.06502263 </v>
   <v>      -0.07349665       0.00412494       0.40601767 </v>
   <v>      -0.00647271       0.02375811       0.04910585 </v>
   <v>       0.22811195      -0.08946755      -0.27630175 </v>
   <v>      -0.00378972      -0.03269037       0.01234139 </v>
   <v>       0.03552571      -0.03786260      -0.15300618 </v>
   <v>      -0.01292249      -0.05557812       0.00710443 </v>
   <v>      -0.02079743       0.26023679      -0.76375000 </v>
  </varray>
  <varray name="stress" >
   <v>     -20.62621916      -0.01837610      -0.06621867 </v>
   <v>      -0.01837699     -20.93681259       0.29378954 </v>
   <v>      -0.06621911       0.29378923      -5.94624943 </v>
  </varray>
  <energy>
   <i name="e_fr_energy">   -506.59106830 </i>
   <i name="e_wo_entrp">   -506.60472413 </i>
   <i name="e_0_energy">   -506.59562024 </i>
  </energy>
  <time name="totalsc">  945.25  953.39</time>
 </calculation>
 <calculation>
  <scstep>
   <time name="dav">   18.02   18.13</time>
   <time name="total">   18.94   19.06</time>
   <dipole>
    <v name="dipole">      0.00000000       0.00000000      -0.03240088 </v>
    <i name="Tr[quadrupol]">  -7063.20967350 </i>
    <i name="Echarged">      0.00000000 </i>
    <i name="Edipol_quadrupol">      0.00000000 </i>
    <i name="Eion">      0.00000000 </i>
   </dipole>
   <energy>
    <i name="alphaZ">   1807.40538171 </i>
    <i name="ewald"> 205255.32502735 </i>
    <i name="hartreedc">-255496.76653299 </i>
    <i name="XCdc">    951.13302209 </i>
    <i name="pawpsdc">  54531.24500421 </i>
    <i name="pawaedc"> -55611.46823055 </i>
    <i name="eentropy">      0.01426927 </i>
    <i name="bandstr">  -4149.10563273 </i>
    <i name="atom">  52205.67765473 </i>
    <i name="e_fr_energy">   -506.54003692 </i>
    <i name="e_wo_entrp">   -506.55430619 </i>
    <i name="e_0_energy">   -506.54479334 </i>
   </energy>
  </scstep>
  <scstep>
   <time name="diag">    1.93    1.94</time>
   <time name="diis">    9.77    9.82</time>
   <time name="orth">    0.44    0.45</time>
   <time name="total">   13.08   13.17</time>
   <dipole>
    <v name="dipole">      0.00000000       0.00000000      -0.01753082 </v>
    <i name="Tr[quadrupol]">  -7063.14980022 </i>
    <i name="Echarged">      0.00000000 </i>
    <i name="Edipol_quadrupol">      0.00000000 </i>
    <i name="Eion">      0.00000000 </i>
   </dipole>
   <energy>
    <i name="e_fr_energy">   -506.60349994 </i>
    <i name="e_wo_entrp">   -506.61937088 </i>
    <i name="e_0_energy">   -506.60879025 </i>
   </energy>
  </scstep>
  <scstep>
   <time name="diag">    1.96    1.97</time>
   <time name="diis">   12.34   12.47</time>
   <time name="orth">    0.44    0.44</time>
   <time name="total">   15.68   15.84</time>
   <dipole>
    <v name="dipole">      0.00000000       0.00000000      -0.06090331 </v>
    <i name="Tr[quadrupol]">  -7063.13663897 </i>
    <i name="Echarged">      0.00000000 </i>
    <i name="Edipol_quadrupol">      0.00000000 </i>
    <i name="Eion">      0.00000000 </i>
   </dipole>
   <energy>
    <i name="e_fr_energy">   -506.65092335 </i>
    <i name="e_wo_entrp">   -506.66107989 </i>
    <i name="e_0_energy">   -506.65430886 </i>
   </energy>
  </scstep>
  <scstep>
   <time name="diag">    1.91    1.94</time>
   <time name="diis">    9.58    9.71</time>
   <time name="orth">    0.44    0.45</time>
   <time name="total">   12.87   13.03</time>
   <dipole>
    <v name="dipole">      0.00000000       0.00000000      -0.02378422 </v>
    <i name="Tr[quadrupol]">  -7063.19524573 </i>
    <i name="Echarged">      0.00000000 </i>
    <i name="Edipol_quadrupol">      0.00000000 </i>
    <i name="Eion">      0.00000000 </i>
   </dipole>
   <energy>
    <i name="e_fr_energy">   -506.62709631 </i>
    <i name="e_wo_entrp">   -506.64230174 </i>
    <i name="e_0_energy">   -506.63216479 </i>
   </energy>
  </scstep>
  <scstep>
   <time name="diag">    1.93    1.94</time>
   <time name="diis">   10.47   10.53</time>
   <time name="orth">    0.44    0.45</time>
   <time name="total">   13.78   13.86</time>
   <dipole>
    <v name="dipole">      0.00000000       0.00000000      -0.02776187 </v>
    <i name="Tr[quadrupol]">  -7063.12708924 </i>
    <i name="Echarged">      0.00000000 </i>
    <i name="Edipol_quadrupol">      0.00000000 </i>
    <i name="Eion">      0.00000000 </i>
   </dipole>
   <energy>
    <i name="e_fr_energy">   -506.62824445 </i>
    <i name="e_wo_entrp">   -506.64271294 </i>
    <i name="e_0_energy">   -506.63306728 </i>
   </energy>
  </scstep>
  <scstep>
   <time name="diag">    1.93    1.94</time>
   <time name="diis">   10.71   10.79</time>
   <time name="orth">    0.44    0.44</time>
   <time name="total">   14.02   14.12</time>
   <dipole>
    <v name="dipole">      0.00000000       0.00000000      -0.03122262 </v>
    <i name="Tr[quadrupol]">  -7063.16247902 </i>
    <i name="Echarged">      0.00000000 </i>
    <i name="Edipol_quadrupol">      0.00000000 </i>
    <i name="Eion">      0.00000000 </i>
   </dipole>
   <energy>
    <i name="e_fr_energy">   -506.62984770 </i>
    <i name="e_wo_entrp">   -506.64385874 </i>
    <i name="e_0_energy">   -506.63451805 </i>
   </energy>
  </scstep>
  <scstep>
   <time name="diag">    1.97    1.98</time>
   <time name="diis">    9.90    9.96</time>
   <time name="orth">    0.44    0.44</time>
   <time name="total">   13.25   13.34</time>
   <dipole>
    <v name="dipole">      0.00000000       0.00000000      -0.02969970 </v>
    <i name="Tr[quadrupol]">  -7063.15350128 </i>
    <i name="Echarged">      0.00000000 </i>
    <i name="Edipol_quadrupol">      0.00000000 </i>
    <i name="Eion">      0.00000000 </i>
   </dipole>
   <energy>
    <i name="e_fr_energy">   -506.63028581 </i>
    <i name="e_wo_entrp">   -506.64463753 </i>
    <i name="e_0_energy">   -506.63506972 </i>
   </energy>
  </scstep>
  <scstep>
   <time name="diag">    1.97    1.98</time>
   <time name="diis">   11.47   11.54</time>
   <time name="orth">    0.44    0.44</time>
   <time name="total">   14.80   14.89</time>
   <dipole>
    <v name="dipole">      0.00000000       0.00000000      -0.02952951 </v>
    <i name="Tr[quadrupol]">  -7063.15560477 </i>
    <i name="Echarged">      0.00000000 </i>
    <i name="Edipol_quadrupol">      0.00000000 </i>
    <i name="Eion">      0.00000000 </i>
   </dipole>
   <energy>
    <i name="e_fr_energy">   -506.63027667 </i>
    <i name="e_wo_entrp">   -506.64466410 </i>
    <i name="e_0_energy">   -506.63507248 </i>
   </energy>
  </scstep>
  <scstep>
   <time name="diag">    1.94    1.95</time>
   <time name="diis">   10.50   10.56</time>
   <time name="orth">    0.44    0.44</time>
   <time name="total">   13.80   13.88</time>
   <dipole>
    <v name="dipole">      0.00000000       0.00000000      -0.02959093 </v>
    <i name="Tr[quadrupol]">  -7063.16272765 </i>
    <i name="Echarged">      0.00000000 </i>
    <i name="Edipol_quadrupol">      0.00000000 </i>
    <i name="Eion">      0.00000000 </i>
   </dipole>
   <energy>
    <i name="e_fr_energy">   -506.63024033 </i>
    <i name="e_wo_entrp">   -506.64475598 </i>
    <i name="e_0_energy">   -506.63507888 </i>
   </energy>
  </scstep>
  <scstep>
   <time name="diag">    1.98    1.99</time>
   <time name="diis">    9.74    9.80</time>
   <time name="orth">    0.44    0.44</time>
   <time name="total">   13.09   13.17</time>
   <dipole>
    <v name="dipole">      0.00000000       0.00000000      -0.03008514 </v>
    <i name="Tr[quadrupol]">  -7063.17039348 </i>
    <i name="Echarged">      0.00000000 </i>
    <i name="Edipol_quadrupol">      0.00000000 </i>
    <i name="Eion">      0.00000000 </i>
   </dipole>
   <energy>
    <i name="e_fr_energy">   -506.63023491 </i>
    <i name="e_wo_entrp">   -506.64481590 </i>
    <i name="e_0_energy">   -506.63509524 </i>
   </energy>
  </scstep>
  <scstep>
   <time name="diag">    1.96    1.98</time>
   <time name="diis">    8.17    8.22</time>
   <time name="orth">    0.44    0.44</time>
   <time name="total">   10.99   11.05</time>
   <dipole>
    <v name="dipole">      0.00000000       0.00000000      -0.03018110 </v>
    <i name="Tr[quadrupol]">  -7063.17634308 </i>
    <i name="Echarged">      0.00000000 </i>
    <i name="Edipol_quadrupol">      0.00000000 </i>
    <i name="Eion">      0.00000000 </i>
   </dipole>
   <energy>
    <i name="alphaZ">   1807.03752690 </i>
    <i name="ewald"> 205255.32502735 </i>
    <i name="hartreedc">-255496.69710282 </i>
    <i name="XCdc">    951.12632201 </i>
    <i name="pawpsdc">  54534.93523284 </i>
    <i name="pawaedc"> -55615.19793505 </i>
    <i name="eentropy">      0.01453338 </i>
    <i name="bandstr">  -4148.85148724 </i>
    <i name="atom">  52205.67765473 </i>
    <i name="e_fr_energy">   -506.63022789 </i>
    <i name="e_wo_entrp">   -506.64476127 </i>
    <i name="e_0_energy">   -506.63507235 </i>
   </energy>
  </scstep>
  <structure>
   <crystal>
    <varray name="basis" >
     <v>       8.50460000       0.00000000       0.00000000 </v>
     <v>      -0.00109899       8.50909993       0.00000000 </v>
     <v>       0.00000000       0.00000000      23.55660000 </v>
    </varray>
    <i name="volume">   1704.70848813 </i>
    <varray name="rec_basis" >
     <v>       0.11758343       0.00001519       0.00000000 </v>
     <v>       0.00000000       0.11752124       0.00000000 </v>
     <v>       0.00000000       0.00000000       0.04245095 </v>
    </varray>
   </crystal>
   <varray name="positions" >
    <v>       0.99760000       0.00330000       0.24221000 </v>
    <v>       0.66561000       0.99834000       0.00060000 </v>
    <v>       0.65777930       0.99138828       0.36920017 </v>
    <v>       0.83467000       0.16589000       0.18209000 </v>
    <v>       0.99866000       0.33404000       0.12198000 </v>
    <v>       0.33421000       0.33147000       0.00101000 </v>
    <v>       0.33522278       0.32712301       0.36453166 </v>
    <v>       0.83220000       0.50025000       0.06275000 </v>
    <v>       0.83512835       0.49608028       0.30317323 </v>
    <v>       0.33512000       0.67037000       0.00000000 </v>
    <v>       0.33145000       0.66488000       0.12292000 </v>
    <v>       0.49991077       0.83355797       0.30665272 </v>
    <v>       0.67111000       0.66550000       0.12148000 </v>
    <v>       0.99950000       0.00032000       0.00103000 </v>
    <v>       0.00317084       0.99887090       0.36076355 </v>
    <v>       0.16670000       0.16592000       0.06160000 </v>
    <v>       0.99930000       0.00013000       0.12183000 </v>
    <v>       0.16670000       0.16692000       0.18170000 </v>
    <v>       0.16375291       0.16635063       0.30347411 </v>
    <v>       0.33368000       0.99986000       0.00108000 </v>
    <v>       0.32753633       0.00962237       0.36232830 </v>
    <v>       0.50008000       0.16606000       0.06164000 </v>
    <v>       0.33365000       0.99945000       0.12194000 </v>
    <v>       0.50013000       0.16657000       0.18176000 </v>
    <v>       0.33374000       0.99994000       0.24252000 </v>
    <v>       0.50041069       0.16836025       0.30318574 </v>
    <v>       0.83412000       0.16807000       0.06130000 </v>
    <v>       0.66767000       0.99972000       0.12168000 </v>
    <v>       0.66792000       0.00032000       0.24233000 </v>
    <v>       0.83275975       0.16735674       0.30378252 </v>
    <v>       0.00033000       0.33346000       0.00076000 </v>
    <v>       0.00522180       0.33238826       0.36216260 </v>
    <v>       0.16704000       0.50116000       0.06077000 </v>
    <v>       0.16627000       0.49940000       0.18238000 </v>
    <v>       0.00000000       0.33319000       0.24260000 </v>
    <v>       0.16913389       0.50313058       0.30425271 </v>
    <v>       0.49811000       0.50186000       0.06112000 </v>
    <v>       0.33328000       0.33434000       0.12148000 </v>
    <v>       0.50051000       0.50053000       0.18145000 </v>
    <v>       0.33392000       0.33269000       0.24229000 </v>
    <v>       0.49949486       0.50377871       0.30354867 </v>
    <v>       0.66687000       0.33418000       0.00129000 </v>
    <v>       0.66065524       0.33445461       0.36172313 </v>
    <v>       0.66670000       0.33332000       0.12177000 </v>
    <v>       0.83466000       0.49916000       0.18181000 </v>
    <v>       0.66748000       0.33291000       0.24234000 </v>
    <v>       0.99949000       0.66581000       0.00112000 </v>
    <v>       0.99220556       0.66657862       0.36150392 </v>
    <v>       0.16773000       0.83295000       0.06141000 </v>
    <v>       0.00149000       0.66672000       0.12196000 </v>
    <v>       0.16592000       0.83389000       0.18235000 </v>
    <v>       0.99950000       0.66635000       0.24245000 </v>
    <v>       0.16890064       0.83034072       0.30423907 </v>
    <v>       0.49825000       0.83185000       0.06189000 </v>
    <v>       0.50064000       0.83335000       0.18189000 </v>
    <v>       0.33424000       0.66627000       0.24239000 </v>
    <v>       0.66521000       0.66629000       0.00100000 </v>
    <v>       0.67825330       0.65507470       0.36188057 </v>
    <v>       0.83382000       0.83268000       0.06128000 </v>
    <v>       0.83390000       0.83311000       0.18191000 </v>
    <v>       0.66721000       0.66675000       0.24221000 </v>
    <v>       0.83449666       0.83184490       0.30293455 </v>
    <v>       0.33562222       0.66418542       0.40687588 </v>
   </varray>
  </structure>
  <varray name="forces" >
   <v>      -0.01417639      -0.11161599       0.01317983 </v>
   <v>       0.04821098       0.04377044      -0.18557869 </v>
   <v>      -0.00466079      -0.04811555       0.01721995 </v>
   <v>       0.04450525       0.19239505      -0.08738190 </v>
   <v>      -0.08752240      -0.07461654       0.17933276 </v>
   <v>      -0.04647400      -0.32759534      -0.10329935 </v>
   <v>      -0.03385780      -0.18219531      -0.01443250 </v>
   <v>      -0.01697609       0.03195458      -0.16375386 </v>
   <v>      -0.01668501       0.00529115       0.03933788 </v>
   <v>      -0.08949309       0.21577288      -0.23247044 </v>
   <v>      -0.01584571       0.04683148       0.06137510 </v>
   <v>       0.05603785       0.05192698      -0.07537532 </v>
   <v>       0.11020713       0.01514558       0.02418880 </v>
   <v>      -0.01911527      -0.00830296       0.41091924 </v>
   <v>      -0.00103880      -0.03116639      -0.03848347 </v>
   <v>      -0.28228326      -0.12731759      -0.37220771 </v>
   <v>      -0.01809186       0.01616974       0.07787793 </v>
   <v>       0.02274298       0.01391932       0.07405360 </v>
   <v>       0.00838162       0.01731159       0.01459119 </v>
   <v>       0.06274823      -0.02038660       0.52742656 </v>
   <v>       0.00022222      -0.07611745       0.07992933 </v>
   <v>       0.06848098       0.07045060      -0.19719586 </v>
   <v>       0.06007219       0.04430663      -0.04945963 </v>
   <v>      -0.03730029       0.01408730      -0.03861520 </v>
   <v>      -0.05643879       0.01865199       0.04496585 </v>
   <v>      -0.01129031       0.00107949       0.00327112 </v>
   <v>       0.17446521       0.09751266      -0.34257256 </v>
   <v>      -0.02844465      -0.02616537       0.20696313 </v>
   <v>      -0.08894834      -0.10443009       0.13860215 </v>
   <v>       0.00558672      -0.01789240       0.02329051 </v>
   <v>       0.14695177      -0.01286471       0.35842139 </v>
   <v>      -0.00652544       0.06276301       0.02833258 </v>
   <v>      -0.26679699       0.04041900      -0.47386796 </v>
   <v>      -0.02401972      -0.08190726      -0.02717737 </v>
   <v>       0.07341244      -0.01279944      -0.10215556 </v>
   <v>      -0.04361349      -0.02176545       0.04666204 </v>
   <v>       0.32740231      -0.00850209      -0.33248126 </v>
   <v>      -0.00327892      -0.01257210       0.21403910 </v>
   <v>       0.00111463      -0.05747729      -0.05498505 </v>
   <v>       0.02777422       0.11869356       0.02608057 </v>
   <v>      -0.00158775       0.04973872       0.12422679 </v>
   <v>      -0.12418640       0.00644113       0.41196391 </v>
   <v>       0.03280067       0.02583823       0.00152414 </v>
   <v>       0.03983459      -0.08159405       0.07369763 </v>
   <v>      -0.00493030       0.05810997       0.03536043 </v>
   <v>      -0.09416703       0.00125080      -0.03082731 </v>
   <v>       0.11249523       0.02763250       0.38701735 </v>
   <v>       0.01192424       0.00471347       0.03119762 </v>
   <v>      -0.25319543       0.16433097      -0.32940200 </v>
   <v>      -0.03306786       0.02789338       0.13756445 </v>
   <v>       0.01716789       0.03547547       0.05168627 </v>
   <v>       0.06304999       0.04508451      -0.07307796 </v>
   <v>       0.05452510      -0.01711781       0.11802991 </v>
   <v>      -0.01049905      -0.10915402      -0.06503047 </v>
   <v>       0.01184894      -0.00975206      -0.06667766 </v>
   <v>      -0.01062685      -0.02231181       0.08548558 </v>
   <v>      -0.07410744       0.00400758       0.40682948 </v>
   <v>       0.00308876       0.02490122       0.05542691 </v>
   <v>       0.22786126      -0.08998569      -0.27697665 </v>
   <v>      -0.00078664      -0.03352635       0.01411422 </v>
   <v>       0.03110412      -0.04645793      -0.15002355 </v>
   <v>       0.00180823      -0.03393696      -0.00280727 </v>
   <v>      -0.02579360       0.21377164      -0.65786873 </v>
  </varray>
  <varray name="stress" >
   <v>     -20.86754210       0.02670285      -0.07131519 </v>
   <v>       0.02670261     -21.20430104       0.30194007 </v>
   <v>      -0.07131590       0.30194076      -6.26222243 </v>
  </varray>
  <energy>
   <i name="e_fr_energy">   -506.63022789 </i>
   <i name="e_wo_entrp">   -506.64476127 </i>
   <i name="e_0_energy">   -506.63507235 </i>
  </energy>
  <time name="totalsc">  170.79  172.00</time>
 </calculation>
 <calculation>
  <scstep>
   <time name="dav">   16.65   16.75</time>
   <time name="total">   17.59   17.69</time>
   <dipole>
    <v name="dipole">      0.00000000       0.00000000      -0.02954469 </v>
    <i name="Tr[quadrupol]">  -7056.92775234 </i>
    <i name="Echarged">      0.00000000 </i>
    <i name="Edipol_quadrupol">      0.00000000 </i>
    <i name="Eion">      0.00000000 </i>
   </dipole>
   <energy>
    <i name="alphaZ">   1807.16976433 </i>
    <i name="ewald"> 205573.33625380 </i>
    <i name="hartreedc">-255812.99927256 </i>
    <i name="XCdc">    951.31230952 </i>
    <i name="pawpsdc">  54534.83765116 </i>
    <i name="pawaedc"> -55615.09741559 </i>
    <i name="eentropy">      0.01623271 </i>
    <i name="bandstr">  -4150.42812484 </i>
    <i name="atom">  52205.67765473 </i>
    <i name="e_fr_energy">   -506.17494674 </i>
    <i name="e_wo_entrp">   -506.19117945 </i>
    <i name="e_0_energy">   -506.18035764 </i>
   </energy>
  </scstep>
  <scstep>
   <time name="diag">    1.94    1.95</time>
   <time name="diis">    9.77    9.83</time>
   <time name="orth">    0.44    0.44</time>
   <time name="total">   13.11   13.19</time>
   <dipole>
    <v name="dipole">      0.00000000       0.00000000       0.00933471 </v>
    <i name="Tr[quadrupol]">  -7056.78548330 </i>
    <i name="Echarged">      0.00000000 </i>
    <i name="Edipol_quadrupol">      0.00000000 </i>
    <i name="Eion">      0.00000000 </i>
   </dipole>
   <energy>
    <i name="e_fr_energy">   -506.56965942 </i>
    <i name="e_wo_entrp">   -506.58987322 </i>
    <i name="e_0_energy">   -506.57639735 </i>
   </energy>
  </scstep>
  <scstep>
   <time name="diag">    1.94    1.96</time>
   <time name="diis">   12.72   12.82</time>
   <time name="orth">    0.44    0.44</time>
   <time name="total">   16.04   16.16</time>
   <dipole>
    <v name="dipole">      0.00000000       0.00000000      -0.11384468 </v>
    <i name="Tr[quadrupol]">  -7056.70397246 </i>
    <i name="Echarged">      0.00000000 </i>
    <i name="Edipol_quadrupol">      0.00000000 </i>
    <i name="Eion">      0.00000000 </i>
   </dipole>
   <energy>
    <i name="e_fr_energy">   -506.88423460 </i>
    <i name="e_wo_entrp">   -506.88835719 </i>
    <i name="e_0_energy">   -506.88560880 </i>
   </energy>
  </scstep>
  <scstep>
   <time name="diag">    1.98    2.00</time>
   <time name="diis">    9.76    9.83</time>
   <time name="orth">    0.45    0.45</time>
   <time name="total">   13.13   13.24</time>
   <dipole>
    <v name="dipole">      0.00000000       0.00000000      -0.00511357 </v>
    <i name="Tr[quadrupol]">  -7056.95719813 </i>
    <i name="Echarged">      0.00000000 </i>
    <i name="Edipol_quadrupol">      0.00000000 </i>
    <i name="Eion">      0.00000000 </i>
   </dipole>
   <energy>
    <i name="e_fr_energy">   -506.66363767 </i>
    <i name="e_wo_entrp">   -506.68244347 </i>
    <i name="e_0_energy">   -506.66990627 </i>
   </energy>
  </scstep>
  <scstep>
   <time name="diag">    1.96    1.97</time>
   <time name="diis">   10.91   10.97</time>
   <time name="orth">    0.44    0.44</time>
   <time name="total">   14.25   14.33</time>
   <dipole>
    <v name="dipole">      0.00000000       0.00000000      -0.01668892 </v>
    <i name="Tr[quadrupol]">  -7056.73093227 </i>
    <i name="Echarged">      0.00000000 </i>
    <i name="Edipol_quadrupol">      0.00000000 </i>
    <i name="Eion">      0.00000000 </i>
   </dipole>
   <energy>
    <i name="e_fr_energy">   -506.67634173 </i>
    <i name="e_wo_entrp">   -506.69284626 </i>
    <i name="e_0_energy">   -506.68184324 </i>
   </energy>
  </scstep>
  <scstep>
   <time name="diag">    1.96    1.97</time>
   <time name="diis">   10.82   10.91</time>
   <time name="orth">    0.44    0.44</time>
   <time name="total">   14.17   14.28</time>
   <dipole>
    <v name="dipole">      0.00000000       0.00000000      -0.02456955 </v>
    <i name="Tr[quadrupol]">  -7056.84079777 </i>
    <i name="Echarged">      0.00000000 </i>
    <i name="Edipol_quadrupol">      0.00000000 </i>
    <i name="Eion">      0.00000000 </i>
   </dipole>
   <energy>
    <i name="e_fr_energy">   -506.69039581 </i>
    <i name="e_wo_entrp">   -506.70569144 </i>
    <i name="e_0_energy">   -506.69549435 </i>
   </energy>
  </scstep>
  <scstep>
   <time name="diag">    1.97    1.98</time>
   <time name="diis">   10.71   10.78</time>
   <time name="orth">    0.44    0.45</time>
   <time name="total">   14.05   14.13</time>
   <dipole>
    <v name="dipole">      0.00000000       0.00000000      -0.02142763 </v>
    <i name="Tr[quadrupol]">  -7056.81858228 </i>
    <i name="Echarged">      0.00000000 </i>
    <i name="Edipol_quadrupol">      0.00000000 </i>
    <i name="Eion">      0.00000000 </i>
   </dipole>
   <energy>
    <i name="e_fr_energy">   -506.69412149 </i>
    <i name="e_wo_entrp">   -506.71034125 </i>
    <i name="e_0_energy">   -506.69952807 </i>
   </energy>
  </scstep>
  <scstep>
   <time name="diag">    1.96    1.97</time>
   <time name="diis">   12.26   12.34</time>
   <time name="orth">    0.44    0.44</time>
   <time name="total">   15.60   15.71</time>
   <dipole>
    <v name="dipole">      0.00000000       0.00000000      -0.02146737 </v>
    <i name="Tr[quadrupol]">  -7056.82158939 </i>
    <i name="Echarged">      0.00000000 </i>
    <i name="Edipol_quadrupol">      0.00000000 </i>
    <i name="Eion">      0.00000000 </i>
   </dipole>
   <energy>
    <i name="e_fr_energy">   -506.69420081 </i>
    <i name="e_wo_entrp">   -506.71051350 </i>
    <i name="e_0_energy">   -506.69963838 </i>
   </energy>
  </scstep>
  <scstep>
   <time name="diag">    1.92    1.95</time>
   <time name="diis">   11.59   11.66</time>
   <time name="orth">    0.44    0.44</time>
   <time name="total">   14.90   15.01</time>
   <dipole>
    <v name="dipole">      0.00000000       0.00000000      -0.02081998 </v>
    <i name="Tr[quadrupol]">  -7056.83478669 </i>
    <i name="Echarged">      0.00000000 </i>
    <i name="Edipol_quadrupol">      0.00000000 </i>
    <i name="Eion">      0.00000000 </i>
   </dipole>
   <energy>
    <i name="e_fr_energy">   -506.69391756 </i>
    <i name="e_wo_entrp">   -506.71070757 </i>
    <i name="e_0_energy">   -506.69951423 </i>
   </energy>
  </scstep>
  <scstep>
   <time name="diag">    1.94    1.95</time>
   <time name="diis">   10.52   10.58</time>
   <time name="orth">    0.44    0.44</time>
   <time name="total">   13.83   13.91</time>
   <dipole>
    <v name="dipole">      0.00000000       0.00000000      -0.02218107 </v>
    <i name="Tr[quadrupol]">  -7056.85358227 </i>
    <i name="Echarged">      0.00000000 </i>
    <i name="Edipol_quadrupol">      0.00000000 </i>
    <i name="Eion">      0.00000000 </i>
   </dipole>
   <energy>
    <i name="e_fr_energy">   -506.69373865 </i>
    <i name="e_wo_entrp">   -506.71063732 </i>
    <i name="e_0_energy">   -506.69937154 </i>
   </energy>
  </scstep>
  <scstep>
   <time name="diag">    1.94    1.95</time>
   <time name="diis">   11.61   11.67</time>
   <time name="orth">    0.44    0.44</time>
   <time name="total">   14.94   15.02</time>
   <dipole>
    <v name="dipole">      0.00000000       0.00000000      -0.02291447 </v>
    <i name="Tr[quadrupol]">  -7056.85293929 </i>
    <i name="Echarged">      0.00000000 </i>
    <i name="Edipol_quadrupol">      0.00000000 </i>
    <i name="Eion">      0.00000000 </i>
   </dipole>
   <energy>
    <i name="e_fr_energy">   -506.69366973 </i>
    <i name="e_wo_entrp">   -506.71047795 </i>
    <i name="e_0_energy">   -506.69927247 </i>
   </energy>
  </scstep>
  <scstep>
   <time name="diag">    1.97    1.98</time>
   <time name="diis">   10.72   10.82</time>
   <time name="orth">    0.44    0.45</time>
   <time name="total">   14.08   14.20</time>
   <dipole>
    <v name="dipole">      0.00000000       0.00000000      -0.02173381 </v>
    <i name="Tr[quadrupol]">  -7056.83596758 </i>
    <i name="Echarged">      0.00000000 </i>
    <i name="Edipol_quadrupol">      0.00000000 </i>
    <i name="Eion">      0.00000000 </i>
   </dipole>
   <energy>
    <i name="e_fr_energy">   -506.69367308 </i>
    <i name="e_wo_entrp">   -506.71036685 </i>
    <i name="e_0_energy">   -506.69923767 </i>
   </energy>
  </scstep>
  <scstep>
   <time name="diag">    1.95    1.96</time>
   <time name="diis">   10.16   10.23</time>
   <time name="orth">    0.44    0.45</time>
   <time name="total">   13.49   13.57</time>
   <dipole>
    <v name="dipole">      0.00000000       0.00000000      -0.02119863 </v>
    <i name="Tr[quadrupol]">  -7056.81819198 </i>
    <i name="Echarged">      0.00000000 </i>
    <i name="Edipol_quadrupol">      0.00000000 </i>
    <i name="Eion">      0.00000000 </i>
   </dipole>
   <energy>
    <i name="e_fr_energy">   -506.69372133 </i>
    <i name="e_wo_entrp">   -506.71016278 </i>
    <i name="e_0_energy">   -506.69920181 </i>
   </energy>
  </scstep>
  <scstep>
   <time name="diag">    1.96    1.98</time>
   <time name="diis">    9.71    9.81</time>
   <time name="orth">    0.43    0.44</time>
   <time name="total">   13.04   13.17</time>
   <dipole>
    <v name="dipole">      0.00000000       0.00000000      -0.02079601 </v>
    <i name="Tr[quadrupol]">  -7056.81085662 </i>
    <i name="Echarged">      0.00000000 </i>
    <i name="Edipol_quadrupol">      0.00000000 </i>
    <i name="Eion">      0.00000000 </i>
   </dipole>
   <energy>
    <i name="e_fr_energy">   -506.69378521 </i>
    <i name="e_wo_entrp">   -506.71012431 </i>
    <i name="e_0_energy">   -506.69923157 </i>
   </energy>
  </scstep>
  <scstep>
   <time name="diag">    1.96    1.97</time>
   <time name="diis">    7.94    7.98</time>
   <time name="orth">    0.44    0.44</time>
   <time name="total">   10.74   10.80</time>
   <dipole>
    <v name="dipole">      0.00000000       0.00000000      -0.02027501 </v>
    <i name="Tr[quadrupol]">  -7056.81345448 </i>
    <i name="Echarged">      0.00000000 </i>
    <i name="Edipol_quadrupol">      0.00000000 </i>
    <i name="Eion">      0.00000000 </i>
   </dipole>
   <energy>
    <i name="alphaZ">   1807.29330316 </i>
    <i name="ewald"> 205573.33625380 </i>
    <i name="hartreedc">-255810.88869690 </i>
    <i name="XCdc">    951.25848506 </i>
    <i name="pawpsdc">  54552.95082510 </i>
    <i name="pawaedc"> -55633.41422779 </i>
    <i name="eentropy">      0.01643118 </i>
    <i name="bandstr">  -4152.92381081 </i>
    <i name="atom">  52205.67765473 </i>
    <i name="e_fr_energy">   -506.69378247 </i>
    <i name="e_wo_entrp">   -506.71021365 </i>
    <i name="e_0_energy">   -506.69925953 </i>
   </energy>
  </scstep>
  <structure>
   <crystal>
    <varray name="basis" >
     <v>       8.50460000       0.00000000       0.00000000 </v>
     <v>      -0.00109899       8.50909993       0.00000000 </v>
     <v>       0.00000000       0.00000000      23.55660000 </v>
    </varray>
    <i name="volume">   1704.70848813 </i>
    <varray name="rec_basis" >
     <v>       0.11758343       0.00001519       0.00000000 </v>
     <v>       0.00000000       0.11752124       0.00000000 </v>
     <v>       0.00000000       0.00000000       0.04245095 </v>
    </varray>
   </crystal>
   <varray name="positions" >
    <v>       0.99760000       0.00330000       0.24221000 </v>
    <v>       0.66561000       0.99834000       0.00060000 </v>
    <v>       0.65771722       0.99030310       0.36935068 </v>
    <v>       0.83467000       0.16589000       0.18209000 </v>
    <v>       0.99866000       0.33404000       0.12198000 </v>
    <v>       0.33421000       0.33147000       0.00101000 </v>
    <v>       0.33439111       0.32302206       0.36426664 </v>
    <v>       0.83220000       0.50025000       0.06275000 </v>
    <v>       0.83488342       0.49623112       0.30348290 </v>
    <v>       0.33512000       0.67037000       0.00000000 </v>
    <v>       0.33145000       0.66488000       0.12292000 </v>
    <v>       0.50078308       0.83418187       0.30624088 </v>
    <v>       0.67111000       0.66550000       0.12148000 </v>
    <v>       0.99950000       0.00032000       0.00103000 </v>
    <v>       0.00320337       0.99806360       0.36047421 </v>
    <v>       0.16670000       0.16592000       0.06160000 </v>
    <v>       0.99930000       0.00013000       0.12183000 </v>
    <v>       0.16670000       0.16692000       0.18170000 </v>
    <v>       0.16421166       0.16728253       0.30351643 </v>
    <v>       0.33368000       0.99986000       0.00108000 </v>
    <v>       0.32746534       0.00773948       0.36304318 </v>
    <v>       0.50008000       0.16606000       0.06164000 </v>
    <v>       0.33365000       0.99945000       0.12194000 </v>
    <v>       0.50013000       0.16657000       0.18176000 </v>
    <v>       0.33374000       0.99994000       0.24252000 </v>
    <v>       0.49966278       0.16854100       0.30320297 </v>
    <v>       0.83412000       0.16807000       0.06130000 </v>
    <v>       0.66767000       0.99972000       0.12168000 </v>
    <v>       0.66792000       0.00032000       0.24233000 </v>
    <v>       0.83287901       0.16683694       0.30400007 </v>
    <v>       0.00033000       0.33346000       0.00076000 </v>
    <v>       0.00522722       0.33376303       0.36235041 </v>
    <v>       0.16704000       0.50116000       0.06077000 </v>
    <v>       0.16627000       0.49940000       0.18238000 </v>
    <v>       0.00000000       0.33319000       0.24260000 </v>
    <v>       0.16812556       0.50280232       0.30483085 </v>
    <v>       0.49811000       0.50186000       0.06112000 </v>
    <v>       0.33328000       0.33434000       0.12148000 </v>
    <v>       0.50051000       0.50053000       0.18145000 </v>
    <v>       0.33392000       0.33269000       0.24229000 </v>
    <v>       0.49968943       0.50536485       0.30474467 </v>
    <v>       0.66687000       0.33418000       0.00129000 </v>
    <v>       0.66124097       0.33518845       0.36173252 </v>
    <v>       0.66670000       0.33332000       0.12177000 </v>
    <v>       0.83466000       0.49916000       0.18181000 </v>
    <v>       0.66748000       0.33291000       0.24234000 </v>
    <v>       0.99949000       0.66581000       0.00112000 </v>
    <v>       0.99264225       0.66678447       0.36163568 </v>
    <v>       0.16773000       0.83295000       0.06141000 </v>
    <v>       0.00149000       0.66672000       0.12196000 </v>
    <v>       0.16592000       0.83389000       0.18235000 </v>
    <v>       0.99950000       0.66635000       0.24245000 </v>
    <v>       0.17025256       0.82998288       0.30552627 </v>
    <v>       0.49825000       0.83185000       0.06189000 </v>
    <v>       0.50064000       0.83335000       0.18189000 </v>
    <v>       0.33424000       0.66627000       0.24239000 </v>
    <v>       0.66521000       0.66629000       0.00100000 </v>
    <v>       0.67814320       0.65547879       0.36218226 </v>
    <v>       0.83382000       0.83268000       0.06128000 </v>
    <v>       0.83390000       0.83311000       0.18191000 </v>
    <v>       0.66721000       0.66675000       0.24221000 </v>
    <v>       0.83427662       0.83089959       0.30297820 </v>
    <v>       0.33526887       0.66861169       0.40218352 </v>
   </varray>
  </structure>
  <varray name="forces" >
   <v>      -0.00233602      -0.12891061       0.03738221 </v>
   <v>       0.04853390       0.04288845      -0.18695320 </v>
   <v>      -0.00534597       0.01014964      -0.00693774 </v>
   <v>       0.04902309       0.17847936      -0.06497661 </v>
   <v>      -0.08488775      -0.07124270       0.17494096 </v>
   <v>      -0.04656621      -0.32664226      -0.10429027 </v>
   <v>       0.01568649       0.02004117       0.08419680 </v>
   <v>      -0.01386265       0.03357250      -0.16372542 </v>
   <v>      -0.01852025      -0.01068153       0.00173324 </v>
   <v>      -0.08919412       0.21530372      -0.23310417 </v>
   <v>      -0.01394310       0.04593658       0.04575884 </v>
   <v>       0.07873920       0.10772092      -0.11285836 </v>
   <v>       0.10891518       0.01422568       0.02476754 </v>
   <v>      -0.01941226      -0.00709914       0.40692170 </v>
   <v>      -0.01366758       0.02077753      -0.00958838 </v>
   <v>      -0.28242185      -0.12695734      -0.37190010 </v>
   <v>      -0.01578588       0.01534226       0.07248646 </v>
   <v>       0.02172027       0.01169200       0.08395611 </v>
   <v>      -0.05990004      -0.10167265       0.03591675 </v>
   <v>       0.06245067      -0.02034592       0.52621199 </v>
   <v>       0.01468461       0.05522562      -0.03615663 </v>
   <v>       0.06712483       0.07016400      -0.19591456 </v>
   <v>       0.06194103       0.04581992      -0.04936641 </v>
   <v>      -0.03787022       0.01733831      -0.03822081 </v>
   <v>      -0.08434935       0.00907905       0.08778141 </v>
   <v>       0.09420463      -0.03040035       0.00631830 </v>
   <v>       0.17417126       0.09666852      -0.33799525 </v>
   <v>      -0.02841653      -0.02554366       0.20770947 </v>
   <v>      -0.08303350      -0.09602461       0.15541346 </v>
   <v>       0.00328587       0.02439958      -0.00947818 </v>
   <v>       0.14788760      -0.01417381       0.35663815 </v>
   <v>      -0.03044814       0.00420165       0.02013643 </v>
   <v>      -0.26560691       0.04057613      -0.47448368 </v>
   <v>      -0.02191856      -0.07827669      -0.00987156 </v>
   <v>       0.05772462      -0.01382817      -0.07380313 </v>
   <v>       0.00296494      -0.03567896      -0.10915013 </v>
   <v>       0.32733761      -0.00840584      -0.32932195 </v>
   <v>      -0.00198673      -0.01132744       0.21025243 </v>
   <v>      -0.00375013      -0.05643504      -0.02777441 </v>
   <v>       0.04447344       0.16802069       0.06569800 </v>
   <v>      -0.03215674      -0.09518397      -0.11105294 </v>
   <v>      -0.12430728       0.00495874       0.40696647 </v>
   <v>       0.02753446      -0.03058113      -0.00190948 </v>
   <v>       0.03603892      -0.08284235       0.06850068 </v>
   <v>      -0.00379793       0.06141170       0.04903637 </v>
   <v>      -0.11643740       0.01255114       0.02736184 </v>
   <v>       0.11299796       0.02783645       0.38545061 </v>
   <v>      -0.03913870      -0.01774626       0.06084662 </v>
   <v>      -0.25348373       0.16556567      -0.32638842 </v>
   <v>      -0.03316040       0.02821716       0.13528479 </v>
   <v>       0.01460792       0.03093580       0.08643652 </v>
   <v>       0.09659091       0.05697696      -0.03230243 </v>
   <v>      -0.04434600       0.01673727      -0.19620969 </v>
   <v>      -0.01168937      -0.10952990      -0.06469642 </v>
   <v>       0.00861501      -0.01274178      -0.06610319 </v>
   <v>      -0.02573347      -0.04061820       0.14385378 </v>
   <v>      -0.07514859       0.00401617       0.40358977 </v>
   <v>       0.04086447       0.02361694       0.07472091 </v>
   <v>       0.22673796      -0.09081560      -0.27435086 </v>
   <v>       0.00891365      -0.03557918       0.02217860 </v>
   <v>       0.01844528      -0.07372682      -0.13734719 </v>
   <v>       0.04937741       0.03229186      -0.02586240 </v>
   <v>      -0.03896981       0.04027277      -0.28635325 </v>
  </varray>
  <varray name="stress" >
   <v>     -20.31645019       0.17224763      -0.08624340 </v>
   <v>       0.17224747     -20.71495206       0.27722447 </v>
   <v>      -0.08624319       0.27722444      -5.66302474 </v>
  </varray>
  <energy>
   <i name="e_fr_energy">   -506.69378247 </i>
   <i name="e_wo_entrp">   -506.71021365 </i>
   <i name="e_0_energy">   -506.69925953 </i>
  </energy>
  <time name="totalsc">  229.46  231.06</time>
 </calculation>
 <calculation>
  <scstep>
   <time name="dav">   16.65   16.76</time>
   <time name="total">   17.61   17.73</time>
   <dipole>
    <v name="dipole">      0.00000000       0.00000000      -0.02024992 </v>
    <i name="Tr[quadrupol]">  -7055.33908920 </i>
    <i name="Echarged">      0.00000000 </i>
    <i name="Edipol_quadrupol">      0.00000000 </i>
    <i name="Eion">      0.00000000 </i>
   </dipole>
   <energy>
    <i name="alphaZ">   1807.29327867 </i>
    <i name="ewald"> 205642.65754933 </i>
    <i name="hartreedc">-255879.87228267 </i>
    <i name="XCdc">    951.29689896 </i>
    <i name="pawpsdc">  54552.59018304 </i>
    <i name="pawaedc"> -55633.06252249 </i>
    <i name="eentropy">      0.01677229 </i>
    <i name="bandstr">  -4153.25953085 </i>
    <i name="atom">  52205.67765473 </i>
    <i name="e_fr_energy">   -506.66199899 </i>
    <i name="e_wo_entrp">   -506.67877128 </i>
    <i name="e_0_energy">   -506.66758975 </i>
   </energy>
  </scstep>
  <scstep>
   <time name="diag">    1.95    1.96</time>
   <time name="diis">    9.70    9.84</time>
   <time name="orth">    0.43    0.44</time>
   <time name="total">   13.02   13.19</time>
   <dipole>
    <v name="dipole">      0.00000000       0.00000000      -0.00955343 </v>
    <i name="Tr[quadrupol]">  -7055.30668580 </i>
    <i name="Echarged">      0.00000000 </i>
    <i name="Edipol_quadrupol">      0.00000000 </i>
    <i name="Eion">      0.00000000 </i>
   </dipole>
   <energy>
    <i name="e_fr_energy">   -506.68557842 </i>
    <i name="e_wo_entrp">   -506.70369456 </i>
    <i name="e_0_energy">   -506.69161713 </i>
   </energy>
  </scstep>
  <scstep>
   <time name="diag">    1.92    1.95</time>
   <time name="diis">   12.35   12.48</time>
   <time name="orth">    0.44    0.44</time>
   <time name="total">   15.64   15.83</time>
   <dipole>
    <v name="dipole">      0.00000000       0.00000000      -0.03682997 </v>
    <i name="Tr[quadrupol]">  -7055.29320637 </i>
    <i name="Echarged">      0.00000000 </i>
    <i name="Edipol_quadrupol">      0.00000000 </i>
    <i name="Eion">      0.00000000 </i>
   </dipole>
   <energy>
    <i name="e_fr_energy">   -506.70211606 </i>
    <i name="e_wo_entrp">   -506.71603463 </i>
    <i name="e_0_energy">   -506.70675558 </i>
   </energy>
  </scstep>
  <scstep>
   <time name="diag">    1.96    1.98</time>
   <time name="diis">    9.96   10.02</time>
   <time name="orth">    0.44    0.44</time>
   <time name="total">   13.28   13.38</time>
   <dipole>
    <v name="dipole">      0.00000000       0.00000000      -0.01550329 </v>
    <i name="Tr[quadrupol]">  -7055.33559363 </i>
    <i name="Echarged">      0.00000000 </i>
    <i name="Edipol_quadrupol">      0.00000000 </i>
    <i name="Eion">      0.00000000 </i>
   </dipole>
   <energy>
    <i name="e_fr_energy">   -506.69420562 </i>
    <i name="e_wo_entrp">   -506.71155663 </i>
    <i name="e_0_energy">   -506.69998929 </i>
   </energy>
  </scstep>
  <scstep>
   <time name="diag">    1.95    1.96</time>
   <time name="diis">   10.42   10.55</time>
   <time name="orth">    0.44    0.44</time>
   <time name="total">   13.72   13.88</time>
   <dipole>
    <v name="dipole">      0.00000000       0.00000000      -0.01767481 </v>
    <i name="Tr[quadrupol]">  -7055.29164546 </i>
    <i name="Echarged">      0.00000000 </i>
    <i name="Edipol_quadrupol">      0.00000000 </i>
    <i name="Eion">      0.00000000 </i>
   </dipole>
   <energy>
    <i name="e_fr_energy">   -506.69479210 </i>
    <i name="e_wo_entrp">   -506.71168659 </i>
    <i name="e_0_energy">   -506.70042360 </i>
   </energy>
  </scstep>
  <scstep>
   <time name="diag">    1.94    1.96</time>
   <time name="diis">   10.08   10.16</time>
   <time name="orth">    0.44    0.44</time>
   <time name="total">   13.41   13.51</time>
   <dipole>
    <v name="dipole">      0.00000000       0.00000000      -0.01989032 </v>
    <i name="Tr[quadrupol]">  -7055.31663325 </i>
    <i name="Echarged">      0.00000000 </i>
    <i name="Edipol_quadrupol">      0.00000000 </i>
    <i name="Eion">      0.00000000 </i>
   </dipole>
   <energy>
    <i name="e_fr_energy">   -506.69559824 </i>
    <i name="e_wo_entrp">   -506.71215766 </i>
    <i name="e_0_energy">   -506.70111804 </i>
   </energy>
  </scstep>
  <scstep>
   <time name="diag">    1.94    1.96</time>
   <time name="diis">   10.09   10.17</time>
   <time name="orth">    0.44    0.44</time>
   <time name="total">   13.41   13.52</time>
   <dipole>
    <v name="dipole">      0.00000000       0.00000000      -0.01857409 </v>
    <i name="Tr[quadrupol]">  -7055.31051480 </i>
    <i name="Echarged">      0.00000000 </i>
    <i name="Edipol_quadrupol">      0.00000000 </i>
    <i name="Eion">      0.00000000 </i>
   </dipole>
   <energy>
    <i name="e_fr_energy">   -506.69572775 </i>
    <i name="e_wo_entrp">   -506.71257613 </i>
    <i name="e_0_energy">   -506.70134388 </i>
   </energy>
  </scstep>
  <scstep>
   <time name="diag">    1.94    1.96</time>
   <time name="diis">    9.59    9.68</time>
   <time name="orth">    0.44    0.44</time>
   <time name="total">   12.90   13.04</time>
   <dipole>
    <v name="dipole">      0.00000000       0.00000000      -0.01849108 </v>
    <i name="Tr[quadrupol]">  -7055.31093827 </i>
    <i name="Echarged">      0.00000000 </i>
    <i name="Edipol_quadrupol">      0.00000000 </i>
    <i name="Eion">      0.00000000 </i>
   </dipole>
   <energy>
    <i name="e_fr_energy">   -506.69573551 </i>
    <i name="e_wo_entrp">   -506.71259804 </i>
    <i name="e_0_energy">   -506.70135635 </i>
   </energy>
  </scstep>
  <scstep>
   <time name="diag">    1.94    1.96</time>
   <time name="diis">    8.56    8.66</time>
   <time name="orth">    0.44    0.44</time>
   <time name="total">   11.36   11.49</time>
   <dipole>
    <v name="dipole">      0.00000000       0.00000000      -0.01850314 </v>
    <i name="Tr[quadrupol]">  -7055.31386988 </i>
    <i name="Echarged">      0.00000000 </i>
    <i name="Edipol_quadrupol">      0.00000000 </i>
    <i name="Eion">      0.00000000 </i>
   </dipole>
   <energy>
    <i name="alphaZ">   1807.08442488 </i>
    <i name="ewald"> 205642.65754933 </i>
    <i name="hartreedc">-255879.63858632 </i>
    <i name="XCdc">    951.29165292 </i>
    <i name="pawpsdc">  54555.04341905 </i>
    <i name="pawaedc"> -55635.55801229 </i>
    <i name="eentropy">      0.01694549 </i>
    <i name="bandstr">  -4153.27078372 </i>
    <i name="atom">  52205.67765473 </i>
    <i name="e_fr_energy">   -506.69573592 </i>
    <i name="e_wo_entrp">   -506.71268141 </i>
    <i name="e_0_energy">   -506.70138442 </i>
   </energy>
  </scstep>
  <structure>
   <crystal>
    <varray name="basis" >
     <v>       8.50460000       0.00000000       0.00000000 </v>
     <v>      -0.00109899       8.50909993       0.00000000 </v>
     <v>       0.00000000       0.00000000      23.55660000 </v>
    </varray>
    <i name="volume">   1704.70848813 </i>
    <varray name="rec_basis" >
     <v>       0.11758343       0.00001519       0.00000000 </v>
     <v>       0.00000000       0.11752124       0.00000000 </v>
     <v>       0.00000000       0.00000000       0.04245095 </v>
    </varray>
   </crystal>
   <varray name="positions" >
    <v>       0.99760000       0.00330000       0.24221000 </v>
    <v>       0.66561000       0.99834000       0.00060000 </v>
    <v>       0.65770380       0.99006853       0.36938321 </v>
    <v>       0.83467000       0.16589000       0.18209000 </v>
    <v>       0.99866000       0.33404000       0.12198000 </v>
    <v>       0.33421000       0.33147000       0.00101000 </v>
    <v>       0.33421133       0.32213558       0.36420935 </v>
    <v>       0.83220000       0.50025000       0.06275000 </v>
    <v>       0.83483047       0.49626373       0.30354985 </v>
    <v>       0.33512000       0.67037000       0.00000000 </v>
    <v>       0.33145000       0.66488000       0.12292000 </v>
    <v>       0.50097164       0.83431673       0.30615186 </v>
    <v>       0.67111000       0.66550000       0.12148000 </v>
    <v>       0.99950000       0.00032000       0.00103000 </v>
    <v>       0.00321040       0.99788909       0.36041167 </v>
    <v>       0.16670000       0.16592000       0.06160000 </v>
    <v>       0.99930000       0.00013000       0.12183000 </v>
    <v>       0.16670000       0.16692000       0.18170000 </v>
    <v>       0.16431082       0.16748397       0.30352557 </v>
    <v>       0.33368000       0.99986000       0.00108000 </v>
    <v>       0.32744999       0.00733246       0.36319771 </v>
    <v>       0.50008000       0.16606000       0.06164000 </v>
    <v>       0.33365000       0.99945000       0.12194000 </v>
    <v>       0.50013000       0.16657000       0.18176000 </v>
    <v>       0.33374000       0.99994000       0.24252000 </v>
    <v>       0.49950110       0.16858007       0.30320670 </v>
    <v>       0.83412000       0.16807000       0.06130000 </v>
    <v>       0.66767000       0.99972000       0.12168000 </v>
    <v>       0.66792000       0.00032000       0.24233000 </v>
    <v>       0.83290479       0.16672458       0.30404710 </v>
    <v>       0.00033000       0.33346000       0.00076000 </v>
    <v>       0.00522839       0.33406021       0.36239101 </v>
    <v>       0.16704000       0.50116000       0.06077000 </v>
    <v>       0.16627000       0.49940000       0.18238000 </v>
    <v>       0.00000000       0.33319000       0.24260000 </v>
    <v>       0.16790759       0.50273136       0.30495582 </v>
    <v>       0.49811000       0.50186000       0.06112000 </v>
    <v>       0.33328000       0.33434000       0.12148000 </v>
    <v>       0.50051000       0.50053000       0.18145000 </v>
    <v>       0.33392000       0.33269000       0.24229000 </v>
    <v>       0.49973148       0.50570771       0.30500320 </v>
    <v>       0.66687000       0.33418000       0.00129000 </v>
    <v>       0.66136758       0.33534708       0.36173455 </v>
    <v>       0.66670000       0.33332000       0.12177000 </v>
    <v>       0.83466000       0.49916000       0.18181000 </v>
    <v>       0.66748000       0.33291000       0.24234000 </v>
    <v>       0.99949000       0.66581000       0.00112000 </v>
    <v>       0.99273665       0.66682897       0.36166416 </v>
    <v>       0.16773000       0.83295000       0.06141000 </v>
    <v>       0.00149000       0.66672000       0.12196000 </v>
    <v>       0.16592000       0.83389000       0.18235000 </v>
    <v>       0.99950000       0.66635000       0.24245000 </v>
    <v>       0.17054480       0.82990553       0.30580452 </v>
    <v>       0.49825000       0.83185000       0.06189000 </v>
    <v>       0.50064000       0.83335000       0.18189000 </v>
    <v>       0.33424000       0.66627000       0.24239000 </v>
    <v>       0.66521000       0.66629000       0.00100000 </v>
    <v>       0.67811940       0.65556614       0.36224748 </v>
    <v>       0.83382000       0.83268000       0.06128000 </v>
    <v>       0.83390000       0.83311000       0.18191000 </v>
    <v>       0.66721000       0.66675000       0.24221000 </v>
    <v>       0.83422906       0.83069525       0.30298763 </v>
    <v>       0.33519248       0.66956849       0.40116920 </v>
   </varray>
  </structure>
  <varray name="forces" >
   <v>       0.00106985      -0.13326520       0.04200822 </v>
   <v>       0.04868481       0.04255632      -0.18683142 </v>
   <v>      -0.00594200       0.02230553      -0.01181992 </v>
   <v>       0.04945576       0.17633677      -0.06165235 </v>
   <v>      -0.08489957      -0.06952955       0.17318389 </v>
   <v>      -0.04638001      -0.32619908      -0.10422729 </v>
   <v>       0.02415163       0.04889623       0.10592003 </v>
   <v>      -0.01452691       0.03556672      -0.16495436 </v>
   <v>      -0.02099927      -0.01325118      -0.00389051 </v>
   <v>      -0.08879841       0.21577827      -0.23288496 </v>
   <v>      -0.01293152       0.04575507       0.04178797 </v>
   <v>       0.08942852       0.12405863      -0.13173532 </v>
   <v>       0.10889293       0.01328905       0.02370150 </v>
   <v>      -0.01935252      -0.00692992       0.40677133 </v>
   <v>      -0.01746129       0.03151584      -0.00407123 </v>
   <v>      -0.28226387      -0.12692503      -0.37278211 </v>
   <v>      -0.01511647       0.01486450       0.07119489 </v>
   <v>       0.02163989       0.01152452       0.08505022 </v>
   <v>      -0.07451825      -0.12488416       0.03638213 </v>
   <v>       0.06257641      -0.02052080       0.52711959 </v>
   <v>       0.01873464       0.08077843      -0.05532517 </v>
   <v>       0.06697682       0.07025408      -0.19641354 </v>
   <v>       0.06241167       0.04567757      -0.04941351 </v>
   <v>      -0.03788208       0.01834831      -0.03914341 </v>
   <v>      -0.09047736       0.00753361       0.09663738 </v>
   <v>       0.11602615      -0.03677310       0.00438097 </v>
   <v>       0.17357164       0.09705508      -0.33817816 </v>
   <v>      -0.02894275      -0.02592293       0.20717155 </v>
   <v>      -0.08136483      -0.09344855       0.15802482 </v>
   <v>       0.00178380       0.03183876      -0.01643614 </v>
   <v>       0.14782617      -0.01403314       0.35712619 </v>
   <v>      -0.03631347      -0.00654912       0.02083696 </v>
   <v>      -0.26551622       0.04160183      -0.47488939 </v>
   <v>      -0.02124350      -0.07683115      -0.00692725 </v>
   <v>       0.05435857      -0.01372380      -0.06781934 </v>
   <v>       0.01043606      -0.04006889      -0.14064728 </v>
   <v>       0.32871349      -0.00739402      -0.32900693 </v>
   <v>      -0.00114162      -0.01012721       0.20876382 </v>
   <v>      -0.00458357      -0.05517541      -0.02361030 </v>
   <v>       0.04829241       0.17949077       0.07331121 </v>
   <v>      -0.03655593      -0.12472877      -0.15525073 </v>
   <v>      -0.12445285       0.00548184       0.40729780 </v>
   <v>       0.02785171      -0.04142694      -0.00179642 </v>
   <v>       0.03473901      -0.08186979       0.06723995 </v>
   <v>      -0.00437747       0.06318252       0.05050900 </v>
   <v>      -0.12137810       0.01523428       0.03953728 </v>
   <v>       0.11278066       0.02826686       0.38624865 </v>
   <v>      -0.04908281      -0.02168066       0.06925425 </v>
   <v>      -0.25347935       0.16580146      -0.32694770 </v>
   <v>      -0.03344919       0.02835586       0.13461941 </v>
   <v>       0.01454469       0.02946110       0.09198304 </v>
   <v>       0.10374387       0.05940365      -0.02420260 </v>
   <v>      -0.06634891       0.02765849      -0.26348913 </v>
   <v>      -0.01146868      -0.11004418      -0.06540793 </v>
   <v>       0.00806154      -0.01377240      -0.06772727 </v>
   <v>      -0.02881658      -0.04445933       0.15539556 </v>
   <v>      -0.07546049       0.00395834       0.40482259 </v>
   <v>       0.04769192       0.02467439       0.08255730 </v>
   <v>       0.22580199      -0.09194194      -0.27490673 </v>
   <v>       0.01021919      -0.03659785       0.02266681 </v>
   <v>       0.01579769      -0.08008079      -0.13625452 </v>
   <v>       0.05855820       0.04439358      -0.03297373 </v>
   <v>      -0.03929584      -0.00274336      -0.18988767 </v>
  </varray>
  <varray name="stress" >
   <v>     -20.32343940       0.20096798      -0.08755746 </v>
   <v>       0.20096803     -20.70057388       0.29778472 </v>
   <v>      -0.08755740       0.29778424      -5.64630654 </v>
  </varray>
  <energy>
   <i name="e_fr_energy">   -506.69573592 </i>
   <i name="e_wo_entrp">   -506.71268141 </i>
   <i name="e_0_energy">   -506.70138442 </i>
  </energy>
  <time name="totalsc">  140.83  142.21</time>
 </calculation>
 <calculation>
  <scstep>
   <time name="dav">   16.57   16.67</time>
   <time name="total">   17.52   17.62</time>
   <dipole>
    <v name="dipole">      0.00000000       0.00000000      -0.01864466 </v>
    <i name="Tr[quadrupol]">  -7052.64992806 </i>
    <i name="Echarged">      0.00000000 </i>
    <i name="Edipol_quadrupol">      0.00000000 </i>
    <i name="Eion">      0.00000000 </i>
   </dipole>
   <energy>
    <i name="alphaZ">   1807.31326663 </i>
    <i name="ewald"> 205840.64223241 </i>
    <i name="hartreedc">-256077.25786345 </i>
    <i name="XCdc">    951.34922922 </i>
    <i name="pawpsdc">  54555.35994570 </i>
    <i name="pawaedc"> -55635.88543243 </i>
    <i name="eentropy">      0.01717023 </i>
    <i name="bandstr">  -4153.78965909 </i>
    <i name="atom">  52205.67765473 </i>
    <i name="e_fr_energy">   -506.57345604 </i>
    <i name="e_wo_entrp">   -506.59062627 </i>
    <i name="e_0_energy">   -506.57917945 </i>
   </energy>
  </scstep>
  <scstep>
   <time name="diag">    1.94    1.96</time>
   <time name="diis">    9.57    9.66</time>
   <time name="orth">    0.44    0.45</time>
   <time name="total">   12.91   13.03</time>
   <dipole>
    <v name="dipole">      0.00000000       0.00000000      -0.02374781 </v>
    <i name="Tr[quadrupol]">  -7052.65783045 </i>
    <i name="Echarged">      0.00000000 </i>
    <i name="Edipol_quadrupol">      0.00000000 </i>
    <i name="Eion">      0.00000000 </i>
   </dipole>
   <energy>
    <i name="e_fr_energy">   -506.67596467 </i>
    <i name="e_wo_entrp">   -506.69238132 </i>
    <i name="e_0_energy">   -506.68143689 </i>
   </energy>
  </scstep>
  <scstep>
   <time name="diag">    1.92    1.95</time>
   <time name="diis">   12.63   12.76</time>
   <time name="orth">    0.44    0.45</time>
   <time name="total">   15.94   16.11</time>
   <dipole>
    <v name="dipole">      0.00000000       0.00000000       0.02442248 </v>
    <i name="Tr[quadrupol]">  -7052.65731165 </i>
    <i name="Echarged">      0.00000000 </i>
    <i name="Edipol_quadrupol">      0.00000000 </i>
    <i name="Eion">      0.00000000 </i>
   </dipole>
   <energy>
    <i name="e_fr_energy">   -506.75553797 </i>
    <i name="e_wo_entrp">   -506.77817515 </i>
    <i name="e_0_energy">   -506.76308370 </i>
   </energy>
  </scstep>
  <scstep>
   <time name="diag">    1.93    1.96</time>
   <time name="diis">    9.85    9.99</time>
   <time name="orth">    0.44    0.44</time>
   <time name="total">   13.16   13.34</time>
   <dipole>
    <v name="dipole">      0.00000000       0.00000000      -0.02408471 </v>
    <i name="Tr[quadrupol]">  -7052.61354654 </i>
    <i name="Echarged">      0.00000000 </i>
    <i name="Edipol_quadrupol">      0.00000000 </i>
    <i name="Eion">      0.00000000 </i>
   </dipole>
   <energy>
    <i name="e_fr_energy">   -506.70928881 </i>
    <i name="e_wo_entrp">   -506.72528224 </i>
    <i name="e_0_energy">   -506.71461995 </i>
   </energy>
  </scstep>
  <scstep>
   <time name="diag">    1.93    1.94</time>
   <time name="diis">   11.13   11.20</time>
   <time name="orth">    0.44    0.44</time>
   <time name="total">   14.42   14.52</time>
   <dipole>
    <v name="dipole">      0.00000000       0.00000000      -0.01832783 </v>
    <i name="Tr[quadrupol]">  -7052.67944634 </i>
    <i name="Echarged">      0.00000000 </i>
    <i name="Edipol_quadrupol">      0.00000000 </i>
    <i name="Eion">      0.00000000 </i>
   </dipole>
   <energy>
    <i name="e_fr_energy">   -506.71300033 </i>
    <i name="e_wo_entrp">   -506.73009087 </i>
    <i name="e_0_energy">   -506.71869718 </i>
   </energy>
  </scstep>
  <scstep>
   <time name="diag">    1.95    1.97</time>
   <time name="diis">   10.74   10.88</time>
   <time name="orth">    0.44    0.44</time>
   <time name="total">   14.07   14.24</time>
   <dipole>
    <v name="dipole">      0.00000000       0.00000000      -0.01823980 </v>
    <i name="Tr[quadrupol]">  -7052.60268179 </i>
    <i name="Echarged">      0.00000000 </i>
    <i name="Edipol_quadrupol">      0.00000000 </i>
    <i name="Eion">      0.00000000 </i>
   </dipole>
   <energy>
    <i name="e_fr_energy">   -506.71485714 </i>
    <i name="e_wo_entrp">   -506.73182030 </i>
    <i name="e_0_energy">   -506.72051153 </i>
   </energy>
  </scstep>
  <scstep>
   <time name="diag">    1.96    1.99</time>
   <time name="diis">   10.20   10.34</time>
   <time name="orth">    0.44    0.44</time>
   <time name="total">   13.53   13.70</time>
   <dipole>
    <v name="dipole">      0.00000000       0.00000000      -0.01757517 </v>
    <i name="Tr[quadrupol]">  -7052.63087582 </i>
    <i name="Echarged">      0.00000000 </i>
    <i name="Edipol_quadrupol">      0.00000000 </i>
    <i name="Eion">      0.00000000 </i>
   </dipole>
   <energy>
    <i name="e_fr_energy">   -506.71602056 </i>
    <i name="e_wo_entrp">   -506.73301972 </i>
    <i name="e_0_energy">   -506.72168695 </i>
   </energy>
  </scstep>
  <scstep>
   <time name="diag">    1.97    1.99</time>
   <time name="diis">   12.01   12.14</time>
   <time name="orth">    0.44    0.44</time>
   <time name="total">   15.36   15.53</time>
   <dipole>
    <v name="dipole">      0.00000000       0.00000000      -0.01770482 </v>
    <i name="Tr[quadrupol]">  -7052.62949881 </i>
    <i name="Echarged">      0.00000000 </i>
    <i name="Edipol_quadrupol">      0.00000000 </i>
    <i name="Eion">      0.00000000 </i>
   </dipole>
   <energy>
    <i name="e_fr_energy">   -506.71600689 </i>
    <i name="e_wo_entrp">   -506.73305645 </i>
    <i name="e_0_energy">   -506.72169008 </i>
   </energy>
  </scstep>
  <scstep>
   <time name="diag">    1.96    1.98</time>
   <time name="diis">   11.58   11.65</time>
   <time name="orth">    0.44    0.44</time>
   <time name="total">   14.92   15.03</time>
   <dipole>
    <v name="dipole">      0.00000000       0.00000000      -0.01848965 </v>
    <i name="Tr[quadrupol]">  -7052.63209732 </i>
    <i name="Echarged">      0.00000000 </i>
    <i name="Edipol_quadrupol">      0.00000000 </i>
    <i name="Eion">      0.00000000 </i>
   </dipole>
   <energy>
    <i name="e_fr_energy">   -506.71589815 </i>
    <i name="e_wo_entrp">   -506.73282362 </i>
    <i name="e_0_energy">   -506.72153997 </i>
   </energy>
  </scstep>
  <scstep>
   <time name="diag">    1.97    1.98</time>
   <time name="diis">    9.82    9.91</time>
   <time name="orth">    0.44    0.44</time>
   <time name="total">   13.15   13.27</time>
   <dipole>
    <v name="dipole">      0.00000000       0.00000000      -0.01842144 </v>
    <i name="Tr[quadrupol]">  -7052.63912099 </i>
    <i name="Echarged">      0.00000000 </i>
    <i name="Edipol_quadrupol">      0.00000000 </i>
    <i name="Eion">      0.00000000 </i>
   </dipole>
   <energy>
    <i name="e_fr_energy">   -506.71583719 </i>
    <i name="e_wo_entrp">   -506.73274987 </i>
    <i name="e_0_energy">   -506.72147475 </i>
   </energy>
  </scstep>
  <scstep>
   <time name="diag">    1.94    1.95</time>
   <time name="diis">    9.79    9.91</time>
   <time name="orth">    0.44    0.44</time>
   <time name="total">   13.11   13.25</time>
   <dipole>
    <v name="dipole">      0.00000000       0.00000000      -0.01820321 </v>
    <i name="Tr[quadrupol]">  -7052.63857771 </i>
    <i name="Echarged">      0.00000000 </i>
    <i name="Edipol_quadrupol">      0.00000000 </i>
    <i name="Eion">      0.00000000 </i>
   </dipole>
   <energy>
    <i name="e_fr_energy">   -506.71586265 </i>
    <i name="e_wo_entrp">   -506.73276760 </i>
    <i name="e_0_energy">   -506.72149763 </i>
   </energy>
  </scstep>
  <scstep>
   <time name="diag">    1.98    1.99</time>
   <time name="diis">    7.08    7.13</time>
   <time name="orth">    0.44    0.44</time>
   <time name="total">   10.43   10.50</time>
   <dipole>
    <v name="dipole">      0.00000000       0.00000000      -0.01769573 </v>
    <i name="Tr[quadrupol]">  -7052.63180025 </i>
    <i name="Echarged">      0.00000000 </i>
    <i name="Edipol_quadrupol">      0.00000000 </i>
    <i name="Eion">      0.00000000 </i>
   </dipole>
   <energy>
    <i name="e_fr_energy">   -506.71588621 </i>
    <i name="e_wo_entrp">   -506.73277139 </i>
    <i name="e_0_energy">   -506.72151460 </i>
   </energy>
  </scstep>
  <scstep>
   <time name="diag">    1.97    1.98</time>
   <time name="diis">    6.75    6.80</time>
   <time name="orth">    0.44    0.44</time>
   <time name="total">   10.08   10.16</time>
   <dipole>
    <v name="dipole">      0.00000000       0.00000000      -0.01738539 </v>
    <i name="Tr[quadrupol]">  -7052.62520558 </i>
    <i name="Echarged">      0.00000000 </i>
    <i name="Edipol_quadrupol">      0.00000000 </i>
    <i name="Eion">      0.00000000 </i>
   </dipole>
   <energy>
    <i name="e_fr_energy">   -506.71591157 </i>
    <i name="e_wo_entrp">   -506.73274457 </i>
    <i name="e_0_energy">   -506.72152257 </i>
   </energy>
  </scstep>
  <scstep>
   <time name="diag">    1.99    2.00</time>
   <time name="diis">    5.72    5.76</time>
   <time name="orth">    0.44    0.44</time>
   <time name="total">    8.55    8.62</time>
   <dipole>
    <v name="dipole">      0.00000000       0.00000000      -0.01693642 </v>
    <i name="Tr[quadrupol]">  -7052.62448845 </i>
    <i name="Echarged">      0.00000000 </i>
    <i name="Edipol_quadrupol">      0.00000000 </i>
    <i name="Eion">      0.00000000 </i>
   </dipole>
   <energy>
    <i name="alphaZ">   1807.40702808 </i>
    <i name="ewald"> 205840.64223241 </i>
    <i name="hartreedc">-256076.98115119 </i>
    <i name="XCdc">    951.32728565 </i>
    <i name="pawpsdc">  54560.23584736 </i>
    <i name="pawaedc"> -55640.80308099 </i>
    <i name="eentropy">      0.01684296 </i>
    <i name="bandstr">  -4154.23857512 </i>
    <i name="atom">  52205.67765473 </i>
    <i name="e_fr_energy">   -506.71591611 </i>
    <i name="e_wo_entrp">   -506.73275907 </i>
    <i name="e_0_energy">   -506.72153043 </i>
   </energy>
  </scstep>
  <structure>
   <crystal>
    <varray name="basis" >
     <v>       8.50460000       0.00000000       0.00000000 </v>
     <v>      -0.00109899       8.50909993       0.00000000 </v>
     <v>       0.00000000       0.00000000      23.55660000 </v>
    </varray>
    <i name="volume">   1704.70848813 </i>
    <varray name="rec_basis" >
     <v>       0.11758343       0.00001519       0.00000000 </v>
     <v>       0.00000000       0.11752124       0.00000000 </v>
     <v>       0.00000000       0.00000000       0.04245095 </v>
    </varray>
   </crystal>
   <varray name="positions" >
    <v>       0.99760000       0.00330000       0.24221000 </v>
    <v>       0.66561000       0.99834000       0.00060000 </v>
    <v>       0.65763299       0.99006824       0.36937172 </v>
    <v>       0.83467000       0.16589000       0.18209000 </v>
    <v>       0.99866000       0.33404000       0.12198000 </v>
    <v>       0.33421000       0.33147000       0.00101000 </v>
    <v>       0.33428050       0.32178735       0.36453107 </v>
    <v>       0.83220000       0.50025000       0.06275000 </v>
    <v>       0.83457498       0.49616423       0.30359857 </v>
    <v>       0.33512000       0.67037000       0.00000000 </v>
    <v>       0.33145000       0.66488000       0.12292000 </v>
    <v>       0.50202532       0.83565925       0.30560208 </v>
    <v>       0.67111000       0.66550000       0.12148000 </v>
    <v>       0.99950000       0.00032000       0.00103000 </v>
    <v>       0.00304568       0.99803521       0.36033884 </v>
    <v>       0.16670000       0.16592000       0.06160000 </v>
    <v>       0.99930000       0.00013000       0.12183000 </v>
    <v>       0.16670000       0.16692000       0.18170000 </v>
    <v>       0.16367210       0.16644737       0.30366299 </v>
    <v>       0.33368000       0.99986000       0.00108000 </v>
    <v>       0.32761958       0.00774458       0.36314603 </v>
    <v>       0.50008000       0.16606000       0.06164000 </v>
    <v>       0.33365000       0.99945000       0.12194000 </v>
    <v>       0.50013000       0.16657000       0.18176000 </v>
    <v>       0.33374000       0.99994000       0.24252000 </v>
    <v>       0.50048852       0.16825593       0.30322569 </v>
    <v>       0.83412000       0.16807000       0.06130000 </v>
    <v>       0.66767000       0.99972000       0.12168000 </v>
    <v>       0.66792000       0.00032000       0.24233000 </v>
    <v>       0.83294641       0.16693190       0.30403279 </v>
    <v>       0.00033000       0.33346000       0.00076000 </v>
    <v>       0.00487317       0.33427346       0.36250273 </v>
    <v>       0.16704000       0.50116000       0.06077000 </v>
    <v>       0.16627000       0.49940000       0.18238000 </v>
    <v>       0.00000000       0.33319000       0.24260000 </v>
    <v>       0.16780642       0.50227216       0.30457430 </v>
    <v>       0.49811000       0.50186000       0.06112000 </v>
    <v>       0.33328000       0.33434000       0.12148000 </v>
    <v>       0.50051000       0.50053000       0.18145000 </v>
    <v>       0.33392000       0.33269000       0.24229000 </v>
    <v>       0.49941192       0.50480469       0.30469465 </v>
    <v>       0.66687000       0.33418000       0.00129000 </v>
    <v>       0.66175903       0.33508894       0.36173008 </v>
    <v>       0.66670000       0.33332000       0.12177000 </v>
    <v>       0.83466000       0.49916000       0.18181000 </v>
    <v>       0.66748000       0.33291000       0.24234000 </v>
    <v>       0.99949000       0.66581000       0.00112000 </v>
    <v>       0.99234317       0.66665790       0.36193608 </v>
    <v>       0.16773000       0.83295000       0.06141000 </v>
    <v>       0.00149000       0.66672000       0.12196000 </v>
    <v>       0.16592000       0.83389000       0.18235000 </v>
    <v>       0.99950000       0.66635000       0.24245000 </v>
    <v>       0.17016670       0.83010454       0.30513096 </v>
    <v>       0.49825000       0.83185000       0.06189000 </v>
    <v>       0.50064000       0.83335000       0.18189000 </v>
    <v>       0.33424000       0.66627000       0.24239000 </v>
    <v>       0.66521000       0.66629000       0.00100000 </v>
    <v>       0.67856516       0.65588967       0.36260082 </v>
    <v>       0.83382000       0.83268000       0.06128000 </v>
    <v>       0.83390000       0.83311000       0.18191000 </v>
    <v>       0.66721000       0.66675000       0.24221000 </v>
    <v>       0.83475927       0.83093980       0.30287964 </v>
    <v>       0.33473560       0.67043498       0.39954946 </v>
   </varray>
  </structure>
  <varray name="forces" >
   <v>      -0.00814461      -0.13020835       0.01735893 </v>
   <v>       0.04868102       0.04237791      -0.18641491 </v>
   <v>       0.01370206       0.01032727      -0.01045100 </v>
   <v>       0.04863361       0.17846119      -0.06572947 </v>
   <v>      -0.08562222      -0.06771559       0.17110029 </v>
   <v>      -0.04601507      -0.32629988      -0.10413089 </v>
   <v>       0.01721368       0.04174130       0.06066007 </v>
   <v>      -0.01283589       0.03356632      -0.16387530 </v>
   <v>      -0.01397003       0.01189749      -0.00448178 </v>
   <v>      -0.08897478       0.21546106      -0.23388923 </v>
   <v>      -0.01274857       0.04459313       0.04640884 </v>
   <v>       0.05350833       0.04277262      -0.08490190 </v>
   <v>       0.10733144       0.01502469       0.02579588 </v>
   <v>      -0.01922297      -0.00648414       0.40646165 </v>
   <v>      -0.01475355       0.00011102       0.02444957 </v>
   <v>      -0.28169859      -0.12721307      -0.37306574 </v>
   <v>      -0.01608660       0.01546671       0.07329435 </v>
   <v>       0.02263305       0.01268849       0.08461672 </v>
   <v>      -0.01835681      -0.02545592       0.01257349 </v>
   <v>       0.06145265      -0.01937903       0.52570747 </v>
   <v>       0.00809518       0.07578678      -0.07525595 </v>
   <v>       0.06737291       0.06953725      -0.19692014 </v>
   <v>       0.06278330       0.04384685      -0.04750425 </v>
   <v>      -0.03753054       0.01903875      -0.04095587 </v>
   <v>      -0.08678397       0.03184193       0.08037734 </v>
   <v>       0.03016751       0.01367195       0.00516146 </v>
   <v>       0.17377932       0.09682148      -0.33896861 </v>
   <v>      -0.02811370      -0.02550312       0.20911980 </v>
   <v>      -0.04959394      -0.07983554       0.13376744 </v>
   <v>       0.00137961       0.02145275      -0.01543132 </v>
   <v>       0.14894861      -0.01488309       0.35751967 </v>
   <v>      -0.01625961      -0.00208251      -0.00301250 </v>
   <v>      -0.26513434       0.04055070      -0.47453775 </v>
   <v>      -0.01917849      -0.08035673      -0.01991670 </v>
   <v>       0.05276971      -0.02247349      -0.06666541 </v>
   <v>      -0.00837330      -0.04642945      -0.09239780 </v>
   <v>       0.32702678      -0.00755387      -0.32836403 </v>
   <v>      -0.00222990      -0.00970256       0.21180697 </v>
   <v>      -0.00357085      -0.05757145      -0.03346718 </v>
   <v>       0.04375886       0.13529935       0.08341192 </v>
   <v>       0.02013570      -0.07326669      -0.11288144 </v>
   <v>      -0.12466662       0.00469457       0.40709884 </v>
   <v>       0.01880084      -0.02330606       0.00178724 </v>
   <v>       0.03680596      -0.08120797       0.06942538 </v>
   <v>      -0.00488675       0.06170382       0.05161597 </v>
   <v>      -0.11290553       0.01323899       0.02362132 </v>
   <v>       0.11201669       0.02826946       0.38505960 </v>
   <v>      -0.05320827      -0.01104073       0.00987833 </v>
   <v>      -0.25270442       0.16554882      -0.32707502 </v>
   <v>      -0.03298278       0.02745564       0.13670660 </v>
   <v>       0.01484493       0.03245059       0.07429857 </v>
   <v>       0.09102293       0.04567467      -0.03303879 </v>
   <v>      -0.05981733       0.04051964      -0.17531048 </v>
   <v>      -0.01043786      -0.10917200      -0.06562552 </v>
   <v>       0.00966342      -0.01200886      -0.08251877 </v>
   <v>      -0.01881787      -0.04940219       0.15557211 </v>
   <v>      -0.07522853       0.00455510       0.40312716 </v>
   <v>       0.04002592      -0.00705543       0.00718322 </v>
   <v>       0.22662257      -0.09185363      -0.27380178 </v>
   <v>       0.01029577      -0.03624814       0.01616160 </v>
   <v>       0.02329341      -0.08881739      -0.12640771 </v>
   <v>       0.02020753       0.01545056       0.00306628 </v>
   <v>      -0.03211900      -0.01937195      -0.11719681 </v>
  </varray>
  <varray name="stress" >
   <v>     -20.19742341       0.17393924      -0.11753245 </v>
   <v>       0.17393979     -20.58559998       0.21729952 </v>
   <v>      -0.11753293       0.21729915      -5.36550325 </v>
  </varray>
  <energy>
   <i name="e_fr_energy">   -506.71591611 </i>
   <i name="e_wo_entrp">   -506.73275907 </i>
   <i name="e_0_energy">   -506.72153043 </i>
  </energy>
  <time name="totalsc">  203.76  205.62</time>
 </calculation>
 <calculation>
  <scstep>
   <time name="dav">   16.33   16.50</time>
   <time name="total">   17.26   17.45</time>
   <dipole>
    <v name="dipole">      0.00000000       0.00000000      -0.01683608 </v>
    <i name="Tr[quadrupol]">  -7049.79711657 </i>
    <i name="Echarged">      0.00000000 </i>
    <i name="Edipol_quadrupol">      0.00000000 </i>
    <i name="Eion">      0.00000000 </i>
   </dipole>
   <energy>
    <i name="alphaZ">   1807.47724045 </i>
    <i name="ewald"> 206013.58224939 </i>
    <i name="hartreedc">-256249.38835799 </i>
    <i name="XCdc">    951.37965847 </i>
    <i name="pawpsdc">  54560.30334857 </i>
    <i name="pawaedc"> -55640.87329437 </i>
    <i name="eentropy">      0.01702111 </i>
    <i name="bandstr">  -4154.79300199 </i>
    <i name="atom">  52205.67765473 </i>
    <i name="e_fr_energy">   -506.61748163 </i>
    <i name="e_wo_entrp">   -506.63450274 </i>
    <i name="e_0_energy">   -506.62315534 </i>
   </energy>
  </scstep>
  <scstep>
   <time name="diag">    1.98    2.01</time>
   <time name="diis">    9.51    9.57</time>
   <time name="orth">    0.44    0.44</time>
   <time name="total">   12.89   12.99</time>
   <dipole>
    <v name="dipole">      0.00000000       0.00000000      -0.01403485 </v>
    <i name="Tr[quadrupol]">  -7049.81232013 </i>
    <i name="Echarged">      0.00000000 </i>
    <i name="Edipol_quadrupol">      0.00000000 </i>
    <i name="Eion">      0.00000000 </i>
   </dipole>
   <energy>
    <i name="e_fr_energy">   -506.69048982 </i>
    <i name="e_wo_entrp">   -506.70797594 </i>
    <i name="e_0_energy">   -506.69631852 </i>
   </energy>
  </scstep>
  <scstep>
   <time name="diag">    1.96    1.97</time>
   <time name="diis">   12.74   12.81</time>
   <time name="orth">    0.44    0.44</time>
   <time name="total">   16.07   16.17</time>
   <dipole>
    <v name="dipole">      0.00000000       0.00000000      -0.04623650 </v>
    <i name="Tr[quadrupol]">  -7049.72872710 </i>
    <i name="Echarged">      0.00000000 </i>
    <i name="Edipol_quadrupol">      0.00000000 </i>
    <i name="Eion">      0.00000000 </i>
   </dipole>
   <energy>
    <i name="e_fr_energy">   -506.74144478 </i>
    <i name="e_wo_entrp">   -506.75407890 </i>
    <i name="e_0_energy">   -506.74565615 </i>
   </energy>
  </scstep>
  <scstep>
   <time name="diag">    1.99    2.01</time>
   <time name="diis">   10.65   10.80</time>
   <time name="orth">    0.44    0.44</time>
   <time name="total">   13.99   14.17</time>
   <dipole>
    <v name="dipole">      0.00000000       0.00000000      -0.00830642 </v>
    <i name="Tr[quadrupol]">  -7049.77999495 </i>
    <i name="Echarged">      0.00000000 </i>
    <i name="Edipol_quadrupol">      0.00000000 </i>
    <i name="Eion">      0.00000000 </i>
   </dipole>
   <energy>
    <i name="e_fr_energy">   -506.72006511 </i>
    <i name="e_wo_entrp">   -506.73814694 </i>
    <i name="e_0_energy">   -506.72609239 </i>
   </energy>
  </scstep>
  <scstep>
   <time name="diag">    1.96    1.98</time>
   <time name="diis">   11.04   11.15</time>
   <time name="orth">    0.44    0.44</time>
   <time name="total">   14.39   14.52</time>
   <dipole>
    <v name="dipole">      0.00000000       0.00000000      -0.01710342 </v>
    <i name="Tr[quadrupol]">  -7049.82688138 </i>
    <i name="Echarged">      0.00000000 </i>
    <i name="Edipol_quadrupol">      0.00000000 </i>
    <i name="Eion">      0.00000000 </i>
   </dipole>
   <energy>
    <i name="e_fr_energy">   -506.72182048 </i>
    <i name="e_wo_entrp">   -506.73887308 </i>
    <i name="e_0_energy">   -506.72750468 </i>
   </energy>
  </scstep>
  <scstep>
   <time name="diag">    1.95    1.97</time>
   <time name="diis">   10.45   10.52</time>
   <time name="orth">    0.44    0.44</time>
   <time name="total">   13.78   13.87</time>
   <dipole>
    <v name="dipole">      0.00000000       0.00000000      -0.01639375 </v>
    <i name="Tr[quadrupol]">  -7049.76106110 </i>
    <i name="Echarged">      0.00000000 </i>
    <i name="Edipol_quadrupol">      0.00000000 </i>
    <i name="Eion">      0.00000000 </i>
   </dipole>
   <energy>
    <i name="e_fr_energy">   -506.72309684 </i>
    <i name="e_wo_entrp">   -506.74012790 </i>
    <i name="e_0_energy">   -506.72877386 </i>
   </energy>
  </scstep>
  <scstep>
   <time name="diag">    1.99    2.00</time>
   <time name="diis">   10.25   10.31</time>
   <time name="orth">    0.44    0.44</time>
   <time name="total">   13.62   13.69</time>
   <dipole>
    <v name="dipole">      0.00000000       0.00000000      -0.01763177 </v>
    <i name="Tr[quadrupol]">  -7049.78761200 </i>
    <i name="Echarged">      0.00000000 </i>
    <i name="Edipol_quadrupol">      0.00000000 </i>
    <i name="Eion">      0.00000000 </i>
   </dipole>
   <energy>
    <i name="e_fr_energy">   -506.72393510 </i>
    <i name="e_wo_entrp">   -506.74079825 </i>
    <i name="e_0_energy">   -506.72955615 </i>
   </energy>
  </scstep>
  <scstep>
   <time name="diag">    1.97    1.99</time>
   <time name="diis">   11.88   11.98</time>
   <time name="orth">    0.44    0.45</time>
   <time name="total">   15.21   15.35</time>
   <dipole>
    <v name="dipole">      0.00000000       0.00000000      -0.01730582 </v>
    <i name="Tr[quadrupol]">  -7049.78728717 </i>
    <i name="Echarged">      0.00000000 </i>
    <i name="Edipol_quadrupol">      0.00000000 </i>
    <i name="Eion">      0.00000000 </i>
   </dipole>
   <energy>
    <i name="e_fr_energy">   -506.72391532 </i>
    <i name="e_wo_entrp">   -506.74089268 </i>
    <i name="e_0_energy">   -506.72957444 </i>
   </energy>
  </scstep>
  <scstep>
   <time name="diag">    1.97    1.98</time>
   <time name="diis">   11.05   11.12</time>
   <time name="orth">    0.44    0.44</time>
   <time name="total">   14.40   14.49</time>
   <dipole>
    <v name="dipole">      0.00000000       0.00000000      -0.01688113 </v>
    <i name="Tr[quadrupol]">  -7049.79101295 </i>
    <i name="Echarged">      0.00000000 </i>
    <i name="Edipol_quadrupol">      0.00000000 </i>
    <i name="Eion">      0.00000000 </i>
   </dipole>
   <energy>
    <i name="e_fr_energy">   -506.72386250 </i>
    <i name="e_wo_entrp">   -506.74089059 </i>
    <i name="e_0_energy">   -506.72953853 </i>
   </energy>
  </scstep>
  <scstep>
   <time name="diag">    1.93    1.95</time>
   <time name="diis">    9.76    9.83</time>
   <time name="orth">    0.44    0.44</time>
   <time name="total">   13.07   13.18</time>
   <dipole>
    <v name="dipole">      0.00000000       0.00000000      -0.01662661 </v>
    <i name="Tr[quadrupol]">  -7049.79662113 </i>
    <i name="Echarged">      0.00000000 </i>
    <i name="Edipol_quadrupol">      0.00000000 </i>
    <i name="Eion">      0.00000000 </i>
   </dipole>
   <energy>
    <i name="e_fr_energy">   -506.72383406 </i>
    <i name="e_wo_entrp">   -506.74087644 </i>
    <i name="e_0_energy">   -506.72951485 </i>
   </energy>
  </scstep>
  <scstep>
   <time name="diag">    1.95    1.96</time>
   <time name="diis">    9.17    9.22</time>
   <time name="orth">    0.44    0.45</time>
   <time name="total">   12.50   12.57</time>
   <dipole>
    <v name="dipole">      0.00000000       0.00000000      -0.01681667 </v>
    <i name="Tr[quadrupol]">  -7049.79634371 </i>
    <i name="Echarged">      0.00000000 </i>
    <i name="Edipol_quadrupol">      0.00000000 </i>
    <i name="Eion">      0.00000000 </i>
   </dipole>
   <energy>
    <i name="e_fr_energy">   -506.72385081 </i>
    <i name="e_wo_entrp">   -506.74083465 </i>
    <i name="e_0_energy">   -506.72951209 </i>
   </energy>
  </scstep>
  <scstep>
   <time name="diag">    1.96    1.97</time>
   <time name="diis">    6.24    6.32</time>
   <time name="orth">    0.44    0.45</time>
   <time name="total">    9.60    9.69</time>
   <dipole>
    <v name="dipole">      0.00000000       0.00000000      -0.01653655 </v>
    <i name="Tr[quadrupol]">  -7049.79185729 </i>
    <i name="Echarged">      0.00000000 </i>
    <i name="Edipol_quadrupol">      0.00000000 </i>
    <i name="Eion">      0.00000000 </i>
   </dipole>
   <energy>
    <i name="e_fr_energy">   -506.72387027 </i>
    <i name="e_wo_entrp">   -506.74082876 </i>
    <i name="e_0_energy">   -506.72952310 </i>
   </energy>
  </scstep>
  <scstep>
   <time name="diag">    1.94    1.97</time>
   <time name="diis">    5.88    5.95</time>
   <time name="orth">    0.44    0.45</time>
   <time name="total">    9.19    9.31</time>
   <dipole>
    <v name="dipole">      0.00000000       0.00000000      -0.01634815 </v>
    <i name="Tr[quadrupol]">  -7049.78991087 </i>
    <i name="Echarged">      0.00000000 </i>
    <i name="Edipol_quadrupol">      0.00000000 </i>
    <i name="Eion">      0.00000000 </i>
   </dipole>
   <energy>
    <i name="e_fr_energy">   -506.72388818 </i>
    <i name="e_wo_entrp">   -506.74081100 </i>
    <i name="e_0_energy">   -506.72952912 </i>
   </energy>
  </scstep>
  <scstep>
   <time name="diag">    1.94    1.97</time>
   <time name="diis">    5.37    5.41</time>
   <time name="orth">    0.44    0.45</time>
   <time name="total">    8.15    8.22</time>
   <dipole>
    <v name="dipole">      0.00000000       0.00000000      -0.01605036 </v>
    <i name="Tr[quadrupol]">  -7049.78844925 </i>
    <i name="Echarged">      0.00000000 </i>
    <i name="Edipol_quadrupol">      0.00000000 </i>
    <i name="Eion">      0.00000000 </i>
   </dipole>
   <energy>
    <i name="alphaZ">   1807.41413658 </i>
    <i name="ewald"> 206013.58224939 </i>
    <i name="hartreedc">-256249.75939329 </i>
    <i name="XCdc">    951.35993649 </i>
    <i name="pawpsdc">  54565.59096207 </i>
    <i name="pawaedc"> -55646.20099128 </i>
    <i name="eentropy">      0.01692408 </i>
    <i name="bandstr">  -4154.40537228 </i>
    <i name="atom">  52205.67765473 </i>
    <i name="e_fr_energy">   -506.72389351 </i>
    <i name="e_wo_entrp">   -506.74081758 </i>
    <i name="e_0_energy">   -506.72953487 </i>
   </energy>
  </scstep>
  <structure>
   <crystal>
    <varray name="basis" >
     <v>       8.50460000       0.00000000       0.00000000 </v>
     <v>      -0.00109899       8.50909993       0.00000000 </v>
     <v>       0.00000000       0.00000000      23.55660000 </v>
    </varray>
    <i name="volume">   1704.70848813 </i>
    <varray name="rec_basis" >
     <v>       0.11758343       0.00001519       0.00000000 </v>
     <v>       0.00000000       0.11752124       0.00000000 </v>
     <v>       0.00000000       0.00000000       0.04245095 </v>
    </varray>
   </crystal>
   <varray name="positions" >
    <v>       0.99760000       0.00330000       0.24221000 </v>
    <v>       0.66561000       0.99834000       0.00060000 </v>
    <v>       0.65757116       0.99006799       0.36936169 </v>
    <v>       0.83467000       0.16589000       0.18209000 </v>
    <v>       0.99866000       0.33404000       0.12198000 </v>
    <v>       0.33421000       0.33147000       0.00101000 </v>
    <v>       0.33434091       0.32148324       0.36481202 </v>
    <v>       0.83220000       0.50025000       0.06275000 </v>
    <v>       0.83435185       0.49607733       0.30364112 </v>
    <v>       0.33512000       0.67037000       0.00000000 </v>
    <v>       0.33145000       0.66488000       0.12292000 </v>
    <v>       0.50294550       0.83683167       0.30512196 </v>
    <v>       0.67111000       0.66550000       0.12148000 </v>
    <v>       0.99950000       0.00032000       0.00103000 </v>
    <v>       0.00290183       0.99816282       0.36027525 </v>
    <v>       0.16670000       0.16592000       0.06160000 </v>
    <v>       0.99930000       0.00013000       0.12183000 </v>
    <v>       0.16670000       0.16692000       0.18170000 </v>
    <v>       0.16311430       0.16554211       0.30378300 </v>
    <v>       0.33368000       0.99986000       0.00108000 </v>
    <v>       0.32776769       0.00810449       0.36310089 </v>
    <v>       0.50008000       0.16606000       0.06164000 </v>
    <v>       0.33365000       0.99945000       0.12194000 </v>
    <v>       0.50013000       0.16657000       0.18176000 </v>
    <v>       0.33374000       0.99994000       0.24252000 </v>
    <v>       0.50135083       0.16797286       0.30324228 </v>
    <v>       0.83412000       0.16807000       0.06130000 </v>
    <v>       0.66767000       0.99972000       0.12168000 </v>
    <v>       0.66792000       0.00032000       0.24233000 </v>
    <v>       0.83298275       0.16711295       0.30402029 </v>
    <v>       0.00033000       0.33346000       0.00076000 </v>
    <v>       0.00456296       0.33445970       0.36260029 </v>
    <v>       0.16704000       0.50116000       0.06077000 </v>
    <v>       0.16627000       0.49940000       0.18238000 </v>
    <v>       0.00000000       0.33319000       0.24260000 </v>
    <v>       0.16771806       0.50187115       0.30424111 </v>
    <v>       0.49811000       0.50186000       0.06112000 </v>
    <v>       0.33328000       0.33434000       0.12148000 </v>
    <v>       0.50051000       0.50053000       0.18145000 </v>
    <v>       0.33392000       0.33269000       0.24229000 </v>
    <v>       0.49913284       0.50401608       0.30442519 </v>
    <v>       0.66687000       0.33418000       0.00129000 </v>
    <v>       0.66210088       0.33486351       0.36172617 </v>
    <v>       0.66670000       0.33332000       0.12177000 </v>
    <v>       0.83466000       0.49916000       0.18181000 </v>
    <v>       0.66748000       0.33291000       0.24234000 </v>
    <v>       0.99949000       0.66581000       0.00112000 </v>
    <v>       0.99199955       0.66650851       0.36217354 </v>
    <v>       0.16773000       0.83295000       0.06141000 </v>
    <v>       0.00149000       0.66672000       0.12196000 </v>
    <v>       0.16592000       0.83389000       0.18235000 </v>
    <v>       0.99950000       0.66635000       0.24245000 </v>
    <v>       0.16983651       0.83027834       0.30454274 </v>
    <v>       0.49825000       0.83185000       0.06189000 </v>
    <v>       0.50064000       0.83335000       0.18189000 </v>
    <v>       0.33424000       0.66627000       0.24239000 </v>
    <v>       0.66521000       0.66629000       0.00100000 </v>
    <v>       0.67895443       0.65617222       0.36290939 </v>
    <v>       0.83382000       0.83268000       0.06128000 </v>
    <v>       0.83390000       0.83311000       0.18191000 </v>
    <v>       0.66721000       0.66675000       0.24221000 </v>
    <v>       0.83522230       0.83115337       0.30278533 </v>
    <v>       0.33433660       0.67119168       0.39813493 </v>
   </varray>
  </structure>
  <varray name="forces" >
   <v>      -0.01606096      -0.12775082      -0.00565147 </v>
   <v>       0.04879583       0.04203713      -0.18562989 </v>
   <v>       0.03124556      -0.00104067      -0.00755096 </v>
   <v>       0.04776646       0.18105357      -0.07083015 </v>
   <v>      -0.08670221      -0.06586786       0.16892087 </v>
   <v>      -0.04569796      -0.32638694      -0.10398749 </v>
   <v>       0.00988789       0.03097349       0.02370113 </v>
   <v>      -0.01251306       0.03286261      -0.16440943 </v>
   <v>      -0.00867709       0.03563188      -0.00458139 </v>
   <v>      -0.08908422       0.21554113      -0.23459776 </v>
   <v>      -0.01232860       0.04337113       0.05013212 </v>
   <v>       0.02554182      -0.02439824      -0.05253867 </v>
   <v>       0.10588067       0.01576602       0.02645378 </v>
   <v>      -0.01901491      -0.00632348       0.40707659 </v>
   <v>      -0.01385459      -0.02882615       0.05039689 </v>
   <v>      -0.28116141      -0.12784296      -0.37429921 </v>
   <v>      -0.01674168       0.01572700       0.07514516 </v>
   <v>       0.02346568       0.01384244       0.08337612 </v>
   <v>       0.03064989       0.06292272      -0.00956522 </v>
   <v>       0.06038057      -0.01869240       0.52568431 </v>
   <v>      -0.00019825       0.06838944      -0.08712182 </v>
   <v>       0.06755723       0.06879367      -0.19792550 </v>
   <v>       0.06311732       0.04183015      -0.04562398 </v>
   <v>      -0.03737989       0.01967403      -0.04311005 </v>
   <v>      -0.08394441       0.05402620       0.06452281 </v>
   <v>      -0.04639437       0.05887228       0.00520288 </v>
   <v>       0.17359941       0.09690473      -0.34073219 </v>
   <v>      -0.02783944      -0.02560635       0.21047333 </v>
   <v>      -0.02025946      -0.06631105       0.10998185 </v>
   <v>       0.00019212       0.01101607      -0.01427397 </v>
   <v>       0.14961449      -0.01559276       0.35893578 </v>
   <v>       0.00004468       0.00443083      -0.02152099 </v>
   <v>      -0.26506983       0.04030856      -0.47440508 </v>
   <v>      -0.01727279      -0.08296986      -0.03193048 </v>
   <v>       0.05121786      -0.03007699      -0.06632477 </v>
   <v>      -0.02580654      -0.05211856      -0.04729446 </v>
   <v>       0.32656726      -0.00712056      -0.32807373 </v>
   <v>      -0.00291202      -0.00890147       0.21428734 </v>
   <v>      -0.00259440      -0.05903309      -0.04316263 </v>
   <v>       0.03986453       0.09694159       0.09050952 </v>
   <v>       0.06836021      -0.02784965      -0.06991661 </v>
   <v>      -0.12497780       0.00452941       0.40823582 </v>
   <v>       0.01147725      -0.00648307       0.00604394 </v>
   <v>       0.03821897      -0.07982785       0.07130357 </v>
   <v>      -0.00607343       0.06080585       0.05154785 </v>
   <v>      -0.10544473       0.01146051       0.00906316 </v>
   <v>       0.11099302       0.02860371       0.38526199 </v>
   <v>      -0.05661620      -0.00334898      -0.04024325 </v>
   <v>      -0.25211763       0.16529237      -0.32832127 </v>
   <v>      -0.03268547       0.02642339       0.13850237 </v>
   <v>       0.01557069       0.03464643       0.05660357 </v>
   <v>       0.07943910       0.03284120      -0.04177599 </v>
   <v>      -0.05121661       0.05079241      -0.09132199 </v>
   <v>      -0.00939368      -0.10872851      -0.06652369 </v>
   <v>       0.01086307      -0.01081649      -0.09703210 </v>
   <v>      -0.00975161      -0.05392916       0.15430879 </v>
   <v>      -0.07506924       0.00476873       0.40340205 </v>
   <v>       0.03632792      -0.03232467      -0.05422424 </v>
   <v>       0.22687486      -0.09256621      -0.27402815 </v>
   <v>       0.00953407      -0.03639286       0.00956829 </v>
   <v>       0.03018284      -0.09692049      -0.11940973 </v>
   <v>      -0.01476779      -0.01062718       0.03208971 </v>
   <v>      -0.02360899      -0.03640536      -0.05279326 </v>
  </varray>
  <varray name="stress" >
   <v>     -20.16986591       0.14980625      -0.14547295 </v>
   <v>       0.14980601     -20.57016303       0.15045920 </v>
   <v>      -0.14547298       0.15045943      -5.19957322 </v>
  </varray>
  <energy>
   <i name="e_fr_energy">   -506.72389351 </i>
   <i name="e_wo_entrp">   -506.74081758 </i>
   <i name="e_0_energy">   -506.72953487 </i>
  </energy>
  <time name="totalsc">  200.64  202.33</time>
 </calculation>
 <calculation>
  <scstep>
   <time name="dav">   16.44   16.54</time>
   <time name="total">   17.38   17.48</time>
   <dipole>
    <v name="dipole">      0.00000000       0.00000000      -0.01604119 </v>
    <i name="Tr[quadrupol]">  -7048.75449858 </i>
    <i name="Echarged">      0.00000000 </i>
    <i name="Edipol_quadrupol">      0.00000000 </i>
    <i name="Eion">      0.00000000 </i>
   </dipole>
   <energy>
    <i name="alphaZ">   1807.48091768 </i>
    <i name="ewald"> 206077.05664357 </i>
    <i name="hartreedc">-256313.01986924 </i>
    <i name="XCdc">    951.37824083 </i>
    <i name="pawpsdc">  54565.65238660 </i>
    <i name="pawaedc"> -55646.26446298 </i>
    <i name="eentropy">      0.01698947 </i>
    <i name="bandstr">  -4154.68985832 </i>
    <i name="atom">  52205.67765473 </i>
    <i name="e_fr_energy">   -506.71135767 </i>
    <i name="e_wo_entrp">   -506.72834714 </i>
    <i name="e_0_energy">   -506.71702083 </i>
   </energy>
  </scstep>
  <scstep>
   <time name="diag">    1.99    2.01</time>
   <time name="diis">    9.39    9.50</time>
   <time name="orth">    0.44    0.44</time>
   <time name="total">   12.74   12.89</time>
   <dipole>
    <v name="dipole">      0.00000000       0.00000000      -0.01409938 </v>
    <i name="Tr[quadrupol]">  -7048.75732852 </i>
    <i name="Echarged">      0.00000000 </i>
    <i name="Edipol_quadrupol">      0.00000000 </i>
    <i name="Eion">      0.00000000 </i>
   </dipole>
   <energy>
    <i name="e_fr_energy">   -506.72037520 </i>
    <i name="e_wo_entrp">   -506.73767122 </i>
    <i name="e_0_energy">   -506.72614054 </i>
   </energy>
  </scstep>
  <scstep>
   <time name="diag">    1.94    1.96</time>
   <time name="diis">   12.48   12.55</time>
   <time name="orth">    0.44    0.44</time>
   <time name="total">   15.81   15.91</time>
   <dipole>
    <v name="dipole">      0.00000000       0.00000000      -0.03166837 </v>
    <i name="Tr[quadrupol]">  -7048.73607215 </i>
    <i name="Echarged">      0.00000000 </i>
    <i name="Edipol_quadrupol">      0.00000000 </i>
    <i name="Eion">      0.00000000 </i>
   </dipole>
   <energy>
    <i name="e_fr_energy">   -506.73017307 </i>
    <i name="e_wo_entrp">   -506.74494478 </i>
    <i name="e_0_energy">   -506.73509697 </i>
   </energy>
  </scstep>
  <scstep>
   <time name="diag">    1.94    1.96</time>
   <time name="diis">    9.02    9.12</time>
   <time name="orth">    0.44    0.44</time>
   <time name="total">   12.34   12.47</time>
   <dipole>
    <v name="dipole">      0.00000000       0.00000000      -0.01423485 </v>
    <i name="Tr[quadrupol]">  -7048.74614379 </i>
    <i name="Echarged">      0.00000000 </i>
    <i name="Edipol_quadrupol">      0.00000000 </i>
    <i name="Eion">      0.00000000 </i>
   </dipole>
   <energy>
    <i name="e_fr_energy">   -506.72377655 </i>
    <i name="e_wo_entrp">   -506.74097943 </i>
    <i name="e_0_energy">   -506.72951085 </i>
   </energy>
  </scstep>
  <scstep>
   <time name="diag">    1.94    1.95</time>
   <time name="diis">   10.94   11.01</time>
   <time name="orth">    0.44    0.44</time>
   <time name="total">   14.26   14.34</time>
   <dipole>
    <v name="dipole">      0.00000000       0.00000000      -0.01602128 </v>
    <i name="Tr[quadrupol]">  -7048.76767018 </i>
    <i name="Echarged">      0.00000000 </i>
    <i name="Edipol_quadrupol">      0.00000000 </i>
    <i name="Eion">      0.00000000 </i>
   </dipole>
   <energy>
    <i name="e_fr_energy">   -506.72429928 </i>
    <i name="e_wo_entrp">   -506.74135029 </i>
    <i name="e_0_energy">   -506.72998295 </i>
   </energy>
  </scstep>
  <scstep>
   <time name="diag">    1.95    1.96</time>
   <time name="diis">   10.21   10.27</time>
   <time name="orth">    0.44    0.44</time>
   <time name="total">   13.54   13.62</time>
   <dipole>
    <v name="dipole">      0.00000000       0.00000000      -0.01600895 </v>
    <i name="Tr[quadrupol]">  -7048.74564992 </i>
    <i name="Echarged">      0.00000000 </i>
    <i name="Edipol_quadrupol">      0.00000000 </i>
    <i name="Eion">      0.00000000 </i>
   </dipole>
   <energy>
    <i name="e_fr_energy">   -506.72446353 </i>
    <i name="e_wo_entrp">   -506.74146620 </i>
    <i name="e_0_energy">   -506.73013108 </i>
   </energy>
  </scstep>
  <scstep>
   <time name="diag">    2.01    2.02</time>
   <time name="diis">    9.73    9.79</time>
   <time name="orth">    0.44    0.44</time>
   <time name="total">   13.12   13.20</time>
   <dipole>
    <v name="dipole">      0.00000000       0.00000000      -0.01661673 </v>
    <i name="Tr[quadrupol]">  -7048.75476956 </i>
    <i name="Echarged">      0.00000000 </i>
    <i name="Edipol_quadrupol">      0.00000000 </i>
    <i name="Eion">      0.00000000 </i>
   </dipole>
   <energy>
    <i name="e_fr_energy">   -506.72455948 </i>
    <i name="e_wo_entrp">   -506.74148790 </i>
    <i name="e_0_energy">   -506.73020228 </i>
   </energy>
  </scstep>
  <scstep>
   <time name="diag">    1.96    1.98</time>
   <time name="diis">    6.91    7.00</time>
   <time name="orth">    0.44    0.44</time>
   <time name="total">    9.72    9.85</time>
   <dipole>
    <v name="dipole">      0.00000000       0.00000000      -0.01641499 </v>
    <i name="Tr[quadrupol]">  -7048.75409924 </i>
    <i name="Echarged">      0.00000000 </i>
    <i name="Edipol_quadrupol">      0.00000000 </i>
    <i name="Eion">      0.00000000 </i>
   </dipole>
   <energy>
    <i name="alphaZ">   1807.27303055 </i>
    <i name="ewald"> 206077.05664357 </i>
    <i name="hartreedc">-256313.34393301 </i>
    <i name="XCdc">    951.37579377 </i>
    <i name="pawpsdc">  54567.03953982 </i>
    <i name="pawaedc"> -55647.66437849 </i>
    <i name="eentropy">      0.01697985 </i>
    <i name="bandstr">  -4154.15588673 </i>
    <i name="atom">  52205.67765473 </i>
    <i name="e_fr_energy">   -506.72455594 </i>
    <i name="e_wo_entrp">   -506.74153579 </i>
    <i name="e_0_energy">   -506.73021589 </i>
   </energy>
  </scstep>
  <structure>
   <crystal>
    <varray name="basis" >
     <v>       8.50460000       0.00000000       0.00000000 </v>
     <v>      -0.00109899       8.50909993       0.00000000 </v>
     <v>       0.00000000       0.00000000      23.55660000 </v>
    </varray>
    <i name="volume">   1704.70848813 </i>
    <varray name="rec_basis" >
     <v>       0.11758343       0.00001519       0.00000000 </v>
     <v>       0.00000000       0.11752124       0.00000000 </v>
     <v>       0.00000000       0.00000000       0.04245095 </v>
    </varray>
   </crystal>
   <varray name="positions" >
    <v>       0.99760000       0.00330000       0.24221000 </v>
    <v>       0.66561000       0.99834000       0.00060000 </v>
    <v>       0.65754847       0.99006790       0.36935800 </v>
    <v>       0.83467000       0.16589000       0.18209000 </v>
    <v>       0.99866000       0.33404000       0.12198000 </v>
    <v>       0.33421000       0.33147000       0.00101000 </v>
    <v>       0.33436308       0.32137164       0.36491513 </v>
    <v>       0.83220000       0.50025000       0.06275000 </v>
    <v>       0.83426997       0.49604544       0.30365674 </v>
    <v>       0.33512000       0.67037000       0.00000000 </v>
    <v>       0.33145000       0.66488000       0.12292000 </v>
    <v>       0.50328320       0.83726195       0.30494576 </v>
    <v>       0.67111000       0.66550000       0.12148000 </v>
    <v>       0.99950000       0.00032000       0.00103000 </v>
    <v>       0.00284903       0.99820965       0.36025191 </v>
    <v>       0.16670000       0.16592000       0.06160000 </v>
    <v>       0.99930000       0.00013000       0.12183000 </v>
    <v>       0.16670000       0.16692000       0.18170000 </v>
    <v>       0.16290959       0.16520989       0.30382704 </v>
    <v>       0.33368000       0.99986000       0.00108000 </v>
    <v>       0.32782204       0.00823657       0.36308432 </v>
    <v>       0.50008000       0.16606000       0.06164000 </v>
    <v>       0.33365000       0.99945000       0.12194000 </v>
    <v>       0.50013000       0.16657000       0.18176000 </v>
    <v>       0.33374000       0.99994000       0.24252000 </v>
    <v>       0.50166730       0.16786897       0.30324837 </v>
    <v>       0.83412000       0.16807000       0.06130000 </v>
    <v>       0.66767000       0.99972000       0.12168000 </v>
    <v>       0.66792000       0.00032000       0.24233000 </v>
    <v>       0.83299609       0.16717939       0.30401570 </v>
    <v>       0.00033000       0.33346000       0.00076000 </v>
    <v>       0.00444912       0.33452805       0.36263610 </v>
    <v>       0.16704000       0.50116000       0.06077000 </v>
    <v>       0.16627000       0.49940000       0.18238000 </v>
    <v>       0.00000000       0.33319000       0.24260000 </v>
    <v>       0.16768563       0.50172398       0.30411883 </v>
    <v>       0.49811000       0.50186000       0.06112000 </v>
    <v>       0.33328000       0.33434000       0.12148000 </v>
    <v>       0.50051000       0.50053000       0.18145000 </v>
    <v>       0.33392000       0.33269000       0.24229000 </v>
    <v>       0.49903042       0.50372667       0.30432630 </v>
    <v>       0.66687000       0.33418000       0.00129000 </v>
    <v>       0.66222634       0.33478078       0.36172474 </v>
    <v>       0.66670000       0.33332000       0.12177000 </v>
    <v>       0.83466000       0.49916000       0.18181000 </v>
    <v>       0.66748000       0.33291000       0.24234000 </v>
    <v>       0.99949000       0.66581000       0.00112000 </v>
    <v>       0.99187344       0.66645368       0.36226069 </v>
    <v>       0.16773000       0.83295000       0.06141000 </v>
    <v>       0.00149000       0.66672000       0.12196000 </v>
    <v>       0.16592000       0.83389000       0.18235000 </v>
    <v>       0.99950000       0.66635000       0.24245000 </v>
    <v>       0.16971533       0.83034212       0.30432686 </v>
    <v>       0.49825000       0.83185000       0.06189000 </v>
    <v>       0.50064000       0.83335000       0.18189000 </v>
    <v>       0.33424000       0.66627000       0.24239000 </v>
    <v>       0.66521000       0.66629000       0.00100000 </v>
    <v>       0.67909729       0.65627591       0.36302264 </v>
    <v>       0.83382000       0.83268000       0.06128000 </v>
    <v>       0.83390000       0.83311000       0.18191000 </v>
    <v>       0.66721000       0.66675000       0.24221000 </v>
    <v>       0.83539223       0.83123174       0.30275072 </v>
    <v>       0.33419017       0.67146939       0.39761581 </v>
   </varray>
  </structure>
  <varray name="forces" >
   <v>      -0.01926256      -0.12640012      -0.01501870 </v>
   <v>       0.04860630       0.04190515      -0.18507986 </v>
   <v>       0.03940151      -0.00486731      -0.00522981 </v>
   <v>       0.04724858       0.18255381      -0.07314257 </v>
   <v>      -0.08742854      -0.06525038       0.16870207 </v>
   <v>      -0.04564018      -0.32650176      -0.10358683 </v>
   <v>       0.00720233       0.02697712       0.01130714 </v>
   <v>      -0.01273495       0.03293919      -0.16362011 </v>
   <v>      -0.00790772       0.04475415      -0.00322232 </v>
   <v>      -0.08921820       0.21562952      -0.23448653 </v>
   <v>      -0.01215674       0.04286418       0.05161839 </v>
   <v>       0.02099951      -0.04231222      -0.04834524 </v>
   <v>       0.10508498       0.01597159       0.02688587 </v>
   <v>      -0.01909682      -0.00634426       0.40753112 </v>
   <v>      -0.01493893      -0.03876340       0.05965568 </v>
   <v>      -0.28099318      -0.12795031      -0.37382437 </v>
   <v>      -0.01720859       0.01581229       0.07620613 </v>
   <v>       0.02365040       0.01440585       0.08317597 </v>
   <v>       0.04551606       0.09176519      -0.01503150 </v>
   <v>       0.05996867      -0.01850763       0.52593704 </v>
   <v>      -0.00189871       0.06607727      -0.09201479 </v>
   <v>       0.06749067       0.06858873      -0.19759352 </v>
   <v>       0.06317044       0.04106553      -0.04468537 </v>
   <v>      -0.03736819       0.01995711      -0.04348864 </v>
   <v>      -0.08324593       0.06274861       0.05776977 </v>
   <v>      -0.06991354       0.07471723       0.00583926 </v>
   <v>       0.17331408       0.09698765      -0.34063616 </v>
   <v>      -0.02788923      -0.02575886       0.21144759 </v>
   <v>      -0.00854467      -0.06019045       0.10010939 </v>
   <v>      -0.00029779       0.00796104      -0.01357025 </v>
   <v>       0.14965796      -0.01571456       0.35969832 </v>
   <v>       0.00429564       0.00745613      -0.02766673 </v>
   <v>      -0.26499368       0.04039812      -0.47370500 </v>
   <v>      -0.01663383      -0.08384284      -0.03587508 </v>
   <v>       0.05022731      -0.03283661      -0.06612001 </v>
   <v>      -0.03184908      -0.05621390      -0.03450795 </v>
   <v>       0.32638867      -0.00680109      -0.32728593 </v>
   <v>      -0.00324205      -0.00846870       0.21565590 </v>
   <v>      -0.00236145      -0.05942614      -0.04631338 </v>
   <v>       0.03833815       0.08252861       0.09275929 </v>
   <v>       0.08353839      -0.01581037      -0.05736373 </v>
   <v>      -0.12527005       0.00463946       0.40892138 </v>
   <v>       0.01008117      -0.00169800       0.00760142 </v>
   <v>       0.03847157      -0.07920319       0.07243087 </v>
   <v>      -0.00679074       0.06059631       0.05198078 </v>
   <v>      -0.10263610       0.01086562       0.00369055 </v>
   <v>       0.11040974       0.02870020       0.38571698 </v>
   <v>      -0.05998137      -0.00147390      -0.05603077 </v>
   <v>      -0.25193843       0.16500410      -0.32813025 </v>
   <v>      -0.03272204       0.02599463       0.13956787 </v>
   <v>       0.01582167       0.03522301       0.05046154 </v>
   <v>       0.07472983       0.02759580      -0.04543008 </v>
   <v>      -0.04892013       0.05468302      -0.06868739 </v>
   <v>      -0.00904586      -0.10878606      -0.06596675 </v>
   <v>       0.01127869      -0.01053439      -0.10219783 </v>
   <v>      -0.00633940      -0.05568943       0.15363103 </v>
   <v>      -0.07516204       0.00480995       0.40394056 </v>
   <v>       0.03613190      -0.04024726      -0.07414088 </v>
   <v>       0.22666042      -0.09305009      -0.27337398 </v>
   <v>       0.00882663      -0.03674526       0.00733909 </v>
   <v>       0.03295649      -0.10041462      -0.11751289 </v>
   <v>      -0.02507504      -0.01937078       0.04172364 </v>
   <v>      -0.02076199      -0.04300228      -0.02841946 </v>
  </varray>
  <varray name="stress" >
   <v>     -20.19922634       0.13973749      -0.15515360 </v>
   <v>       0.13973643     -20.58938692       0.12900948 </v>
   <v>      -0.15515395       0.12900968      -5.17274959 </v>
  </varray>
  <energy>
   <i name="e_fr_energy">   -506.72455594 </i>
   <i name="e_wo_entrp">   -506.74153579 </i>
   <i name="e_0_energy">   -506.73021589 </i>
  </energy>
  <time name="totalsc">  125.44  126.41</time>
 </calculation>
 <calculation>
  <scstep>
   <time name="dav">   15.33   15.54</time>
   <time name="total">   16.29   16.51</time>
   <dipole>
    <v name="dipole">      0.00000000       0.00000000      -0.01611718 </v>
    <i name="Tr[quadrupol]">  -7050.23849401 </i>
    <i name="Echarged">      0.00000000 </i>
    <i name="Edipol_quadrupol">      0.00000000 </i>
    <i name="Eion">      0.00000000 </i>
   </dipole>
   <energy>
    <i name="alphaZ">   1807.27730242 </i>
    <i name="ewald"> 206236.08272564 </i>
    <i name="hartreedc">-256471.73168849 </i>
    <i name="XCdc">    951.44506642 </i>
    <i name="pawpsdc">  54567.24118906 </i>
    <i name="pawaedc"> -55647.86720632 </i>
    <i name="eentropy">      0.01738146 </i>
    <i name="bandstr">  -4154.81510954 </i>
    <i name="atom">  52205.67765473 </i>
    <i name="e_fr_energy">   -506.67268462 </i>
    <i name="e_wo_entrp">   -506.69006608 </i>
    <i name="e_0_energy">   -506.67847844 </i>
   </energy>
  </scstep>
  <scstep>
   <time name="diag">    1.98    2.00</time>
   <time name="diis">    9.34    9.47</time>
   <time name="orth">    0.44    0.44</time>
   <time name="total">   12.68   12.85</time>
   <dipole>
    <v name="dipole">      0.00000000       0.00000000      -0.01411040 </v>
    <i name="Tr[quadrupol]">  -7050.25232435 </i>
    <i name="Echarged">      0.00000000 </i>
    <i name="Edipol_quadrupol">      0.00000000 </i>
    <i name="Eion">      0.00000000 </i>
   </dipole>
   <energy>
    <i name="e_fr_energy">   -506.70969401 </i>
    <i name="e_wo_entrp">   -506.72754062 </i>
    <i name="e_0_energy">   -506.71564288 </i>
   </energy>
  </scstep>
  <scstep>
   <time name="diag">    1.94    1.96</time>
   <time name="diis">   12.92   13.04</time>
   <time name="orth">    0.44    0.45</time>
   <time name="total">   16.23   16.38</time>
   <dipole>
    <v name="dipole">      0.00000000       0.00000000      -0.03829433 </v>
    <i name="Tr[quadrupol]">  -7050.18939542 </i>
    <i name="Echarged">      0.00000000 </i>
    <i name="Edipol_quadrupol">      0.00000000 </i>
    <i name="Eion">      0.00000000 </i>
   </dipole>
   <energy>
    <i name="e_fr_energy">   -506.73753818 </i>
    <i name="e_wo_entrp">   -506.75182737 </i>
    <i name="e_0_energy">   -506.74230124 </i>
   </energy>
  </scstep>
  <scstep>
   <time name="diag">    1.94    1.97</time>
   <time name="diis">   10.51   10.65</time>
   <time name="orth">    0.44    0.44</time>
   <time name="total">   13.83   14.02</time>
   <dipole>
    <v name="dipole">      0.00000000       0.00000000      -0.00569751 </v>
    <i name="Tr[quadrupol]">  -7050.23356649 </i>
    <i name="Echarged">      0.00000000 </i>
    <i name="Edipol_quadrupol">      0.00000000 </i>
    <i name="Eion">      0.00000000 </i>
   </dipole>
   <energy>
    <i name="e_fr_energy">   -506.72744385 </i>
    <i name="e_wo_entrp">   -506.74622636 </i>
    <i name="e_0_energy">   -506.73370469 </i>
   </energy>
  </scstep>
  <scstep>
   <time name="diag">    1.94    1.95</time>
   <time name="diis">    9.87    9.93</time>
   <time name="orth">    0.44    0.44</time>
   <time name="total">   13.18   13.26</time>
   <dipole>
    <v name="dipole">      0.00000000       0.00000000      -0.01799246 </v>
    <i name="Tr[quadrupol]">  -7050.26925889 </i>
    <i name="Echarged">      0.00000000 </i>
    <i name="Edipol_quadrupol">      0.00000000 </i>
    <i name="Eion">      0.00000000 </i>
   </dipole>
   <energy>
    <i name="e_fr_energy">   -506.73008322 </i>
    <i name="e_wo_entrp">   -506.74738696 </i>
    <i name="e_0_energy">   -506.73585113 </i>
   </energy>
  </scstep>
  <scstep>
   <time name="diag">    1.93    1.94</time>
   <time name="diis">    9.57    9.65</time>
   <time name="orth">    0.44    0.44</time>
   <time name="total">   12.87   12.98</time>
   <dipole>
    <v name="dipole">      0.00000000       0.00000000      -0.01593214 </v>
    <i name="Tr[quadrupol]">  -7050.20943389 </i>
    <i name="Echarged">      0.00000000 </i>
    <i name="Edipol_quadrupol">      0.00000000 </i>
    <i name="Eion">      0.00000000 </i>
   </dipole>
   <energy>
    <i name="e_fr_energy">   -506.73117395 </i>
    <i name="e_wo_entrp">   -506.74861270 </i>
    <i name="e_0_energy">   -506.73698686 </i>
   </energy>
  </scstep>
  <scstep>
   <time name="diag">    1.96    1.98</time>
   <time name="diis">   10.50   10.62</time>
   <time name="orth">    0.44    0.44</time>
   <time name="total">   13.84   14.00</time>
   <dipole>
    <v name="dipole">      0.00000000       0.00000000      -0.01619436 </v>
    <i name="Tr[quadrupol]">  -7050.24271506 </i>
    <i name="Echarged">      0.00000000 </i>
    <i name="Edipol_quadrupol">      0.00000000 </i>
    <i name="Eion">      0.00000000 </i>
   </dipole>
   <energy>
    <i name="e_fr_energy">   -506.73128375 </i>
    <i name="e_wo_entrp">   -506.74874799 </i>
    <i name="e_0_energy">   -506.73710516 </i>
   </energy>
  </scstep>
  <scstep>
   <time name="diag">    1.96    1.98</time>
   <time name="diis">   11.76   11.85</time>
   <time name="orth">    0.44    0.44</time>
   <time name="total">   15.10   15.23</time>
   <dipole>
    <v name="dipole">      0.00000000       0.00000000      -0.01602901 </v>
    <i name="Tr[quadrupol]">  -7050.24124896 </i>
    <i name="Echarged">      0.00000000 </i>
    <i name="Edipol_quadrupol">      0.00000000 </i>
    <i name="Eion">      0.00000000 </i>
   </dipole>
   <energy>
    <i name="e_fr_energy">   -506.73125898 </i>
    <i name="e_wo_entrp">   -506.74872250 </i>
    <i name="e_0_energy">   -506.73708015 </i>
   </energy>
  </scstep>
  <scstep>
   <time name="diag">    1.95    1.98</time>
   <time name="diis">    9.86    9.94</time>
   <time name="orth">    0.44    0.45</time>
   <time name="total">   13.20   13.32</time>
   <dipole>
    <v name="dipole">      0.00000000       0.00000000      -0.01621260 </v>
    <i name="Tr[quadrupol]">  -7050.24118416 </i>
    <i name="Echarged">      0.00000000 </i>
    <i name="Edipol_quadrupol">      0.00000000 </i>
    <i name="Eion">      0.00000000 </i>
   </dipole>
   <energy>
    <i name="e_fr_energy">   -506.73116831 </i>
    <i name="e_wo_entrp">   -506.74865102 </i>
    <i name="e_0_energy">   -506.73699588 </i>
   </energy>
  </scstep>
  <scstep>
   <time name="diag">    1.94    1.96</time>
   <time name="diis">   10.38   10.44</time>
   <time name="orth">    0.44    0.44</time>
   <time name="total">   13.71   13.79</time>
   <dipole>
    <v name="dipole">      0.00000000       0.00000000      -0.01566372 </v>
    <i name="Tr[quadrupol]">  -7050.23852057 </i>
    <i name="Echarged">      0.00000000 </i>
    <i name="Edipol_quadrupol">      0.00000000 </i>
    <i name="Eion">      0.00000000 </i>
   </dipole>
   <energy>
    <i name="e_fr_energy">   -506.73110923 </i>
    <i name="e_wo_entrp">   -506.74862766 </i>
    <i name="e_0_energy">   -506.73694871 </i>
   </energy>
  </scstep>
  <scstep>
   <time name="diag">    1.94    1.96</time>
   <time name="diis">    8.62    8.73</time>
   <time name="orth">    0.44    0.44</time>
   <time name="total">   11.94   12.09</time>
   <dipole>
    <v name="dipole">      0.00000000       0.00000000      -0.01555187 </v>
    <i name="Tr[quadrupol]">  -7050.23851512 </i>
    <i name="Echarged">      0.00000000 </i>
    <i name="Edipol_quadrupol">      0.00000000 </i>
    <i name="Eion">      0.00000000 </i>
   </dipole>
   <energy>
    <i name="e_fr_energy">   -506.73112933 </i>
    <i name="e_wo_entrp">   -506.74865362 </i>
    <i name="e_0_energy">   -506.73697076 </i>
   </energy>
  </scstep>
  <scstep>
   <time name="diag">    1.97    1.98</time>
   <time name="diis">    5.61    5.64</time>
   <time name="orth">    0.44    0.44</time>
   <time name="total">    8.96    9.02</time>
   <dipole>
    <v name="dipole">      0.00000000       0.00000000      -0.01537966 </v>
    <i name="Tr[quadrupol]">  -7050.23622841 </i>
    <i name="Echarged">      0.00000000 </i>
    <i name="Edipol_quadrupol">      0.00000000 </i>
    <i name="Eion">      0.00000000 </i>
   </dipole>
   <energy>
    <i name="e_fr_energy">   -506.73114299 </i>
    <i name="e_wo_entrp">   -506.74866944 </i>
    <i name="e_0_energy">   -506.73698514 </i>
   </energy>
  </scstep>
  <scstep>
   <time name="diag">    1.95    1.96</time>
   <time name="diis">    5.33    5.39</time>
   <time name="orth">    0.44    0.44</time>
   <time name="total">    8.66    8.74</time>
   <dipole>
    <v name="dipole">      0.00000000       0.00000000      -0.01550321 </v>
    <i name="Tr[quadrupol]">  -7050.23689480 </i>
    <i name="Echarged">      0.00000000 </i>
    <i name="Edipol_quadrupol">      0.00000000 </i>
    <i name="Eion">      0.00000000 </i>
   </dipole>
   <energy>
    <i name="e_fr_energy">   -506.73115349 </i>
    <i name="e_wo_entrp">   -506.74862453 </i>
    <i name="e_0_energy">   -506.73697717 </i>
   </energy>
  </scstep>
  <scstep>
   <time name="diag">    1.95    1.96</time>
   <time name="diis">    5.12    5.15</time>
   <time name="orth">    0.43    0.44</time>
   <time name="total">    7.91    7.95</time>
   <dipole>
    <v name="dipole">      0.00000000       0.00000000      -0.01536597 </v>
    <i name="Tr[quadrupol]">  -7050.23764871 </i>
    <i name="Echarged">      0.00000000 </i>
    <i name="Edipol_quadrupol">      0.00000000 </i>
    <i name="Eion">      0.00000000 </i>
   </dipole>
   <energy>
    <i name="alphaZ">   1807.48344208 </i>
    <i name="ewald"> 206236.08272564 </i>
    <i name="hartreedc">-256471.82782897 </i>
    <i name="XCdc">    951.37624349 </i>
    <i name="pawpsdc">  54577.00705908 </i>
    <i name="pawaedc"> -55657.66300829 </i>
    <i name="eentropy">      0.01748169 </i>
    <i name="bandstr">  -4154.88492614 </i>
    <i name="atom">  52205.67765473 </i>
    <i name="e_fr_energy">   -506.73115667 </i>
    <i name="e_wo_entrp">   -506.74863837 </i>
    <i name="e_0_energy">   -506.73698391 </i>
   </energy>
  </scstep>
  <structure>
   <crystal>
    <varray name="basis" >
     <v>       8.50460000       0.00000000       0.00000000 </v>
     <v>      -0.00109899       8.50909993       0.00000000 </v>
     <v>       0.00000000       0.00000000      23.55660000 </v>
    </varray>
    <i name="volume">   1704.70848813 </i>
    <varray name="rec_basis" >
     <v>       0.11758343       0.00001519       0.00000000 </v>
     <v>       0.00000000       0.11752124       0.00000000 </v>
     <v>       0.00000000       0.00000000       0.04245095 </v>
    </varray>
   </crystal>
   <varray name="positions" >
    <v>       0.99760000       0.00330000       0.24221000 </v>
    <v>       0.66561000       0.99834000       0.00060000 </v>
    <v>       0.65800608       0.99000868       0.36933160 </v>
    <v>       0.83467000       0.16589000       0.18209000 </v>
    <v>       0.99866000       0.33404000       0.12198000 </v>
    <v>       0.33421000       0.33147000       0.00101000 </v>
    <v>       0.33447145       0.32159468       0.36506145 </v>
    <v>       0.83220000       0.50025000       0.06275000 </v>
    <v>       0.83409713       0.49655921       0.30365724 </v>
    <v>       0.33512000       0.67037000       0.00000000 </v>
    <v>       0.33145000       0.66488000       0.12292000 </v>
    <v>       0.50385509       0.83715148       0.30456836 </v>
    <v>       0.67111000       0.66550000       0.12148000 </v>
    <v>       0.99950000       0.00032000       0.00103000 </v>
    <v>       0.00261789       0.99778267       0.36049179 </v>
    <v>       0.16670000       0.16592000       0.06160000 </v>
    <v>       0.99930000       0.00013000       0.12183000 </v>
    <v>       0.16670000       0.16692000       0.18170000 </v>
    <v>       0.16327097       0.16601307       0.30380239 </v>
    <v>       0.33368000       0.99986000       0.00108000 </v>
    <v>       0.32785005       0.00916316       0.36266501 </v>
    <v>       0.50008000       0.16606000       0.06164000 </v>
    <v>       0.33365000       0.99945000       0.12194000 </v>
    <v>       0.50013000       0.16657000       0.18176000 </v>
    <v>       0.33374000       0.99994000       0.24252000 </v>
    <v>       0.50111446       0.16867921       0.30327970 </v>
    <v>       0.83412000       0.16807000       0.06130000 </v>
    <v>       0.66767000       0.99972000       0.12168000 </v>
    <v>       0.66792000       0.00032000       0.24233000 </v>
    <v>       0.83300499       0.16733842       0.30395185 </v>
    <v>       0.00033000       0.33346000       0.00076000 </v>
    <v>       0.00439457       0.33468273       0.36254827 </v>
    <v>       0.16704000       0.50116000       0.06077000 </v>
    <v>       0.16627000       0.49940000       0.18238000 </v>
    <v>       0.00000000       0.33319000       0.24260000 </v>
    <v>       0.16726802       0.50090306       0.30385272 </v>
    <v>       0.49811000       0.50186000       0.06112000 </v>
    <v>       0.33328000       0.33434000       0.12148000 </v>
    <v>       0.50051000       0.50053000       0.18145000 </v>
    <v>       0.33392000       0.33269000       0.24229000 </v>
    <v>       0.49994970       0.50326317       0.30398184 </v>
    <v>       0.66687000       0.33418000       0.00129000 </v>
    <v>       0.66246653       0.33468256       0.36175676 </v>
    <v>       0.66670000       0.33332000       0.12177000 </v>
    <v>       0.83466000       0.49916000       0.18181000 </v>
    <v>       0.66748000       0.33291000       0.24234000 </v>
    <v>       0.99949000       0.66581000       0.00112000 </v>
    <v>       0.99102612       0.66638436       0.36209656 </v>
    <v>       0.16773000       0.83295000       0.06141000 </v>
    <v>       0.00149000       0.66672000       0.12196000 </v>
    <v>       0.16592000       0.83389000       0.18235000 </v>
    <v>       0.99950000       0.66635000       0.24245000 </v>
    <v>       0.16900717       0.83106623       0.30382299 </v>
    <v>       0.49825000       0.83185000       0.06189000 </v>
    <v>       0.50064000       0.83335000       0.18189000 </v>
    <v>       0.33424000       0.66627000       0.24239000 </v>
    <v>       0.66521000       0.66629000       0.00100000 </v>
    <v>       0.67967038       0.65588423       0.36280351 </v>
    <v>       0.83382000       0.83268000       0.06128000 </v>
    <v>       0.83390000       0.83311000       0.18191000 </v>
    <v>       0.66721000       0.66675000       0.24221000 </v>
    <v>       0.83524679       0.83106994       0.30290134 </v>
    <v>       0.33380042       0.67120745       0.39700423 </v>
   </varray>
  </structure>
  <varray name="forces" >
   <v>      -0.02478479      -0.11433842      -0.00803900 </v>
   <v>       0.04850834       0.04144437      -0.18532718 </v>
   <v>      -0.00176504       0.00710956      -0.01129335 </v>
   <v>       0.04349519       0.18410322      -0.08137303 </v>
   <v>      -0.08751661      -0.06483146       0.16945550 </v>
   <v>      -0.04578538      -0.32658527      -0.10377293 </v>
   <v>       0.00790845       0.03282374       0.00659206 </v>
   <v>      -0.01322834       0.03126002      -0.16532053 </v>
   <v>       0.01717222      -0.00644249      -0.02930229 </v>
   <v>      -0.08970073       0.21564888      -0.23537398 </v>
   <v>      -0.01211455       0.04322825       0.05408341 </v>
   <v>      -0.02193526      -0.02498959       0.00087492 </v>
   <v>       0.10379560       0.01664955       0.02782507 </v>
   <v>      -0.01968051      -0.00641457       0.40803459 </v>
   <v>       0.01527721      -0.01723850       0.01239507 </v>
   <v>      -0.28066542      -0.12847056      -0.37504641 </v>
   <v>      -0.01783917       0.01624748       0.07760276 </v>
   <v>       0.02160505       0.01474388       0.08027184 </v>
   <v>      -0.01056938       0.03894618      -0.01455121 </v>
   <v>       0.05975460      -0.01791591       0.52528286 </v>
   <v>      -0.00640480       0.02304752      -0.04931312 </v>
   <v>       0.06778912       0.06771695      -0.19845145 </v>
   <v>       0.06335488       0.03930638      -0.04270063 </v>
   <v>      -0.03550844       0.01896798      -0.04431882 </v>
   <v>      -0.07650418       0.08625708       0.04650393 </v>
   <v>      -0.00828540       0.00503407      -0.00612195 </v>
   <v>       0.17363502       0.09729243      -0.34416276 </v>
   <v>      -0.02790080      -0.02545282       0.21122459 </v>
   <v>      -0.00700844      -0.04376160       0.09977182 </v>
   <v>       0.01137601      -0.00850570      -0.00276681 </v>
   <v>       0.14953527      -0.01636709       0.36088472 </v>
   <v>       0.00595532       0.01146921      -0.01416875 </v>
   <v>      -0.26474901       0.04047723      -0.47449423 </v>
   <v>      -0.01722912      -0.08299864      -0.04765492 </v>
   <v>       0.03583285      -0.03596966      -0.08708245 </v>
   <v>       0.00070327       0.00137325       0.00004759 </v>
   <v>       0.32594741      -0.00657170      -0.32774631 </v>
   <v>      -0.00282237      -0.00682086       0.21709269 </v>
   <v>      -0.00220877      -0.05774114      -0.05978433 </v>
   <v>       0.03980092       0.09341197       0.06233550 </v>
   <v>       0.01800836       0.00207368      -0.01189638 </v>
   <v>      -0.12506536       0.00433778       0.40949484 </v>
   <v>       0.00259798       0.00425471       0.01220440 </v>
   <v>       0.04110886      -0.08013033       0.07415930 </v>
   <v>      -0.00659179       0.06152983       0.04831020 </v>
   <v>      -0.08732218       0.00519599      -0.01648473 </v>
   <v>       0.11107196       0.02922932       0.38496100 </v>
   <v>      -0.03202779       0.00215798      -0.03795047 </v>
   <v>      -0.25171053       0.16418690      -0.32919572 </v>
   <v>      -0.03122916       0.02631275       0.13988912 </v>
   <v>       0.01832235       0.03366055       0.03430310 </v>
   <v>       0.06050216       0.02704772      -0.06064624 </v>
   <v>      -0.01618584       0.02798421       0.00963467 </v>
   <v>      -0.00857089      -0.10888513      -0.06614180 </v>
   <v>       0.01008894      -0.01039776      -0.11258323 </v>
   <v>      -0.01027112      -0.06510866       0.15791448 </v>
   <v>      -0.07448321       0.00517420       0.40380971 </v>
   <v>       0.01111213      -0.03234498      -0.02928665 </v>
   <v>       0.22732294      -0.09250627      -0.27375955 </v>
   <v>       0.00946926      -0.03263195       0.01050903 </v>
   <v>       0.05198555      -0.09756867      -0.14852795 </v>
   <v>      -0.01539296       0.01524883      -0.00953910 </v>
   <v>      -0.01997989      -0.02396390      -0.04129051 </v>
  </varray>
  <varray name="stress" >
   <v>     -19.94695566       0.14016889      -0.18954734 </v>
   <v>       0.14016880     -20.41854741       0.11790414 </v>
   <v>      -0.18954705       0.11790361      -4.77337140 </v>
  </varray>
  <energy>
   <i name="e_fr_energy">   -506.73115667 </i>
   <i name="e_wo_entrp">   -506.74863837 </i>
   <i name="e_0_energy">   -506.73698391 </i>
  </energy>
  <time name="totalsc">  194.97  196.81</time>
 </calculation>
 <calculation>
  <scstep>
   <time name="dav">   15.32   15.46</time>
   <time name="total">   16.28   16.43</time>
   <dipole>
    <v name="dipole">      0.00000000       0.00000000      -0.01529682 </v>
    <i name="Tr[quadrupol]">  -7050.44269874 </i>
    <i name="Echarged">      0.00000000 </i>
    <i name="Edipol_quadrupol">      0.00000000 </i>
    <i name="Eion">      0.00000000 </i>
   </dipole>
   <energy>
    <i name="alphaZ">   1807.48347667 </i>
    <i name="ewald"> 206290.82633203 </i>
    <i name="hartreedc">-256526.32752869 </i>
    <i name="XCdc">    951.40016707 </i>
    <i name="pawpsdc">  54577.09231276 </i>
    <i name="pawaedc"> -55657.74991163 </i>
    <i name="eentropy">      0.01761951 </i>
    <i name="bandstr">  -4155.14520247 </i>
    <i name="atom">  52205.67765473 </i>
    <i name="e_fr_energy">   -506.72508001 </i>
    <i name="e_wo_entrp">   -506.74269952 </i>
    <i name="e_0_energy">   -506.73095318 </i>
   </energy>
  </scstep>
  <scstep>
   <time name="diag">    1.95    1.98</time>
   <time name="diis">    9.31    9.41</time>
   <time name="orth">    0.44    0.44</time>
   <time name="total">   12.65   12.79</time>
   <dipole>
    <v name="dipole">      0.00000000       0.00000000      -0.01347532 </v>
    <i name="Tr[quadrupol]">  -7050.44351816 </i>
    <i name="Echarged">      0.00000000 </i>
    <i name="Edipol_quadrupol">      0.00000000 </i>
    <i name="Eion">      0.00000000 </i>
   </dipole>
   <energy>
    <i name="e_fr_energy">   -506.72930096 </i>
    <i name="e_wo_entrp">   -506.74724699 </i>
    <i name="e_0_energy">   -506.73528297 </i>
   </energy>
  </scstep>
  <scstep>
   <time name="diag">    1.96    1.97</time>
   <time name="diis">   12.80   12.90</time>
   <time name="orth">    0.44    0.44</time>
   <time name="total">   16.13   16.26</time>
   <dipole>
    <v name="dipole">      0.00000000       0.00000000      -0.02966850 </v>
    <i name="Tr[quadrupol]">  -7050.42565510 </i>
    <i name="Echarged">      0.00000000 </i>
    <i name="Edipol_quadrupol">      0.00000000 </i>
    <i name="Eion">      0.00000000 </i>
   </dipole>
   <energy>
    <i name="e_fr_energy">   -506.73624880 </i>
    <i name="e_wo_entrp">   -506.75192481 </i>
    <i name="e_0_energy">   -506.74147413 </i>
   </energy>
  </scstep>
  <scstep>
   <time name="diag">    1.96    1.97</time>
   <time name="diis">    8.58    8.63</time>
   <time name="orth">    0.44    0.44</time>
   <time name="total">   11.92   12.00</time>
   <dipole>
    <v name="dipole">      0.00000000       0.00000000      -0.01423853 </v>
    <i name="Tr[quadrupol]">  -7050.43535338 </i>
    <i name="Echarged">      0.00000000 </i>
    <i name="Edipol_quadrupol">      0.00000000 </i>
    <i name="Eion">      0.00000000 </i>
   </dipole>
   <energy>
    <i name="e_fr_energy">   -506.73087079 </i>
    <i name="e_wo_entrp">   -506.74865553 </i>
    <i name="e_0_energy">   -506.73679904 </i>
   </energy>
  </scstep>
  <scstep>
   <time name="diag">    1.96    1.97</time>
   <time name="diis">   10.14   10.20</time>
   <time name="orth">    0.44    0.44</time>
   <time name="total">   13.49   13.56</time>
   <dipole>
    <v name="dipole">      0.00000000       0.00000000      -0.01554110 </v>
    <i name="Tr[quadrupol]">  -7050.45244979 </i>
    <i name="Echarged">      0.00000000 </i>
    <i name="Edipol_quadrupol">      0.00000000 </i>
    <i name="Eion">      0.00000000 </i>
   </dipole>
   <energy>
    <i name="e_fr_energy">   -506.73160728 </i>
    <i name="e_wo_entrp">   -506.74928837 </i>
    <i name="e_0_energy">   -506.73750097 </i>
   </energy>
  </scstep>
  <scstep>
   <time name="diag">    1.94    1.95</time>
   <time name="diis">   10.07   10.16</time>
   <time name="orth">    0.44    0.44</time>
   <time name="total">   13.37   13.48</time>
   <dipole>
    <v name="dipole">      0.00000000       0.00000000      -0.01519438 </v>
    <i name="Tr[quadrupol]">  -7050.43100224 </i>
    <i name="Echarged">      0.00000000 </i>
    <i name="Edipol_quadrupol">      0.00000000 </i>
    <i name="Eion">      0.00000000 </i>
   </dipole>
   <energy>
    <i name="e_fr_energy">   -506.73172559 </i>
    <i name="e_wo_entrp">   -506.74940587 </i>
    <i name="e_0_energy">   -506.73761901 </i>
   </energy>
  </scstep>
  <scstep>
   <time name="diag">    1.95    1.96</time>
   <time name="diis">    8.95    9.00</time>
   <time name="orth">    0.43    0.44</time>
   <time name="total">   12.25   12.32</time>
   <dipole>
    <v name="dipole">      0.00000000       0.00000000      -0.01552672 </v>
    <i name="Tr[quadrupol]">  -7050.44030832 </i>
    <i name="Echarged">      0.00000000 </i>
    <i name="Edipol_quadrupol">      0.00000000 </i>
    <i name="Eion">      0.00000000 </i>
   </dipole>
   <energy>
    <i name="e_fr_energy">   -506.73174027 </i>
    <i name="e_wo_entrp">   -506.74939803 </i>
    <i name="e_0_energy">   -506.73762619 </i>
   </energy>
  </scstep>
  <scstep>
   <time name="diag">    1.95    1.96</time>
   <time name="diis">    6.02    6.07</time>
   <time name="orth">    0.44    0.44</time>
   <time name="total">    8.82    8.89</time>
   <dipole>
    <v name="dipole">      0.00000000       0.00000000      -0.01551567 </v>
    <i name="Tr[quadrupol]">  -7050.43985397 </i>
    <i name="Echarged">      0.00000000 </i>
    <i name="Edipol_quadrupol">      0.00000000 </i>
    <i name="Eion">      0.00000000 </i>
   </dipole>
   <energy>
    <i name="alphaZ">   1807.28765291 </i>
    <i name="ewald"> 206290.82633203 </i>
    <i name="hartreedc">-256526.51922046 </i>
    <i name="XCdc">    951.38712991 </i>
    <i name="pawpsdc">  54578.81234843 </i>
    <i name="pawaedc"> -55659.48114409 </i>
    <i name="eentropy">      0.01765396 </i>
    <i name="bandstr">  -4154.74014607 </i>
    <i name="atom">  52205.67765473 </i>
    <i name="e_fr_energy">   -506.73173865 </i>
    <i name="e_wo_entrp">   -506.74939261 </i>
    <i name="e_0_energy">   -506.73762330 </i>
   </energy>
  </scstep>
  <structure>
   <crystal>
    <varray name="basis" >
     <v>       8.50460000       0.00000000       0.00000000 </v>
     <v>      -0.00109899       8.50909993       0.00000000 </v>
     <v>       0.00000000       0.00000000      23.55660000 </v>
    </varray>
    <i name="volume">   1704.70848813 </i>
    <varray name="rec_basis" >
     <v>       0.11758343       0.00001519       0.00000000 </v>
     <v>       0.00000000       0.11752124       0.00000000 </v>
     <v>       0.00000000       0.00000000       0.04245095 </v>
    </varray>
   </crystal>
   <varray name="positions" >
    <v>       0.99760000       0.00330000       0.24221000 </v>
    <v>       0.66561000       0.99834000       0.00060000 </v>
    <v>       0.65816344       0.98998832       0.36932252 </v>
    <v>       0.83467000       0.16589000       0.18209000 </v>
    <v>       0.99866000       0.33404000       0.12198000 </v>
    <v>       0.33421000       0.33147000       0.00101000 </v>
    <v>       0.33450872       0.32167138       0.36511176 </v>
    <v>       0.83220000       0.50025000       0.06275000 </v>
    <v>       0.83403769       0.49673587       0.30365741 </v>
    <v>       0.33512000       0.67037000       0.00000000 </v>
    <v>       0.33145000       0.66488000       0.12292000 </v>
    <v>       0.50405175       0.83711349       0.30443858 </v>
    <v>       0.67111000       0.66550000       0.12148000 </v>
    <v>       0.99950000       0.00032000       0.00103000 </v>
    <v>       0.00253840       0.99763584       0.36057428 </v>
    <v>       0.16670000       0.16592000       0.06160000 </v>
    <v>       0.99930000       0.00013000       0.12183000 </v>
    <v>       0.16670000       0.16692000       0.18170000 </v>
    <v>       0.16339524       0.16628926       0.30379391 </v>
    <v>       0.33368000       0.99986000       0.00108000 </v>
    <v>       0.32785968       0.00948178       0.36252083 </v>
    <v>       0.50008000       0.16606000       0.06164000 </v>
    <v>       0.33365000       0.99945000       0.12194000 </v>
    <v>       0.50013000       0.16657000       0.18176000 </v>
    <v>       0.33374000       0.99994000       0.24252000 </v>
    <v>       0.50092435       0.16895783       0.30329048 </v>
    <v>       0.83412000       0.16807000       0.06130000 </v>
    <v>       0.66767000       0.99972000       0.12168000 </v>
    <v>       0.66792000       0.00032000       0.24233000 </v>
    <v>       0.83300805       0.16739310       0.30392990 </v>
    <v>       0.00033000       0.33346000       0.00076000 </v>
    <v>       0.00437581       0.33473592       0.36251807 </v>
    <v>       0.16704000       0.50116000       0.06077000 </v>
    <v>       0.16627000       0.49940000       0.18238000 </v>
    <v>       0.00000000       0.33319000       0.24260000 </v>
    <v>       0.16712442       0.50062077       0.30376122 </v>
    <v>       0.49811000       0.50186000       0.06112000 </v>
    <v>       0.33328000       0.33434000       0.12148000 </v>
    <v>       0.50051000       0.50053000       0.18145000 </v>
    <v>       0.33392000       0.33269000       0.24229000 </v>
    <v>       0.50026582       0.50310378       0.30386339 </v>
    <v>       0.66687000       0.33418000       0.00129000 </v>
    <v>       0.66254912       0.33464878       0.36176776 </v>
    <v>       0.66670000       0.33332000       0.12177000 </v>
    <v>       0.83466000       0.49916000       0.18181000 </v>
    <v>       0.66748000       0.33291000       0.24234000 </v>
    <v>       0.99949000       0.66581000       0.00112000 </v>
    <v>       0.99073475       0.66636052       0.36204012 </v>
    <v>       0.16773000       0.83295000       0.06141000 </v>
    <v>       0.00149000       0.66672000       0.12196000 </v>
    <v>       0.16592000       0.83389000       0.18235000 </v>
    <v>       0.99950000       0.66635000       0.24245000 </v>
    <v>       0.16876365       0.83131523       0.30364973 </v>
    <v>       0.49825000       0.83185000       0.06189000 </v>
    <v>       0.50064000       0.83335000       0.18189000 </v>
    <v>       0.33424000       0.66627000       0.24239000 </v>
    <v>       0.66521000       0.66629000       0.00100000 </v>
    <v>       0.67986745       0.65574955       0.36272816 </v>
    <v>       0.83382000       0.83268000       0.06128000 </v>
    <v>       0.83390000       0.83311000       0.18191000 </v>
    <v>       0.66721000       0.66675000       0.24221000 </v>
    <v>       0.83519678       0.83101429       0.30295314 </v>
    <v>       0.33366639       0.67111738       0.39679392 </v>
   </varray>
  </structure>
  <varray name="forces" >
   <v>      -0.02776215      -0.10917049      -0.00643510 </v>
   <v>       0.04849316       0.04119798      -0.18505062 </v>
   <v>      -0.01535962       0.00954700      -0.01335069 </v>
   <v>       0.04257879       0.18424285      -0.08370752 </v>
   <v>      -0.08744815      -0.06524209       0.17051328 </v>
   <v>      -0.04582418      -0.32680600      -0.10322207 </v>
   <v>       0.00834777       0.03613679       0.00758851 </v>
   <v>      -0.01322218       0.03047765      -0.16487017 </v>
   <v>       0.02349652      -0.02259518      -0.03924720 </v>
   <v>      -0.08981447       0.21548695      -0.23511356 </v>
   <v>      -0.01215608       0.04317818       0.05512208 </v>
   <v>      -0.03109844      -0.01956339       0.00495091 </v>
   <v>       0.10302049       0.01703355       0.02875217 </v>
   <v>      -0.01977699      -0.00657253       0.40876328 </v>
   <v>       0.02423468      -0.01089871      -0.00161687 </v>
   <v>      -0.28042915      -0.12891968      -0.37454991 </v>
   <v>      -0.01803642       0.01642040       0.07884059 </v>
   <v>       0.02085018       0.01452442       0.08009233 </v>
   <v>      -0.02966175       0.02421859      -0.01398356 </v>
   <v>       0.05970818      -0.01778898       0.52569647 </v>
   <v>      -0.00696755       0.00998140      -0.03840830 </v>
   <v>       0.06768718       0.06709840      -0.19785653 </v>
   <v>       0.06342849       0.03867333      -0.04155998 </v>
   <v>      -0.03480195       0.01838250      -0.04387056 </v>
   <v>      -0.07415501       0.09464000       0.04212650 </v>
   <v>       0.01173407      -0.01468838      -0.00933604 </v>
   <v>       0.17383402       0.09696320      -0.34432675 </v>
   <v>      -0.02792486      -0.02534918       0.21198897 </v>
   <v>      -0.00585533      -0.03738905       0.09963351 </v>
   <v>       0.01563323      -0.01336281       0.00089537 </v>
   <v>       0.14966488      -0.01683716       0.36170187 </v>
   <v>       0.00524826       0.01340717      -0.00984274 </v>
   <v>      -0.26435357       0.04035161      -0.47388002 </v>
   <v>      -0.01743545      -0.08288800      -0.05095362 </v>
   <v>       0.03018227      -0.03751192      -0.09429809 </v>
   <v>       0.00987086       0.01704210       0.00805240 </v>
   <v>       0.32548520      -0.00661035      -0.32699478 </v>
   <v>      -0.00273876      -0.00657396       0.21820373 </v>
   <v>      -0.00218767      -0.05724682      -0.06355753 </v>
   <v>       0.04038200       0.09681627       0.05162226 </v>
   <v>      -0.00120797       0.00523887      -0.00092587 </v>
   <v>      -0.12520651       0.00394377       0.41003394 </v>
   <v>       0.00174860       0.00527493       0.01423761 </v>
   <v>       0.04185392      -0.08091143       0.07559053 </v>
   <v>      -0.00650306       0.06147676       0.04778776 </v>
   <v>      -0.08151467       0.00258787      -0.02331776 </v>
   <v>       0.11140794       0.02936365       0.38513726 </v>
   <v>      -0.02367668       0.00270057      -0.03130382 </v>
   <v>      -0.25148824       0.16400829      -0.32878073 </v>
   <v>      -0.03051108       0.02647085       0.14078351 </v>
   <v>       0.01923631       0.03323854       0.02959535 </v>
   <v>       0.05553464       0.02691462      -0.06609398 </v>
   <v>      -0.00804055       0.02168561       0.02845141 </v>
   <v>      -0.00859985      -0.10879707      -0.06514938 </v>
   <v>       0.00959839      -0.01030766      -0.11556571 </v>
   <v>      -0.01169118      -0.06847975       0.15991251 </v>
   <v>      -0.07442249       0.00533892       0.40407256 </v>
   <v>       0.00279222      -0.03028278      -0.01343468 </v>
   <v>       0.22761568      -0.09211901      -0.27300780 </v>
   <v>       0.00965683      -0.03107097       0.01244874 </v>
   <v>       0.05877813      -0.09670224      -0.15975220 </v>
   <v>      -0.01187643       0.02742151      -0.02502319 </v>
   <v>      -0.02035444      -0.01679944      -0.04420807 </v>
  </varray>
  <varray name="stress" >
   <v>     -19.93518089       0.14121383      -0.20289889 </v>
   <v>       0.14121326     -20.42979816       0.11443195 </v>
   <v>      -0.20289850       0.11443230      -4.70662588 </v>
  </varray>
  <energy>
   <i name="e_fr_energy">   -506.73173865 </i>
   <i name="e_wo_entrp">   -506.74939261 </i>
   <i name="e_0_energy">   -506.73762330 </i>
  </energy>
  <time name="totalsc">  121.32  122.30</time>
 </calculation>
 <calculation>
  <scstep>
   <time name="dav">   15.47   15.64</time>
   <time name="total">   16.44   16.61</time>
   <dipole>
    <v name="dipole">      0.00000000       0.00000000      -0.01550167 </v>
    <i name="Tr[quadrupol]">  -7050.50307729 </i>
    <i name="Echarged">      0.00000000 </i>
    <i name="Edipol_quadrupol">      0.00000000 </i>
    <i name="Eion">      0.00000000 </i>
   </dipole>
   <energy>
    <i name="alphaZ">   1807.28776072 </i>
    <i name="ewald"> 206314.24197570 </i>
    <i name="hartreedc">-256549.83901073 </i>
    <i name="XCdc">    951.39402976 </i>
    <i name="pawpsdc">  54579.24809899 </i>
    <i name="pawaedc"> -55659.91755823 </i>
    <i name="eentropy">      0.01772865 </i>
    <i name="bandstr">  -4154.84125660 </i>
    <i name="atom">  52205.67765473 </i>
    <i name="e_fr_energy">   -506.73057701 </i>
    <i name="e_wo_entrp">   -506.74830566 </i>
    <i name="e_0_energy">   -506.73648656 </i>
   </energy>
  </scstep>
  <scstep>
   <time name="diag">    1.93    1.94</time>
   <time name="diis">    9.26    9.32</time>
   <time name="orth">    0.44    0.44</time>
   <time name="total">   12.56   12.64</time>
   <dipole>
    <v name="dipole">      0.00000000       0.00000000      -0.01343268 </v>
    <i name="Tr[quadrupol]">  -7050.50568025 </i>
    <i name="Echarged">      0.00000000 </i>
    <i name="Edipol_quadrupol">      0.00000000 </i>
    <i name="Eion">      0.00000000 </i>
   </dipole>
   <energy>
    <i name="e_fr_energy">   -506.73138073 </i>
    <i name="e_wo_entrp">   -506.74940705 </i>
    <i name="e_0_energy">   -506.73738950 </i>
   </energy>
  </scstep>
  <scstep>
   <time name="diag">    1.93    1.95</time>
   <time name="diis">   12.49   12.66</time>
   <time name="orth">    0.44    0.44</time>
   <time name="total">   15.79   16.00</time>
   <dipole>
    <v name="dipole">      0.00000000       0.00000000      -0.01985301 </v>
    <i name="Tr[quadrupol]">  -7050.50078115 </i>
    <i name="Echarged">      0.00000000 </i>
    <i name="Edipol_quadrupol">      0.00000000 </i>
    <i name="Eion">      0.00000000 </i>
   </dipole>
   <energy>
    <i name="e_fr_energy">   -506.73202285 </i>
    <i name="e_wo_entrp">   -506.74917192 </i>
    <i name="e_0_energy">   -506.73773920 </i>
   </energy>
  </scstep>
  <scstep>
   <time name="diag">    1.93    1.95</time>
   <time name="diis">    9.28    9.34</time>
   <time name="orth">    0.44    0.44</time>
   <time name="total">   12.59   12.70</time>
   <dipole>
    <v name="dipole">      0.00000000       0.00000000      -0.01531396 </v>
    <i name="Tr[quadrupol]">  -7050.50178548 </i>
    <i name="Echarged">      0.00000000 </i>
    <i name="Edipol_quadrupol">      0.00000000 </i>
    <i name="Eion">      0.00000000 </i>
   </dipole>
   <energy>
    <i name="e_fr_energy">   -506.73156791 </i>
    <i name="e_wo_entrp">   -506.74932286 </i>
    <i name="e_0_energy">   -506.73748623 </i>
   </energy>
  </scstep>
  <scstep>
   <time name="diag">    1.95    1.97</time>
   <time name="diis">    8.88    8.96</time>
   <time name="orth">    0.44    0.44</time>
   <time name="total">   12.21   12.32</time>
   <dipole>
    <v name="dipole">      0.00000000       0.00000000      -0.01555385 </v>
    <i name="Tr[quadrupol]">  -7050.50588585 </i>
    <i name="Echarged">      0.00000000 </i>
    <i name="Edipol_quadrupol">      0.00000000 </i>
    <i name="Eion">      0.00000000 </i>
   </dipole>
   <energy>
    <i name="e_fr_energy">   -506.73170701 </i>
    <i name="e_wo_entrp">   -506.74944234 </i>
    <i name="e_0_energy">   -506.73761879 </i>
   </energy>
  </scstep>
  <scstep>
   <time name="diag">    1.97    1.98</time>
   <time name="diis">    7.49    7.53</time>
   <time name="orth">    0.44    0.44</time>
   <time name="total">   10.85   10.91</time>
   <dipole>
    <v name="dipole">      0.00000000       0.00000000      -0.01537075 </v>
    <i name="Tr[quadrupol]">  -7050.49801641 </i>
    <i name="Echarged">      0.00000000 </i>
    <i name="Edipol_quadrupol">      0.00000000 </i>
    <i name="Eion">      0.00000000 </i>
   </dipole>
   <energy>
    <i name="e_fr_energy">   -506.73173361 </i>
    <i name="e_wo_entrp">   -506.74947648 </i>
    <i name="e_0_energy">   -506.73764790 </i>
   </energy>
  </scstep>
  <scstep>
   <time name="diag">    1.96    1.98</time>
   <time name="diis">    5.36    5.39</time>
   <time name="orth">    0.44    0.44</time>
   <time name="total">    8.17    8.22</time>
   <dipole>
    <v name="dipole">      0.00000000       0.00000000      -0.01539727 </v>
    <i name="Tr[quadrupol]">  -7050.50363787 </i>
    <i name="Echarged">      0.00000000 </i>
    <i name="Edipol_quadrupol">      0.00000000 </i>
    <i name="Eion">      0.00000000 </i>
   </dipole>
   <energy>
    <i name="alphaZ">   1807.28961778 </i>
    <i name="ewald"> 206314.24197570 </i>
    <i name="hartreedc">-256549.89876582 </i>
    <i name="XCdc">    951.38627002 </i>
    <i name="pawpsdc">  54580.47982624 </i>
    <i name="pawaedc"> -55661.15338099 </i>
    <i name="eentropy">      0.01775083 </i>
    <i name="bandstr">  -4154.77267719 </i>
    <i name="atom">  52205.67765473 </i>
    <i name="e_fr_energy">   -506.73172869 </i>
    <i name="e_wo_entrp">   -506.74947952 </i>
    <i name="e_0_energy">   -506.73764564 </i>
   </energy>
  </scstep>
  <structure>
   <crystal>
    <varray name="basis" >
     <v>       8.50460000       0.00000000       0.00000000 </v>
     <v>      -0.00109899       8.50909993       0.00000000 </v>
     <v>       0.00000000       0.00000000      23.55660000 </v>
    </varray>
    <i name="volume">   1704.70848813 </i>
    <varray name="rec_basis" >
     <v>       0.11758343       0.00001519       0.00000000 </v>
     <v>       0.00000000       0.11752124       0.00000000 </v>
     <v>       0.00000000       0.00000000       0.04245095 </v>
    </varray>
   </crystal>
   <varray name="positions" >
    <v>       0.99760000       0.00330000       0.24221000 </v>
    <v>       0.66561000       0.99834000       0.00060000 </v>
    <v>       0.65823072       0.98997961       0.36931864 </v>
    <v>       0.83467000       0.16589000       0.18209000 </v>
    <v>       0.99866000       0.33404000       0.12198000 </v>
    <v>       0.33421000       0.33147000       0.00101000 </v>
    <v>       0.33452465       0.32170418       0.36513327 </v>
    <v>       0.83220000       0.50025000       0.06275000 </v>
    <v>       0.83401228       0.49681141       0.30365749 </v>
    <v>       0.33512000       0.67037000       0.00000000 </v>
    <v>       0.33145000       0.66488000       0.12292000 </v>
    <v>       0.50413583       0.83709725       0.30438310 </v>
    <v>       0.67111000       0.66550000       0.12148000 </v>
    <v>       0.99950000       0.00032000       0.00103000 </v>
    <v>       0.00250442       0.99757307       0.36060955 </v>
    <v>       0.16670000       0.16592000       0.06160000 </v>
    <v>       0.99930000       0.00013000       0.12183000 </v>
    <v>       0.16670000       0.16692000       0.18170000 </v>
    <v>       0.16344837       0.16640735       0.30379029 </v>
    <v>       0.33368000       0.99986000       0.00108000 </v>
    <v>       0.32786379       0.00961802       0.36245918 </v>
    <v>       0.50008000       0.16606000       0.06164000 </v>
    <v>       0.33365000       0.99945000       0.12194000 </v>
    <v>       0.50013000       0.16657000       0.18176000 </v>
    <v>       0.33374000       0.99994000       0.24252000 </v>
    <v>       0.50084307       0.16907695       0.30329508 </v>
    <v>       0.83412000       0.16807000       0.06130000 </v>
    <v>       0.66767000       0.99972000       0.12168000 </v>
    <v>       0.66792000       0.00032000       0.24233000 </v>
    <v>       0.83300936       0.16741648       0.30392051 </v>
    <v>       0.00033000       0.33346000       0.00076000 </v>
    <v>       0.00436779       0.33475866       0.36250516 </v>
    <v>       0.16704000       0.50116000       0.06077000 </v>
    <v>       0.16627000       0.49940000       0.18238000 </v>
    <v>       0.00000000       0.33319000       0.24260000 </v>
    <v>       0.16706302       0.50050008       0.30372209 </v>
    <v>       0.49811000       0.50186000       0.06112000 </v>
    <v>       0.33328000       0.33434000       0.12148000 </v>
    <v>       0.50051000       0.50053000       0.18145000 </v>
    <v>       0.33392000       0.33269000       0.24229000 </v>
    <v>       0.50040098       0.50303564       0.30381274 </v>
    <v>       0.66687000       0.33418000       0.00129000 </v>
    <v>       0.66258444       0.33463434       0.36177247 </v>
    <v>       0.66670000       0.33332000       0.12177000 </v>
    <v>       0.83466000       0.49916000       0.18181000 </v>
    <v>       0.66748000       0.33291000       0.24234000 </v>
    <v>       0.99949000       0.66581000       0.00112000 </v>
    <v>       0.99061017       0.66635033       0.36201599 </v>
    <v>       0.16773000       0.83295000       0.06141000 </v>
    <v>       0.00149000       0.66672000       0.12196000 </v>
    <v>       0.16592000       0.83389000       0.18235000 </v>
    <v>       0.99950000       0.66635000       0.24245000 </v>
    <v>       0.16865954       0.83142170       0.30357564 </v>
    <v>       0.49825000       0.83185000       0.06189000 </v>
    <v>       0.50064000       0.83335000       0.18189000 </v>
    <v>       0.33424000       0.66627000       0.24239000 </v>
    <v>       0.66521000       0.66629000       0.00100000 </v>
    <v>       0.67995171       0.65569196       0.36269594 </v>
    <v>       0.83382000       0.83268000       0.06128000 </v>
    <v>       0.83390000       0.83311000       0.18191000 </v>
    <v>       0.66721000       0.66675000       0.24221000 </v>
    <v>       0.83517540       0.83099050       0.30297528 </v>
    <v>       0.33360909       0.67107887       0.39670400 </v>
   </varray>
  </structure>
  <varray name="forces" >
   <v>      -0.02824320      -0.10779252      -0.00516490 </v>
   <v>       0.04848270       0.04112299      -0.18481032 </v>
   <v>      -0.02178055       0.01183954      -0.01309428 </v>
   <v>       0.04152208       0.18516282      -0.08551523 </v>
   <v>      -0.08779756      -0.06462694       0.17044703 </v>
   <v>      -0.04588148      -0.32683707      -0.10307684 </v>
   <v>       0.00837140       0.03741685       0.00632997 </v>
   <v>      -0.01341569       0.03024885      -0.16529205 </v>
   <v>       0.02742764      -0.03034210      -0.04310559 </v>
   <v>      -0.08991278       0.21548911      -0.23509122 </v>
   <v>      -0.01216464       0.04312929       0.05574701 </v>
   <v>      -0.03659726      -0.01652411       0.01123159 </v>
   <v>       0.10316766       0.01667131       0.02874872 </v>
   <v>      -0.01996269      -0.00657907       0.40883484 </v>
   <v>       0.02860829      -0.00809525      -0.00839259 </v>
   <v>      -0.28064718      -0.12872670      -0.37491758 </v>
   <v>      -0.01828812       0.01649526       0.07879513 </v>
   <v>       0.02055081       0.01494826       0.07945944 </v>
   <v>      -0.03848571       0.01599119      -0.01379820 </v>
   <v>       0.05964819      -0.01771955       0.52551248 </v>
   <v>      -0.00760885       0.00340784      -0.03159763 </v>
   <v>       0.06796388       0.06724930      -0.19813516 </v>
   <v>       0.06347780       0.03844738      -0.04132494 </v>
   <v>      -0.03442514       0.01848655      -0.04409969 </v>
   <v>      -0.07289464       0.09819589       0.04042673 </v>
   <v>       0.02181862      -0.02488694      -0.01108963 </v>
   <v>       0.17380102       0.09744820      -0.34520152 </v>
   <v>      -0.02788515      -0.02536061       0.21186093 </v>
   <v>      -0.00573035      -0.03492114       0.09945654 </v>
   <v>       0.01709036      -0.01526287       0.00278267 </v>
   <v>       0.14940089      -0.01675185       0.36212939 </v>
   <v>       0.00516481       0.01446938      -0.00790504 </v>
   <v>      -0.26474227       0.04036277      -0.47417343 </v>
   <v>      -0.01768895      -0.08277066      -0.05276947 </v>
   <v>       0.02783378      -0.03756303      -0.09741932 </v>
   <v>       0.01463023       0.02537585       0.01293673 </v>
   <v>       0.32589217      -0.00664193      -0.32715653 </v>
   <v>      -0.00260171      -0.00609827       0.21833230 </v>
   <v>      -0.00200934      -0.05700699      -0.06568458 </v>
   <v>       0.04064582       0.09855904       0.04699343 </v>
   <v>      -0.01112323       0.00770767       0.00613616 </v>
   <v>      -0.12495097       0.00419884       0.41042018 </v>
   <v>       0.00083560       0.00647417       0.01473714 </v>
   <v>       0.04236186      -0.08064424       0.07568089 </v>
   <v>      -0.00654949       0.06167664       0.04709559 </v>
   <v>      -0.07908164       0.00202667      -0.02632782 </v>
   <v>       0.11125055       0.02927348       0.38528929 </v>
   <v>      -0.01993584       0.00289883      -0.02821916 </v>
   <v>      -0.25166640       0.16356495      -0.32918708 </v>
   <v>      -0.03060608       0.02614397       0.14065817 </v>
   <v>       0.01962608       0.03256355       0.02694242 </v>
   <v>       0.05318624       0.02630518      -0.06833323 </v>
   <v>      -0.00271852       0.01674646       0.04046089 </v>
   <v>      -0.00831297      -0.10911724      -0.06535385 </v>
   <v>       0.00955015      -0.01060588      -0.11725553 </v>
   <v>      -0.01223574      -0.07009376       0.16054813 </v>
   <v>      -0.07408316       0.00509988       0.40434956 </v>
   <v>      -0.00091461      -0.02893065      -0.00625711 </v>
   <v>       0.22766360      -0.09249540      -0.27334809 </v>
   <v>       0.00958534      -0.03093476       0.01265958 </v>
   <v>       0.06180450      -0.09660849      -0.16443133 </v>
   <v>      -0.01009833       0.03253846      -0.03307290 </v>
   <v>      -0.02032185      -0.01379840      -0.04440105 </v>
  </varray>
  <varray name="stress" >
   <v>     -19.90998299       0.14094880      -0.20827595 </v>
   <v>       0.14094871     -20.41286471       0.11260129 </v>
   <v>      -0.20827536       0.11260186      -4.68255448 </v>
  </varray>
  <energy>
   <i name="e_fr_energy">   -506.73172869 </i>
   <i name="e_wo_entrp">   -506.74947952 </i>
   <i name="e_0_energy">   -506.73764564 </i>
  </energy>
  <time name="totalsc">  105.12  106.01</time>
 </calculation>
 <calculation>
  <scstep>
   <time name="dav">   15.69   15.91</time>
   <time name="total">   16.63   16.85</time>
   <dipole>
    <v name="dipole">      0.00000000       0.00000000      -0.01526680 </v>
    <i name="Tr[quadrupol]">  -7050.71706048 </i>
    <i name="Echarged">      0.00000000 </i>
    <i name="Edipol_quadrupol">      0.00000000 </i>
    <i name="Eion">      0.00000000 </i>
   </dipole>
   <energy>
    <i name="alphaZ">   1807.29135657 </i>
    <i name="ewald"> 206417.22468819 </i>
    <i name="hartreedc">-256652.42656115 </i>
    <i name="XCdc">    951.42858830 </i>
    <i name="pawpsdc">  54580.74343885 </i>
    <i name="pawaedc"> -55661.41734317 </i>
    <i name="eentropy">      0.01758938 </i>
    <i name="bandstr">  -4155.24959048 </i>
    <i name="atom">  52205.67765473 </i>
    <i name="e_fr_energy">   -506.71017878 </i>
    <i name="e_wo_entrp">   -506.72776816 </i>
    <i name="e_0_energy">   -506.71604191 </i>
   </energy>
  </scstep>
  <scstep>
   <time name="diag">    1.94    1.97</time>
   <time name="diis">    9.79    9.92</time>
   <time name="orth">    0.44    0.44</time>
   <time name="total">   13.13   13.30</time>
   <dipole>
    <v name="dipole">      0.00000000       0.00000000      -0.01459211 </v>
    <i name="Tr[quadrupol]">  -7050.72996597 </i>
    <i name="Echarged">      0.00000000 </i>
    <i name="Edipol_quadrupol">      0.00000000 </i>
    <i name="Eion">      0.00000000 </i>
   </dipole>
   <energy>
    <i name="e_fr_energy">   -506.72625879 </i>
    <i name="e_wo_entrp">   -506.74412366 </i>
    <i name="e_0_energy">   -506.73221375 </i>
   </energy>
  </scstep>
  <scstep>
   <time name="diag">    1.95    1.98</time>
   <time name="diis">   12.04   12.21</time>
   <time name="orth">    0.44    0.44</time>
   <time name="total">   15.37   15.58</time>
   <dipole>
    <v name="dipole">      0.00000000       0.00000000      -0.02481586 </v>
    <i name="Tr[quadrupol]">  -7050.68252284 </i>
    <i name="Echarged">      0.00000000 </i>
    <i name="Edipol_quadrupol">      0.00000000 </i>
    <i name="Eion">      0.00000000 </i>
   </dipole>
   <energy>
    <i name="e_fr_energy">   -506.73406487 </i>
    <i name="e_wo_entrp">   -506.75031216 </i>
    <i name="e_0_energy">   -506.73948063 </i>
   </energy>
  </scstep>
  <scstep>
   <time name="diag">    1.92    1.95</time>
   <time name="diis">   11.20   11.32</time>
   <time name="orth">    0.44    0.44</time>
   <time name="total">   14.51   14.66</time>
   <dipole>
    <v name="dipole">      0.00000000       0.00000000      -0.00768241 </v>
    <i name="Tr[quadrupol]">  -7050.71091325 </i>
    <i name="Echarged">      0.00000000 </i>
    <i name="Edipol_quadrupol">      0.00000000 </i>
    <i name="Eion">      0.00000000 </i>
   </dipole>
   <energy>
    <i name="e_fr_energy">   -506.73318975 </i>
    <i name="e_wo_entrp">   -506.75180211 </i>
    <i name="e_0_energy">   -506.73939387 </i>
   </energy>
  </scstep>
  <scstep>
   <time name="diag">    1.94    1.96</time>
   <time name="diis">    9.55    9.68</time>
   <time name="orth">    0.44    0.44</time>
   <time name="total">   12.88   13.05</time>
   <dipole>
    <v name="dipole">      0.00000000       0.00000000      -0.01671234 </v>
    <i name="Tr[quadrupol]">  -7050.73490563 </i>
    <i name="Echarged">      0.00000000 </i>
    <i name="Edipol_quadrupol">      0.00000000 </i>
    <i name="Eion">      0.00000000 </i>
   </dipole>
   <energy>
    <i name="e_fr_energy">   -506.73287876 </i>
    <i name="e_wo_entrp">   -506.75040127 </i>
    <i name="e_0_energy">   -506.73871959 </i>
   </energy>
  </scstep>
  <scstep>
   <time name="diag">    1.96    1.98</time>
   <time name="diis">    9.07    9.19</time>
   <time name="orth">    0.44    0.44</time>
   <time name="total">   12.40   12.56</time>
   <dipole>
    <v name="dipole">      0.00000000       0.00000000      -0.01485472 </v>
    <i name="Tr[quadrupol]">  -7050.70628279 </i>
    <i name="Echarged">      0.00000000 </i>
    <i name="Edipol_quadrupol">      0.00000000 </i>
    <i name="Eion">      0.00000000 </i>
   </dipole>
   <energy>
    <i name="e_fr_energy">   -506.73327425 </i>
    <i name="e_wo_entrp">   -506.75098677 </i>
    <i name="e_0_energy">   -506.73917843 </i>
   </energy>
  </scstep>
  <scstep>
   <time name="diag">    1.95    1.97</time>
   <time name="diis">    9.67    9.75</time>
   <time name="orth">    0.44    0.44</time>
   <time name="total">   12.99   13.10</time>
   <dipole>
    <v name="dipole">      0.00000000       0.00000000      -0.01564219 </v>
    <i name="Tr[quadrupol]">  -7050.71759890 </i>
    <i name="Echarged">      0.00000000 </i>
    <i name="Edipol_quadrupol">      0.00000000 </i>
    <i name="Eion">      0.00000000 </i>
   </dipole>
   <energy>
    <i name="e_fr_energy">   -506.73346064 </i>
    <i name="e_wo_entrp">   -506.75102267 </i>
    <i name="e_0_energy">   -506.73931465 </i>
   </energy>
  </scstep>
  <scstep>
   <time name="diag">    1.97    1.98</time>
   <time name="diis">    9.71    9.83</time>
   <time name="orth">    0.44    0.44</time>
   <time name="total">   13.05   13.19</time>
   <dipole>
    <v name="dipole">      0.00000000       0.00000000      -0.01518484 </v>
    <i name="Tr[quadrupol]">  -7050.71850479 </i>
    <i name="Echarged">      0.00000000 </i>
    <i name="Edipol_quadrupol">      0.00000000 </i>
    <i name="Eion">      0.00000000 </i>
   </dipole>
   <energy>
    <i name="e_fr_energy">   -506.73344356 </i>
    <i name="e_wo_entrp">   -506.75109108 </i>
    <i name="e_0_energy">   -506.73932607 </i>
   </energy>
  </scstep>
  <scstep>
   <time name="diag">    1.97    1.99</time>
   <time name="diis">    8.19    8.23</time>
   <time name="orth">    0.44    0.45</time>
   <time name="total">   11.54   11.61</time>
   <dipole>
    <v name="dipole">      0.00000000       0.00000000      -0.01530875 </v>
    <i name="Tr[quadrupol]">  -7050.71905307 </i>
    <i name="Echarged">      0.00000000 </i>
    <i name="Edipol_quadrupol">      0.00000000 </i>
    <i name="Eion">      0.00000000 </i>
   </dipole>
   <energy>
    <i name="e_fr_energy">   -506.73342054 </i>
    <i name="e_wo_entrp">   -506.75106211 </i>
    <i name="e_0_energy">   -506.73930106 </i>
   </energy>
  </scstep>
  <scstep>
   <time name="diag">    1.95    1.97</time>
   <time name="diis">    8.84    8.95</time>
   <time name="orth">    0.44    0.44</time>
   <time name="total">   12.17   12.33</time>
   <dipole>
    <v name="dipole">      0.00000000       0.00000000      -0.01520204 </v>
    <i name="Tr[quadrupol]">  -7050.71915452 </i>
    <i name="Echarged">      0.00000000 </i>
    <i name="Edipol_quadrupol">      0.00000000 </i>
    <i name="Eion">      0.00000000 </i>
   </dipole>
   <energy>
    <i name="e_fr_energy">   -506.73341569 </i>
    <i name="e_wo_entrp">   -506.75108242 </i>
    <i name="e_0_energy">   -506.73930460 </i>
   </energy>
  </scstep>
  <scstep>
   <time name="diag">    1.97    1.99</time>
   <time name="diis">    6.24    6.30</time>
   <time name="orth">    0.44    0.44</time>
   <time name="total">    9.60    9.68</time>
   <dipole>
    <v name="dipole">      0.00000000       0.00000000      -0.01507283 </v>
    <i name="Tr[quadrupol]">  -7050.72176066 </i>
    <i name="Echarged">      0.00000000 </i>
    <i name="Edipol_quadrupol">      0.00000000 </i>
    <i name="Eion">      0.00000000 </i>
   </dipole>
   <energy>
    <i name="e_fr_energy">   -506.73342671 </i>
    <i name="e_wo_entrp">   -506.75110450 </i>
    <i name="e_0_energy">   -506.73931931 </i>
   </energy>
  </scstep>
  <scstep>
   <time name="diag">    1.93    1.95</time>
   <time name="diis">    5.11    5.16</time>
   <time name="orth">    0.43    0.44</time>
   <time name="total">    7.88    7.96</time>
   <dipole>
    <v name="dipole">      0.00000000       0.00000000      -0.01500007 </v>
    <i name="Tr[quadrupol]">  -7050.72137875 </i>
    <i name="Echarged">      0.00000000 </i>
    <i name="Edipol_quadrupol">      0.00000000 </i>
    <i name="Eion">      0.00000000 </i>
   </dipole>
   <energy>
    <i name="alphaZ">   1807.42158410 </i>
    <i name="ewald"> 206417.22468819 </i>
    <i name="hartreedc">-256652.70682559 </i>
    <i name="XCdc">    951.40388671 </i>
    <i name="pawpsdc">  54587.52256661 </i>
    <i name="pawaedc"> -55668.23207998 </i>
    <i name="eentropy">      0.01766453 </i>
    <i name="bandstr">  -4155.06256800 </i>
    <i name="atom">  52205.67765473 </i>
    <i name="e_fr_energy">   -506.73342869 </i>
    <i name="e_wo_entrp">   -506.75109323 </i>
    <i name="e_0_energy">   -506.73931687 </i>
   </energy>
  </scstep>
  <structure>
   <crystal>
    <varray name="basis" >
     <v>       8.50460000       0.00000000       0.00000000 </v>
     <v>      -0.00109899       8.50909993       0.00000000 </v>
     <v>       0.00000000       0.00000000      23.55660000 </v>
    </varray>
    <i name="volume">   1704.70848813 </i>
    <varray name="rec_basis" >
     <v>       0.11758343       0.00001519       0.00000000 </v>
     <v>       0.00000000       0.11752124       0.00000000 </v>
     <v>       0.00000000       0.00000000       0.04245095 </v>
    </varray>
   </crystal>
   <varray name="positions" >
    <v>       0.99760000       0.00330000       0.24221000 </v>
    <v>       0.66561000       0.99834000       0.00060000 </v>
    <v>       0.65808000       0.99011945       0.36924746 </v>
    <v>       0.83467000       0.16589000       0.18209000 </v>
    <v>       0.99866000       0.33404000       0.12198000 </v>
    <v>       0.33421000       0.33147000       0.00101000 </v>
    <v>       0.33466961       0.32227157       0.36520853 </v>
    <v>       0.83220000       0.50025000       0.06275000 </v>
    <v>       0.83432545       0.49656378       0.30344992 </v>
    <v>       0.33512000       0.67037000       0.00000000 </v>
    <v>       0.33145000       0.66488000       0.12292000 </v>
    <v>       0.50382224       0.83684302       0.30432178 </v>
    <v>       0.67111000       0.66550000       0.12148000 </v>
    <v>       0.99950000       0.00032000       0.00103000 </v>
    <v>       0.00281555       0.99733446       0.36064249 </v>
    <v>       0.16670000       0.16592000       0.06160000 </v>
    <v>       0.99930000       0.00013000       0.12183000 </v>
    <v>       0.16670000       0.16692000       0.18170000 </v>
    <v>       0.16304524       0.16686636       0.30371625 </v>
    <v>       0.33368000       0.99986000       0.00108000 </v>
    <v>       0.32777080       0.00994691       0.36217865 </v>
    <v>       0.50008000       0.16606000       0.06164000 </v>
    <v>       0.33365000       0.99945000       0.12194000 </v>
    <v>       0.50013000       0.16657000       0.18176000 </v>
    <v>       0.33374000       0.99994000       0.24252000 </v>
    <v>       0.50096515       0.16899278       0.30325123 </v>
    <v>       0.83412000       0.16807000       0.06130000 </v>
    <v>       0.66767000       0.99972000       0.12168000 </v>
    <v>       0.66792000       0.00032000       0.24233000 </v>
    <v>       0.83324017       0.16726151       0.30391439 </v>
    <v>       0.00033000       0.33346000       0.00076000 </v>
    <v>       0.00442006       0.33499901       0.36244020 </v>
    <v>       0.16704000       0.50116000       0.06077000 </v>
    <v>       0.16627000       0.49940000       0.18238000 </v>
    <v>       0.00000000       0.33319000       0.24260000 </v>
    <v>       0.16713061       0.50058750       0.30370303 </v>
    <v>       0.49811000       0.50186000       0.06112000 </v>
    <v>       0.33328000       0.33434000       0.12148000 </v>
    <v>       0.50051000       0.50053000       0.18145000 </v>
    <v>       0.33392000       0.33269000       0.24229000 </v>
    <v>       0.50053372       0.50299668       0.30373695 </v>
    <v>       0.66687000       0.33418000       0.00129000 </v>
    <v>       0.66266907       0.33469067       0.36185328 </v>
    <v>       0.66670000       0.33332000       0.12177000 </v>
    <v>       0.83466000       0.49916000       0.18181000 </v>
    <v>       0.66748000       0.33291000       0.24234000 </v>
    <v>       0.99949000       0.66581000       0.00112000 </v>
    <v>       0.99008490       0.66636779       0.36182979 </v>
    <v>       0.16773000       0.83295000       0.06141000 </v>
    <v>       0.00149000       0.66672000       0.12196000 </v>
    <v>       0.16592000       0.83389000       0.18235000 </v>
    <v>       0.99950000       0.66635000       0.24245000 </v>
    <v>       0.16840666       0.83186660       0.30361650 </v>
    <v>       0.49825000       0.83185000       0.06189000 </v>
    <v>       0.50064000       0.83335000       0.18189000 </v>
    <v>       0.33424000       0.66627000       0.24239000 </v>
    <v>       0.66521000       0.66629000       0.00100000 </v>
    <v>       0.68011475       0.65518620       0.36259876 </v>
    <v>       0.83382000       0.83268000       0.06128000 </v>
    <v>       0.83390000       0.83311000       0.18191000 </v>
    <v>       0.66721000       0.66675000       0.24221000 </v>
    <v>       0.83499618       0.83137510       0.30286198 </v>
    <v>       0.33321859       0.67081466       0.39630297 </v>
   </varray>
  </structure>
  <varray name="forces" >
   <v>      -0.02621044      -0.10573757      -0.01132840 </v>
   <v>       0.04858016       0.04094924      -0.18490886 </v>
   <v>      -0.01612163       0.00311613      -0.01110555 </v>
   <v>       0.04049051       0.18536706      -0.08943954 </v>
   <v>      -0.08798065      -0.06349135       0.17089261 </v>
   <v>      -0.04603553      -0.32682131      -0.10323258 </v>
   <v>       0.01083861       0.00612656      -0.01051263 </v>
   <v>      -0.01321130       0.02930484      -0.16617768 </v>
   <v>       0.00611317      -0.01986569      -0.01896146 </v>
   <v>      -0.08998348       0.21547183      -0.23497288 </v>
   <v>      -0.01171499       0.04355121       0.05490750 </v>
   <v>      -0.01609794       0.00183140       0.01505130 </v>
   <v>       0.10320971       0.01660902       0.02905778 </v>
   <v>      -0.01962070      -0.00669809       0.40934145 </v>
   <v>       0.01404072       0.00158258      -0.00499933 </v>
   <v>      -0.28046630      -0.12897414      -0.37583102 </v>
   <v>      -0.01786333       0.01633576       0.07953579 </v>
   <v>       0.02137965       0.01557623       0.07616070 </v>
   <v>      -0.00656934      -0.00367670      -0.00436197 </v>
   <v>       0.05950683      -0.01793279       0.52624322 </v>
   <v>      -0.00308724       0.00070186       0.00494106 </v>
   <v>       0.06773284       0.06636374      -0.19899026 </v>
   <v>       0.06387711       0.03846455      -0.04196204 </v>
   <v>      -0.03494491       0.01824882      -0.04613755 </v>
   <v>      -0.07781095       0.10680938       0.03769226 </v>
   <v>       0.01047829      -0.00486824      -0.00640775 </v>
   <v>       0.17387602       0.09749867      -0.34642189 </v>
   <v>      -0.02859660      -0.02567743       0.21158082 </v>
   <v>      -0.00994474      -0.03105266       0.09166166 </v>
   <v>      -0.00078393      -0.00197214       0.00338002 </v>
   <v>       0.14909238      -0.01727893       0.36273005 </v>
   <v>      -0.00193802       0.01737157       0.00421819 </v>
   <v>      -0.26490609       0.04031405      -0.47434431 </v>
   <v>      -0.01738822      -0.08183723      -0.05546627 </v>
   <v>       0.02725976      -0.03599000      -0.11616529 </v>
   <v>       0.01234315       0.02467579       0.00124034 </v>
   <v>       0.32582793      -0.00656448      -0.32769102 </v>
   <v>      -0.00271304      -0.00604373       0.21909134 </v>
   <v>      -0.00290625      -0.05740518      -0.06925180 </v>
   <v>       0.04224124       0.10004118       0.04499298 </v>
   <v>      -0.01531314       0.00091711       0.00824943 </v>
   <v>      -0.12492160       0.00445532       0.41054278 </v>
   <v>       0.00180607       0.00314874      -0.00340239 </v>
   <v>       0.04323291      -0.08032201       0.07613634 </v>
   <v>      -0.00609384       0.06175677       0.04095616 </v>
   <v>      -0.07571282      -0.00413994      -0.02759838 </v>
   <v>       0.11153844       0.02966581       0.38535148 </v>
   <v>      -0.01710781       0.00762468      -0.01301557 </v>
   <v>      -0.25196165       0.16357415      -0.33031988 </v>
   <v>      -0.03079408       0.02614628       0.14097731 </v>
   <v>       0.02042321       0.03201548       0.02640166 </v>
   <v>       0.05282696       0.03403314      -0.07227263 </v>
   <v>       0.00669761      -0.01339836       0.01317855 </v>
   <v>      -0.00875683      -0.10871829      -0.06559620 </v>
   <v>       0.00782689      -0.01086437      -0.11906951 </v>
   <v>      -0.02086929      -0.06643161       0.16127515 </v>
   <v>      -0.07390830       0.00513747       0.40440061 </v>
   <v>       0.00129435      -0.01901466      -0.00482187 </v>
   <v>       0.22729950      -0.09254649      -0.27407915 </v>
   <v>       0.00968255      -0.03178214       0.00884518 </v>
   <v>       0.06576116      -0.09492831      -0.16960741 </v>
   <v>      -0.00350115       0.00875507      -0.02421706 </v>
   <v>      -0.01944160       0.00049235      -0.01636361 </v>
  </varray>
  <varray name="stress" >
   <v>     -19.79253922       0.13532316      -0.20518899 </v>
   <v>       0.13532270     -20.32221808       0.07914557 </v>
   <v>      -0.20518897       0.07914486      -4.50618944 </v>
  </varray>
  <energy>
   <i name="e_fr_energy">   -506.73342869 </i>
   <i name="e_wo_entrp">   -506.75109323 </i>
   <i name="e_0_energy">   -506.73931687 </i>
  </energy>
  <time name="totalsc">  168.61  170.52</time>
 </calculation>
 <calculation>
  <scstep>
   <time name="dav">   15.79   15.91</time>
   <time name="total">   16.75   16.87</time>
   <dipole>
    <v name="dipole">      0.00000000       0.00000000      -0.01493209 </v>
    <i name="Tr[quadrupol]">  -7050.81315944 </i>
    <i name="Echarged">      0.00000000 </i>
    <i name="Edipol_quadrupol">      0.00000000 </i>
    <i name="Eion">      0.00000000 </i>
   </dipole>
   <energy>
    <i name="alphaZ">   1807.48443623 </i>
    <i name="ewald"> 206461.24294929 </i>
    <i name="hartreedc">-256696.43092489 </i>
    <i name="XCdc">    951.42186814 </i>
    <i name="pawpsdc">  54587.73986806 </i>
    <i name="pawaedc"> -55668.44868259 </i>
    <i name="eentropy">      0.01755070 </i>
    <i name="bandstr">  -4155.43429134 </i>
    <i name="atom">  52205.67765473 </i>
    <i name="e_fr_energy">   -506.72957168 </i>
    <i name="e_wo_entrp">   -506.74712238 </i>
    <i name="e_0_energy">   -506.73542191 </i>
   </energy>
  </scstep>
  <scstep>
   <time name="diag">    1.95    1.96</time>
   <time name="diis">    9.70    9.83</time>
   <time name="orth">    0.44    0.44</time>
   <time name="total">   13.01   13.18</time>
   <dipole>
    <v name="dipole">      0.00000000       0.00000000      -0.01367232 </v>
    <i name="Tr[quadrupol]">  -7050.81423194 </i>
    <i name="Echarged">      0.00000000 </i>
    <i name="Edipol_quadrupol">      0.00000000 </i>
    <i name="Eion">      0.00000000 </i>
   </dipole>
   <energy>
    <i name="e_fr_energy">   -506.73234647 </i>
    <i name="e_wo_entrp">   -506.75014394 </i>
    <i name="e_0_energy">   -506.73827896 </i>
   </energy>
  </scstep>
  <scstep>
   <time name="diag">    1.95    1.97</time>
   <time name="diis">   12.36   12.45</time>
   <time name="orth">    0.44    0.44</time>
   <time name="total">   15.67   15.80</time>
   <dipole>
    <v name="dipole">      0.00000000       0.00000000      -0.02501881 </v>
    <i name="Tr[quadrupol]">  -7050.79744211 </i>
    <i name="Echarged">      0.00000000 </i>
    <i name="Edipol_quadrupol">      0.00000000 </i>
    <i name="Eion">      0.00000000 </i>
   </dipole>
   <energy>
    <i name="e_fr_energy">   -506.73592552 </i>
    <i name="e_wo_entrp">   -506.75209903 </i>
    <i name="e_0_energy">   -506.74131669 </i>
   </energy>
  </scstep>
  <scstep>
   <time name="diag">    1.95    1.96</time>
   <time name="diis">    8.93    8.98</time>
   <time name="orth">    0.44    0.44</time>
   <time name="total">   12.26   12.32</time>
   <dipole>
    <v name="dipole">      0.00000000       0.00000000      -0.01430664 </v>
    <i name="Tr[quadrupol]">  -7050.80398762 </i>
    <i name="Echarged">      0.00000000 </i>
    <i name="Edipol_quadrupol">      0.00000000 </i>
    <i name="Eion">      0.00000000 </i>
   </dipole>
   <energy>
    <i name="e_fr_energy">   -506.73320466 </i>
    <i name="e_wo_entrp">   -506.75083967 </i>
    <i name="e_0_energy">   -506.73908300 </i>
   </energy>
  </scstep>
  <scstep>
   <time name="diag">    1.95    1.96</time>
   <time name="diis">   10.07   10.17</time>
   <time name="orth">    0.44    0.44</time>
   <time name="total">   13.39   13.51</time>
   <dipole>
    <v name="dipole">      0.00000000       0.00000000      -0.01516157 </v>
    <i name="Tr[quadrupol]">  -7050.81961406 </i>
    <i name="Echarged">      0.00000000 </i>
    <i name="Edipol_quadrupol">      0.00000000 </i>
    <i name="Eion">      0.00000000 </i>
   </dipole>
   <energy>
    <i name="e_fr_energy">   -506.73349838 </i>
    <i name="e_wo_entrp">   -506.75108309 </i>
    <i name="e_0_energy">   -506.73935995 </i>
   </energy>
  </scstep>
  <scstep>
   <time name="diag">    1.94    1.96</time>
   <time name="diis">    9.28    9.41</time>
   <time name="orth">    0.44    0.44</time>
   <time name="total">   12.60   12.76</time>
   <dipole>
    <v name="dipole">      0.00000000       0.00000000      -0.01451610 </v>
    <i name="Tr[quadrupol]">  -7050.80479327 </i>
    <i name="Echarged">      0.00000000 </i>
    <i name="Edipol_quadrupol">      0.00000000 </i>
    <i name="Eion">      0.00000000 </i>
   </dipole>
   <energy>
    <i name="e_fr_energy">   -506.73356322 </i>
    <i name="e_wo_entrp">   -506.75119758 </i>
    <i name="e_0_energy">   -506.73944134 </i>
   </energy>
  </scstep>
  <scstep>
   <time name="diag">    1.96    1.97</time>
   <time name="diis">    7.22    7.32</time>
   <time name="orth">    0.44    0.44</time>
   <time name="total">   10.56   10.69</time>
   <dipole>
    <v name="dipole">      0.00000000       0.00000000      -0.01503565 </v>
    <i name="Tr[quadrupol]">  -7050.80831128 </i>
    <i name="Echarged">      0.00000000 </i>
    <i name="Edipol_quadrupol">      0.00000000 </i>
    <i name="Eion">      0.00000000 </i>
   </dipole>
   <energy>
    <i name="e_fr_energy">   -506.73359242 </i>
    <i name="e_wo_entrp">   -506.75114163 </i>
    <i name="e_0_energy">   -506.73944215 </i>
   </energy>
  </scstep>
  <scstep>
   <time name="diag">    1.93    1.95</time>
   <time name="diis">    5.42    5.49</time>
   <time name="orth">    0.44    0.44</time>
   <time name="total">    8.20    8.30</time>
   <dipole>
    <v name="dipole">      0.00000000       0.00000000      -0.01494000 </v>
    <i name="Tr[quadrupol]">  -7050.80855984 </i>
    <i name="Echarged">      0.00000000 </i>
    <i name="Edipol_quadrupol">      0.00000000 </i>
    <i name="Eion">      0.00000000 </i>
   </dipole>
   <energy>
    <i name="alphaZ">   1807.29693846 </i>
    <i name="ewald"> 206461.24294929 </i>
    <i name="hartreedc">-256696.55043987 </i>
    <i name="XCdc">    951.41781586 </i>
    <i name="pawpsdc">  54589.09186857 </i>
    <i name="pawaedc"> -55669.81265472 </i>
    <i name="eentropy">      0.01757377 </i>
    <i name="bandstr">  -4155.11529850 </i>
    <i name="atom">  52205.67765473 </i>
    <i name="e_fr_energy">   -506.73359241 </i>
    <i name="e_wo_entrp">   -506.75116618 </i>
    <i name="e_0_energy">   -506.73945033 </i>
   </energy>
  </scstep>
  <structure>
   <crystal>
    <varray name="basis" >
     <v>       8.50460000       0.00000000       0.00000000 </v>
     <v>      -0.00109899       8.50909993       0.00000000 </v>
     <v>       0.00000000       0.00000000      23.55660000 </v>
    </varray>
    <i name="volume">   1704.70848813 </i>
    <varray name="rec_basis" >
     <v>       0.11758343       0.00001519       0.00000000 </v>
     <v>       0.00000000       0.11752124       0.00000000 </v>
     <v>       0.00000000       0.00000000       0.04245095 </v>
    </varray>
   </crystal>
   <varray name="positions" >
    <v>       0.99760000       0.00330000       0.24221000 </v>
    <v>       0.66561000       0.99834000       0.00060000 </v>
    <v>       0.65801560       0.99017919       0.36921705 </v>
    <v>       0.83467000       0.16589000       0.18209000 </v>
    <v>       0.99866000       0.33404000       0.12198000 </v>
    <v>       0.33421000       0.33147000       0.00101000 </v>
    <v>       0.33473154       0.32251398       0.36524069 </v>
    <v>       0.83220000       0.50025000       0.06275000 </v>
    <v>       0.83445925       0.49645799       0.30336124 </v>
    <v>       0.33512000       0.67037000       0.00000000 </v>
    <v>       0.33145000       0.66488000       0.12292000 </v>
    <v>       0.50368827       0.83673440       0.30429558 </v>
    <v>       0.67111000       0.66550000       0.12148000 </v>
    <v>       0.99950000       0.00032000       0.00103000 </v>
    <v>       0.00294848       0.99723252       0.36065656 </v>
    <v>       0.16670000       0.16592000       0.06160000 </v>
    <v>       0.99930000       0.00013000       0.12183000 </v>
    <v>       0.16670000       0.16692000       0.18170000 </v>
    <v>       0.16287301       0.16706247       0.30368462 </v>
    <v>       0.33368000       0.99986000       0.00108000 </v>
    <v>       0.32773107       0.01008742       0.36205880 </v>
    <v>       0.50008000       0.16606000       0.06164000 </v>
    <v>       0.33365000       0.99945000       0.12194000 </v>
    <v>       0.50013000       0.16657000       0.18176000 </v>
    <v>       0.33374000       0.99994000       0.24252000 </v>
    <v>       0.50101731       0.16895682       0.30323249 </v>
    <v>       0.83412000       0.16807000       0.06130000 </v>
    <v>       0.66767000       0.99972000       0.12168000 </v>
    <v>       0.66792000       0.00032000       0.24233000 </v>
    <v>       0.83333878       0.16719530       0.30391177 </v>
    <v>       0.00033000       0.33346000       0.00076000 </v>
    <v>       0.00444240       0.33510169       0.36241245 </v>
    <v>       0.16704000       0.50116000       0.06077000 </v>
    <v>       0.16627000       0.49940000       0.18238000 </v>
    <v>       0.00000000       0.33319000       0.24260000 </v>
    <v>       0.16715948       0.50062485       0.30369489 </v>
    <v>       0.49811000       0.50186000       0.06112000 </v>
    <v>       0.33328000       0.33434000       0.12148000 </v>
    <v>       0.50051000       0.50053000       0.18145000 </v>
    <v>       0.33392000       0.33269000       0.24229000 </v>
    <v>       0.50059043       0.50298004       0.30370456 </v>
    <v>       0.66687000       0.33418000       0.00129000 </v>
    <v>       0.66270523       0.33471473       0.36188780 </v>
    <v>       0.66670000       0.33332000       0.12177000 </v>
    <v>       0.83466000       0.49916000       0.18181000 </v>
    <v>       0.66748000       0.33291000       0.24234000 </v>
    <v>       0.99949000       0.66581000       0.00112000 </v>
    <v>       0.98986048       0.66637526       0.36175025 </v>
    <v>       0.16773000       0.83295000       0.06141000 </v>
    <v>       0.00149000       0.66672000       0.12196000 </v>
    <v>       0.16592000       0.83389000       0.18235000 </v>
    <v>       0.99950000       0.66635000       0.24245000 </v>
    <v>       0.16829863       0.83205668       0.30363395 </v>
    <v>       0.49825000       0.83185000       0.06189000 </v>
    <v>       0.50064000       0.83335000       0.18189000 </v>
    <v>       0.33424000       0.66627000       0.24239000 </v>
    <v>       0.66521000       0.66629000       0.00100000 </v>
    <v>       0.68018441       0.65497012       0.36255724 </v>
    <v>       0.83382000       0.83268000       0.06128000 </v>
    <v>       0.83390000       0.83311000       0.18191000 </v>
    <v>       0.66721000       0.66675000       0.24221000 </v>
    <v>       0.83491961       0.83153940       0.30281358 </v>
    <v>       0.33305176       0.67070179       0.39613163 </v>
   </varray>
  </structure>
  <varray name="forces" >
   <v>      -0.02562098      -0.10466928      -0.01360640 </v>
   <v>       0.04855540       0.04104930      -0.18498262 </v>
   <v>      -0.01231593      -0.00384790      -0.00765071 </v>
   <v>       0.03988915       0.18512412      -0.09022410 </v>
   <v>      -0.08779517      -0.06320587       0.17150819 </v>
   <v>      -0.04602765      -0.32662554      -0.10320757 </v>
   <v>       0.01052430      -0.01031565      -0.02034671 </v>
   <v>      -0.01342514       0.02913581      -0.16534632 </v>
   <v>       0.00112845      -0.01791748      -0.01812602 </v>
   <v>      -0.09016030       0.21533900      -0.23500512 </v>
   <v>      -0.01168465       0.04382732       0.05488979 </v>
   <v>      -0.00762532       0.00925129       0.01181209 </v>
   <v>       0.10294952       0.01700976       0.02970895 </v>
   <v>      -0.01960111      -0.00672318       0.40932237 </v>
   <v>       0.00792370       0.00575506      -0.00352822 </v>
   <v>      -0.28015785      -0.12901630      -0.37527544 </v>
   <v>      -0.01791283       0.01631259       0.08016969 </v>
   <v>       0.02170435       0.01584774       0.07574120 </v>
   <v>       0.00572915      -0.00897555      -0.00002057 </v>
   <v>       0.05956344      -0.01791990       0.52621864 </v>
   <v>      -0.00104179       0.00186131       0.01693393 </v>
   <v>       0.06759269       0.06601083      -0.19864423 </v>
   <v>       0.06407628       0.03855421      -0.04207504 </v>
   <v>      -0.03518387       0.01827732      -0.04615027 </v>
   <v>      -0.07974441       0.11056304       0.03670830 </v>
   <v>       0.00575374       0.00456259      -0.00365800 </v>
   <v>       0.17369783       0.09731412      -0.34594265 </v>
   <v>      -0.02891105      -0.02572413       0.21199896 </v>
   <v>      -0.01214982      -0.02943108       0.08904144 </v>
   <v>      -0.00773343       0.00345531       0.00527348 </v>
   <v>       0.14894601      -0.01741584       0.36255025 </v>
   <v>      -0.00495517       0.01933364       0.00857902 </v>
   <v>      -0.26450424       0.04031321      -0.47375704 </v>
   <v>      -0.01720690      -0.08142918      -0.05586198 </v>
   <v>       0.02738589      -0.03545395      -0.12414294 </v>
   <v>       0.01024909       0.02360266      -0.00436663 </v>
   <v>       0.32543514      -0.00651128      -0.32724679 </v>
   <v>      -0.00272065      -0.00604032       0.22001130 </v>
   <v>      -0.00323992      -0.05760267      -0.06980867 </v>
   <v>       0.04298876       0.10068738       0.04453051 </v>
   <v>      -0.01464977      -0.00295054       0.00806350 </v>
   <v>      -0.12508950       0.00446101       0.41021657 </v>
   <v>       0.00320620       0.00210546      -0.01138426 </v>
   <v>       0.04348128      -0.08030998       0.07687965 </v>
   <v>      -0.00614484       0.06190407       0.03910965 </v>
   <v>      -0.07474544      -0.00680083      -0.02794450 </v>
   <v>       0.11164039       0.02982491       0.38505202 </v>
   <v>      -0.01813769       0.00932831      -0.00800201 </v>
   <v>      -0.25188333       0.16354876      -0.32976876 </v>
   <v>      -0.03090665       0.02641668       0.14163713 </v>
   <v>       0.02075549       0.03188728       0.02701574 </v>
   <v>       0.05282198       0.03779523      -0.07383735 </v>
   <v>       0.00882376      -0.02405152       0.00117117 </v>
   <v>      -0.00891863      -0.10845848      -0.06485814 </v>
   <v>       0.00728521      -0.01089640      -0.11888537 </v>
   <v>      -0.02465628      -0.06503139       0.16173587 </v>
   <v>      -0.07401105       0.00538427       0.40407352 </v>
   <v>       0.00357749      -0.01649175      -0.00628185 </v>
   <v>       0.22696665      -0.09236341      -0.27333756 </v>
   <v>       0.00961955      -0.03208564       0.00795335 </v>
   <v>       0.06730064      -0.09408839      -0.17123676 </v>
   <v>      -0.00219134      -0.00054398      -0.01975173 </v>
   <v>      -0.01851884       0.00705380      -0.00364394 </v>
  </varray>
  <varray name="stress" >
   <v>     -19.67994847       0.13334117      -0.19970902 </v>
   <v>       0.13334063     -20.22223024       0.05748132 </v>
   <v>      -0.19970912       0.05748083      -4.33679212 </v>
  </varray>
  <energy>
   <i name="e_fr_energy">   -506.73359241 </i>
   <i name="e_wo_entrp">   -506.75116618 </i>
   <i name="e_0_energy">   -506.73945033 </i>
  </energy>
  <time name="totalsc">  118.94  120.05</time>
 </calculation>
 <calculation>
  <scstep>
   <time name="dav">   16.00   16.15</time>
   <time name="total">   16.93   17.08</time>
   <dipole>
    <v name="dipole">      0.00000000       0.00000000      -0.01491416 </v>
    <i name="Tr[quadrupol]">  -7050.71785330 </i>
    <i name="Echarged">      0.00000000 </i>
    <i name="Edipol_quadrupol">      0.00000000 </i>
    <i name="Eion">      0.00000000 </i>
   </dipole>
   <energy>
    <i name="alphaZ">   1807.29720967 </i>
    <i name="ewald"> 206495.83388173 </i>
    <i name="hartreedc">-256731.04437687 </i>
    <i name="XCdc">    951.43229945 </i>
    <i name="pawpsdc">  54589.43425733 </i>
    <i name="pawaedc"> -55670.15724160 </i>
    <i name="eentropy">      0.01758273 </i>
    <i name="bandstr">  -4155.21818533 </i>
    <i name="atom">  52205.67765473 </i>
    <i name="e_fr_energy">   -506.72691817 </i>
    <i name="e_wo_entrp">   -506.74450090 </i>
    <i name="e_0_energy">   -506.73277908 </i>
   </energy>
  </scstep>
  <scstep>
   <time name="diag">    1.98    1.99</time>
   <time name="diis">    9.51    9.56</time>
   <time name="orth">    0.44    0.44</time>
   <time name="total">   12.85   12.92</time>
   <dipole>
    <v name="dipole">      0.00000000       0.00000000      -0.01518080 </v>
    <i name="Tr[quadrupol]">  -7050.72320964 </i>
    <i name="Echarged">      0.00000000 </i>
    <i name="Edipol_quadrupol">      0.00000000 </i>
    <i name="Eion">      0.00000000 </i>
   </dipole>
   <energy>
    <i name="e_fr_energy">   -506.73194246 </i>
    <i name="e_wo_entrp">   -506.74953254 </i>
    <i name="e_0_energy">   -506.73780582 </i>
   </energy>
  </scstep>
  <scstep>
   <time name="diag">    1.93    1.94</time>
   <time name="diis">   11.32   11.43</time>
   <time name="orth">    0.44    0.44</time>
   <time name="total">   14.63   14.77</time>
   <dipole>
    <v name="dipole">      0.00000000       0.00000000      -0.01356133 </v>
    <i name="Tr[quadrupol]">  -7050.70930264 </i>
    <i name="Echarged">      0.00000000 </i>
    <i name="Edipol_quadrupol">      0.00000000 </i>
    <i name="Eion">      0.00000000 </i>
   </dipole>
   <energy>
    <i name="e_fr_energy">   -506.73348898 </i>
    <i name="e_wo_entrp">   -506.75122032 </i>
    <i name="e_0_energy">   -506.73939942 </i>
   </energy>
  </scstep>
  <scstep>
   <time name="diag">    1.94    1.97</time>
   <time name="diis">   11.32   11.48</time>
   <time name="orth">    0.44    0.44</time>
   <time name="total">   14.63   14.83</time>
   <dipole>
    <v name="dipole">      0.00000000       0.00000000      -0.02205482 </v>
    <i name="Tr[quadrupol]">  -7050.71782606 </i>
    <i name="Echarged">      0.00000000 </i>
    <i name="Edipol_quadrupol">      0.00000000 </i>
    <i name="Eion">      0.00000000 </i>
   </dipole>
   <energy>
    <i name="e_fr_energy">   -506.73513951 </i>
    <i name="e_wo_entrp">   -506.75173343 </i>
    <i name="e_0_energy">   -506.74067081 </i>
   </energy>
  </scstep>
  <scstep>
   <time name="diag">    1.97    2.00</time>
   <time name="diis">    9.19    9.27</time>
   <time name="orth">    0.44    0.44</time>
   <time name="total">   12.53   12.64</time>
   <dipole>
    <v name="dipole">      0.00000000       0.00000000      -0.01299695 </v>
    <i name="Tr[quadrupol]">  -7050.73164962 </i>
    <i name="Echarged">      0.00000000 </i>
    <i name="Edipol_quadrupol">      0.00000000 </i>
    <i name="Eion">      0.00000000 </i>
   </dipole>
   <energy>
    <i name="e_fr_energy">   -506.73392242 </i>
    <i name="e_wo_entrp">   -506.75177675 </i>
    <i name="e_0_energy">   -506.73987386 </i>
   </energy>
  </scstep>
  <scstep>
   <time name="diag">    1.91    1.93</time>
   <time name="diis">    9.16    9.23</time>
   <time name="orth">    0.44    0.44</time>
   <time name="total">   12.46   12.56</time>
   <dipole>
    <v name="dipole">      0.00000000       0.00000000      -0.01418580 </v>
    <i name="Tr[quadrupol]">  -7050.70933892 </i>
    <i name="Echarged">      0.00000000 </i>
    <i name="Edipol_quadrupol">      0.00000000 </i>
    <i name="Eion">      0.00000000 </i>
   </dipole>
   <energy>
    <i name="e_fr_energy">   -506.73401629 </i>
    <i name="e_wo_entrp">   -506.75164040 </i>
    <i name="e_0_energy">   -506.73989099 </i>
   </energy>
  </scstep>
  <scstep>
   <time name="diag">    1.95    1.96</time>
   <time name="diis">    8.73    8.85</time>
   <time name="orth">    0.44    0.44</time>
   <time name="total">   12.06   12.21</time>
   <dipole>
    <v name="dipole">      0.00000000       0.00000000      -0.01468215 </v>
    <i name="Tr[quadrupol]">  -7050.71332943 </i>
    <i name="Echarged">      0.00000000 </i>
    <i name="Edipol_quadrupol">      0.00000000 </i>
    <i name="Eion">      0.00000000 </i>
   </dipole>
   <energy>
    <i name="e_fr_energy">   -506.73407131 </i>
    <i name="e_wo_entrp">   -506.75160825 </i>
    <i name="e_0_energy">   -506.73991696 </i>
   </energy>
  </scstep>
  <scstep>
   <time name="diag">    1.94    1.96</time>
   <time name="diis">    6.31    6.34</time>
   <time name="orth">    0.44    0.44</time>
   <time name="total">    9.10    9.17</time>
   <dipole>
    <v name="dipole">      0.00000000       0.00000000      -0.01458875 </v>
    <i name="Tr[quadrupol]">  -7050.71505866 </i>
    <i name="Echarged">      0.00000000 </i>
    <i name="Edipol_quadrupol">      0.00000000 </i>
    <i name="Eion">      0.00000000 </i>
   </dipole>
   <energy>
    <i name="alphaZ">   1807.30301960 </i>
    <i name="ewald"> 206495.83388173 </i>
    <i name="hartreedc">-256730.96264757 </i>
    <i name="XCdc">    951.42183766 </i>
    <i name="pawpsdc">  54591.03553717 </i>
    <i name="pawaedc"> -55671.76445671 </i>
    <i name="eentropy">      0.01755239 </i>
    <i name="bandstr">  -4155.29645034 </i>
    <i name="atom">  52205.67765473 </i>
    <i name="e_fr_energy">   -506.73407136 </i>
    <i name="e_wo_entrp">   -506.75162375 </i>
    <i name="e_0_energy">   -506.73992215 </i>
   </energy>
  </scstep>
  <structure>
   <crystal>
    <varray name="basis" >
     <v>       8.50460000       0.00000000       0.00000000 </v>
     <v>      -0.00109899       8.50909993       0.00000000 </v>
     <v>       0.00000000       0.00000000      23.55660000 </v>
    </varray>
    <i name="volume">   1704.70848813 </i>
    <varray name="rec_basis" >
     <v>       0.11758343       0.00001519       0.00000000 </v>
     <v>       0.00000000       0.11752124       0.00000000 </v>
     <v>       0.00000000       0.00000000       0.04245095 </v>
    </varray>
   </crystal>
   <varray name="positions" >
    <v>       0.99760000       0.00330000       0.24221000 </v>
    <v>       0.66561000       0.99834000       0.00060000 </v>
    <v>       0.65781774       0.99014148       0.36916786 </v>
    <v>       0.83467000       0.16589000       0.18209000 </v>
    <v>       0.99866000       0.33404000       0.12198000 </v>
    <v>       0.33421000       0.33147000       0.00101000 </v>
    <v>       0.33490267       0.32243770       0.36514396 </v>
    <v>       0.83220000       0.50025000       0.06275000 </v>
    <v>       0.83451591       0.49616663       0.30323969 </v>
    <v>       0.33512000       0.67037000       0.00000000 </v>
    <v>       0.33145000       0.66488000       0.12292000 </v>
    <v>       0.50353741       0.83683561       0.30434947 </v>
    <v>       0.67111000       0.66550000       0.12148000 </v>
    <v>       0.99950000       0.00032000       0.00103000 </v>
    <v>       0.00310338       0.99728512       0.36064235 </v>
    <v>       0.16670000       0.16592000       0.06160000 </v>
    <v>       0.99930000       0.00013000       0.12183000 </v>
    <v>       0.16670000       0.16692000       0.18170000 </v>
    <v>       0.16290407       0.16699163       0.30367498 </v>
    <v>       0.33368000       0.99986000       0.00108000 </v>
    <v>       0.32770401       0.01015674       0.36211124 </v>
    <v>       0.50008000       0.16606000       0.06164000 </v>
    <v>       0.33365000       0.99945000       0.12194000 </v>
    <v>       0.50013000       0.16657000       0.18176000 </v>
    <v>       0.33374000       0.99994000       0.24252000 </v>
    <v>       0.50111641       0.16901205       0.30320771 </v>
    <v>       0.83412000       0.16807000       0.06130000 </v>
    <v>       0.66767000       0.99972000       0.12168000 </v>
    <v>       0.66792000       0.00032000       0.24233000 </v>
    <v>       0.83325648       0.16722537       0.30393857 </v>
    <v>       0.00033000       0.33346000       0.00076000 </v>
    <v>       0.00437738       0.33541262       0.36244896 </v>
    <v>       0.16704000       0.50116000       0.06077000 </v>
    <v>       0.16627000       0.49940000       0.18238000 </v>
    <v>       0.00000000       0.33319000       0.24260000 </v>
    <v>       0.16731672       0.50097790       0.30366960 </v>
    <v>       0.49811000       0.50186000       0.06112000 </v>
    <v>       0.33328000       0.33434000       0.12148000 </v>
    <v>       0.50051000       0.50053000       0.18145000 </v>
    <v>       0.33392000       0.33269000       0.24229000 </v>
    <v>       0.50039527       0.50293230       0.30373698 </v>
    <v>       0.66687000       0.33418000       0.00129000 </v>
    <v>       0.66276259       0.33475247       0.36183867 </v>
    <v>       0.66670000       0.33332000       0.12177000 </v>
    <v>       0.83466000       0.49916000       0.18181000 </v>
    <v>       0.66748000       0.33291000       0.24234000 </v>
    <v>       0.99949000       0.66581000       0.00112000 </v>
    <v>       0.98953005       0.66651259       0.36168440 </v>
    <v>       0.16773000       0.83295000       0.06141000 </v>
    <v>       0.00149000       0.66672000       0.12196000 </v>
    <v>       0.16592000       0.83389000       0.18235000 </v>
    <v>       0.99950000       0.66635000       0.24245000 </v>
    <v>       0.16839385       0.83176571       0.30364534 </v>
    <v>       0.49825000       0.83185000       0.06189000 </v>
    <v>       0.50064000       0.83335000       0.18189000 </v>
    <v>       0.33424000       0.66627000       0.24239000 </v>
    <v>       0.66521000       0.66629000       0.00100000 </v>
    <v>       0.68025721       0.65466615       0.36251186 </v>
    <v>       0.83382000       0.83268000       0.06128000 </v>
    <v>       0.83390000       0.83311000       0.18191000 </v>
    <v>       0.66721000       0.66675000       0.24221000 </v>
    <v>       0.83486478       0.83158107       0.30269567 </v>
    <v>       0.33273317       0.67076990       0.39606091 </v>
   </varray>
  </structure>
  <varray name="forces" >
   <v>      -0.02384047      -0.10383448      -0.01217473 </v>
   <v>       0.04867561       0.04118965      -0.18475262 </v>
   <v>      -0.00368938      -0.00650056      -0.00613321 </v>
   <v>       0.04121399       0.18397875      -0.08810559 </v>
   <v>      -0.08779320      -0.06276889       0.17136613 </v>
   <v>      -0.04592197      -0.32642158      -0.10293388 </v>
   <v>       0.00393249      -0.00585206      -0.01182297 </v>
   <v>      -0.01301364       0.02875388      -0.16536253 </v>
   <v>      -0.00310952      -0.00548142      -0.00835924 </v>
   <v>      -0.09008717       0.21543073      -0.23475608 </v>
   <v>      -0.01143909       0.04387476       0.05509892 </v>
   <v>      -0.00013154       0.00504862       0.00468681 </v>
   <v>       0.10304377       0.01721101       0.03032228 </v>
   <v>      -0.01938853      -0.00625791       0.40941633 </v>
   <v>       0.00416825      -0.00002995      -0.00853326 </v>
   <v>      -0.28007616      -0.12888817      -0.37541382 </v>
   <v>      -0.01779198       0.01628205       0.08030358 </v>
   <v>       0.02197070       0.01618866       0.07575678 </v>
   <v>       0.00200017      -0.00196332       0.00475191 </v>
   <v>       0.05942504      -0.01775061       0.52638082 </v>
   <v>      -0.00349252       0.00162511       0.01474696 </v>
   <v>       0.06765423       0.06599097      -0.19909546 </v>
   <v>       0.06401306       0.03876534      -0.04248160 </v>
   <v>      -0.03548148       0.01816161      -0.04698210 </v>
   <v>      -0.08113883       0.10809328       0.03862764 </v>
   <v>      -0.00166757      -0.00137618      -0.00463294 </v>
   <v>       0.17385837       0.09745248      -0.34556789 </v>
   <v>      -0.02898025      -0.02552040       0.21222492 </v>
   <v>      -0.01539936      -0.02654089       0.08610780 </v>
   <v>       0.00299989       0.00046848       0.00209729 </v>
   <v>       0.14889380      -0.01761595       0.36252966 </v>
   <v>       0.00210635       0.01727329      -0.00309090 </v>
   <v>      -0.26466051       0.04014145      -0.47355691 </v>
   <v>      -0.01653256      -0.08193461      -0.05662085 </v>
   <v>       0.03502595      -0.03849800      -0.12324294 </v>
   <v>      -0.00293740      -0.00206617      -0.00339919 </v>
   <v>       0.32559752      -0.00649357      -0.32748301 </v>
   <v>      -0.00349869      -0.00597867       0.22059953 </v>
   <v>      -0.00348673      -0.05808431      -0.06960838 </v>
   <v>       0.04090367       0.10118035       0.04342962 </v>
   <v>      -0.00544900       0.00374218      -0.00166160 </v>
   <v>      -0.12489678       0.00457420       0.41024870 </v>
   <v>       0.00435237       0.00153075      -0.00523717 </v>
   <v>       0.04350282      -0.07971249       0.07703482 </v>
   <v>      -0.00579754       0.06124107       0.03624994 </v>
   <v>      -0.07850159      -0.00789706      -0.03296188 </v>
   <v>       0.11151131       0.02997013       0.38518378 </v>
   <v>      -0.01789463       0.00766468      -0.00416427 </v>
   <v>      -0.25194517       0.16382739      -0.32989190 </v>
   <v>      -0.03129319       0.02647630       0.14238332 </v>
   <v>       0.01982372       0.03321513       0.02749889 </v>
   <v>       0.05308882       0.03689789      -0.08000333 </v>
   <v>       0.00134575      -0.00082598      -0.00263511 </v>
   <v>      -0.00885167      -0.10792928      -0.06481738 </v>
   <v>       0.00781716      -0.01047447      -0.11814584 </v>
   <v>      -0.01964035      -0.06337671       0.15584515 </v>
   <v>      -0.07403365       0.00549868       0.40402068 </v>
   <v>       0.00390053      -0.01331067      -0.00925280 </v>
   <v>       0.22702880      -0.09229879      -0.27347718 </v>
   <v>       0.00978061      -0.03219313       0.00524579 </v>
   <v>       0.06003632      -0.09614502      -0.16926944 </v>
   <v>      -0.00184425       0.00072397      -0.00449500 </v>
   <v>      -0.01396469       0.00154844       0.00796494 </v>
  </varray>
  <varray name="stress" >
   <v>     -19.64191331       0.12169538      -0.18165869 </v>
   <v>       0.12169490     -20.18348058       0.04985274 </v>
   <v>      -0.18165795       0.04985223      -4.26546710 </v>
  </varray>
  <energy>
   <i name="e_fr_energy">   -506.73407136 </i>
   <i name="e_wo_entrp">   -506.75162375 </i>
   <i name="e_0_energy">   -506.73992215 </i>
  </energy>
  <time name="totalsc">  119.78  120.86</time>
  <eigenvalues>
   <array>
    <dimension dim="1">band</dimension>
    <dimension dim="2">kpoint</dimension>
    <dimension dim="3">spin</dimension>
    <field>eigene</field>
    <field>occ</field>
    <set>
     <set comment="spin 1">
      <set comment="kpoint 1">
       <r>  -42.9369    1.0000 </r>
       <r>  -42.8715    1.0000 </r>
       <r>  -42.8497    1.0000 </r>
       <r>  -42.2460    1.0000 </r>
       <r>  -42.1958    1.0000 </r>
       <r>  -42.1562    1.0000 </r>
       <r>  -42.1184    1.0000 </r>
       <r>  -42.0511    1.0000 </r>
       <r>  -42.0245    1.0000 </r>
       <r>  -41.9887    1.0000 </r>
       <r>  -41.9762    1.0000 </r>
       <r>  -41.9555    1.0000 </r>
       <r>  -41.8860    1.0000 </r>
       <r>  -41.8701    1.0000 </r>
       <r>  -41.8515    1.0000 </r>
       <r>  -41.8381    1.0000 </r>
       <r>  -41.8320    1.0000 </r>
       <r>  -41.8097    1.0000 </r>
       <r>  -41.8028    1.0000 </r>
       <r>  -41.8002    1.0000 </r>
       <r>  -41.7723    1.0000 </r>
       <r>  -41.7505    1.0000 </r>
       <r>  -41.7469    1.0000 </r>
       <r>  -41.7395    1.0000 </r>
       <r>  -41.2679    1.0000 </r>
       <r>  -41.2082    1.0000 </r>
       <r>  -41.1627    1.0000 </r>
       <r>  -40.2875    1.0000 </r>
       <r>  -40.2531    1.0000 </r>
       <r>  -40.2456    1.0000 </r>
       <r>  -40.1894    1.0000 </r>
       <r>  -40.1749    1.0000 </r>
       <r>  -40.1564    1.0000 </r>
       <r>  -40.1370    1.0000 </r>
       <r>  -40.1119    1.0000 </r>
       <r>  -40.0953    1.0000 </r>
       <r>  -40.0933    1.0000 </r>
       <r>  -40.0906    1.0000 </r>
       <r>  -40.0504    1.0000 </r>
       <r>  -15.5378    1.0000 </r>
       <r>  -15.5310    1.0000 </r>
       <r>  -15.5250    1.0000 </r>
       <r>  -15.5150    1.0000 </r>
       <r>  -15.4911    1.0000 </r>
       <r>   -7.8396    1.0000 </r>
       <r>   -7.1360    1.0000 </r>
       <r>   -6.1215    1.0000 </r>
       <r>   -5.2994    1.0000 </r>
       <r>   -5.2491    1.0000 </r>
       <r>   -5.2449    1.0000 </r>
       <r>   -5.1397    1.0000 </r>
       <r>   -4.8120    1.0000 </r>
       <r>   -4.6720    1.0000 </r>
       <r>   -4.6240    1.0000 </r>
       <r>   -4.5737    1.0000 </r>
       <r>   -4.4773    1.0000 </r>
       <r>   -4.1690    1.0000 </r>
       <r>   -4.1399    1.0000 </r>
       <r>   -4.1186    1.0000 </r>
       <r>   -4.0968    1.0000 </r>
       <r>   -4.0709    1.0000 </r>
       <r>   -4.0401    1.0000 </r>
       <r>   -4.0170    1.0000 </r>
       <r>   -3.9080    1.0000 </r>
       <r>   -3.8682    1.0000 </r>
       <r>   -3.8503    1.0000 </r>
       <r>   -3.7314    1.0000 </r>
       <r>   -3.6855    1.0000 </r>
       <r>   -3.6714    1.0000 </r>
       <r>   -3.6451    1.0000 </r>
       <r>   -3.5862    1.0000 </r>
       <r>   -3.4693    1.0000 </r>
       <r>   -3.4345    1.0000 </r>
       <r>   -3.4245    1.0000 </r>
       <r>   -3.4144    1.0000 </r>
       <r>   -3.4055    1.0000 </r>
       <r>   -3.3922    1.0000 </r>
       <r>   -3.3866    1.0000 </r>
       <r>   -3.3589    1.0000 </r>
       <r>   -3.3427    1.0000 </r>
       <r>   -3.3382    1.0000 </r>
       <r>   -3.3105    1.0000 </r>
       <r>   -3.3065    1.0000 </r>
       <r>   -3.2782    1.0000 </r>
       <r>   -3.2536    1.0000 </r>
       <r>   -3.2365    1.0000 </r>
       <r>   -3.2162    1.0000 </r>
       <r>   -3.1520    1.0000 </r>
       <r>   -3.1291    1.0000 </r>
       <r>   -3.0957    1.0000 </r>
       <r>   -3.0887    1.0000 </r>
       <r>   -3.0445    1.0000 </r>
       <r>   -3.0149    1.0000 </r>
       <r>   -2.9765    1.0000 </r>
       <r>   -2.9728    1.0000 </r>
       <r>   -2.9526    1.0000 </r>
       <r>   -2.9426    1.0000 </r>
       <r>   -2.9256    1.0000 </r>
       <r>   -2.9118    1.0000 </r>
       <r>   -2.9036    1.0000 </r>
       <r>   -2.8763    1.0000 </r>
       <r>   -2.8735    1.0000 </r>
       <r>   -2.8491    1.0000 </r>
       <r>   -2.8152    1.0000 </r>
       <r>   -2.8068    1.0000 </r>
       <r>   -2.7989    1.0000 </r>
       <r>   -2.7370    1.0000 </r>
       <r>   -2.7304    1.0000 </r>
       <r>   -2.6925    1.0000 </r>
       <r>   -2.6411    1.0000 </r>
       <r>   -2.6148    1.0000 </r>
       <r>   -2.5961    1.0000 </r>
       <r>   -2.5654    1.0000 </r>
       <r>   -2.5513    1.0000 </r>
       <r>   -2.5449    1.0000 </r>
       <r>   -2.5372    1.0000 </r>
       <r>   -2.5210    1.0000 </r>
       <r>   -2.5136    1.0000 </r>
       <r>   -2.5115    1.0000 </r>
       <r>   -2.5036    1.0000 </r>
       <r>   -2.4920    1.0000 </r>
       <r>   -2.4875    1.0000 </r>
       <r>   -2.4799    1.0000 </r>
       <r>   -2.4744    1.0000 </r>
       <r>   -2.4517    1.0000 </r>
       <r>   -2.4422    1.0000 </r>
       <r>   -2.4377    1.0000 </r>
       <r>   -2.4338    1.0000 </r>
       <r>   -2.4138    1.0000 </r>
       <r>   -2.4052    1.0000 </r>
       <r>   -2.3940    1.0000 </r>
       <r>   -2.3881    1.0000 </r>
       <r>   -2.3739    1.0000 </r>
       <r>   -2.3629    1.0000 </r>
       <r>   -2.3510    1.0000 </r>
       <r>   -2.3340    1.0000 </r>
       <r>   -2.3315    1.0000 </r>
       <r>   -2.3145    1.0000 </r>
       <r>   -2.3035    1.0000 </r>
       <r>   -2.2893    1.0000 </r>
       <r>   -2.2843    1.0000 </r>
       <r>   -2.2735    1.0000 </r>
       <r>   -2.2591    1.0000 </r>
       <r>   -2.2514    1.0000 </r>
       <r>   -2.2450    1.0000 </r>
       <r>   -2.2319    1.0000 </r>
       <r>   -2.2260    1.0000 </r>
       <r>   -2.1976    1.0000 </r>
       <r>   -2.1910    1.0000 </r>
       <r>   -2.1800    1.0000 </r>
       <r>   -2.1654    1.0000 </r>
       <r>   -2.1541    1.0000 </r>
       <r>   -2.1361    1.0000 </r>
       <r>   -2.1309    1.0000 </r>
       <r>   -2.0984    1.0000 </r>
       <r>   -2.0903    1.0000 </r>
       <r>   -2.0736    1.0000 </r>
       <r>   -2.0709    1.0000 </r>
       <r>   -2.0608    1.0000 </r>
       <r>   -2.0430    1.0000 </r>
       <r>   -2.0362    1.0000 </r>
       <r>   -2.0113    1.0000 </r>
       <r>   -2.0052    1.0000 </r>
       <r>   -1.9829    1.0000 </r>
       <r>   -1.9737    1.0000 </r>
       <r>   -1.9574    1.0000 </r>
       <r>   -1.9411    1.0000 </r>
       <r>   -1.9387    1.0000 </r>
       <r>   -1.9292    1.0000 </r>
       <r>   -1.9101    1.0000 </r>
       <r>   -1.8967    1.0000 </r>
       <r>   -1.8780    1.0000 </r>
       <r>   -1.8756    1.0000 </r>
       <r>   -1.8494    1.0000 </r>
       <r>   -1.8398    1.0000 </r>
       <r>   -1.8161    1.0000 </r>
       <r>   -1.8094    1.0000 </r>
       <r>   -1.7925    1.0000 </r>
       <r>   -1.7746    1.0000 </r>
       <r>   -1.7602    1.0000 </r>
       <r>   -1.7342    1.0000 </r>
       <r>   -1.7170    1.0000 </r>
       <r>   -1.6974    1.0000 </r>
       <r>   -1.6921    1.0000 </r>
       <r>   -1.6619    1.0000 </r>
       <r>   -1.6396    1.0000 </r>
       <r>   -1.6132    1.0000 </r>
       <r>   -1.6000    1.0000 </r>
       <r>   -1.5701    1.0000 </r>
       <r>   -1.5612    1.0000 </r>
       <r>   -1.5515    1.0000 </r>
       <r>   -1.5272    1.0000 </r>
       <r>   -1.5112    1.0000 </r>
       <r>   -1.4936    1.0000 </r>
       <r>   -1.4757    1.0000 </r>
       <r>   -1.4591    1.0000 </r>
       <r>   -1.4361    1.0000 </r>
       <r>   -1.4210    1.0000 </r>
       <r>   -1.4159    1.0000 </r>
       <r>   -1.3785    1.0000 </r>
       <r>   -1.3537    1.0000 </r>
       <r>   -1.3439    1.0000 </r>
       <r>   -1.3293    1.0000 </r>
       <r>   -1.3055    1.0000 </r>
       <r>   -1.2840    1.0000 </r>
       <r>   -1.2706    1.0000 </r>
       <r>   -1.2652    1.0000 </r>
       <r>   -1.2480    1.0000 </r>
       <r>   -1.2318    1.0000 </r>
       <r>   -1.2107    1.0000 </r>
       <r>   -1.1990    1.0000 </r>
       <r>   -1.1764    1.0000 </r>
       <r>   -1.1727    1.0000 </r>
       <r>   -1.1554    1.0000 </r>
       <r>   -1.1234    1.0000 </r>
       <r>   -1.1126    1.0000 </r>
       <r>   -1.0836    1.0000 </r>
       <r>   -1.0573    1.0000 </r>
       <r>   -1.0507    1.0000 </r>
       <r>   -1.0258    1.0000 </r>
       <r>   -1.0169    1.0000 </r>
       <r>   -1.0073    1.0000 </r>
       <r>   -0.9811    1.0000 </r>
       <r>   -0.9633    1.0000 </r>
       <r>   -0.9388    1.0000 </r>
       <r>   -0.9281    1.0000 </r>
       <r>   -0.9061    1.0000 </r>
       <r>   -0.8921    1.0000 </r>
       <r>   -0.8877    1.0000 </r>
       <r>   -0.8761    1.0000 </r>
       <r>   -0.8603    1.0000 </r>
       <r>   -0.8231    1.0000 </r>
       <r>   -0.8207    1.0000 </r>
       <r>   -0.7999    1.0000 </r>
       <r>   -0.7981    1.0000 </r>
       <r>   -0.7802    1.0000 </r>
       <r>   -0.7475    1.0000 </r>
       <r>   -0.7334    1.0000 </r>
       <r>   -0.7156    1.0000 </r>
       <r>   -0.6955    1.0000 </r>
       <r>   -0.6850    1.0000 </r>
       <r>   -0.6717    1.0000 </r>
       <r>   -0.6603    1.0000 </r>
       <r>   -0.6470    1.0000 </r>
       <r>   -0.6404    1.0000 </r>
       <r>   -0.6048    1.0000 </r>
       <r>   -0.5956    1.0000 </r>
       <r>   -0.5894    1.0000 </r>
       <r>   -0.5668    1.0000 </r>
       <r>   -0.5569    1.0000 </r>
       <r>   -0.5549    1.0000 </r>
       <r>   -0.5382    1.0000 </r>
       <r>   -0.5235    1.0000 </r>
       <r>   -0.5153    1.0000 </r>
       <r>   -0.4944    1.0000 </r>
       <r>   -0.4810    1.0000 </r>
       <r>   -0.4738    1.0000 </r>
       <r>   -0.4709    1.0000 </r>
       <r>   -0.4561    1.0000 </r>
       <r>   -0.4508    1.0000 </r>
       <r>   -0.4401    1.0000 </r>
       <r>   -0.4328    1.0000 </r>
       <r>   -0.4172    1.0000 </r>
       <r>   -0.4108    1.0000 </r>
       <r>   -0.4076    1.0000 </r>
       <r>   -0.3961    1.0000 </r>
       <r>   -0.3901    1.0000 </r>
       <r>   -0.3825    1.0000 </r>
       <r>   -0.3738    1.0000 </r>
       <r>   -0.3603    1.0000 </r>
       <r>   -0.3498    1.0000 </r>
       <r>   -0.3362    1.0000 </r>
       <r>   -0.3270    1.0000 </r>
       <r>   -0.3124    1.0000 </r>
       <r>   -0.2953    1.0000 </r>
       <r>   -0.2858    1.0000 </r>
       <r>   -0.2821    1.0000 </r>
       <r>   -0.2679    1.0000 </r>
       <r>   -0.2630    1.0000 </r>
       <r>   -0.2562    1.0000 </r>
       <r>   -0.2511    1.0000 </r>
       <r>   -0.2358    1.0000 </r>
       <r>   -0.2259    1.0000 </r>
       <r>   -0.2218    1.0000 </r>
       <r>   -0.2119    1.0000 </r>
       <r>   -0.1981    1.0000 </r>
       <r>   -0.1913    1.0000 </r>
       <r>   -0.1720    1.0000 </r>
       <r>   -0.1587    1.0000 </r>
       <r>   -0.1443    1.0000 </r>
       <r>   -0.1373    1.0000 </r>
       <r>   -0.1285    1.0000 </r>
       <r>   -0.1116    1.0000 </r>
       <r>   -0.1101    1.0000 </r>
       <r>   -0.0952    1.0000 </r>
       <r>   -0.0794    1.0000 </r>
       <r>   -0.0634    1.0000 </r>
       <r>   -0.0381    1.0000 </r>
       <r>   -0.0218    1.0000 </r>
       <r>   -0.0191    1.0000 </r>
       <r>    0.0180    1.0000 </r>
       <r>    0.0325    1.0000 </r>
       <r>    0.0595    1.0000 </r>
       <r>    0.0864    1.0000 </r>
       <r>    0.1095    1.0000 </r>
       <r>    0.1224    1.0000 </r>
       <r>    0.1563    1.0000 </r>
       <r>    0.1973    1.0000 </r>
       <r>    0.2049    1.0000 </r>
       <r>    0.2337    1.0000 </r>
       <r>    0.2716    1.0000 </r>
       <r>    0.3237    1.0000 </r>
       <r>    0.3979    1.0000 </r>
       <r>    0.4117    1.0000 </r>
       <r>    0.4696    1.0001 </r>
       <r>    0.4781    1.0001 </r>
       <r>    0.5138    1.0003 </r>
       <r>    0.5243    1.0004 </r>
       <r>    0.5850    1.0024 </r>
       <r>    0.5882    1.0027 </r>
       <r>    0.6158    1.0053 </r>
       <r>    0.6415    1.0094 </r>
       <r>    0.6593    1.0133 </r>
       <r>    0.6899    1.0219 </r>
       <r>    0.7087    1.0277 </r>
       <r>    0.7350    1.0341 </r>
       <r>    0.7892    1.0209 </r>
       <r>    0.8196    0.9791 </r>
       <r>    0.8486    0.9048 </r>
       <r>    0.8734    0.8116 </r>
       <r>    0.9322    0.5084 </r>
       <r>    1.0034    0.1498 </r>
       <r>    1.0510    0.0147 </r>
       <r>    1.0795   -0.0220 </r>
       <r>    1.0918   -0.0299 </r>
       <r>    1.1523   -0.0295 </r>
       <r>    1.1881   -0.0187 </r>
       <r>    1.2242   -0.0098 </r>
       <r>    1.2659   -0.0038 </r>
       <r>    1.3059   -0.0013 </r>
       <r>    1.3227   -0.0008 </r>
       <r>    1.3992   -0.0001 </r>
       <r>    1.4243   -0.0000 </r>
       <r>    1.4612   -0.0000 </r>
       <r>    1.5080   -0.0000 </r>
       <r>    1.5624   -0.0000 </r>
       <r>    1.5989   -0.0000 </r>
       <r>    1.6519   -0.0000 </r>
       <r>    1.6808   -0.0000 </r>
       <r>    1.7050   -0.0000 </r>
       <r>    1.7617   -0.0000 </r>
       <r>    1.7744   -0.0000 </r>
       <r>    1.8162   -0.0000 </r>
       <r>    1.8496   -0.0000 </r>
       <r>    1.8769   -0.0000 </r>
       <r>    1.9134   -0.0000 </r>
       <r>    1.9329   -0.0000 </r>
       <r>    1.9582   -0.0000 </r>
       <r>    2.0248   -0.0000 </r>
       <r>    2.0565   -0.0000 </r>
       <r>    2.0668   -0.0000 </r>
       <r>    2.0909   -0.0000 </r>
       <r>    2.1204   -0.0000 </r>
       <r>    2.1435   -0.0000 </r>
       <r>    2.1785   -0.0000 </r>
       <r>    2.2075   -0.0000 </r>
       <r>    2.2327   -0.0000 </r>
       <r>    2.2560   -0.0000 </r>
       <r>    2.2973   -0.0000 </r>
      </set>
      <set comment="kpoint 2">
       <r>  -42.9369    1.0000 </r>
       <r>  -42.8715    1.0000 </r>
       <r>  -42.8497    1.0000 </r>
       <r>  -42.2460    1.0000 </r>
       <r>  -42.1958    1.0000 </r>
       <r>  -42.1562    1.0000 </r>
       <r>  -42.1184    1.0000 </r>
       <r>  -42.0511    1.0000 </r>
       <r>  -42.0245    1.0000 </r>
       <r>  -41.9888    1.0000 </r>
       <r>  -41.9762    1.0000 </r>
       <r>  -41.9555    1.0000 </r>
       <r>  -41.8860    1.0000 </r>
       <r>  -41.8701    1.0000 </r>
       <r>  -41.8515    1.0000 </r>
       <r>  -41.8381    1.0000 </r>
       <r>  -41.8320    1.0000 </r>
       <r>  -41.8097    1.0000 </r>
       <r>  -41.8028    1.0000 </r>
       <r>  -41.8002    1.0000 </r>
       <r>  -41.7723    1.0000 </r>
       <r>  -41.7505    1.0000 </r>
       <r>  -41.7469    1.0000 </r>
       <r>  -41.7395    1.0000 </r>
       <r>  -41.2679    1.0000 </r>
       <r>  -41.2082    1.0000 </r>
       <r>  -41.1627    1.0000 </r>
       <r>  -40.2875    1.0000 </r>
       <r>  -40.2530    1.0000 </r>
       <r>  -40.2457    1.0000 </r>
       <r>  -40.1894    1.0000 </r>
       <r>  -40.1748    1.0000 </r>
       <r>  -40.1564    1.0000 </r>
       <r>  -40.1369    1.0000 </r>
       <r>  -40.1119    1.0000 </r>
       <r>  -40.0953    1.0000 </r>
       <r>  -40.0932    1.0000 </r>
       <r>  -40.0906    1.0000 </r>
       <r>  -40.0504    1.0000 </r>
       <r>  -15.5377    1.0000 </r>
       <r>  -15.5310    1.0000 </r>
       <r>  -15.5250    1.0000 </r>
       <r>  -15.5150    1.0000 </r>
       <r>  -15.4911    1.0000 </r>
       <r>   -7.8064    1.0000 </r>
       <r>   -7.0183    1.0000 </r>
       <r>   -6.0890    1.0000 </r>
       <r>   -5.9603    1.0000 </r>
       <r>   -5.2079    1.0000 </r>
       <r>   -5.1424    1.0000 </r>
       <r>   -5.0974    1.0000 </r>
       <r>   -4.7290    1.0000 </r>
       <r>   -4.5178    1.0000 </r>
       <r>   -4.4774    1.0000 </r>
       <r>   -4.4401    1.0000 </r>
       <r>   -4.4229    1.0000 </r>
       <r>   -4.3606    1.0000 </r>
       <r>   -4.2140    1.0000 </r>
       <r>   -4.1343    1.0000 </r>
       <r>   -4.0169    1.0000 </r>
       <r>   -3.9532    1.0000 </r>
       <r>   -3.9343    1.0000 </r>
       <r>   -3.8653    1.0000 </r>
       <r>   -3.8345    1.0000 </r>
       <r>   -3.8135    1.0000 </r>
       <r>   -3.7832    1.0000 </r>
       <r>   -3.7629    1.0000 </r>
       <r>   -3.7164    1.0000 </r>
       <r>   -3.6952    1.0000 </r>
       <r>   -3.6388    1.0000 </r>
       <r>   -3.5878    1.0000 </r>
       <r>   -3.5507    1.0000 </r>
       <r>   -3.5386    1.0000 </r>
       <r>   -3.5231    1.0000 </r>
       <r>   -3.5047    1.0000 </r>
       <r>   -3.4755    1.0000 </r>
       <r>   -3.4428    1.0000 </r>
       <r>   -3.4239    1.0000 </r>
       <r>   -3.3656    1.0000 </r>
       <r>   -3.3362    1.0000 </r>
       <r>   -3.3039    1.0000 </r>
       <r>   -3.2761    1.0000 </r>
       <r>   -3.2511    1.0000 </r>
       <r>   -3.2385    1.0000 </r>
       <r>   -3.2270    1.0000 </r>
       <r>   -3.2049    1.0000 </r>
       <r>   -3.1937    1.0000 </r>
       <r>   -3.1855    1.0000 </r>
       <r>   -3.1691    1.0000 </r>
       <r>   -3.1494    1.0000 </r>
       <r>   -3.1157    1.0000 </r>
       <r>   -3.0811    1.0000 </r>
       <r>   -3.0649    1.0000 </r>
       <r>   -3.0362    1.0000 </r>
       <r>   -3.0259    1.0000 </r>
       <r>   -3.0156    1.0000 </r>
       <r>   -2.9957    1.0000 </r>
       <r>   -2.9573    1.0000 </r>
       <r>   -2.9502    1.0000 </r>
       <r>   -2.9279    1.0000 </r>
       <r>   -2.9127    1.0000 </r>
       <r>   -2.8922    1.0000 </r>
       <r>   -2.8630    1.0000 </r>
       <r>   -2.8503    1.0000 </r>
       <r>   -2.8191    1.0000 </r>
       <r>   -2.7830    1.0000 </r>
       <r>   -2.7449    1.0000 </r>
       <r>   -2.7243    1.0000 </r>
       <r>   -2.7132    1.0000 </r>
       <r>   -2.6940    1.0000 </r>
       <r>   -2.6723    1.0000 </r>
       <r>   -2.6605    1.0000 </r>
       <r>   -2.6285    1.0000 </r>
       <r>   -2.6207    1.0000 </r>
       <r>   -2.6066    1.0000 </r>
       <r>   -2.5730    1.0000 </r>
       <r>   -2.5661    1.0000 </r>
       <r>   -2.5534    1.0000 </r>
       <r>   -2.5455    1.0000 </r>
       <r>   -2.5350    1.0000 </r>
       <r>   -2.5185    1.0000 </r>
       <r>   -2.5093    1.0000 </r>
       <r>   -2.5035    1.0000 </r>
       <r>   -2.4833    1.0000 </r>
       <r>   -2.4771    1.0000 </r>
       <r>   -2.4606    1.0000 </r>
       <r>   -2.4495    1.0000 </r>
       <r>   -2.4435    1.0000 </r>
       <r>   -2.4211    1.0000 </r>
       <r>   -2.4162    1.0000 </r>
       <r>   -2.4042    1.0000 </r>
       <r>   -2.3926    1.0000 </r>
       <r>   -2.3821    1.0000 </r>
       <r>   -2.3643    1.0000 </r>
       <r>   -2.3493    1.0000 </r>
       <r>   -2.3399    1.0000 </r>
       <r>   -2.3241    1.0000 </r>
       <r>   -2.3099    1.0000 </r>
       <r>   -2.3030    1.0000 </r>
       <r>   -2.2874    1.0000 </r>
       <r>   -2.2682    1.0000 </r>
       <r>   -2.2617    1.0000 </r>
       <r>   -2.2519    1.0000 </r>
       <r>   -2.2373    1.0000 </r>
       <r>   -2.2206    1.0000 </r>
       <r>   -2.2127    1.0000 </r>
       <r>   -2.1948    1.0000 </r>
       <r>   -2.1823    1.0000 </r>
       <r>   -2.1688    1.0000 </r>
       <r>   -2.1594    1.0000 </r>
       <r>   -2.1402    1.0000 </r>
       <r>   -2.1309    1.0000 </r>
       <r>   -2.1245    1.0000 </r>
       <r>   -2.1149    1.0000 </r>
       <r>   -2.1094    1.0000 </r>
       <r>   -2.0775    1.0000 </r>
       <r>   -2.0622    1.0000 </r>
       <r>   -2.0545    1.0000 </r>
       <r>   -2.0414    1.0000 </r>
       <r>   -2.0245    1.0000 </r>
       <r>   -2.0093    1.0000 </r>
       <r>   -2.0044    1.0000 </r>
       <r>   -1.9828    1.0000 </r>
       <r>   -1.9661    1.0000 </r>
       <r>   -1.9543    1.0000 </r>
       <r>   -1.9454    1.0000 </r>
       <r>   -1.9315    1.0000 </r>
       <r>   -1.9031    1.0000 </r>
       <r>   -1.8852    1.0000 </r>
       <r>   -1.8743    1.0000 </r>
       <r>   -1.8574    1.0000 </r>
       <r>   -1.8461    1.0000 </r>
       <r>   -1.8210    1.0000 </r>
       <r>   -1.8119    1.0000 </r>
       <r>   -1.8026    1.0000 </r>
       <r>   -1.7779    1.0000 </r>
       <r>   -1.7667    1.0000 </r>
       <r>   -1.7404    1.0000 </r>
       <r>   -1.7315    1.0000 </r>
       <r>   -1.7193    1.0000 </r>
       <r>   -1.7090    1.0000 </r>
       <r>   -1.6918    1.0000 </r>
       <r>   -1.6719    1.0000 </r>
       <r>   -1.6573    1.0000 </r>
       <r>   -1.6401    1.0000 </r>
       <r>   -1.6376    1.0000 </r>
       <r>   -1.6242    1.0000 </r>
       <r>   -1.6116    1.0000 </r>
       <r>   -1.5932    1.0000 </r>
       <r>   -1.5826    1.0000 </r>
       <r>   -1.5652    1.0000 </r>
       <r>   -1.5535    1.0000 </r>
       <r>   -1.5295    1.0000 </r>
       <r>   -1.5119    1.0000 </r>
       <r>   -1.4943    1.0000 </r>
       <r>   -1.4847    1.0000 </r>
       <r>   -1.4605    1.0000 </r>
       <r>   -1.4548    1.0000 </r>
       <r>   -1.4455    1.0000 </r>
       <r>   -1.4115    1.0000 </r>
       <r>   -1.3955    1.0000 </r>
       <r>   -1.3714    1.0000 </r>
       <r>   -1.3582    1.0000 </r>
       <r>   -1.3364    1.0000 </r>
       <r>   -1.3272    1.0000 </r>
       <r>   -1.3137    1.0000 </r>
       <r>   -1.2970    1.0000 </r>
       <r>   -1.2843    1.0000 </r>
       <r>   -1.2634    1.0000 </r>
       <r>   -1.2516    1.0000 </r>
       <r>   -1.2274    1.0000 </r>
       <r>   -1.2092    1.0000 </r>
       <r>   -1.1823    1.0000 </r>
       <r>   -1.1690    1.0000 </r>
       <r>   -1.1540    1.0000 </r>
       <r>   -1.1214    1.0000 </r>
       <r>   -1.1102    1.0000 </r>
       <r>   -1.0986    1.0000 </r>
       <r>   -1.0861    1.0000 </r>
       <r>   -1.0680    1.0000 </r>
       <r>   -1.0367    1.0000 </r>
       <r>   -1.0095    1.0000 </r>
       <r>   -0.9885    1.0000 </r>
       <r>   -0.9635    1.0000 </r>
       <r>   -0.9467    1.0000 </r>
       <r>   -0.9211    1.0000 </r>
       <r>   -0.9011    1.0000 </r>
       <r>   -0.8820    1.0000 </r>
       <r>   -0.8580    1.0000 </r>
       <r>   -0.8340    1.0000 </r>
       <r>   -0.8151    1.0000 </r>
       <r>   -0.8080    1.0000 </r>
       <r>   -0.7817    1.0000 </r>
       <r>   -0.7733    1.0000 </r>
       <r>   -0.7604    1.0000 </r>
       <r>   -0.7424    1.0000 </r>
       <r>   -0.7324    1.0000 </r>
       <r>   -0.7135    1.0000 </r>
       <r>   -0.6962    1.0000 </r>
       <r>   -0.6840    1.0000 </r>
       <r>   -0.6762    1.0000 </r>
       <r>   -0.6670    1.0000 </r>
       <r>   -0.6495    1.0000 </r>
       <r>   -0.6295    1.0000 </r>
       <r>   -0.6222    1.0000 </r>
       <r>   -0.6036    1.0000 </r>
       <r>   -0.5977    1.0000 </r>
       <r>   -0.5757    1.0000 </r>
       <r>   -0.5633    1.0000 </r>
       <r>   -0.5503    1.0000 </r>
       <r>   -0.5365    1.0000 </r>
       <r>   -0.5337    1.0000 </r>
       <r>   -0.5121    1.0000 </r>
       <r>   -0.5109    1.0000 </r>
       <r>   -0.5001    1.0000 </r>
       <r>   -0.4877    1.0000 </r>
       <r>   -0.4822    1.0000 </r>
       <r>   -0.4676    1.0000 </r>
       <r>   -0.4526    1.0000 </r>
       <r>   -0.4446    1.0000 </r>
       <r>   -0.4297    1.0000 </r>
       <r>   -0.4258    1.0000 </r>
       <r>   -0.4177    1.0000 </r>
       <r>   -0.4108    1.0000 </r>
       <r>   -0.4036    1.0000 </r>
       <r>   -0.3906    1.0000 </r>
       <r>   -0.3847    1.0000 </r>
       <r>   -0.3695    1.0000 </r>
       <r>   -0.3525    1.0000 </r>
       <r>   -0.3475    1.0000 </r>
       <r>   -0.3335    1.0000 </r>
       <r>   -0.3264    1.0000 </r>
       <r>   -0.3110    1.0000 </r>
       <r>   -0.3048    1.0000 </r>
       <r>   -0.2889    1.0000 </r>
       <r>   -0.2774    1.0000 </r>
       <r>   -0.2639    1.0000 </r>
       <r>   -0.2496    1.0000 </r>
       <r>   -0.2396    1.0000 </r>
       <r>   -0.2320    1.0000 </r>
       <r>   -0.2269    1.0000 </r>
       <r>   -0.2100    1.0000 </r>
       <r>   -0.1996    1.0000 </r>
       <r>   -0.1909    1.0000 </r>
       <r>   -0.1737    1.0000 </r>
       <r>   -0.1691    1.0000 </r>
       <r>   -0.1554    1.0000 </r>
       <r>   -0.1405    1.0000 </r>
       <r>   -0.1230    1.0000 </r>
       <r>   -0.1134    1.0000 </r>
       <r>   -0.1040    1.0000 </r>
       <r>   -0.0931    1.0000 </r>
       <r>   -0.0755    1.0000 </r>
       <r>   -0.0624    1.0000 </r>
       <r>   -0.0302    1.0000 </r>
       <r>   -0.0142    1.0000 </r>
       <r>   -0.0046    1.0000 </r>
       <r>    0.0163    1.0000 </r>
       <r>    0.0410    1.0000 </r>
       <r>    0.0563    1.0000 </r>
       <r>    0.0692    1.0000 </r>
       <r>    0.0943    1.0000 </r>
       <r>    0.1200    1.0000 </r>
       <r>    0.1262    1.0000 </r>
       <r>    0.1657    1.0000 </r>
       <r>    0.1783    1.0000 </r>
       <r>    0.2188    1.0000 </r>
       <r>    0.2405    1.0000 </r>
       <r>    0.2601    1.0000 </r>
       <r>    0.2789    1.0000 </r>
       <r>    0.3169    1.0000 </r>
       <r>    0.3518    1.0000 </r>
       <r>    0.3919    1.0000 </r>
       <r>    0.4079    1.0000 </r>
       <r>    0.4420    1.0000 </r>
       <r>    0.4742    1.0001 </r>
       <r>    0.5275    1.0004 </r>
       <r>    0.5425    1.0007 </r>
       <r>    0.5566    1.0011 </r>
       <r>    0.5816    1.0022 </r>
       <r>    0.6116    1.0048 </r>
       <r>    0.6347    1.0082 </r>
       <r>    0.6682    1.0156 </r>
       <r>    0.7014    1.0255 </r>
       <r>    0.7257    1.0323 </r>
       <r>    0.7851    1.0241 </r>
       <r>    0.8011    1.0085 </r>
       <r>    0.8601    0.8648 </r>
       <r>    0.9121    0.6202 </r>
       <r>    0.9649    0.3278 </r>
       <r>    0.9820    0.2424 </r>
       <r>    1.0099    0.1253 </r>
       <r>    1.0443    0.0276 </r>
       <r>    1.0725   -0.0155 </r>
       <r>    1.0855   -0.0264 </r>
       <r>    1.1444   -0.0316 </r>
       <r>    1.1699   -0.0242 </r>
       <r>    1.1996   -0.0155 </r>
       <r>    1.2641   -0.0039 </r>
       <r>    1.2988   -0.0015 </r>
       <r>    1.3124   -0.0010 </r>
       <r>    1.3897   -0.0001 </r>
       <r>    1.4205   -0.0000 </r>
       <r>    1.4613   -0.0000 </r>
       <r>    1.5075   -0.0000 </r>
       <r>    1.5512   -0.0000 </r>
       <r>    1.5880   -0.0000 </r>
       <r>    1.6078   -0.0000 </r>
       <r>    1.6359   -0.0000 </r>
       <r>    1.7023   -0.0000 </r>
       <r>    1.7395   -0.0000 </r>
       <r>    1.7679   -0.0000 </r>
       <r>    1.8006   -0.0000 </r>
       <r>    1.8355   -0.0000 </r>
       <r>    1.8608   -0.0000 </r>
       <r>    1.9039   -0.0000 </r>
       <r>    1.9174   -0.0000 </r>
       <r>    1.9552   -0.0000 </r>
       <r>    1.9921   -0.0000 </r>
       <r>    2.0105   -0.0000 </r>
       <r>    2.0410   -0.0000 </r>
       <r>    2.0909   -0.0000 </r>
       <r>    2.1364   -0.0000 </r>
       <r>    2.1523   -0.0000 </r>
       <r>    2.1629   -0.0000 </r>
       <r>    2.1979   -0.0000 </r>
       <r>    2.2273   -0.0000 </r>
       <r>    2.2579   -0.0000 </r>
       <r>    2.2641   -0.0000 </r>
      </set>
      <set comment="kpoint 3">
       <r>  -42.9369    1.0000 </r>
       <r>  -42.8715    1.0000 </r>
       <r>  -42.8496    1.0000 </r>
       <r>  -42.2461    1.0000 </r>
       <r>  -42.1958    1.0000 </r>
       <r>  -42.1561    1.0000 </r>
       <r>  -42.1184    1.0000 </r>
       <r>  -42.0510    1.0000 </r>
       <r>  -42.0245    1.0000 </r>
       <r>  -41.9888    1.0000 </r>
       <r>  -41.9762    1.0000 </r>
       <r>  -41.9555    1.0000 </r>
       <r>  -41.8860    1.0000 </r>
       <r>  -41.8701    1.0000 </r>
       <r>  -41.8515    1.0000 </r>
       <r>  -41.8380    1.0000 </r>
       <r>  -41.8320    1.0000 </r>
       <r>  -41.8097    1.0000 </r>
       <r>  -41.8028    1.0000 </r>
       <r>  -41.8003    1.0000 </r>
       <r>  -41.7723    1.0000 </r>
       <r>  -41.7504    1.0000 </r>
       <r>  -41.7469    1.0000 </r>
       <r>  -41.7395    1.0000 </r>
       <r>  -41.2679    1.0000 </r>
       <r>  -41.2082    1.0000 </r>
       <r>  -41.1627    1.0000 </r>
       <r>  -40.2875    1.0000 </r>
       <r>  -40.2530    1.0000 </r>
       <r>  -40.2457    1.0000 </r>
       <r>  -40.1894    1.0000 </r>
       <r>  -40.1748    1.0000 </r>
       <r>  -40.1564    1.0000 </r>
       <r>  -40.1369    1.0000 </r>
       <r>  -40.1119    1.0000 </r>
       <r>  -40.0953    1.0000 </r>
       <r>  -40.0932    1.0000 </r>
       <r>  -40.0906    1.0000 </r>
       <r>  -40.0504    1.0000 </r>
       <r>  -15.5377    1.0000 </r>
       <r>  -15.5310    1.0000 </r>
       <r>  -15.5250    1.0000 </r>
       <r>  -15.5149    1.0000 </r>
       <r>  -15.4911    1.0000 </r>
       <r>   -7.7721    1.0000 </r>
       <r>   -6.6785    1.0000 </r>
       <r>   -6.6243    1.0000 </r>
       <r>   -5.8012    1.0000 </r>
       <r>   -5.5888    1.0000 </r>
       <r>   -4.8888    1.0000 </r>
       <r>   -4.8412    1.0000 </r>
       <r>   -4.8195    1.0000 </r>
       <r>   -4.7609    1.0000 </r>
       <r>   -4.6094    1.0000 </r>
       <r>   -4.4030    1.0000 </r>
       <r>   -4.2325    1.0000 </r>
       <r>   -4.1860    1.0000 </r>
       <r>   -4.0983    1.0000 </r>
       <r>   -4.0443    1.0000 </r>
       <r>   -4.0101    1.0000 </r>
       <r>   -3.9703    1.0000 </r>
       <r>   -3.7870    1.0000 </r>
       <r>   -3.7735    1.0000 </r>
       <r>   -3.7411    1.0000 </r>
       <r>   -3.7314    1.0000 </r>
       <r>   -3.7170    1.0000 </r>
       <r>   -3.7023    1.0000 </r>
       <r>   -3.6896    1.0000 </r>
       <r>   -3.6727    1.0000 </r>
       <r>   -3.6623    1.0000 </r>
       <r>   -3.6522    1.0000 </r>
       <r>   -3.6426    1.0000 </r>
       <r>   -3.6230    1.0000 </r>
       <r>   -3.6072    1.0000 </r>
       <r>   -3.5920    1.0000 </r>
       <r>   -3.5650    1.0000 </r>
       <r>   -3.5523    1.0000 </r>
       <r>   -3.5030    1.0000 </r>
       <r>   -3.3976    1.0000 </r>
       <r>   -3.3510    1.0000 </r>
       <r>   -3.3247    1.0000 </r>
       <r>   -3.2904    1.0000 </r>
       <r>   -3.2753    1.0000 </r>
       <r>   -3.2683    1.0000 </r>
       <r>   -3.2334    1.0000 </r>
       <r>   -3.2211    1.0000 </r>
       <r>   -3.1807    1.0000 </r>
       <r>   -3.1570    1.0000 </r>
       <r>   -3.1450    1.0000 </r>
       <r>   -3.1217    1.0000 </r>
       <r>   -3.1113    1.0000 </r>
       <r>   -3.1064    1.0000 </r>
       <r>   -3.0860    1.0000 </r>
       <r>   -3.0457    1.0000 </r>
       <r>   -3.0317    1.0000 </r>
       <r>   -3.0308    1.0000 </r>
       <r>   -3.0026    1.0000 </r>
       <r>   -2.9959    1.0000 </r>
       <r>   -2.9871    1.0000 </r>
       <r>   -2.9397    1.0000 </r>
       <r>   -2.9174    1.0000 </r>
       <r>   -2.8889    1.0000 </r>
       <r>   -2.8800    1.0000 </r>
       <r>   -2.8722    1.0000 </r>
       <r>   -2.8440    1.0000 </r>
       <r>   -2.8335    1.0000 </r>
       <r>   -2.8135    1.0000 </r>
       <r>   -2.7947    1.0000 </r>
       <r>   -2.7691    1.0000 </r>
       <r>   -2.7557    1.0000 </r>
       <r>   -2.7273    1.0000 </r>
       <r>   -2.7087    1.0000 </r>
       <r>   -2.6650    1.0000 </r>
       <r>   -2.6393    1.0000 </r>
       <r>   -2.6242    1.0000 </r>
       <r>   -2.6153    1.0000 </r>
       <r>   -2.5982    1.0000 </r>
       <r>   -2.5836    1.0000 </r>
       <r>   -2.5725    1.0000 </r>
       <r>   -2.5676    1.0000 </r>
       <r>   -2.5455    1.0000 </r>
       <r>   -2.5341    1.0000 </r>
       <r>   -2.5129    1.0000 </r>
       <r>   -2.5062    1.0000 </r>
       <r>   -2.5043    1.0000 </r>
       <r>   -2.4857    1.0000 </r>
       <r>   -2.4715    1.0000 </r>
       <r>   -2.4593    1.0000 </r>
       <r>   -2.4403    1.0000 </r>
       <r>   -2.4360    1.0000 </r>
       <r>   -2.4132    1.0000 </r>
       <r>   -2.3926    1.0000 </r>
       <r>   -2.3856    1.0000 </r>
       <r>   -2.3749    1.0000 </r>
       <r>   -2.3633    1.0000 </r>
       <r>   -2.3449    1.0000 </r>
       <r>   -2.3314    1.0000 </r>
       <r>   -2.3133    1.0000 </r>
       <r>   -2.2867    1.0000 </r>
       <r>   -2.2793    1.0000 </r>
       <r>   -2.2783    1.0000 </r>
       <r>   -2.2746    1.0000 </r>
       <r>   -2.2590    1.0000 </r>
       <r>   -2.2243    1.0000 </r>
       <r>   -2.2141    1.0000 </r>
       <r>   -2.2021    1.0000 </r>
       <r>   -2.1760    1.0000 </r>
       <r>   -2.1482    1.0000 </r>
       <r>   -2.1271    1.0000 </r>
       <r>   -2.1241    1.0000 </r>
       <r>   -2.1043    1.0000 </r>
       <r>   -2.0963    1.0000 </r>
       <r>   -2.0771    1.0000 </r>
       <r>   -2.0716    1.0000 </r>
       <r>   -2.0589    1.0000 </r>
       <r>   -2.0567    1.0000 </r>
       <r>   -2.0421    1.0000 </r>
       <r>   -2.0314    1.0000 </r>
       <r>   -2.0011    1.0000 </r>
       <r>   -1.9964    1.0000 </r>
       <r>   -1.9951    1.0000 </r>
       <r>   -1.9670    1.0000 </r>
       <r>   -1.9532    1.0000 </r>
       <r>   -1.9350    1.0000 </r>
       <r>   -1.9269    1.0000 </r>
       <r>   -1.9206    1.0000 </r>
       <r>   -1.9058    1.0000 </r>
       <r>   -1.8974    1.0000 </r>
       <r>   -1.8872    1.0000 </r>
       <r>   -1.8851    1.0000 </r>
       <r>   -1.8489    1.0000 </r>
       <r>   -1.8419    1.0000 </r>
       <r>   -1.8032    1.0000 </r>
       <r>   -1.7983    1.0000 </r>
       <r>   -1.7909    1.0000 </r>
       <r>   -1.7671    1.0000 </r>
       <r>   -1.7622    1.0000 </r>
       <r>   -1.7475    1.0000 </r>
       <r>   -1.7296    1.0000 </r>
       <r>   -1.7140    1.0000 </r>
       <r>   -1.7099    1.0000 </r>
       <r>   -1.6981    1.0000 </r>
       <r>   -1.6822    1.0000 </r>
       <r>   -1.6656    1.0000 </r>
       <r>   -1.6641    1.0000 </r>
       <r>   -1.6515    1.0000 </r>
       <r>   -1.6394    1.0000 </r>
       <r>   -1.6105    1.0000 </r>
       <r>   -1.5972    1.0000 </r>
       <r>   -1.5912    1.0000 </r>
       <r>   -1.5823    1.0000 </r>
       <r>   -1.5368    1.0000 </r>
       <r>   -1.5287    1.0000 </r>
       <r>   -1.5241    1.0000 </r>
       <r>   -1.5013    1.0000 </r>
       <r>   -1.4899    1.0000 </r>
       <r>   -1.4823    1.0000 </r>
       <r>   -1.4767    1.0000 </r>
       <r>   -1.4496    1.0000 </r>
       <r>   -1.4223    1.0000 </r>
       <r>   -1.4098    1.0000 </r>
       <r>   -1.4042    1.0000 </r>
       <r>   -1.3794    1.0000 </r>
       <r>   -1.3488    1.0000 </r>
       <r>   -1.3346    1.0000 </r>
       <r>   -1.3172    1.0000 </r>
       <r>   -1.3034    1.0000 </r>
       <r>   -1.2979    1.0000 </r>
       <r>   -1.2865    1.0000 </r>
       <r>   -1.2660    1.0000 </r>
       <r>   -1.2281    1.0000 </r>
       <r>   -1.2203    1.0000 </r>
       <r>   -1.2091    1.0000 </r>
       <r>   -1.1777    1.0000 </r>
       <r>   -1.1626    1.0000 </r>
       <r>   -1.1358    1.0000 </r>
       <r>   -1.1303    1.0000 </r>
       <r>   -1.1005    1.0000 </r>
       <r>   -1.0733    1.0000 </r>
       <r>   -1.0518    1.0000 </r>
       <r>   -1.0359    1.0000 </r>
       <r>   -1.0057    1.0000 </r>
       <r>   -0.9726    1.0000 </r>
       <r>   -0.9419    1.0000 </r>
       <r>   -0.9243    1.0000 </r>
       <r>   -0.9071    1.0000 </r>
       <r>   -0.8891    1.0000 </r>
       <r>   -0.8804    1.0000 </r>
       <r>   -0.8747    1.0000 </r>
       <r>   -0.8186    1.0000 </r>
       <r>   -0.8112    1.0000 </r>
       <r>   -0.8058    1.0000 </r>
       <r>   -0.7926    1.0000 </r>
       <r>   -0.7752    1.0000 </r>
       <r>   -0.7561    1.0000 </r>
       <r>   -0.7205    1.0000 </r>
       <r>   -0.7147    1.0000 </r>
       <r>   -0.6972    1.0000 </r>
       <r>   -0.6867    1.0000 </r>
       <r>   -0.6614    1.0000 </r>
       <r>   -0.6475    1.0000 </r>
       <r>   -0.6465    1.0000 </r>
       <r>   -0.6324    1.0000 </r>
       <r>   -0.6020    1.0000 </r>
       <r>   -0.5974    1.0000 </r>
       <r>   -0.5929    1.0000 </r>
       <r>   -0.5767    1.0000 </r>
       <r>   -0.5734    1.0000 </r>
       <r>   -0.5685    1.0000 </r>
       <r>   -0.5532    1.0000 </r>
       <r>   -0.5463    1.0000 </r>
       <r>   -0.5345    1.0000 </r>
       <r>   -0.5216    1.0000 </r>
       <r>   -0.5165    1.0000 </r>
       <r>   -0.5100    1.0000 </r>
       <r>   -0.4968    1.0000 </r>
       <r>   -0.4867    1.0000 </r>
       <r>   -0.4695    1.0000 </r>
       <r>   -0.4585    1.0000 </r>
       <r>   -0.4507    1.0000 </r>
       <r>   -0.4331    1.0000 </r>
       <r>   -0.4253    1.0000 </r>
       <r>   -0.4096    1.0000 </r>
       <r>   -0.4025    1.0000 </r>
       <r>   -0.3922    1.0000 </r>
       <r>   -0.3825    1.0000 </r>
       <r>   -0.3785    1.0000 </r>
       <r>   -0.3574    1.0000 </r>
       <r>   -0.3508    1.0000 </r>
       <r>   -0.3464    1.0000 </r>
       <r>   -0.3302    1.0000 </r>
       <r>   -0.3116    1.0000 </r>
       <r>   -0.3056    1.0000 </r>
       <r>   -0.2916    1.0000 </r>
       <r>   -0.2841    1.0000 </r>
       <r>   -0.2712    1.0000 </r>
       <r>   -0.2695    1.0000 </r>
       <r>   -0.2556    1.0000 </r>
       <r>   -0.2431    1.0000 </r>
       <r>   -0.2244    1.0000 </r>
       <r>   -0.2212    1.0000 </r>
       <r>   -0.2015    1.0000 </r>
       <r>   -0.1923    1.0000 </r>
       <r>   -0.1693    1.0000 </r>
       <r>   -0.1578    1.0000 </r>
       <r>   -0.1487    1.0000 </r>
       <r>   -0.1350    1.0000 </r>
       <r>   -0.1203    1.0000 </r>
       <r>   -0.1148    1.0000 </r>
       <r>   -0.0810    1.0000 </r>
       <r>   -0.0649    1.0000 </r>
       <r>   -0.0567    1.0000 </r>
       <r>   -0.0258    1.0000 </r>
       <r>   -0.0148    1.0000 </r>
       <r>    0.0013    1.0000 </r>
       <r>    0.0052    1.0000 </r>
       <r>    0.0403    1.0000 </r>
       <r>    0.0635    1.0000 </r>
       <r>    0.0665    1.0000 </r>
       <r>    0.1289    1.0000 </r>
       <r>    0.1336    1.0000 </r>
       <r>    0.1514    1.0000 </r>
       <r>    0.1748    1.0000 </r>
       <r>    0.1880    1.0000 </r>
       <r>    0.2315    1.0000 </r>
       <r>    0.2367    1.0000 </r>
       <r>    0.2589    1.0000 </r>
       <r>    0.2766    1.0000 </r>
       <r>    0.2905    1.0000 </r>
       <r>    0.3236    1.0000 </r>
       <r>    0.3409    1.0000 </r>
       <r>    0.3904    1.0000 </r>
       <r>    0.4063    1.0000 </r>
       <r>    0.4376    1.0000 </r>
       <r>    0.4797    1.0001 </r>
       <r>    0.5049    1.0002 </r>
       <r>    0.5413    1.0007 </r>
       <r>    0.5556    1.0011 </r>
       <r>    0.5858    1.0025 </r>
       <r>    0.6451    1.0101 </r>
       <r>    0.6512    1.0114 </r>
       <r>    0.6685    1.0157 </r>
       <r>    0.7244    1.0319 </r>
       <r>    0.7540    1.0353 </r>
       <r>    0.8095    0.9968 </r>
       <r>    0.8495    0.9018 </r>
       <r>    0.8936    0.7172 </r>
       <r>    0.9099    0.6322 </r>
       <r>    0.9311    0.5146 </r>
       <r>    0.9802    0.2511 </r>
       <r>    1.0074    0.1347 </r>
       <r>    1.0182    0.0970 </r>
       <r>    1.0987   -0.0327 </r>
       <r>    1.1142   -0.0354 </r>
       <r>    1.1304   -0.0344 </r>
       <r>    1.1433   -0.0319 </r>
       <r>    1.1636   -0.0262 </r>
       <r>    1.2071   -0.0136 </r>
       <r>    1.2395   -0.0070 </r>
       <r>    1.3027   -0.0014 </r>
       <r>    1.3408   -0.0004 </r>
       <r>    1.3787   -0.0001 </r>
       <r>    1.4107   -0.0000 </r>
       <r>    1.4557   -0.0000 </r>
       <r>    1.4812   -0.0000 </r>
       <r>    1.5184   -0.0000 </r>
       <r>    1.5818   -0.0000 </r>
       <r>    1.6040   -0.0000 </r>
       <r>    1.6185   -0.0000 </r>
       <r>    1.6405   -0.0000 </r>
       <r>    1.6972   -0.0000 </r>
       <r>    1.7522   -0.0000 </r>
       <r>    1.7813   -0.0000 </r>
       <r>    1.8030   -0.0000 </r>
       <r>    1.8729   -0.0000 </r>
       <r>    1.8851   -0.0000 </r>
       <r>    1.9071   -0.0000 </r>
       <r>    1.9418   -0.0000 </r>
       <r>    1.9713   -0.0000 </r>
       <r>    1.9782   -0.0000 </r>
       <r>    2.0105   -0.0000 </r>
       <r>    2.0704   -0.0000 </r>
       <r>    2.1017   -0.0000 </r>
       <r>    2.1060   -0.0000 </r>
       <r>    2.1622   -0.0000 </r>
       <r>    2.1768   -0.0000 </r>
       <r>    2.2111   -0.0000 </r>
       <r>    2.2444   -0.0000 </r>
       <r>    2.2782   -0.0000 </r>
      </set>
      <set comment="kpoint 4">
       <r>  -42.9369    1.0000 </r>
       <r>  -42.8715    1.0000 </r>
       <r>  -42.8497    1.0000 </r>
       <r>  -42.2460    1.0000 </r>
       <r>  -42.1958    1.0000 </r>
       <r>  -42.1562    1.0000 </r>
       <r>  -42.1184    1.0000 </r>
       <r>  -42.0511    1.0000 </r>
       <r>  -42.0245    1.0000 </r>
       <r>  -41.9888    1.0000 </r>
       <r>  -41.9762    1.0000 </r>
       <r>  -41.9554    1.0000 </r>
       <r>  -41.8860    1.0000 </r>
       <r>  -41.8701    1.0000 </r>
       <r>  -41.8514    1.0000 </r>
       <r>  -41.8381    1.0000 </r>
       <r>  -41.8320    1.0000 </r>
       <r>  -41.8097    1.0000 </r>
       <r>  -41.8028    1.0000 </r>
       <r>  -41.8002    1.0000 </r>
       <r>  -41.7723    1.0000 </r>
       <r>  -41.7505    1.0000 </r>
       <r>  -41.7469    1.0000 </r>
       <r>  -41.7395    1.0000 </r>
       <r>  -41.2679    1.0000 </r>
       <r>  -41.2082    1.0000 </r>
       <r>  -41.1627    1.0000 </r>
       <r>  -40.2875    1.0000 </r>
       <r>  -40.2530    1.0000 </r>
       <r>  -40.2456    1.0000 </r>
       <r>  -40.1894    1.0000 </r>
       <r>  -40.1749    1.0000 </r>
       <r>  -40.1564    1.0000 </r>
       <r>  -40.1369    1.0000 </r>
       <r>  -40.1119    1.0000 </r>
       <r>  -40.0953    1.0000 </r>
       <r>  -40.0932    1.0000 </r>
       <r>  -40.0906    1.0000 </r>
       <r>  -40.0504    1.0000 </r>
       <r>  -15.5377    1.0000 </r>
       <r>  -15.5310    1.0000 </r>
       <r>  -15.5250    1.0000 </r>
       <r>  -15.5150    1.0000 </r>
       <r>  -15.4911    1.0000 </r>
       <r>   -7.8079    1.0000 </r>
       <r>   -7.0188    1.0000 </r>
       <r>   -6.0775    1.0000 </r>
       <r>   -5.9718    1.0000 </r>
       <r>   -5.2075    1.0000 </r>
       <r>   -5.1384    1.0000 </r>
       <r>   -5.0865    1.0000 </r>
       <r>   -4.7187    1.0000 </r>
       <r>   -4.5412    1.0000 </r>
       <r>   -4.4730    1.0000 </r>
       <r>   -4.4348    1.0000 </r>
       <r>   -4.4224    1.0000 </r>
       <r>   -4.3531    1.0000 </r>
       <r>   -4.2144    1.0000 </r>
       <r>   -4.1271    1.0000 </r>
       <r>   -4.0218    1.0000 </r>
       <r>   -3.9830    1.0000 </r>
       <r>   -3.9135    1.0000 </r>
       <r>   -3.8787    1.0000 </r>
       <r>   -3.8340    1.0000 </r>
       <r>   -3.8099    1.0000 </r>
       <r>   -3.7824    1.0000 </r>
       <r>   -3.7604    1.0000 </r>
       <r>   -3.7326    1.0000 </r>
       <r>   -3.6554    1.0000 </r>
       <r>   -3.6403    1.0000 </r>
       <r>   -3.5863    1.0000 </r>
       <r>   -3.5707    1.0000 </r>
       <r>   -3.5425    1.0000 </r>
       <r>   -3.5245    1.0000 </r>
       <r>   -3.4996    1.0000 </r>
       <r>   -3.4840    1.0000 </r>
       <r>   -3.4305    1.0000 </r>
       <r>   -3.3849    1.0000 </r>
       <r>   -3.3639    1.0000 </r>
       <r>   -3.3329    1.0000 </r>
       <r>   -3.2958    1.0000 </r>
       <r>   -3.2758    1.0000 </r>
       <r>   -3.2624    1.0000 </r>
       <r>   -3.2431    1.0000 </r>
       <r>   -3.2197    1.0000 </r>
       <r>   -3.1941    1.0000 </r>
       <r>   -3.1819    1.0000 </r>
       <r>   -3.1759    1.0000 </r>
       <r>   -3.1562    1.0000 </r>
       <r>   -3.1451    1.0000 </r>
       <r>   -3.1197    1.0000 </r>
       <r>   -3.1031    1.0000 </r>
       <r>   -3.0740    1.0000 </r>
       <r>   -3.0407    1.0000 </r>
       <r>   -3.0335    1.0000 </r>
       <r>   -3.0144    1.0000 </r>
       <r>   -3.0029    1.0000 </r>
       <r>   -2.9771    1.0000 </r>
       <r>   -2.9555    1.0000 </r>
       <r>   -2.9320    1.0000 </r>
       <r>   -2.9100    1.0000 </r>
       <r>   -2.8696    1.0000 </r>
       <r>   -2.8564    1.0000 </r>
       <r>   -2.8424    1.0000 </r>
       <r>   -2.8176    1.0000 </r>
       <r>   -2.7610    1.0000 </r>
       <r>   -2.7441    1.0000 </r>
       <r>   -2.7279    1.0000 </r>
       <r>   -2.7117    1.0000 </r>
       <r>   -2.6931    1.0000 </r>
       <r>   -2.6865    1.0000 </r>
       <r>   -2.6516    1.0000 </r>
       <r>   -2.6416    1.0000 </r>
       <r>   -2.6216    1.0000 </r>
       <r>   -2.5933    1.0000 </r>
       <r>   -2.5800    1.0000 </r>
       <r>   -2.5680    1.0000 </r>
       <r>   -2.5589    1.0000 </r>
       <r>   -2.5512    1.0000 </r>
       <r>   -2.5404    1.0000 </r>
       <r>   -2.5281    1.0000 </r>
       <r>   -2.5133    1.0000 </r>
       <r>   -2.4974    1.0000 </r>
       <r>   -2.4880    1.0000 </r>
       <r>   -2.4778    1.0000 </r>
       <r>   -2.4692    1.0000 </r>
       <r>   -2.4564    1.0000 </r>
       <r>   -2.4451    1.0000 </r>
       <r>   -2.4422    1.0000 </r>
       <r>   -2.4281    1.0000 </r>
       <r>   -2.4093    1.0000 </r>
       <r>   -2.3985    1.0000 </r>
       <r>   -2.3927    1.0000 </r>
       <r>   -2.3755    1.0000 </r>
       <r>   -2.3621    1.0000 </r>
       <r>   -2.3412    1.0000 </r>
       <r>   -2.3292    1.0000 </r>
       <r>   -2.3247    1.0000 </r>
       <r>   -2.3044    1.0000 </r>
       <r>   -2.2962    1.0000 </r>
       <r>   -2.2863    1.0000 </r>
       <r>   -2.2656    1.0000 </r>
       <r>   -2.2522    1.0000 </r>
       <r>   -2.2384    1.0000 </r>
       <r>   -2.2186    1.0000 </r>
       <r>   -2.2083    1.0000 </r>
       <r>   -2.2047    1.0000 </r>
       <r>   -2.1781    1.0000 </r>
       <r>   -2.1689    1.0000 </r>
       <r>   -2.1531    1.0000 </r>
       <r>   -2.1426    1.0000 </r>
       <r>   -2.1352    1.0000 </r>
       <r>   -2.1211    1.0000 </r>
       <r>   -2.1007    1.0000 </r>
       <r>   -2.0938    1.0000 </r>
       <r>   -2.0799    1.0000 </r>
       <r>   -2.0748    1.0000 </r>
       <r>   -2.0541    1.0000 </r>
       <r>   -2.0490    1.0000 </r>
       <r>   -2.0361    1.0000 </r>
       <r>   -2.0175    1.0000 </r>
       <r>   -1.9975    1.0000 </r>
       <r>   -1.9835    1.0000 </r>
       <r>   -1.9715    1.0000 </r>
       <r>   -1.9560    1.0000 </r>
       <r>   -1.9410    1.0000 </r>
       <r>   -1.9293    1.0000 </r>
       <r>   -1.9084    1.0000 </r>
       <r>   -1.8956    1.0000 </r>
       <r>   -1.8761    1.0000 </r>
       <r>   -1.8607    1.0000 </r>
       <r>   -1.8412    1.0000 </r>
       <r>   -1.8260    1.0000 </r>
       <r>   -1.8177    1.0000 </r>
       <r>   -1.8100    1.0000 </r>
       <r>   -1.7963    1.0000 </r>
       <r>   -1.7747    1.0000 </r>
       <r>   -1.7555    1.0000 </r>
       <r>   -1.7419    1.0000 </r>
       <r>   -1.7238    1.0000 </r>
       <r>   -1.7093    1.0000 </r>
       <r>   -1.6841    1.0000 </r>
       <r>   -1.6745    1.0000 </r>
       <r>   -1.6699    1.0000 </r>
       <r>   -1.6467    1.0000 </r>
       <r>   -1.6253    1.0000 </r>
       <r>   -1.6147    1.0000 </r>
       <r>   -1.5991    1.0000 </r>
       <r>   -1.5782    1.0000 </r>
       <r>   -1.5700    1.0000 </r>
       <r>   -1.5606    1.0000 </r>
       <r>   -1.5495    1.0000 </r>
       <r>   -1.5351    1.0000 </r>
       <r>   -1.5212    1.0000 </r>
       <r>   -1.5024    1.0000 </r>
       <r>   -1.4880    1.0000 </r>
       <r>   -1.4723    1.0000 </r>
       <r>   -1.4618    1.0000 </r>
       <r>   -1.4453    1.0000 </r>
       <r>   -1.4289    1.0000 </r>
       <r>   -1.4061    1.0000 </r>
       <r>   -1.3951    1.0000 </r>
       <r>   -1.3726    1.0000 </r>
       <r>   -1.3346    1.0000 </r>
       <r>   -1.3204    1.0000 </r>
       <r>   -1.3061    1.0000 </r>
       <r>   -1.2861    1.0000 </r>
       <r>   -1.2725    1.0000 </r>
       <r>   -1.2518    1.0000 </r>
       <r>   -1.2342    1.0000 </r>
       <r>   -1.2204    1.0000 </r>
       <r>   -1.2084    1.0000 </r>
       <r>   -1.1889    1.0000 </r>
       <r>   -1.1632    1.0000 </r>
       <r>   -1.1383    1.0000 </r>
       <r>   -1.1198    1.0000 </r>
       <r>   -1.1082    1.0000 </r>
       <r>   -1.0795    1.0000 </r>
       <r>   -1.0671    1.0000 </r>
       <r>   -1.0349    1.0000 </r>
       <r>   -1.0093    1.0000 </r>
       <r>   -0.9886    1.0000 </r>
       <r>   -0.9659    1.0000 </r>
       <r>   -0.9512    1.0000 </r>
       <r>   -0.9320    1.0000 </r>
       <r>   -0.9082    1.0000 </r>
       <r>   -0.8987    1.0000 </r>
       <r>   -0.8724    1.0000 </r>
       <r>   -0.8527    1.0000 </r>
       <r>   -0.8418    1.0000 </r>
       <r>   -0.8202    1.0000 </r>
       <r>   -0.8112    1.0000 </r>
       <r>   -0.7926    1.0000 </r>
       <r>   -0.7802    1.0000 </r>
       <r>   -0.7685    1.0000 </r>
       <r>   -0.7554    1.0000 </r>
       <r>   -0.7317    1.0000 </r>
       <r>   -0.7135    1.0000 </r>
       <r>   -0.7062    1.0000 </r>
       <r>   -0.6946    1.0000 </r>
       <r>   -0.6688    1.0000 </r>
       <r>   -0.6612    1.0000 </r>
       <r>   -0.6542    1.0000 </r>
       <r>   -0.6422    1.0000 </r>
       <r>   -0.6196    1.0000 </r>
       <r>   -0.6040    1.0000 </r>
       <r>   -0.5914    1.0000 </r>
       <r>   -0.5794    1.0000 </r>
       <r>   -0.5727    1.0000 </r>
       <r>   -0.5579    1.0000 </r>
       <r>   -0.5485    1.0000 </r>
       <r>   -0.5360    1.0000 </r>
       <r>   -0.5159    1.0000 </r>
       <r>   -0.5123    1.0000 </r>
       <r>   -0.5052    1.0000 </r>
       <r>   -0.4872    1.0000 </r>
       <r>   -0.4751    1.0000 </r>
       <r>   -0.4591    1.0000 </r>
       <r>   -0.4515    1.0000 </r>
       <r>   -0.4362    1.0000 </r>
       <r>   -0.4306    1.0000 </r>
       <r>   -0.4230    1.0000 </r>
       <r>   -0.4159    1.0000 </r>
       <r>   -0.4038    1.0000 </r>
       <r>   -0.3851    1.0000 </r>
       <r>   -0.3825    1.0000 </r>
       <r>   -0.3764    1.0000 </r>
       <r>   -0.3687    1.0000 </r>
       <r>   -0.3573    1.0000 </r>
       <r>   -0.3404    1.0000 </r>
       <r>   -0.3287    1.0000 </r>
       <r>   -0.3247    1.0000 </r>
       <r>   -0.3052    1.0000 </r>
       <r>   -0.2942    1.0000 </r>
       <r>   -0.2874    1.0000 </r>
       <r>   -0.2830    1.0000 </r>
       <r>   -0.2644    1.0000 </r>
       <r>   -0.2514    1.0000 </r>
       <r>   -0.2408    1.0000 </r>
       <r>   -0.2284    1.0000 </r>
       <r>   -0.2134    1.0000 </r>
       <r>   -0.2046    1.0000 </r>
       <r>   -0.1981    1.0000 </r>
       <r>   -0.1862    1.0000 </r>
       <r>   -0.1740    1.0000 </r>
       <r>   -0.1666    1.0000 </r>
       <r>   -0.1547    1.0000 </r>
       <r>   -0.1392    1.0000 </r>
       <r>   -0.1210    1.0000 </r>
       <r>   -0.1150    1.0000 </r>
       <r>   -0.1041    1.0000 </r>
       <r>   -0.0931    1.0000 </r>
       <r>   -0.0687    1.0000 </r>
       <r>   -0.0585    1.0000 </r>
       <r>   -0.0531    1.0000 </r>
       <r>   -0.0237    1.0000 </r>
       <r>   -0.0148    1.0000 </r>
       <r>    0.0022    1.0000 </r>
       <r>    0.0310    1.0000 </r>
       <r>    0.0572    1.0000 </r>
       <r>    0.0733    1.0000 </r>
       <r>    0.0917    1.0000 </r>
       <r>    0.1184    1.0000 </r>
       <r>    0.1319    1.0000 </r>
       <r>    0.1568    1.0000 </r>
       <r>    0.1980    1.0000 </r>
       <r>    0.2108    1.0000 </r>
       <r>    0.2513    1.0000 </r>
       <r>    0.2910    1.0000 </r>
       <r>    0.3124    1.0000 </r>
       <r>    0.3262    1.0000 </r>
       <r>    0.3479    1.0000 </r>
       <r>    0.3935    1.0000 </r>
       <r>    0.4130    1.0000 </r>
       <r>    0.4351    1.0000 </r>
       <r>    0.4631    1.0000 </r>
       <r>    0.5032    1.0002 </r>
       <r>    0.5360    1.0006 </r>
       <r>    0.5699    1.0016 </r>
       <r>    0.5809    1.0022 </r>
       <r>    0.6197    1.0059 </r>
       <r>    0.6437    1.0099 </r>
       <r>    0.6879    1.0213 </r>
       <r>    0.7200    1.0309 </r>
       <r>    0.7498    1.0355 </r>
       <r>    0.7778    1.0287 </r>
       <r>    0.8052    1.0032 </r>
       <r>    0.8730    0.8132 </r>
       <r>    0.9022    0.6732 </r>
       <r>    0.9194    0.5799 </r>
       <r>    0.9608    0.3494 </r>
       <r>    1.0042    0.1468 </r>
       <r>    1.0735   -0.0166 </r>
       <r>    1.0872   -0.0274 </r>
       <r>    1.1053   -0.0343 </r>
       <r>    1.1818   -0.0206 </r>
       <r>    1.1949   -0.0168 </r>
       <r>    1.2082   -0.0133 </r>
       <r>    1.2407   -0.0069 </r>
       <r>    1.2898   -0.0020 </r>
       <r>    1.3465   -0.0003 </r>
       <r>    1.3815   -0.0001 </r>
       <r>    1.4061   -0.0000 </r>
       <r>    1.4646   -0.0000 </r>
       <r>    1.5013   -0.0000 </r>
       <r>    1.5469   -0.0000 </r>
       <r>    1.5776   -0.0000 </r>
       <r>    1.6381   -0.0000 </r>
       <r>    1.6603   -0.0000 </r>
       <r>    1.6912   -0.0000 </r>
       <r>    1.7238   -0.0000 </r>
       <r>    1.7847   -0.0000 </r>
       <r>    1.7970   -0.0000 </r>
       <r>    1.8397   -0.0000 </r>
       <r>    1.8650   -0.0000 </r>
       <r>    1.8849   -0.0000 </r>
       <r>    1.9228   -0.0000 </r>
       <r>    1.9493   -0.0000 </r>
       <r>    1.9728   -0.0000 </r>
       <r>    2.0201   -0.0000 </r>
       <r>    2.0480   -0.0000 </r>
       <r>    2.0993   -0.0000 </r>
       <r>    2.1193   -0.0000 </r>
       <r>    2.1486   -0.0000 </r>
       <r>    2.1628   -0.0000 </r>
       <r>    2.1939   -0.0000 </r>
       <r>    2.2454   -0.0000 </r>
       <r>    2.2649   -0.0000 </r>
       <r>    2.2731   -0.0000 </r>
      </set>
      <set comment="kpoint 5">
       <r>  -42.9369    1.0000 </r>
       <r>  -42.8715    1.0000 </r>
       <r>  -42.8496    1.0000 </r>
       <r>  -42.2460    1.0000 </r>
       <r>  -42.1958    1.0000 </r>
       <r>  -42.1562    1.0000 </r>
       <r>  -42.1184    1.0000 </r>
       <r>  -42.0511    1.0000 </r>
       <r>  -42.0245    1.0000 </r>
       <r>  -41.9888    1.0000 </r>
       <r>  -41.9762    1.0000 </r>
       <r>  -41.9554    1.0000 </r>
       <r>  -41.8860    1.0000 </r>
       <r>  -41.8701    1.0000 </r>
       <r>  -41.8514    1.0000 </r>
       <r>  -41.8381    1.0000 </r>
       <r>  -41.8320    1.0000 </r>
       <r>  -41.8097    1.0000 </r>
       <r>  -41.8028    1.0000 </r>
       <r>  -41.8003    1.0000 </r>
       <r>  -41.7723    1.0000 </r>
       <r>  -41.7504    1.0000 </r>
       <r>  -41.7469    1.0000 </r>
       <r>  -41.7395    1.0000 </r>
       <r>  -41.2679    1.0000 </r>
       <r>  -41.2082    1.0000 </r>
       <r>  -41.1627    1.0000 </r>
       <r>  -40.2875    1.0000 </r>
       <r>  -40.2530    1.0000 </r>
       <r>  -40.2456    1.0000 </r>
       <r>  -40.1894    1.0000 </r>
       <r>  -40.1749    1.0000 </r>
       <r>  -40.1564    1.0000 </r>
       <r>  -40.1370    1.0000 </r>
       <r>  -40.1119    1.0000 </r>
       <r>  -40.0953    1.0000 </r>
       <r>  -40.0932    1.0000 </r>
       <r>  -40.0906    1.0000 </r>
       <r>  -40.0504    1.0000 </r>
       <r>  -15.5377    1.0000 </r>
       <r>  -15.5310    1.0000 </r>
       <r>  -15.5250    1.0000 </r>
       <r>  -15.5149    1.0000 </r>
       <r>  -15.4911    1.0000 </r>
       <r>   -7.7811    1.0000 </r>
       <r>   -6.8957    1.0000 </r>
       <r>   -5.9885    1.0000 </r>
       <r>   -5.9287    1.0000 </r>
       <r>   -5.8001    1.0000 </r>
       <r>   -5.1575    1.0000 </r>
       <r>   -5.0432    1.0000 </r>
       <r>   -4.9709    1.0000 </r>
       <r>   -4.6257    1.0000 </r>
       <r>   -4.3397    1.0000 </r>
       <r>   -4.2738    1.0000 </r>
       <r>   -4.2289    1.0000 </r>
       <r>   -4.1981    1.0000 </r>
       <r>   -4.0492    1.0000 </r>
       <r>   -4.0377    1.0000 </r>
       <r>   -3.9919    1.0000 </r>
       <r>   -3.9718    1.0000 </r>
       <r>   -3.9278    1.0000 </r>
       <r>   -3.9142    1.0000 </r>
       <r>   -3.8612    1.0000 </r>
       <r>   -3.7965    1.0000 </r>
       <r>   -3.7495    1.0000 </r>
       <r>   -3.7378    1.0000 </r>
       <r>   -3.7012    1.0000 </r>
       <r>   -3.6582    1.0000 </r>
       <r>   -3.6453    1.0000 </r>
       <r>   -3.5941    1.0000 </r>
       <r>   -3.5256    1.0000 </r>
       <r>   -3.4480    1.0000 </r>
       <r>   -3.4359    1.0000 </r>
       <r>   -3.4272    1.0000 </r>
       <r>   -3.4180    1.0000 </r>
       <r>   -3.3891    1.0000 </r>
       <r>   -3.3782    1.0000 </r>
       <r>   -3.3615    1.0000 </r>
       <r>   -3.3516    1.0000 </r>
       <r>   -3.3409    1.0000 </r>
       <r>   -3.3187    1.0000 </r>
       <r>   -3.3061    1.0000 </r>
       <r>   -3.2850    1.0000 </r>
       <r>   -3.2714    1.0000 </r>
       <r>   -3.2574    1.0000 </r>
       <r>   -3.2264    1.0000 </r>
       <r>   -3.2206    1.0000 </r>
       <r>   -3.1990    1.0000 </r>
       <r>   -3.1870    1.0000 </r>
       <r>   -3.1505    1.0000 </r>
       <r>   -3.1330    1.0000 </r>
       <r>   -3.1175    1.0000 </r>
       <r>   -3.0943    1.0000 </r>
       <r>   -3.0814    1.0000 </r>
       <r>   -3.0643    1.0000 </r>
       <r>   -3.0389    1.0000 </r>
       <r>   -3.0115    1.0000 </r>
       <r>   -2.9906    1.0000 </r>
       <r>   -2.9703    1.0000 </r>
       <r>   -2.9228    1.0000 </r>
       <r>   -2.8988    1.0000 </r>
       <r>   -2.8557    1.0000 </r>
       <r>   -2.8314    1.0000 </r>
       <r>   -2.8142    1.0000 </r>
       <r>   -2.7954    1.0000 </r>
       <r>   -2.7849    1.0000 </r>
       <r>   -2.7649    1.0000 </r>
       <r>   -2.7390    1.0000 </r>
       <r>   -2.7151    1.0000 </r>
       <r>   -2.6866    1.0000 </r>
       <r>   -2.6578    1.0000 </r>
       <r>   -2.6510    1.0000 </r>
       <r>   -2.6491    1.0000 </r>
       <r>   -2.6271    1.0000 </r>
       <r>   -2.6136    1.0000 </r>
       <r>   -2.6056    1.0000 </r>
       <r>   -2.5857    1.0000 </r>
       <r>   -2.5714    1.0000 </r>
       <r>   -2.5601    1.0000 </r>
       <r>   -2.5506    1.0000 </r>
       <r>   -2.5339    1.0000 </r>
       <r>   -2.5204    1.0000 </r>
       <r>   -2.5148    1.0000 </r>
       <r>   -2.4964    1.0000 </r>
       <r>   -2.4852    1.0000 </r>
       <r>   -2.4825    1.0000 </r>
       <r>   -2.4706    1.0000 </r>
       <r>   -2.4540    1.0000 </r>
       <r>   -2.4490    1.0000 </r>
       <r>   -2.4330    1.0000 </r>
       <r>   -2.4129    1.0000 </r>
       <r>   -2.4091    1.0000 </r>
       <r>   -2.3880    1.0000 </r>
       <r>   -2.3761    1.0000 </r>
       <r>   -2.3525    1.0000 </r>
       <r>   -2.3322    1.0000 </r>
       <r>   -2.3176    1.0000 </r>
       <r>   -2.3032    1.0000 </r>
       <r>   -2.2889    1.0000 </r>
       <r>   -2.2736    1.0000 </r>
       <r>   -2.2649    1.0000 </r>
       <r>   -2.2462    1.0000 </r>
       <r>   -2.2353    1.0000 </r>
       <r>   -2.2228    1.0000 </r>
       <r>   -2.2036    1.0000 </r>
       <r>   -2.1838    1.0000 </r>
       <r>   -2.1746    1.0000 </r>
       <r>   -2.1627    1.0000 </r>
       <r>   -2.1561    1.0000 </r>
       <r>   -2.1516    1.0000 </r>
       <r>   -2.1236    1.0000 </r>
       <r>   -2.1117    1.0000 </r>
       <r>   -2.0902    1.0000 </r>
       <r>   -2.0804    1.0000 </r>
       <r>   -2.0704    1.0000 </r>
       <r>   -2.0585    1.0000 </r>
       <r>   -2.0490    1.0000 </r>
       <r>   -2.0301    1.0000 </r>
       <r>   -2.0196    1.0000 </r>
       <r>   -2.0108    1.0000 </r>
       <r>   -2.0010    1.0000 </r>
       <r>   -1.9777    1.0000 </r>
       <r>   -1.9610    1.0000 </r>
       <r>   -1.9567    1.0000 </r>
       <r>   -1.9440    1.0000 </r>
       <r>   -1.9221    1.0000 </r>
       <r>   -1.9068    1.0000 </r>
       <r>   -1.8947    1.0000 </r>
       <r>   -1.8758    1.0000 </r>
       <r>   -1.8554    1.0000 </r>
       <r>   -1.8426    1.0000 </r>
       <r>   -1.8279    1.0000 </r>
       <r>   -1.8144    1.0000 </r>
       <r>   -1.7969    1.0000 </r>
       <r>   -1.7926    1.0000 </r>
       <r>   -1.7830    1.0000 </r>
       <r>   -1.7661    1.0000 </r>
       <r>   -1.7409    1.0000 </r>
       <r>   -1.7186    1.0000 </r>
       <r>   -1.7112    1.0000 </r>
       <r>   -1.6937    1.0000 </r>
       <r>   -1.6764    1.0000 </r>
       <r>   -1.6677    1.0000 </r>
       <r>   -1.6568    1.0000 </r>
       <r>   -1.6317    1.0000 </r>
       <r>   -1.6243    1.0000 </r>
       <r>   -1.6105    1.0000 </r>
       <r>   -1.5967    1.0000 </r>
       <r>   -1.5793    1.0000 </r>
       <r>   -1.5556    1.0000 </r>
       <r>   -1.5452    1.0000 </r>
       <r>   -1.5294    1.0000 </r>
       <r>   -1.5091    1.0000 </r>
       <r>   -1.4934    1.0000 </r>
       <r>   -1.4860    1.0000 </r>
       <r>   -1.4776    1.0000 </r>
       <r>   -1.4573    1.0000 </r>
       <r>   -1.4382    1.0000 </r>
       <r>   -1.4304    1.0000 </r>
       <r>   -1.4133    1.0000 </r>
       <r>   -1.3981    1.0000 </r>
       <r>   -1.3800    1.0000 </r>
       <r>   -1.3383    1.0000 </r>
       <r>   -1.3228    1.0000 </r>
       <r>   -1.3104    1.0000 </r>
       <r>   -1.2913    1.0000 </r>
       <r>   -1.2704    1.0000 </r>
       <r>   -1.2543    1.0000 </r>
       <r>   -1.2318    1.0000 </r>
       <r>   -1.2139    1.0000 </r>
       <r>   -1.1917    1.0000 </r>
       <r>   -1.1740    1.0000 </r>
       <r>   -1.1523    1.0000 </r>
       <r>   -1.1296    1.0000 </r>
       <r>   -1.1182    1.0000 </r>
       <r>   -1.1018    1.0000 </r>
       <r>   -1.0771    1.0000 </r>
       <r>   -1.0319    1.0000 </r>
       <r>   -1.0224    1.0000 </r>
       <r>   -0.9981    1.0000 </r>
       <r>   -0.9735    1.0000 </r>
       <r>   -0.9637    1.0000 </r>
       <r>   -0.9379    1.0000 </r>
       <r>   -0.9149    1.0000 </r>
       <r>   -0.8988    1.0000 </r>
       <r>   -0.8765    1.0000 </r>
       <r>   -0.8592    1.0000 </r>
       <r>   -0.8464    1.0000 </r>
       <r>   -0.8324    1.0000 </r>
       <r>   -0.7971    1.0000 </r>
       <r>   -0.7810    1.0000 </r>
       <r>   -0.7627    1.0000 </r>
       <r>   -0.7522    1.0000 </r>
       <r>   -0.7458    1.0000 </r>
       <r>   -0.7258    1.0000 </r>
       <r>   -0.7146    1.0000 </r>
       <r>   -0.6979    1.0000 </r>
       <r>   -0.6797    1.0000 </r>
       <r>   -0.6607    1.0000 </r>
       <r>   -0.6456    1.0000 </r>
       <r>   -0.6353    1.0000 </r>
       <r>   -0.6249    1.0000 </r>
       <r>   -0.6193    1.0000 </r>
       <r>   -0.6042    1.0000 </r>
       <r>   -0.5956    1.0000 </r>
       <r>   -0.5778    1.0000 </r>
       <r>   -0.5682    1.0000 </r>
       <r>   -0.5630    1.0000 </r>
       <r>   -0.5503    1.0000 </r>
       <r>   -0.5328    1.0000 </r>
       <r>   -0.5223    1.0000 </r>
       <r>   -0.5158    1.0000 </r>
       <r>   -0.4997    1.0000 </r>
       <r>   -0.4833    1.0000 </r>
       <r>   -0.4794    1.0000 </r>
       <r>   -0.4630    1.0000 </r>
       <r>   -0.4544    1.0000 </r>
       <r>   -0.4499    1.0000 </r>
       <r>   -0.4370    1.0000 </r>
       <r>   -0.4242    1.0000 </r>
       <r>   -0.4195    1.0000 </r>
       <r>   -0.4008    1.0000 </r>
       <r>   -0.3903    1.0000 </r>
       <r>   -0.3812    1.0000 </r>
       <r>   -0.3663    1.0000 </r>
       <r>   -0.3613    1.0000 </r>
       <r>   -0.3490    1.0000 </r>
       <r>   -0.3442    1.0000 </r>
       <r>   -0.3280    1.0000 </r>
       <r>   -0.3161    1.0000 </r>
       <r>   -0.3073    1.0000 </r>
       <r>   -0.3011    1.0000 </r>
       <r>   -0.2867    1.0000 </r>
       <r>   -0.2752    1.0000 </r>
       <r>   -0.2666    1.0000 </r>
       <r>   -0.2544    1.0000 </r>
       <r>   -0.2440    1.0000 </r>
       <r>   -0.2358    1.0000 </r>
       <r>   -0.2238    1.0000 </r>
       <r>   -0.2146    1.0000 </r>
       <r>   -0.2023    1.0000 </r>
       <r>   -0.1893    1.0000 </r>
       <r>   -0.1711    1.0000 </r>
       <r>   -0.1671    1.0000 </r>
       <r>   -0.1537    1.0000 </r>
       <r>   -0.1377    1.0000 </r>
       <r>   -0.1299    1.0000 </r>
       <r>   -0.1168    1.0000 </r>
       <r>   -0.1026    1.0000 </r>
       <r>   -0.0925    1.0000 </r>
       <r>   -0.0709    1.0000 </r>
       <r>   -0.0635    1.0000 </r>
       <r>   -0.0440    1.0000 </r>
       <r>   -0.0200    1.0000 </r>
       <r>    0.0020    1.0000 </r>
       <r>    0.0203    1.0000 </r>
       <r>    0.0329    1.0000 </r>
       <r>    0.0580    1.0000 </r>
       <r>    0.0670    1.0000 </r>
       <r>    0.1110    1.0000 </r>
       <r>    0.1414    1.0000 </r>
       <r>    0.1568    1.0000 </r>
       <r>    0.1729    1.0000 </r>
       <r>    0.1901    1.0000 </r>
       <r>    0.1973    1.0000 </r>
       <r>    0.2167    1.0000 </r>
       <r>    0.2491    1.0000 </r>
       <r>    0.2724    1.0000 </r>
       <r>    0.3045    1.0000 </r>
       <r>    0.3438    1.0000 </r>
       <r>    0.3604    1.0000 </r>
       <r>    0.4033    1.0000 </r>
       <r>    0.4293    1.0000 </r>
       <r>    0.4386    1.0000 </r>
       <r>    0.4778    1.0001 </r>
       <r>    0.5037    1.0002 </r>
       <r>    0.5222    1.0004 </r>
       <r>    0.5574    1.0011 </r>
       <r>    0.5756    1.0019 </r>
       <r>    0.6107    1.0047 </r>
       <r>    0.6556    1.0124 </r>
       <r>    0.6782    1.0184 </r>
       <r>    0.7120    1.0286 </r>
       <r>    0.7495    1.0355 </r>
       <r>    0.7998    1.0100 </r>
       <r>    0.8479    0.9071 </r>
       <r>    0.8901    0.7349 </r>
       <r>    0.9387    0.4717 </r>
       <r>    0.9615    0.3462 </r>
       <r>    0.9850    0.2284 </r>
       <r>    1.0347    0.0498 </r>
       <r>    1.0678   -0.0104 </r>
       <r>    1.0947   -0.0312 </r>
       <r>    1.1214   -0.0354 </r>
       <r>    1.1784   -0.0216 </r>
       <r>    1.1875   -0.0189 </r>
       <r>    1.2139   -0.0120 </r>
       <r>    1.2603   -0.0043 </r>
       <r>    1.3013   -0.0014 </r>
       <r>    1.3241   -0.0007 </r>
       <r>    1.3696   -0.0002 </r>
       <r>    1.4330   -0.0000 </r>
       <r>    1.4597   -0.0000 </r>
       <r>    1.4949   -0.0000 </r>
       <r>    1.5576   -0.0000 </r>
       <r>    1.6102   -0.0000 </r>
       <r>    1.6513   -0.0000 </r>
       <r>    1.6760   -0.0000 </r>
       <r>    1.6937   -0.0000 </r>
       <r>    1.7388   -0.0000 </r>
       <r>    1.7573   -0.0000 </r>
       <r>    1.7907   -0.0000 </r>
       <r>    1.8209   -0.0000 </r>
       <r>    1.8657   -0.0000 </r>
       <r>    1.8766   -0.0000 </r>
       <r>    1.9173   -0.0000 </r>
       <r>    1.9441   -0.0000 </r>
       <r>    1.9955   -0.0000 </r>
       <r>    2.0190   -0.0000 </r>
       <r>    2.0619   -0.0000 </r>
       <r>    2.0870   -0.0000 </r>
       <r>    2.1335   -0.0000 </r>
       <r>    2.1421   -0.0000 </r>
       <r>    2.1684   -0.0000 </r>
       <r>    2.2030   -0.0000 </r>
       <r>    2.2183   -0.0000 </r>
       <r>    2.2442   -0.0000 </r>
       <r>    2.3115   -0.0000 </r>
      </set>
      <set comment="kpoint 6">
       <r>  -42.9369    1.0000 </r>
       <r>  -42.8715    1.0000 </r>
       <r>  -42.8496    1.0000 </r>
       <r>  -42.2460    1.0000 </r>
       <r>  -42.1958    1.0000 </r>
       <r>  -42.1561    1.0000 </r>
       <r>  -42.1184    1.0000 </r>
       <r>  -42.0511    1.0000 </r>
       <r>  -42.0245    1.0000 </r>
       <r>  -41.9888    1.0000 </r>
       <r>  -41.9761    1.0000 </r>
       <r>  -41.9554    1.0000 </r>
       <r>  -41.8860    1.0000 </r>
       <r>  -41.8701    1.0000 </r>
       <r>  -41.8514    1.0000 </r>
       <r>  -41.8381    1.0000 </r>
       <r>  -41.8320    1.0000 </r>
       <r>  -41.8097    1.0000 </r>
       <r>  -41.8028    1.0000 </r>
       <r>  -41.8003    1.0000 </r>
       <r>  -41.7723    1.0000 </r>
       <r>  -41.7504    1.0000 </r>
       <r>  -41.7469    1.0000 </r>
       <r>  -41.7395    1.0000 </r>
       <r>  -41.2679    1.0000 </r>
       <r>  -41.2081    1.0000 </r>
       <r>  -41.1627    1.0000 </r>
       <r>  -40.2875    1.0000 </r>
       <r>  -40.2530    1.0000 </r>
       <r>  -40.2456    1.0000 </r>
       <r>  -40.1894    1.0000 </r>
       <r>  -40.1749    1.0000 </r>
       <r>  -40.1564    1.0000 </r>
       <r>  -40.1369    1.0000 </r>
       <r>  -40.1119    1.0000 </r>
       <r>  -40.0953    1.0000 </r>
       <r>  -40.0932    1.0000 </r>
       <r>  -40.0906    1.0000 </r>
       <r>  -40.0504    1.0000 </r>
       <r>  -15.5376    1.0000 </r>
       <r>  -15.5310    1.0000 </r>
       <r>  -15.5250    1.0000 </r>
       <r>  -15.5149    1.0000 </r>
       <r>  -15.4911    1.0000 </r>
       <r>   -7.7532    1.0000 </r>
       <r>   -6.5436    1.0000 </r>
       <r>   -6.5057    1.0000 </r>
       <r>   -5.6890    1.0000 </r>
       <r>   -5.5904    1.0000 </r>
       <r>   -5.5219    1.0000 </r>
       <r>   -5.4546    1.0000 </r>
       <r>   -4.7619    1.0000 </r>
       <r>   -4.6945    1.0000 </r>
       <r>   -4.5121    1.0000 </r>
       <r>   -4.2549    1.0000 </r>
       <r>   -4.1187    1.0000 </r>
       <r>   -4.1000    1.0000 </r>
       <r>   -3.9317    1.0000 </r>
       <r>   -3.8809    1.0000 </r>
       <r>   -3.8496    1.0000 </r>
       <r>   -3.8385    1.0000 </r>
       <r>   -3.7957    1.0000 </r>
       <r>   -3.7767    1.0000 </r>
       <r>   -3.7600    1.0000 </r>
       <r>   -3.7118    1.0000 </r>
       <r>   -3.6955    1.0000 </r>
       <r>   -3.6697    1.0000 </r>
       <r>   -3.6617    1.0000 </r>
       <r>   -3.6364    1.0000 </r>
       <r>   -3.6095    1.0000 </r>
       <r>   -3.6029    1.0000 </r>
       <r>   -3.5860    1.0000 </r>
       <r>   -3.5760    1.0000 </r>
       <r>   -3.5517    1.0000 </r>
       <r>   -3.5351    1.0000 </r>
       <r>   -3.5250    1.0000 </r>
       <r>   -3.5120    1.0000 </r>
       <r>   -3.4521    1.0000 </r>
       <r>   -3.4108    1.0000 </r>
       <r>   -3.3655    1.0000 </r>
       <r>   -3.3359    1.0000 </r>
       <r>   -3.3012    1.0000 </r>
       <r>   -3.2734    1.0000 </r>
       <r>   -3.2574    1.0000 </r>
       <r>   -3.2515    1.0000 </r>
       <r>   -3.2427    1.0000 </r>
       <r>   -3.2301    1.0000 </r>
       <r>   -3.2227    1.0000 </r>
       <r>   -3.2066    1.0000 </r>
       <r>   -3.1948    1.0000 </r>
       <r>   -3.1739    1.0000 </r>
       <r>   -3.1567    1.0000 </r>
       <r>   -3.1407    1.0000 </r>
       <r>   -3.1194    1.0000 </r>
       <r>   -3.1147    1.0000 </r>
       <r>   -3.0890    1.0000 </r>
       <r>   -3.0806    1.0000 </r>
       <r>   -3.0321    1.0000 </r>
       <r>   -3.0114    1.0000 </r>
       <r>   -2.9793    1.0000 </r>
       <r>   -2.9622    1.0000 </r>
       <r>   -2.9188    1.0000 </r>
       <r>   -2.8987    1.0000 </r>
       <r>   -2.8749    1.0000 </r>
       <r>   -2.8663    1.0000 </r>
       <r>   -2.8427    1.0000 </r>
       <r>   -2.7981    1.0000 </r>
       <r>   -2.7777    1.0000 </r>
       <r>   -2.7547    1.0000 </r>
       <r>   -2.7491    1.0000 </r>
       <r>   -2.7297    1.0000 </r>
       <r>   -2.6921    1.0000 </r>
       <r>   -2.6802    1.0000 </r>
       <r>   -2.6561    1.0000 </r>
       <r>   -2.6307    1.0000 </r>
       <r>   -2.6219    1.0000 </r>
       <r>   -2.6114    1.0000 </r>
       <r>   -2.6010    1.0000 </r>
       <r>   -2.5898    1.0000 </r>
       <r>   -2.5732    1.0000 </r>
       <r>   -2.5541    1.0000 </r>
       <r>   -2.5453    1.0000 </r>
       <r>   -2.5318    1.0000 </r>
       <r>   -2.5240    1.0000 </r>
       <r>   -2.5115    1.0000 </r>
       <r>   -2.4992    1.0000 </r>
       <r>   -2.4975    1.0000 </r>
       <r>   -2.4826    1.0000 </r>
       <r>   -2.4726    1.0000 </r>
       <r>   -2.4599    1.0000 </r>
       <r>   -2.4475    1.0000 </r>
       <r>   -2.4377    1.0000 </r>
       <r>   -2.4225    1.0000 </r>
       <r>   -2.4035    1.0000 </r>
       <r>   -2.3850    1.0000 </r>
       <r>   -2.3745    1.0000 </r>
       <r>   -2.3589    1.0000 </r>
       <r>   -2.3275    1.0000 </r>
       <r>   -2.3166    1.0000 </r>
       <r>   -2.3085    1.0000 </r>
       <r>   -2.2952    1.0000 </r>
       <r>   -2.2896    1.0000 </r>
       <r>   -2.2617    1.0000 </r>
       <r>   -2.2370    1.0000 </r>
       <r>   -2.2322    1.0000 </r>
       <r>   -2.2169    1.0000 </r>
       <r>   -2.1997    1.0000 </r>
       <r>   -2.1771    1.0000 </r>
       <r>   -2.1752    1.0000 </r>
       <r>   -2.1528    1.0000 </r>
       <r>   -2.1387    1.0000 </r>
       <r>   -2.1227    1.0000 </r>
       <r>   -2.1057    1.0000 </r>
       <r>   -2.0851    1.0000 </r>
       <r>   -2.0670    1.0000 </r>
       <r>   -2.0555    1.0000 </r>
       <r>   -2.0401    1.0000 </r>
       <r>   -2.0275    1.0000 </r>
       <r>   -2.0185    1.0000 </r>
       <r>   -2.0053    1.0000 </r>
       <r>   -1.9892    1.0000 </r>
       <r>   -1.9817    1.0000 </r>
       <r>   -1.9731    1.0000 </r>
       <r>   -1.9452    1.0000 </r>
       <r>   -1.9328    1.0000 </r>
       <r>   -1.9188    1.0000 </r>
       <r>   -1.9112    1.0000 </r>
       <r>   -1.9014    1.0000 </r>
       <r>   -1.8926    1.0000 </r>
       <r>   -1.8763    1.0000 </r>
       <r>   -1.8679    1.0000 </r>
       <r>   -1.8481    1.0000 </r>
       <r>   -1.8366    1.0000 </r>
       <r>   -1.8304    1.0000 </r>
       <r>   -1.8141    1.0000 </r>
       <r>   -1.7940    1.0000 </r>
       <r>   -1.7776    1.0000 </r>
       <r>   -1.7645    1.0000 </r>
       <r>   -1.7526    1.0000 </r>
       <r>   -1.7363    1.0000 </r>
       <r>   -1.7247    1.0000 </r>
       <r>   -1.7012    1.0000 </r>
       <r>   -1.6922    1.0000 </r>
       <r>   -1.6758    1.0000 </r>
       <r>   -1.6605    1.0000 </r>
       <r>   -1.6415    1.0000 </r>
       <r>   -1.6240    1.0000 </r>
       <r>   -1.6074    1.0000 </r>
       <r>   -1.6039    1.0000 </r>
       <r>   -1.5751    1.0000 </r>
       <r>   -1.5675    1.0000 </r>
       <r>   -1.5475    1.0000 </r>
       <r>   -1.5322    1.0000 </r>
       <r>   -1.5154    1.0000 </r>
       <r>   -1.4964    1.0000 </r>
       <r>   -1.4837    1.0000 </r>
       <r>   -1.4680    1.0000 </r>
       <r>   -1.4472    1.0000 </r>
       <r>   -1.4373    1.0000 </r>
       <r>   -1.4129    1.0000 </r>
       <r>   -1.4078    1.0000 </r>
       <r>   -1.3924    1.0000 </r>
       <r>   -1.3594    1.0000 </r>
       <r>   -1.3473    1.0000 </r>
       <r>   -1.3202    1.0000 </r>
       <r>   -1.2984    1.0000 </r>
       <r>   -1.2737    1.0000 </r>
       <r>   -1.2400    1.0000 </r>
       <r>   -1.2272    1.0000 </r>
       <r>   -1.2093    1.0000 </r>
       <r>   -1.1872    1.0000 </r>
       <r>   -1.1697    1.0000 </r>
       <r>   -1.1241    1.0000 </r>
       <r>   -1.1150    1.0000 </r>
       <r>   -1.1080    1.0000 </r>
       <r>   -1.0879    1.0000 </r>
       <r>   -1.0673    1.0000 </r>
       <r>   -1.0498    1.0000 </r>
       <r>   -1.0386    1.0000 </r>
       <r>   -1.0002    1.0000 </r>
       <r>   -0.9820    1.0000 </r>
       <r>   -0.9664    1.0000 </r>
       <r>   -0.9521    1.0000 </r>
       <r>   -0.9077    1.0000 </r>
       <r>   -0.9020    1.0000 </r>
       <r>   -0.8824    1.0000 </r>
       <r>   -0.8656    1.0000 </r>
       <r>   -0.8519    1.0000 </r>
       <r>   -0.8378    1.0000 </r>
       <r>   -0.8183    1.0000 </r>
       <r>   -0.8049    1.0000 </r>
       <r>   -0.7820    1.0000 </r>
       <r>   -0.7696    1.0000 </r>
       <r>   -0.7537    1.0000 </r>
       <r>   -0.7332    1.0000 </r>
       <r>   -0.7059    1.0000 </r>
       <r>   -0.7012    1.0000 </r>
       <r>   -0.6819    1.0000 </r>
       <r>   -0.6671    1.0000 </r>
       <r>   -0.6563    1.0000 </r>
       <r>   -0.6500    1.0000 </r>
       <r>   -0.6383    1.0000 </r>
       <r>   -0.6221    1.0000 </r>
       <r>   -0.6097    1.0000 </r>
       <r>   -0.5995    1.0000 </r>
       <r>   -0.5744    1.0000 </r>
       <r>   -0.5655    1.0000 </r>
       <r>   -0.5546    1.0000 </r>
       <r>   -0.5318    1.0000 </r>
       <r>   -0.5251    1.0000 </r>
       <r>   -0.5222    1.0000 </r>
       <r>   -0.5106    1.0000 </r>
       <r>   -0.5054    1.0000 </r>
       <r>   -0.4867    1.0000 </r>
       <r>   -0.4789    1.0000 </r>
       <r>   -0.4695    1.0000 </r>
       <r>   -0.4677    1.0000 </r>
       <r>   -0.4509    1.0000 </r>
       <r>   -0.4441    1.0000 </r>
       <r>   -0.4287    1.0000 </r>
       <r>   -0.4206    1.0000 </r>
       <r>   -0.4080    1.0000 </r>
       <r>   -0.4047    1.0000 </r>
       <r>   -0.3938    1.0000 </r>
       <r>   -0.3718    1.0000 </r>
       <r>   -0.3618    1.0000 </r>
       <r>   -0.3573    1.0000 </r>
       <r>   -0.3480    1.0000 </r>
       <r>   -0.3344    1.0000 </r>
       <r>   -0.3300    1.0000 </r>
       <r>   -0.3134    1.0000 </r>
       <r>   -0.3090    1.0000 </r>
       <r>   -0.3021    1.0000 </r>
       <r>   -0.2916    1.0000 </r>
       <r>   -0.2795    1.0000 </r>
       <r>   -0.2678    1.0000 </r>
       <r>   -0.2555    1.0000 </r>
       <r>   -0.2479    1.0000 </r>
       <r>   -0.2404    1.0000 </r>
       <r>   -0.2239    1.0000 </r>
       <r>   -0.2088    1.0000 </r>
       <r>   -0.1936    1.0000 </r>
       <r>   -0.1785    1.0000 </r>
       <r>   -0.1664    1.0000 </r>
       <r>   -0.1576    1.0000 </r>
       <r>   -0.1320    1.0000 </r>
       <r>   -0.1238    1.0000 </r>
       <r>   -0.1138    1.0000 </r>
       <r>   -0.0974    1.0000 </r>
       <r>   -0.0820    1.0000 </r>
       <r>   -0.0647    1.0000 </r>
       <r>   -0.0556    1.0000 </r>
       <r>   -0.0225    1.0000 </r>
       <r>   -0.0085    1.0000 </r>
       <r>    0.0150    1.0000 </r>
       <r>    0.0271    1.0000 </r>
       <r>    0.0538    1.0000 </r>
       <r>    0.0643    1.0000 </r>
       <r>    0.0877    1.0000 </r>
       <r>    0.1052    1.0000 </r>
       <r>    0.1199    1.0000 </r>
       <r>    0.1426    1.0000 </r>
       <r>    0.1752    1.0000 </r>
       <r>    0.1873    1.0000 </r>
       <r>    0.2091    1.0000 </r>
       <r>    0.2417    1.0000 </r>
       <r>    0.2662    1.0000 </r>
       <r>    0.2921    1.0000 </r>
       <r>    0.3070    1.0000 </r>
       <r>    0.3206    1.0000 </r>
       <r>    0.3445    1.0000 </r>
       <r>    0.3719    1.0000 </r>
       <r>    0.4002    1.0000 </r>
       <r>    0.4190    1.0000 </r>
       <r>    0.4513    1.0000 </r>
       <r>    0.4796    1.0001 </r>
       <r>    0.5074    1.0002 </r>
       <r>    0.5380    1.0006 </r>
       <r>    0.5677    1.0015 </r>
       <r>    0.6085    1.0045 </r>
       <r>    0.6404    1.0092 </r>
       <r>    0.6851    1.0205 </r>
       <r>    0.7261    1.0324 </r>
       <r>    0.7379    1.0346 </r>
       <r>    0.7979    1.0122 </r>
       <r>    0.8528    0.8910 </r>
       <r>    0.8694    0.8282 </r>
       <r>    0.8992    0.6888 </r>
       <r>    0.9299    0.5212 </r>
       <r>    0.9573    0.3686 </r>
       <r>    1.0014    0.1578 </r>
       <r>    1.0397    0.0377 </r>
       <r>    1.0530    0.0111 </r>
       <r>    1.0917   -0.0298 </r>
       <r>    1.1375   -0.0332 </r>
       <r>    1.1732   -0.0232 </r>
       <r>    1.2167   -0.0113 </r>
       <r>    1.2378   -0.0073 </r>
       <r>    1.2593   -0.0044 </r>
       <r>    1.2962   -0.0017 </r>
       <r>    1.3619   -0.0002 </r>
       <r>    1.4192   -0.0000 </r>
       <r>    1.4464   -0.0000 </r>
       <r>    1.4667   -0.0000 </r>
       <r>    1.5226   -0.0000 </r>
       <r>    1.5562   -0.0000 </r>
       <r>    1.5847   -0.0000 </r>
       <r>    1.6172   -0.0000 </r>
       <r>    1.6436   -0.0000 </r>
       <r>    1.6629   -0.0000 </r>
       <r>    1.7377   -0.0000 </r>
       <r>    1.7781   -0.0000 </r>
       <r>    1.7994   -0.0000 </r>
       <r>    1.8162   -0.0000 </r>
       <r>    1.8722   -0.0000 </r>
       <r>    1.8861   -0.0000 </r>
       <r>    1.9235   -0.0000 </r>
       <r>    1.9574   -0.0000 </r>
       <r>    1.9917   -0.0000 </r>
       <r>    2.0095   -0.0000 </r>
       <r>    2.0396   -0.0000 </r>
       <r>    2.0801   -0.0000 </r>
       <r>    2.1229   -0.0000 </r>
       <r>    2.1512   -0.0000 </r>
       <r>    2.1731   -0.0000 </r>
       <r>    2.2113   -0.0000 </r>
       <r>    2.2419   -0.0000 </r>
       <r>    2.2843   -0.0000 </r>
       <r>    2.3091   -0.0000 </r>
      </set>
      <set comment="kpoint 7">
       <r>  -42.9369    1.0000 </r>
       <r>  -42.8715    1.0000 </r>
       <r>  -42.8496    1.0000 </r>
       <r>  -42.2460    1.0000 </r>
       <r>  -42.1958    1.0000 </r>
       <r>  -42.1561    1.0000 </r>
       <r>  -42.1184    1.0000 </r>
       <r>  -42.0511    1.0000 </r>
       <r>  -42.0245    1.0000 </r>
       <r>  -41.9888    1.0000 </r>
       <r>  -41.9762    1.0000 </r>
       <r>  -41.9554    1.0000 </r>
       <r>  -41.8860    1.0000 </r>
       <r>  -41.8701    1.0000 </r>
       <r>  -41.8514    1.0000 </r>
       <r>  -41.8381    1.0000 </r>
       <r>  -41.8320    1.0000 </r>
       <r>  -41.8097    1.0000 </r>
       <r>  -41.8028    1.0000 </r>
       <r>  -41.8002    1.0000 </r>
       <r>  -41.7722    1.0000 </r>
       <r>  -41.7504    1.0000 </r>
       <r>  -41.7469    1.0000 </r>
       <r>  -41.7395    1.0000 </r>
       <r>  -41.2679    1.0000 </r>
       <r>  -41.2081    1.0000 </r>
       <r>  -41.1627    1.0000 </r>
       <r>  -40.2875    1.0000 </r>
       <r>  -40.2530    1.0000 </r>
       <r>  -40.2456    1.0000 </r>
       <r>  -40.1894    1.0000 </r>
       <r>  -40.1749    1.0000 </r>
       <r>  -40.1564    1.0000 </r>
       <r>  -40.1370    1.0000 </r>
       <r>  -40.1119    1.0000 </r>
       <r>  -40.0953    1.0000 </r>
       <r>  -40.0932    1.0000 </r>
       <r>  -40.0906    1.0000 </r>
       <r>  -40.0504    1.0000 </r>
       <r>  -15.5377    1.0000 </r>
       <r>  -15.5310    1.0000 </r>
       <r>  -15.5250    1.0000 </r>
       <r>  -15.5149    1.0000 </r>
       <r>  -15.4911    1.0000 </r>
       <r>   -7.7809    1.0000 </r>
       <r>   -6.8970    1.0000 </r>
       <r>   -5.9688    1.0000 </r>
       <r>   -5.9502    1.0000 </r>
       <r>   -5.8024    1.0000 </r>
       <r>   -5.1069    1.0000 </r>
       <r>   -5.0541    1.0000 </r>
       <r>   -5.0004    1.0000 </r>
       <r>   -4.6278    1.0000 </r>
       <r>   -4.3529    1.0000 </r>
       <r>   -4.2988    1.0000 </r>
       <r>   -4.2099    1.0000 </r>
       <r>   -4.1545    1.0000 </r>
       <r>   -4.0941    1.0000 </r>
       <r>   -4.0472    1.0000 </r>
       <r>   -3.9923    1.0000 </r>
       <r>   -3.9548    1.0000 </r>
       <r>   -3.9203    1.0000 </r>
       <r>   -3.8995    1.0000 </r>
       <r>   -3.8709    1.0000 </r>
       <r>   -3.8198    1.0000 </r>
       <r>   -3.7501    1.0000 </r>
       <r>   -3.7419    1.0000 </r>
       <r>   -3.6991    1.0000 </r>
       <r>   -3.6551    1.0000 </r>
       <r>   -3.6344    1.0000 </r>
       <r>   -3.5968    1.0000 </r>
       <r>   -3.5034    1.0000 </r>
       <r>   -3.4602    1.0000 </r>
       <r>   -3.4271    1.0000 </r>
       <r>   -3.4135    1.0000 </r>
       <r>   -3.4034    1.0000 </r>
       <r>   -3.3908    1.0000 </r>
       <r>   -3.3809    1.0000 </r>
       <r>   -3.3652    1.0000 </r>
       <r>   -3.3454    1.0000 </r>
       <r>   -3.3372    1.0000 </r>
       <r>   -3.3281    1.0000 </r>
       <r>   -3.3113    1.0000 </r>
       <r>   -3.3052    1.0000 </r>
       <r>   -3.2816    1.0000 </r>
       <r>   -3.2623    1.0000 </r>
       <r>   -3.2395    1.0000 </r>
       <r>   -3.2254    1.0000 </r>
       <r>   -3.1972    1.0000 </r>
       <r>   -3.1669    1.0000 </r>
       <r>   -3.1566    1.0000 </r>
       <r>   -3.1488    1.0000 </r>
       <r>   -3.1129    1.0000 </r>
       <r>   -3.0959    1.0000 </r>
       <r>   -3.0733    1.0000 </r>
       <r>   -3.0382    1.0000 </r>
       <r>   -3.0244    1.0000 </r>
       <r>   -3.0122    1.0000 </r>
       <r>   -2.9976    1.0000 </r>
       <r>   -2.9490    1.0000 </r>
       <r>   -2.9374    1.0000 </r>
       <r>   -2.8840    1.0000 </r>
       <r>   -2.8672    1.0000 </r>
       <r>   -2.8417    1.0000 </r>
       <r>   -2.8168    1.0000 </r>
       <r>   -2.7889    1.0000 </r>
       <r>   -2.7779    1.0000 </r>
       <r>   -2.7533    1.0000 </r>
       <r>   -2.7397    1.0000 </r>
       <r>   -2.7199    1.0000 </r>
       <r>   -2.6944    1.0000 </r>
       <r>   -2.6726    1.0000 </r>
       <r>   -2.6478    1.0000 </r>
       <r>   -2.6393    1.0000 </r>
       <r>   -2.6230    1.0000 </r>
       <r>   -2.6158    1.0000 </r>
       <r>   -2.6027    1.0000 </r>
       <r>   -2.5875    1.0000 </r>
       <r>   -2.5709    1.0000 </r>
       <r>   -2.5632    1.0000 </r>
       <r>   -2.5531    1.0000 </r>
       <r>   -2.5339    1.0000 </r>
       <r>   -2.5211    1.0000 </r>
       <r>   -2.5111    1.0000 </r>
       <r>   -2.5026    1.0000 </r>
       <r>   -2.4894    1.0000 </r>
       <r>   -2.4844    1.0000 </r>
       <r>   -2.4730    1.0000 </r>
       <r>   -2.4687    1.0000 </r>
       <r>   -2.4421    1.0000 </r>
       <r>   -2.4331    1.0000 </r>
       <r>   -2.4244    1.0000 </r>
       <r>   -2.3975    1.0000 </r>
       <r>   -2.3946    1.0000 </r>
       <r>   -2.3778    1.0000 </r>
       <r>   -2.3591    1.0000 </r>
       <r>   -2.3439    1.0000 </r>
       <r>   -2.3206    1.0000 </r>
       <r>   -2.3093    1.0000 </r>
       <r>   -2.2989    1.0000 </r>
       <r>   -2.2794    1.0000 </r>
       <r>   -2.2591    1.0000 </r>
       <r>   -2.2511    1.0000 </r>
       <r>   -2.2340    1.0000 </r>
       <r>   -2.2265    1.0000 </r>
       <r>   -2.2065    1.0000 </r>
       <r>   -2.2022    1.0000 </r>
       <r>   -2.1810    1.0000 </r>
       <r>   -2.1585    1.0000 </r>
       <r>   -2.1429    1.0000 </r>
       <r>   -2.1290    1.0000 </r>
       <r>   -2.1222    1.0000 </r>
       <r>   -2.1070    1.0000 </r>
       <r>   -2.0940    1.0000 </r>
       <r>   -2.0793    1.0000 </r>
       <r>   -2.0700    1.0000 </r>
       <r>   -2.0556    1.0000 </r>
       <r>   -2.0386    1.0000 </r>
       <r>   -2.0258    1.0000 </r>
       <r>   -2.0184    1.0000 </r>
       <r>   -1.9996    1.0000 </r>
       <r>   -1.9935    1.0000 </r>
       <r>   -1.9726    1.0000 </r>
       <r>   -1.9591    1.0000 </r>
       <r>   -1.9414    1.0000 </r>
       <r>   -1.9258    1.0000 </r>
       <r>   -1.9179    1.0000 </r>
       <r>   -1.9071    1.0000 </r>
       <r>   -1.8850    1.0000 </r>
       <r>   -1.8627    1.0000 </r>
       <r>   -1.8575    1.0000 </r>
       <r>   -1.8515    1.0000 </r>
       <r>   -1.8396    1.0000 </r>
       <r>   -1.8166    1.0000 </r>
       <r>   -1.7998    1.0000 </r>
       <r>   -1.7863    1.0000 </r>
       <r>   -1.7737    1.0000 </r>
       <r>   -1.7571    1.0000 </r>
       <r>   -1.7519    1.0000 </r>
       <r>   -1.7365    1.0000 </r>
       <r>   -1.7227    1.0000 </r>
       <r>   -1.7016    1.0000 </r>
       <r>   -1.6902    1.0000 </r>
       <r>   -1.6697    1.0000 </r>
       <r>   -1.6586    1.0000 </r>
       <r>   -1.6518    1.0000 </r>
       <r>   -1.6334    1.0000 </r>
       <r>   -1.6138    1.0000 </r>
       <r>   -1.6011    1.0000 </r>
       <r>   -1.5918    1.0000 </r>
       <r>   -1.5667    1.0000 </r>
       <r>   -1.5522    1.0000 </r>
       <r>   -1.5367    1.0000 </r>
       <r>   -1.5196    1.0000 </r>
       <r>   -1.4980    1.0000 </r>
       <r>   -1.4829    1.0000 </r>
       <r>   -1.4625    1.0000 </r>
       <r>   -1.4482    1.0000 </r>
       <r>   -1.4420    1.0000 </r>
       <r>   -1.4343    1.0000 </r>
       <r>   -1.4147    1.0000 </r>
       <r>   -1.3989    1.0000 </r>
       <r>   -1.3563    1.0000 </r>
       <r>   -1.3411    1.0000 </r>
       <r>   -1.3160    1.0000 </r>
       <r>   -1.3056    1.0000 </r>
       <r>   -1.2917    1.0000 </r>
       <r>   -1.2538    1.0000 </r>
       <r>   -1.2334    1.0000 </r>
       <r>   -1.2253    1.0000 </r>
       <r>   -1.2103    1.0000 </r>
       <r>   -1.1907    1.0000 </r>
       <r>   -1.1615    1.0000 </r>
       <r>   -1.1436    1.0000 </r>
       <r>   -1.1082    1.0000 </r>
       <r>   -1.0904    1.0000 </r>
       <r>   -1.0880    1.0000 </r>
       <r>   -1.0540    1.0000 </r>
       <r>   -1.0384    1.0000 </r>
       <r>   -1.0120    1.0000 </r>
       <r>   -0.9896    1.0000 </r>
       <r>   -0.9807    1.0000 </r>
       <r>   -0.9676    1.0000 </r>
       <r>   -0.9503    1.0000 </r>
       <r>   -0.9451    1.0000 </r>
       <r>   -0.9091    1.0000 </r>
       <r>   -0.8959    1.0000 </r>
       <r>   -0.8705    1.0000 </r>
       <r>   -0.8367    1.0000 </r>
       <r>   -0.8262    1.0000 </r>
       <r>   -0.8131    1.0000 </r>
       <r>   -0.7976    1.0000 </r>
       <r>   -0.7851    1.0000 </r>
       <r>   -0.7516    1.0000 </r>
       <r>   -0.7374    1.0000 </r>
       <r>   -0.7216    1.0000 </r>
       <r>   -0.7169    1.0000 </r>
       <r>   -0.6977    1.0000 </r>
       <r>   -0.6827    1.0000 </r>
       <r>   -0.6583    1.0000 </r>
       <r>   -0.6521    1.0000 </r>
       <r>   -0.6443    1.0000 </r>
       <r>   -0.6264    1.0000 </r>
       <r>   -0.6198    1.0000 </r>
       <r>   -0.6072    1.0000 </r>
       <r>   -0.5904    1.0000 </r>
       <r>   -0.5801    1.0000 </r>
       <r>   -0.5649    1.0000 </r>
       <r>   -0.5557    1.0000 </r>
       <r>   -0.5464    1.0000 </r>
       <r>   -0.5266    1.0000 </r>
       <r>   -0.5136    1.0000 </r>
       <r>   -0.5042    1.0000 </r>
       <r>   -0.4956    1.0000 </r>
       <r>   -0.4924    1.0000 </r>
       <r>   -0.4860    1.0000 </r>
       <r>   -0.4649    1.0000 </r>
       <r>   -0.4602    1.0000 </r>
       <r>   -0.4394    1.0000 </r>
       <r>   -0.4333    1.0000 </r>
       <r>   -0.4283    1.0000 </r>
       <r>   -0.4165    1.0000 </r>
       <r>   -0.4043    1.0000 </r>
       <r>   -0.3962    1.0000 </r>
       <r>   -0.3819    1.0000 </r>
       <r>   -0.3724    1.0000 </r>
       <r>   -0.3637    1.0000 </r>
       <r>   -0.3610    1.0000 </r>
       <r>   -0.3453    1.0000 </r>
       <r>   -0.3300    1.0000 </r>
       <r>   -0.3176    1.0000 </r>
       <r>   -0.3107    1.0000 </r>
       <r>   -0.3043    1.0000 </r>
       <r>   -0.2948    1.0000 </r>
       <r>   -0.2793    1.0000 </r>
       <r>   -0.2680    1.0000 </r>
       <r>   -0.2627    1.0000 </r>
       <r>   -0.2518    1.0000 </r>
       <r>   -0.2359    1.0000 </r>
       <r>   -0.2297    1.0000 </r>
       <r>   -0.2166    1.0000 </r>
       <r>   -0.2029    1.0000 </r>
       <r>   -0.1975    1.0000 </r>
       <r>   -0.1821    1.0000 </r>
       <r>   -0.1597    1.0000 </r>
       <r>   -0.1507    1.0000 </r>
       <r>   -0.1440    1.0000 </r>
       <r>   -0.1186    1.0000 </r>
       <r>   -0.0938    1.0000 </r>
       <r>   -0.0904    1.0000 </r>
       <r>   -0.0798    1.0000 </r>
       <r>   -0.0669    1.0000 </r>
       <r>   -0.0492    1.0000 </r>
       <r>   -0.0341    1.0000 </r>
       <r>   -0.0186    1.0000 </r>
       <r>    0.0036    1.0000 </r>
       <r>    0.0110    1.0000 </r>
       <r>    0.0500    1.0000 </r>
       <r>    0.0597    1.0000 </r>
       <r>    0.0673    1.0000 </r>
       <r>    0.0950    1.0000 </r>
       <r>    0.1259    1.0000 </r>
       <r>    0.1432    1.0000 </r>
       <r>    0.1640    1.0000 </r>
       <r>    0.1814    1.0000 </r>
       <r>    0.2245    1.0000 </r>
       <r>    0.2370    1.0000 </r>
       <r>    0.2750    1.0000 </r>
       <r>    0.2940    1.0000 </r>
       <r>    0.3121    1.0000 </r>
       <r>    0.3315    1.0000 </r>
       <r>    0.3743    1.0000 </r>
       <r>    0.3957    1.0000 </r>
       <r>    0.4096    1.0000 </r>
       <r>    0.4508    1.0000 </r>
       <r>    0.4689    1.0001 </r>
       <r>    0.4870    1.0001 </r>
       <r>    0.5124    1.0003 </r>
       <r>    0.5547    1.0010 </r>
       <r>    0.6084    1.0045 </r>
       <r>    0.6216    1.0061 </r>
       <r>    0.6326    1.0078 </r>
       <r>    0.6981    1.0244 </r>
       <r>    0.7480    1.0354 </r>
       <r>    0.7628    1.0342 </r>
       <r>    0.7902    1.0200 </r>
       <r>    0.8190    0.9803 </r>
       <r>    0.8416    0.9260 </r>
       <r>    0.8948    0.7112 </r>
       <r>    0.9162    0.5980 </r>
       <r>    0.9857    0.2252 </r>
       <r>    1.0235    0.0805 </r>
       <r>    1.0696   -0.0125 </r>
       <r>    1.1008   -0.0333 </r>
       <r>    1.1258   -0.0350 </r>
       <r>    1.1571   -0.0281 </r>
       <r>    1.1962   -0.0164 </r>
       <r>    1.2610   -0.0043 </r>
       <r>    1.2893   -0.0020 </r>
       <r>    1.3094   -0.0011 </r>
       <r>    1.3768   -0.0001 </r>
       <r>    1.4033   -0.0000 </r>
       <r>    1.4363   -0.0000 </r>
       <r>    1.4810   -0.0000 </r>
       <r>    1.5021   -0.0000 </r>
       <r>    1.5071   -0.0000 </r>
       <r>    1.5541   -0.0000 </r>
       <r>    1.6082   -0.0000 </r>
       <r>    1.6364   -0.0000 </r>
       <r>    1.6854   -0.0000 </r>
       <r>    1.7105   -0.0000 </r>
       <r>    1.7667   -0.0000 </r>
       <r>    1.7942   -0.0000 </r>
       <r>    1.8404   -0.0000 </r>
       <r>    1.8532   -0.0000 </r>
       <r>    1.8960   -0.0000 </r>
       <r>    1.9355   -0.0000 </r>
       <r>    1.9415   -0.0000 </r>
       <r>    2.0015   -0.0000 </r>
       <r>    2.0273   -0.0000 </r>
       <r>    2.0487   -0.0000 </r>
       <r>    2.0945   -0.0000 </r>
       <r>    2.1186   -0.0000 </r>
       <r>    2.1244   -0.0000 </r>
       <r>    2.1667   -0.0000 </r>
       <r>    2.1946   -0.0000 </r>
       <r>    2.2355   -0.0000 </r>
       <r>    2.2805   -0.0000 </r>
       <r>    2.3137   -0.0000 </r>
      </set>
      <set comment="kpoint 8">
       <r>  -42.9369    1.0000 </r>
       <r>  -42.8715    1.0000 </r>
       <r>  -42.8497    1.0000 </r>
       <r>  -42.2460    1.0000 </r>
       <r>  -42.1959    1.0000 </r>
       <r>  -42.1562    1.0000 </r>
       <r>  -42.1184    1.0000 </r>
       <r>  -42.0511    1.0000 </r>
       <r>  -42.0244    1.0000 </r>
       <r>  -41.9888    1.0000 </r>
       <r>  -41.9762    1.0000 </r>
       <r>  -41.9554    1.0000 </r>
       <r>  -41.8860    1.0000 </r>
       <r>  -41.8701    1.0000 </r>
       <r>  -41.8514    1.0000 </r>
       <r>  -41.8382    1.0000 </r>
       <r>  -41.8320    1.0000 </r>
       <r>  -41.8097    1.0000 </r>
       <r>  -41.8028    1.0000 </r>
       <r>  -41.8002    1.0000 </r>
       <r>  -41.7722    1.0000 </r>
       <r>  -41.7504    1.0000 </r>
       <r>  -41.7469    1.0000 </r>
       <r>  -41.7395    1.0000 </r>
       <r>  -41.2679    1.0000 </r>
       <r>  -41.2081    1.0000 </r>
       <r>  -41.1627    1.0000 </r>
       <r>  -40.2875    1.0000 </r>
       <r>  -40.2531    1.0000 </r>
       <r>  -40.2455    1.0000 </r>
       <r>  -40.1894    1.0000 </r>
       <r>  -40.1749    1.0000 </r>
       <r>  -40.1565    1.0000 </r>
       <r>  -40.1369    1.0000 </r>
       <r>  -40.1119    1.0000 </r>
       <r>  -40.0953    1.0000 </r>
       <r>  -40.0932    1.0000 </r>
       <r>  -40.0906    1.0000 </r>
       <r>  -40.0504    1.0000 </r>
       <r>  -15.5376    1.0000 </r>
       <r>  -15.5310    1.0000 </r>
       <r>  -15.5250    1.0000 </r>
       <r>  -15.5150    1.0000 </r>
       <r>  -15.4911    1.0000 </r>
       <r>   -7.7755    1.0000 </r>
       <r>   -6.6993    1.0000 </r>
       <r>   -6.5987    1.0000 </r>
       <r>   -5.8128    1.0000 </r>
       <r>   -5.5720    1.0000 </r>
       <r>   -4.8737    1.0000 </r>
       <r>   -4.8487    1.0000 </r>
       <r>   -4.8212    1.0000 </r>
       <r>   -4.7630    1.0000 </r>
       <r>   -4.5629    1.0000 </r>
       <r>   -4.4150    1.0000 </r>
       <r>   -4.2170    1.0000 </r>
       <r>   -4.2011    1.0000 </r>
       <r>   -4.1386    1.0000 </r>
       <r>   -4.0271    1.0000 </r>
       <r>   -4.0164    1.0000 </r>
       <r>   -3.9619    1.0000 </r>
       <r>   -3.7925    1.0000 </r>
       <r>   -3.7727    1.0000 </r>
       <r>   -3.7433    1.0000 </r>
       <r>   -3.7373    1.0000 </r>
       <r>   -3.7209    1.0000 </r>
       <r>   -3.6936    1.0000 </r>
       <r>   -3.6870    1.0000 </r>
       <r>   -3.6764    1.0000 </r>
       <r>   -3.6678    1.0000 </r>
       <r>   -3.6581    1.0000 </r>
       <r>   -3.6507    1.0000 </r>
       <r>   -3.6118    1.0000 </r>
       <r>   -3.6035    1.0000 </r>
       <r>   -3.5850    1.0000 </r>
       <r>   -3.5694    1.0000 </r>
       <r>   -3.5410    1.0000 </r>
       <r>   -3.4896    1.0000 </r>
       <r>   -3.3713    1.0000 </r>
       <r>   -3.3359    1.0000 </r>
       <r>   -3.3080    1.0000 </r>
       <r>   -3.2937    1.0000 </r>
       <r>   -3.2833    1.0000 </r>
       <r>   -3.2477    1.0000 </r>
       <r>   -3.2153    1.0000 </r>
       <r>   -3.2014    1.0000 </r>
       <r>   -3.1748    1.0000 </r>
       <r>   -3.1541    1.0000 </r>
       <r>   -3.1309    1.0000 </r>
       <r>   -3.1194    1.0000 </r>
       <r>   -3.1057    1.0000 </r>
       <r>   -3.0822    1.0000 </r>
       <r>   -3.0786    1.0000 </r>
       <r>   -3.0671    1.0000 </r>
       <r>   -3.0434    1.0000 </r>
       <r>   -3.0212    1.0000 </r>
       <r>   -3.0064    1.0000 </r>
       <r>   -2.9852    1.0000 </r>
       <r>   -2.9707    1.0000 </r>
       <r>   -2.9556    1.0000 </r>
       <r>   -2.9152    1.0000 </r>
       <r>   -2.8967    1.0000 </r>
       <r>   -2.8766    1.0000 </r>
       <r>   -2.8649    1.0000 </r>
       <r>   -2.8444    1.0000 </r>
       <r>   -2.8310    1.0000 </r>
       <r>   -2.8078    1.0000 </r>
       <r>   -2.7947    1.0000 </r>
       <r>   -2.7783    1.0000 </r>
       <r>   -2.7642    1.0000 </r>
       <r>   -2.7546    1.0000 </r>
       <r>   -2.7262    1.0000 </r>
       <r>   -2.7164    1.0000 </r>
       <r>   -2.6968    1.0000 </r>
       <r>   -2.6709    1.0000 </r>
       <r>   -2.6446    1.0000 </r>
       <r>   -2.5982    1.0000 </r>
       <r>   -2.5863    1.0000 </r>
       <r>   -2.5743    1.0000 </r>
       <r>   -2.5595    1.0000 </r>
       <r>   -2.5439    1.0000 </r>
       <r>   -2.5346    1.0000 </r>
       <r>   -2.5227    1.0000 </r>
       <r>   -2.5118    1.0000 </r>
       <r>   -2.4925    1.0000 </r>
       <r>   -2.4789    1.0000 </r>
       <r>   -2.4724    1.0000 </r>
       <r>   -2.4681    1.0000 </r>
       <r>   -2.4440    1.0000 </r>
       <r>   -2.4394    1.0000 </r>
       <r>   -2.4342    1.0000 </r>
       <r>   -2.4091    1.0000 </r>
       <r>   -2.4042    1.0000 </r>
       <r>   -2.3965    1.0000 </r>
       <r>   -2.3927    1.0000 </r>
       <r>   -2.3610    1.0000 </r>
       <r>   -2.3435    1.0000 </r>
       <r>   -2.3215    1.0000 </r>
       <r>   -2.3158    1.0000 </r>
       <r>   -2.3040    1.0000 </r>
       <r>   -2.2899    1.0000 </r>
       <r>   -2.2545    1.0000 </r>
       <r>   -2.2268    1.0000 </r>
       <r>   -2.2132    1.0000 </r>
       <r>   -2.2079    1.0000 </r>
       <r>   -2.1878    1.0000 </r>
       <r>   -2.1638    1.0000 </r>
       <r>   -2.1619    1.0000 </r>
       <r>   -2.1460    1.0000 </r>
       <r>   -2.1156    1.0000 </r>
       <r>   -2.1056    1.0000 </r>
       <r>   -2.0911    1.0000 </r>
       <r>   -2.0847    1.0000 </r>
       <r>   -2.0742    1.0000 </r>
       <r>   -2.0670    1.0000 </r>
       <r>   -2.0456    1.0000 </r>
       <r>   -2.0376    1.0000 </r>
       <r>   -2.0220    1.0000 </r>
       <r>   -2.0069    1.0000 </r>
       <r>   -1.9914    1.0000 </r>
       <r>   -1.9851    1.0000 </r>
       <r>   -1.9754    1.0000 </r>
       <r>   -1.9570    1.0000 </r>
       <r>   -1.9422    1.0000 </r>
       <r>   -1.9357    1.0000 </r>
       <r>   -1.9177    1.0000 </r>
       <r>   -1.9057    1.0000 </r>
       <r>   -1.8989    1.0000 </r>
       <r>   -1.8892    1.0000 </r>
       <r>   -1.8708    1.0000 </r>
       <r>   -1.8627    1.0000 </r>
       <r>   -1.8501    1.0000 </r>
       <r>   -1.8334    1.0000 </r>
       <r>   -1.8303    1.0000 </r>
       <r>   -1.8042    1.0000 </r>
       <r>   -1.7826    1.0000 </r>
       <r>   -1.7731    1.0000 </r>
       <r>   -1.7635    1.0000 </r>
       <r>   -1.7423    1.0000 </r>
       <r>   -1.7311    1.0000 </r>
       <r>   -1.7035    1.0000 </r>
       <r>   -1.6850    1.0000 </r>
       <r>   -1.6807    1.0000 </r>
       <r>   -1.6740    1.0000 </r>
       <r>   -1.6546    1.0000 </r>
       <r>   -1.6481    1.0000 </r>
       <r>   -1.6222    1.0000 </r>
       <r>   -1.5917    1.0000 </r>
       <r>   -1.5900    1.0000 </r>
       <r>   -1.5754    1.0000 </r>
       <r>   -1.5618    1.0000 </r>
       <r>   -1.5418    1.0000 </r>
       <r>   -1.5373    1.0000 </r>
       <r>   -1.5293    1.0000 </r>
       <r>   -1.5051    1.0000 </r>
       <r>   -1.4932    1.0000 </r>
       <r>   -1.4763    1.0000 </r>
       <r>   -1.4633    1.0000 </r>
       <r>   -1.4520    1.0000 </r>
       <r>   -1.4379    1.0000 </r>
       <r>   -1.4061    1.0000 </r>
       <r>   -1.3935    1.0000 </r>
       <r>   -1.3667    1.0000 </r>
       <r>   -1.3630    1.0000 </r>
       <r>   -1.3433    1.0000 </r>
       <r>   -1.3278    1.0000 </r>
       <r>   -1.3194    1.0000 </r>
       <r>   -1.3061    1.0000 </r>
       <r>   -1.2758    1.0000 </r>
       <r>   -1.2526    1.0000 </r>
       <r>   -1.2446    1.0000 </r>
       <r>   -1.2272    1.0000 </r>
       <r>   -1.1931    1.0000 </r>
       <r>   -1.1603    1.0000 </r>
       <r>   -1.1294    1.0000 </r>
       <r>   -1.1251    1.0000 </r>
       <r>   -1.0920    1.0000 </r>
       <r>   -1.0649    1.0000 </r>
       <r>   -1.0511    1.0000 </r>
       <r>   -1.0424    1.0000 </r>
       <r>   -1.0039    1.0000 </r>
       <r>   -0.9955    1.0000 </r>
       <r>   -0.9772    1.0000 </r>
       <r>   -0.9691    1.0000 </r>
       <r>   -0.9359    1.0000 </r>
       <r>   -0.9069    1.0000 </r>
       <r>   -0.8980    1.0000 </r>
       <r>   -0.8827    1.0000 </r>
       <r>   -0.8655    1.0000 </r>
       <r>   -0.8433    1.0000 </r>
       <r>   -0.8317    1.0000 </r>
       <r>   -0.7912    1.0000 </r>
       <r>   -0.7757    1.0000 </r>
       <r>   -0.7625    1.0000 </r>
       <r>   -0.7335    1.0000 </r>
       <r>   -0.7131    1.0000 </r>
       <r>   -0.7084    1.0000 </r>
       <r>   -0.6882    1.0000 </r>
       <r>   -0.6748    1.0000 </r>
       <r>   -0.6663    1.0000 </r>
       <r>   -0.6528    1.0000 </r>
       <r>   -0.6478    1.0000 </r>
       <r>   -0.6330    1.0000 </r>
       <r>   -0.6300    1.0000 </r>
       <r>   -0.6236    1.0000 </r>
       <r>   -0.6114    1.0000 </r>
       <r>   -0.5980    1.0000 </r>
       <r>   -0.5899    1.0000 </r>
       <r>   -0.5730    1.0000 </r>
       <r>   -0.5562    1.0000 </r>
       <r>   -0.5510    1.0000 </r>
       <r>   -0.5352    1.0000 </r>
       <r>   -0.5293    1.0000 </r>
       <r>   -0.5051    1.0000 </r>
       <r>   -0.4972    1.0000 </r>
       <r>   -0.4903    1.0000 </r>
       <r>   -0.4709    1.0000 </r>
       <r>   -0.4570    1.0000 </r>
       <r>   -0.4509    1.0000 </r>
       <r>   -0.4465    1.0000 </r>
       <r>   -0.4337    1.0000 </r>
       <r>   -0.4280    1.0000 </r>
       <r>   -0.4216    1.0000 </r>
       <r>   -0.3972    1.0000 </r>
       <r>   -0.3894    1.0000 </r>
       <r>   -0.3805    1.0000 </r>
       <r>   -0.3737    1.0000 </r>
       <r>   -0.3579    1.0000 </r>
       <r>   -0.3454    1.0000 </r>
       <r>   -0.3314    1.0000 </r>
       <r>   -0.3225    1.0000 </r>
       <r>   -0.3164    1.0000 </r>
       <r>   -0.2988    1.0000 </r>
       <r>   -0.2956    1.0000 </r>
       <r>   -0.2828    1.0000 </r>
       <r>   -0.2698    1.0000 </r>
       <r>   -0.2587    1.0000 </r>
       <r>   -0.2373    1.0000 </r>
       <r>   -0.2323    1.0000 </r>
       <r>   -0.2255    1.0000 </r>
       <r>   -0.2022    1.0000 </r>
       <r>   -0.1997    1.0000 </r>
       <r>   -0.1865    1.0000 </r>
       <r>   -0.1691    1.0000 </r>
       <r>   -0.1650    1.0000 </r>
       <r>   -0.1463    1.0000 </r>
       <r>   -0.1262    1.0000 </r>
       <r>   -0.1239    1.0000 </r>
       <r>   -0.1119    1.0000 </r>
       <r>   -0.0785    1.0000 </r>
       <r>   -0.0761    1.0000 </r>
       <r>   -0.0572    1.0000 </r>
       <r>   -0.0359    1.0000 </r>
       <r>   -0.0162    1.0000 </r>
       <r>   -0.0052    1.0000 </r>
       <r>    0.0136    1.0000 </r>
       <r>    0.0452    1.0000 </r>
       <r>    0.0619    1.0000 </r>
       <r>    0.0963    1.0000 </r>
       <r>    0.1002    1.0000 </r>
       <r>    0.1288    1.0000 </r>
       <r>    0.1731    1.0000 </r>
       <r>    0.1794    1.0000 </r>
       <r>    0.2013    1.0000 </r>
       <r>    0.2362    1.0000 </r>
       <r>    0.2659    1.0000 </r>
       <r>    0.2857    1.0000 </r>
       <r>    0.3124    1.0000 </r>
       <r>    0.3198    1.0000 </r>
       <r>    0.3429    1.0000 </r>
       <r>    0.3739    1.0000 </r>
       <r>    0.3887    1.0000 </r>
       <r>    0.4204    1.0000 </r>
       <r>    0.4602    1.0000 </r>
       <r>    0.4646    1.0000 </r>
       <r>    0.4991    1.0002 </r>
       <r>    0.5365    1.0006 </r>
       <r>    0.5795    1.0021 </r>
       <r>    0.6258    1.0067 </r>
       <r>    0.6368    1.0085 </r>
       <r>    0.6602    1.0136 </r>
       <r>    0.6683    1.0157 </r>
       <r>    0.7336    1.0339 </r>
       <r>    0.7661    1.0334 </r>
       <r>    0.7860    1.0234 </r>
       <r>    0.8397    0.9317 </r>
       <r>    0.8757    0.8016 </r>
       <r>    0.9112    0.6252 </r>
       <r>    0.9535    0.3894 </r>
       <r>    0.9826    0.2396 </r>
       <r>    1.0205    0.0898 </r>
       <r>    1.0419    0.0327 </r>
       <r>    1.0668   -0.0092 </r>
       <r>    1.1042   -0.0341 </r>
       <r>    1.1408   -0.0324 </r>
       <r>    1.1590   -0.0275 </r>
       <r>    1.2091   -0.0131 </r>
       <r>    1.2477   -0.0058 </r>
       <r>    1.2962   -0.0017 </r>
       <r>    1.3181   -0.0009 </r>
       <r>    1.3292   -0.0006 </r>
       <r>    1.3822   -0.0001 </r>
       <r>    1.4328   -0.0000 </r>
       <r>    1.4607   -0.0000 </r>
       <r>    1.5024   -0.0000 </r>
       <r>    1.5595   -0.0000 </r>
       <r>    1.5740   -0.0000 </r>
       <r>    1.6259   -0.0000 </r>
       <r>    1.6338   -0.0000 </r>
       <r>    1.6450   -0.0000 </r>
       <r>    1.6791   -0.0000 </r>
       <r>    1.7464   -0.0000 </r>
       <r>    1.7883   -0.0000 </r>
       <r>    1.8170   -0.0000 </r>
       <r>    1.8440   -0.0000 </r>
       <r>    1.8536   -0.0000 </r>
       <r>    1.8854   -0.0000 </r>
       <r>    1.9180   -0.0000 </r>
       <r>    1.9682   -0.0000 </r>
       <r>    1.9958   -0.0000 </r>
       <r>    2.0309   -0.0000 </r>
       <r>    2.0437   -0.0000 </r>
       <r>    2.0775   -0.0000 </r>
       <r>    2.1065   -0.0000 </r>
       <r>    2.1464   -0.0000 </r>
       <r>    2.1800   -0.0000 </r>
       <r>    2.2041   -0.0000 </r>
       <r>    2.2471   -0.0000 </r>
       <r>    2.2903   -0.0000 </r>
      </set>
      <set comment="kpoint 9">
       <r>  -42.9369    1.0000 </r>
       <r>  -42.8715    1.0000 </r>
       <r>  -42.8496    1.0000 </r>
       <r>  -42.2460    1.0000 </r>
       <r>  -42.1959    1.0000 </r>
       <r>  -42.1561    1.0000 </r>
       <r>  -42.1184    1.0000 </r>
       <r>  -42.0511    1.0000 </r>
       <r>  -42.0244    1.0000 </r>
       <r>  -41.9888    1.0000 </r>
       <r>  -41.9761    1.0000 </r>
       <r>  -41.9554    1.0000 </r>
       <r>  -41.8860    1.0000 </r>
       <r>  -41.8701    1.0000 </r>
       <r>  -41.8513    1.0000 </r>
       <r>  -41.8381    1.0000 </r>
       <r>  -41.8320    1.0000 </r>
       <r>  -41.8097    1.0000 </r>
       <r>  -41.8028    1.0000 </r>
       <r>  -41.8003    1.0000 </r>
       <r>  -41.7723    1.0000 </r>
       <r>  -41.7504    1.0000 </r>
       <r>  -41.7469    1.0000 </r>
       <r>  -41.7395    1.0000 </r>
       <r>  -41.2679    1.0000 </r>
       <r>  -41.2081    1.0000 </r>
       <r>  -41.1627    1.0000 </r>
       <r>  -40.2875    1.0000 </r>
       <r>  -40.2530    1.0000 </r>
       <r>  -40.2455    1.0000 </r>
       <r>  -40.1894    1.0000 </r>
       <r>  -40.1749    1.0000 </r>
       <r>  -40.1565    1.0000 </r>
       <r>  -40.1369    1.0000 </r>
       <r>  -40.1119    1.0000 </r>
       <r>  -40.0953    1.0000 </r>
       <r>  -40.0932    1.0000 </r>
       <r>  -40.0906    1.0000 </r>
       <r>  -40.0504    1.0000 </r>
       <r>  -15.5376    1.0000 </r>
       <r>  -15.5310    1.0000 </r>
       <r>  -15.5250    1.0000 </r>
       <r>  -15.5149    1.0000 </r>
       <r>  -15.4911    1.0000 </r>
       <r>   -7.7550    1.0000 </r>
       <r>   -6.5650    1.0000 </r>
       <r>   -6.4801    1.0000 </r>
       <r>   -5.6862    1.0000 </r>
       <r>   -5.5971    1.0000 </r>
       <r>   -5.5577    1.0000 </r>
       <r>   -5.4071    1.0000 </r>
       <r>   -4.7728    1.0000 </r>
       <r>   -4.6952    1.0000 </r>
       <r>   -4.4699    1.0000 </r>
       <r>   -4.2883    1.0000 </r>
       <r>   -4.1126    1.0000 </r>
       <r>   -4.1034    1.0000 </r>
       <r>   -3.9315    1.0000 </r>
       <r>   -3.8799    1.0000 </r>
       <r>   -3.8589    1.0000 </r>
       <r>   -3.8249    1.0000 </r>
       <r>   -3.8031    1.0000 </r>
       <r>   -3.7714    1.0000 </r>
       <r>   -3.7488    1.0000 </r>
       <r>   -3.7325    1.0000 </r>
       <r>   -3.7005    1.0000 </r>
       <r>   -3.6745    1.0000 </r>
       <r>   -3.6552    1.0000 </r>
       <r>   -3.6299    1.0000 </r>
       <r>   -3.6171    1.0000 </r>
       <r>   -3.5993    1.0000 </r>
       <r>   -3.5890    1.0000 </r>
       <r>   -3.5810    1.0000 </r>
       <r>   -3.5615    1.0000 </r>
       <r>   -3.5377    1.0000 </r>
       <r>   -3.5088    1.0000 </r>
       <r>   -3.4874    1.0000 </r>
       <r>   -3.4417    1.0000 </r>
       <r>   -3.4146    1.0000 </r>
       <r>   -3.3710    1.0000 </r>
       <r>   -3.3194    1.0000 </r>
       <r>   -3.2970    1.0000 </r>
       <r>   -3.2810    1.0000 </r>
       <r>   -3.2605    1.0000 </r>
       <r>   -3.2472    1.0000 </r>
       <r>   -3.2407    1.0000 </r>
       <r>   -3.2287    1.0000 </r>
       <r>   -3.2209    1.0000 </r>
       <r>   -3.2013    1.0000 </r>
       <r>   -3.1761    1.0000 </r>
       <r>   -3.1528    1.0000 </r>
       <r>   -3.1390    1.0000 </r>
       <r>   -3.1325    1.0000 </r>
       <r>   -3.1168    1.0000 </r>
       <r>   -3.1116    1.0000 </r>
       <r>   -3.0983    1.0000 </r>
       <r>   -3.0502    1.0000 </r>
       <r>   -3.0369    1.0000 </r>
       <r>   -3.0073    1.0000 </r>
       <r>   -2.9713    1.0000 </r>
       <r>   -2.9579    1.0000 </r>
       <r>   -2.9350    1.0000 </r>
       <r>   -2.9121    1.0000 </r>
       <r>   -2.8967    1.0000 </r>
       <r>   -2.8733    1.0000 </r>
       <r>   -2.8570    1.0000 </r>
       <r>   -2.7979    1.0000 </r>
       <r>   -2.7791    1.0000 </r>
       <r>   -2.7653    1.0000 </r>
       <r>   -2.7473    1.0000 </r>
       <r>   -2.7364    1.0000 </r>
       <r>   -2.7142    1.0000 </r>
       <r>   -2.6958    1.0000 </r>
       <r>   -2.6780    1.0000 </r>
       <r>   -2.6497    1.0000 </r>
       <r>   -2.6344    1.0000 </r>
       <r>   -2.6207    1.0000 </r>
       <r>   -2.6063    1.0000 </r>
       <r>   -2.5985    1.0000 </r>
       <r>   -2.5708    1.0000 </r>
       <r>   -2.5637    1.0000 </r>
       <r>   -2.5533    1.0000 </r>
       <r>   -2.5430    1.0000 </r>
       <r>   -2.5266    1.0000 </r>
       <r>   -2.5177    1.0000 </r>
       <r>   -2.5066    1.0000 </r>
       <r>   -2.5005    1.0000 </r>
       <r>   -2.4930    1.0000 </r>
       <r>   -2.4737    1.0000 </r>
       <r>   -2.4607    1.0000 </r>
       <r>   -2.4510    1.0000 </r>
       <r>   -2.4364    1.0000 </r>
       <r>   -2.4290    1.0000 </r>
       <r>   -2.3998    1.0000 </r>
       <r>   -2.3894    1.0000 </r>
       <r>   -2.3764    1.0000 </r>
       <r>   -2.3611    1.0000 </r>
       <r>   -2.3452    1.0000 </r>
       <r>   -2.3257    1.0000 </r>
       <r>   -2.3063    1.0000 </r>
       <r>   -2.2802    1.0000 </r>
       <r>   -2.2699    1.0000 </r>
       <r>   -2.2540    1.0000 </r>
       <r>   -2.2359    1.0000 </r>
       <r>   -2.2236    1.0000 </r>
       <r>   -2.2167    1.0000 </r>
       <r>   -2.1802    1.0000 </r>
       <r>   -2.1734    1.0000 </r>
       <r>   -2.1527    1.0000 </r>
       <r>   -2.1453    1.0000 </r>
       <r>   -2.1315    1.0000 </r>
       <r>   -2.1179    1.0000 </r>
       <r>   -2.1123    1.0000 </r>
       <r>   -2.0959    1.0000 </r>
       <r>   -2.0749    1.0000 </r>
       <r>   -2.0671    1.0000 </r>
       <r>   -2.0540    1.0000 </r>
       <r>   -2.0427    1.0000 </r>
       <r>   -2.0279    1.0000 </r>
       <r>   -2.0080    1.0000 </r>
       <r>   -1.9999    1.0000 </r>
       <r>   -1.9824    1.0000 </r>
       <r>   -1.9718    1.0000 </r>
       <r>   -1.9553    1.0000 </r>
       <r>   -1.9380    1.0000 </r>
       <r>   -1.9341    1.0000 </r>
       <r>   -1.9151    1.0000 </r>
       <r>   -1.9051    1.0000 </r>
       <r>   -1.8861    1.0000 </r>
       <r>   -1.8680    1.0000 </r>
       <r>   -1.8582    1.0000 </r>
       <r>   -1.8526    1.0000 </r>
       <r>   -1.8369    1.0000 </r>
       <r>   -1.8212    1.0000 </r>
       <r>   -1.8048    1.0000 </r>
       <r>   -1.7938    1.0000 </r>
       <r>   -1.7858    1.0000 </r>
       <r>   -1.7664    1.0000 </r>
       <r>   -1.7492    1.0000 </r>
       <r>   -1.7344    1.0000 </r>
       <r>   -1.7132    1.0000 </r>
       <r>   -1.6938    1.0000 </r>
       <r>   -1.6870    1.0000 </r>
       <r>   -1.6690    1.0000 </r>
       <r>   -1.6551    1.0000 </r>
       <r>   -1.6412    1.0000 </r>
       <r>   -1.6257    1.0000 </r>
       <r>   -1.6133    1.0000 </r>
       <r>   -1.5937    1.0000 </r>
       <r>   -1.5782    1.0000 </r>
       <r>   -1.5583    1.0000 </r>
       <r>   -1.5535    1.0000 </r>
       <r>   -1.5325    1.0000 </r>
       <r>   -1.5104    1.0000 </r>
       <r>   -1.4985    1.0000 </r>
       <r>   -1.4741    1.0000 </r>
       <r>   -1.4605    1.0000 </r>
       <r>   -1.4438    1.0000 </r>
       <r>   -1.4274    1.0000 </r>
       <r>   -1.4093    1.0000 </r>
       <r>   -1.3971    1.0000 </r>
       <r>   -1.3774    1.0000 </r>
       <r>   -1.3675    1.0000 </r>
       <r>   -1.3413    1.0000 </r>
       <r>   -1.3290    1.0000 </r>
       <r>   -1.3013    1.0000 </r>
       <r>   -1.2749    1.0000 </r>
       <r>   -1.2679    1.0000 </r>
       <r>   -1.2312    1.0000 </r>
       <r>   -1.2031    1.0000 </r>
       <r>   -1.1910    1.0000 </r>
       <r>   -1.1589    1.0000 </r>
       <r>   -1.1503    1.0000 </r>
       <r>   -1.1306    1.0000 </r>
       <r>   -1.1072    1.0000 </r>
       <r>   -1.0999    1.0000 </r>
       <r>   -1.0698    1.0000 </r>
       <r>   -1.0483    1.0000 </r>
       <r>   -1.0329    1.0000 </r>
       <r>   -1.0082    1.0000 </r>
       <r>   -0.9849    1.0000 </r>
       <r>   -0.9791    1.0000 </r>
       <r>   -0.9562    1.0000 </r>
       <r>   -0.9282    1.0000 </r>
       <r>   -0.9175    1.0000 </r>
       <r>   -0.8945    1.0000 </r>
       <r>   -0.8865    1.0000 </r>
       <r>   -0.8489    1.0000 </r>
       <r>   -0.8378    1.0000 </r>
       <r>   -0.8052    1.0000 </r>
       <r>   -0.7842    1.0000 </r>
       <r>   -0.7792    1.0000 </r>
       <r>   -0.7665    1.0000 </r>
       <r>   -0.7497    1.0000 </r>
       <r>   -0.7166    1.0000 </r>
       <r>   -0.7074    1.0000 </r>
       <r>   -0.6826    1.0000 </r>
       <r>   -0.6723    1.0000 </r>
       <r>   -0.6676    1.0000 </r>
       <r>   -0.6514    1.0000 </r>
       <r>   -0.6371    1.0000 </r>
       <r>   -0.6281    1.0000 </r>
       <r>   -0.6182    1.0000 </r>
       <r>   -0.6024    1.0000 </r>
       <r>   -0.5957    1.0000 </r>
       <r>   -0.5802    1.0000 </r>
       <r>   -0.5645    1.0000 </r>
       <r>   -0.5573    1.0000 </r>
       <r>   -0.5424    1.0000 </r>
       <r>   -0.5300    1.0000 </r>
       <r>   -0.5199    1.0000 </r>
       <r>   -0.5118    1.0000 </r>
       <r>   -0.4997    1.0000 </r>
       <r>   -0.4914    1.0000 </r>
       <r>   -0.4854    1.0000 </r>
       <r>   -0.4714    1.0000 </r>
       <r>   -0.4607    1.0000 </r>
       <r>   -0.4544    1.0000 </r>
       <r>   -0.4404    1.0000 </r>
       <r>   -0.4282    1.0000 </r>
       <r>   -0.4193    1.0000 </r>
       <r>   -0.4104    1.0000 </r>
       <r>   -0.4047    1.0000 </r>
       <r>   -0.3951    1.0000 </r>
       <r>   -0.3827    1.0000 </r>
       <r>   -0.3779    1.0000 </r>
       <r>   -0.3668    1.0000 </r>
       <r>   -0.3546    1.0000 </r>
       <r>   -0.3454    1.0000 </r>
       <r>   -0.3336    1.0000 </r>
       <r>   -0.3242    1.0000 </r>
       <r>   -0.3042    1.0000 </r>
       <r>   -0.2942    1.0000 </r>
       <r>   -0.2823    1.0000 </r>
       <r>   -0.2768    1.0000 </r>
       <r>   -0.2644    1.0000 </r>
       <r>   -0.2564    1.0000 </r>
       <r>   -0.2472    1.0000 </r>
       <r>   -0.2416    1.0000 </r>
       <r>   -0.2128    1.0000 </r>
       <r>   -0.2019    1.0000 </r>
       <r>   -0.1983    1.0000 </r>
       <r>   -0.1810    1.0000 </r>
       <r>   -0.1612    1.0000 </r>
       <r>   -0.1499    1.0000 </r>
       <r>   -0.1285    1.0000 </r>
       <r>   -0.1094    1.0000 </r>
       <r>   -0.1022    1.0000 </r>
       <r>   -0.0816    1.0000 </r>
       <r>   -0.0653    1.0000 </r>
       <r>   -0.0456    1.0000 </r>
       <r>   -0.0393    1.0000 </r>
       <r>   -0.0302    1.0000 </r>
       <r>   -0.0062    1.0000 </r>
       <r>    0.0097    1.0000 </r>
       <r>    0.0322    1.0000 </r>
       <r>    0.0573    1.0000 </r>
       <r>    0.0653    1.0000 </r>
       <r>    0.0821    1.0000 </r>
       <r>    0.1061    1.0000 </r>
       <r>    0.1445    1.0000 </r>
       <r>    0.1641    1.0000 </r>
       <r>    0.1902    1.0000 </r>
       <r>    0.2023    1.0000 </r>
       <r>    0.2191    1.0000 </r>
       <r>    0.2364    1.0000 </r>
       <r>    0.2646    1.0000 </r>
       <r>    0.2779    1.0000 </r>
       <r>    0.2986    1.0000 </r>
       <r>    0.3192    1.0000 </r>
       <r>    0.3437    1.0000 </r>
       <r>    0.3904    1.0000 </r>
       <r>    0.4098    1.0000 </r>
       <r>    0.4393    1.0000 </r>
       <r>    0.4650    1.0000 </r>
       <r>    0.4878    1.0001 </r>
       <r>    0.5139    1.0003 </r>
       <r>    0.5438    1.0007 </r>
       <r>    0.5698    1.0016 </r>
       <r>    0.6008    1.0037 </r>
       <r>    0.6361    1.0084 </r>
       <r>    0.6602    1.0136 </r>
       <r>    0.7260    1.0323 </r>
       <r>    0.7512    1.0354 </r>
       <r>    0.7957    1.0147 </r>
       <r>    0.8376    0.9372 </r>
       <r>    0.8644    0.8484 </r>
       <r>    0.9040    0.6639 </r>
       <r>    0.9352    0.4914 </r>
       <r>    0.9765    0.2690 </r>
       <r>    1.0288    0.0651 </r>
       <r>    1.0593    0.0010 </r>
       <r>    1.0789   -0.0215 </r>
       <r>    1.0904   -0.0292 </r>
       <r>    1.1201   -0.0354 </r>
       <r>    1.1918   -0.0177 </r>
       <r>    1.2072   -0.0135 </r>
       <r>    1.2426   -0.0066 </r>
       <r>    1.2874   -0.0021 </r>
       <r>    1.3484   -0.0003 </r>
       <r>    1.3820   -0.0001 </r>
       <r>    1.4036   -0.0000 </r>
       <r>    1.4459   -0.0000 </r>
       <r>    1.4851   -0.0000 </r>
       <r>    1.5116   -0.0000 </r>
       <r>    1.5533   -0.0000 </r>
       <r>    1.5865   -0.0000 </r>
       <r>    1.6273   -0.0000 </r>
       <r>    1.6489   -0.0000 </r>
       <r>    1.6801   -0.0000 </r>
       <r>    1.7296   -0.0000 </r>
       <r>    1.7514   -0.0000 </r>
       <r>    1.7926   -0.0000 </r>
       <r>    1.8354   -0.0000 </r>
       <r>    1.8563   -0.0000 </r>
       <r>    1.8808   -0.0000 </r>
       <r>    1.9134   -0.0000 </r>
       <r>    1.9415   -0.0000 </r>
       <r>    1.9909   -0.0000 </r>
       <r>    2.0169   -0.0000 </r>
       <r>    2.0522   -0.0000 </r>
       <r>    2.0721   -0.0000 </r>
       <r>    2.1272   -0.0000 </r>
       <r>    2.1407   -0.0000 </r>
       <r>    2.1870   -0.0000 </r>
       <r>    2.2126   -0.0000 </r>
       <r>    2.2344   -0.0000 </r>
       <r>    2.2582   -0.0000 </r>
       <r>    2.2869   -0.0000 </r>
      </set>
      <set comment="kpoint 10">
       <r>  -42.9369    1.0000 </r>
       <r>  -42.8715    1.0000 </r>
       <r>  -42.8497    1.0000 </r>
       <r>  -42.2460    1.0000 </r>
       <r>  -42.1959    1.0000 </r>
       <r>  -42.1561    1.0000 </r>
       <r>  -42.1184    1.0000 </r>
       <r>  -42.0511    1.0000 </r>
       <r>  -42.0244    1.0000 </r>
       <r>  -41.9889    1.0000 </r>
       <r>  -41.9761    1.0000 </r>
       <r>  -41.9554    1.0000 </r>
       <r>  -41.8860    1.0000 </r>
       <r>  -41.8701    1.0000 </r>
       <r>  -41.8514    1.0000 </r>
       <r>  -41.8381    1.0000 </r>
       <r>  -41.8320    1.0000 </r>
       <r>  -41.8097    1.0000 </r>
       <r>  -41.8028    1.0000 </r>
       <r>  -41.8003    1.0000 </r>
       <r>  -41.7723    1.0000 </r>
       <r>  -41.7504    1.0000 </r>
       <r>  -41.7469    1.0000 </r>
       <r>  -41.7395    1.0000 </r>
       <r>  -41.2679    1.0000 </r>
       <r>  -41.2082    1.0000 </r>
       <r>  -41.1627    1.0000 </r>
       <r>  -40.2875    1.0000 </r>
       <r>  -40.2530    1.0000 </r>
       <r>  -40.2455    1.0000 </r>
       <r>  -40.1894    1.0000 </r>
       <r>  -40.1749    1.0000 </r>
       <r>  -40.1565    1.0000 </r>
       <r>  -40.1369    1.0000 </r>
       <r>  -40.1119    1.0000 </r>
       <r>  -40.0953    1.0000 </r>
       <r>  -40.0932    1.0000 </r>
       <r>  -40.0906    1.0000 </r>
       <r>  -40.0504    1.0000 </r>
       <r>  -15.5376    1.0000 </r>
       <r>  -15.5310    1.0000 </r>
       <r>  -15.5250    1.0000 </r>
       <r>  -15.5149    1.0000 </r>
       <r>  -15.4911    1.0000 </r>
       <r>   -7.7338    1.0000 </r>
       <r>   -6.2264    1.0000 </r>
       <r>   -6.1895    1.0000 </r>
       <r>   -6.1102    1.0000 </r>
       <r>   -6.0517    1.0000 </r>
       <r>   -5.3617    1.0000 </r>
       <r>   -5.2933    1.0000 </r>
       <r>   -5.2686    1.0000 </r>
       <r>   -5.0017    1.0000 </r>
       <r>   -4.2638    1.0000 </r>
       <r>   -4.2117    1.0000 </r>
       <r>   -4.1185    1.0000 </r>
       <r>   -3.9161    1.0000 </r>
       <r>   -3.8543    1.0000 </r>
       <r>   -3.8293    1.0000 </r>
       <r>   -3.6770    1.0000 </r>
       <r>   -3.6681    1.0000 </r>
       <r>   -3.6656    1.0000 </r>
       <r>   -3.6472    1.0000 </r>
       <r>   -3.6397    1.0000 </r>
       <r>   -3.6358    1.0000 </r>
       <r>   -3.6235    1.0000 </r>
       <r>   -3.6187    1.0000 </r>
       <r>   -3.6068    1.0000 </r>
       <r>   -3.5833    1.0000 </r>
       <r>   -3.5618    1.0000 </r>
       <r>   -3.5530    1.0000 </r>
       <r>   -3.5361    1.0000 </r>
       <r>   -3.5112    1.0000 </r>
       <r>   -3.4925    1.0000 </r>
       <r>   -3.4839    1.0000 </r>
       <r>   -3.4723    1.0000 </r>
       <r>   -3.4653    1.0000 </r>
       <r>   -3.4434    1.0000 </r>
       <r>   -3.4348    1.0000 </r>
       <r>   -3.4317    1.0000 </r>
       <r>   -3.4156    1.0000 </r>
       <r>   -3.4132    1.0000 </r>
       <r>   -3.3916    1.0000 </r>
       <r>   -3.3720    1.0000 </r>
       <r>   -3.3616    1.0000 </r>
       <r>   -3.3387    1.0000 </r>
       <r>   -3.3256    1.0000 </r>
       <r>   -3.3207    1.0000 </r>
       <r>   -3.2971    1.0000 </r>
       <r>   -3.2777    1.0000 </r>
       <r>   -3.2560    1.0000 </r>
       <r>   -3.1837    1.0000 </r>
       <r>   -3.1723    1.0000 </r>
       <r>   -3.1607    1.0000 </r>
       <r>   -3.1055    1.0000 </r>
       <r>   -3.0732    1.0000 </r>
       <r>   -3.0653    1.0000 </r>
       <r>   -3.0355    1.0000 </r>
       <r>   -3.0019    1.0000 </r>
       <r>   -2.9704    1.0000 </r>
       <r>   -2.9427    1.0000 </r>
       <r>   -2.9274    1.0000 </r>
       <r>   -2.9136    1.0000 </r>
       <r>   -2.8954    1.0000 </r>
       <r>   -2.8630    1.0000 </r>
       <r>   -2.8446    1.0000 </r>
       <r>   -2.8296    1.0000 </r>
       <r>   -2.7882    1.0000 </r>
       <r>   -2.7788    1.0000 </r>
       <r>   -2.7598    1.0000 </r>
       <r>   -2.7338    1.0000 </r>
       <r>   -2.7203    1.0000 </r>
       <r>   -2.6894    1.0000 </r>
       <r>   -2.6859    1.0000 </r>
       <r>   -2.6814    1.0000 </r>
       <r>   -2.6633    1.0000 </r>
       <r>   -2.6402    1.0000 </r>
       <r>   -2.6200    1.0000 </r>
       <r>   -2.6118    1.0000 </r>
       <r>   -2.5953    1.0000 </r>
       <r>   -2.5736    1.0000 </r>
       <r>   -2.5686    1.0000 </r>
       <r>   -2.5579    1.0000 </r>
       <r>   -2.5490    1.0000 </r>
       <r>   -2.5435    1.0000 </r>
       <r>   -2.5321    1.0000 </r>
       <r>   -2.5213    1.0000 </r>
       <r>   -2.4975    1.0000 </r>
       <r>   -2.4910    1.0000 </r>
       <r>   -2.4763    1.0000 </r>
       <r>   -2.4736    1.0000 </r>
       <r>   -2.4583    1.0000 </r>
       <r>   -2.4290    1.0000 </r>
       <r>   -2.4221    1.0000 </r>
       <r>   -2.4084    1.0000 </r>
       <r>   -2.4002    1.0000 </r>
       <r>   -2.3839    1.0000 </r>
       <r>   -2.3647    1.0000 </r>
       <r>   -2.3543    1.0000 </r>
       <r>   -2.3435    1.0000 </r>
       <r>   -2.3157    1.0000 </r>
       <r>   -2.2962    1.0000 </r>
       <r>   -2.2932    1.0000 </r>
       <r>   -2.2774    1.0000 </r>
       <r>   -2.2600    1.0000 </r>
       <r>   -2.2333    1.0000 </r>
       <r>   -2.2183    1.0000 </r>
       <r>   -2.2099    1.0000 </r>
       <r>   -2.1830    1.0000 </r>
       <r>   -2.1637    1.0000 </r>
       <r>   -2.1424    1.0000 </r>
       <r>   -2.1407    1.0000 </r>
       <r>   -2.1149    1.0000 </r>
       <r>   -2.0997    1.0000 </r>
       <r>   -2.0855    1.0000 </r>
       <r>   -2.0680    1.0000 </r>
       <r>   -2.0575    1.0000 </r>
       <r>   -2.0444    1.0000 </r>
       <r>   -2.0291    1.0000 </r>
       <r>   -2.0122    1.0000 </r>
       <r>   -1.9963    1.0000 </r>
       <r>   -1.9868    1.0000 </r>
       <r>   -1.9645    1.0000 </r>
       <r>   -1.9609    1.0000 </r>
       <r>   -1.9480    1.0000 </r>
       <r>   -1.9312    1.0000 </r>
       <r>   -1.9194    1.0000 </r>
       <r>   -1.8898    1.0000 </r>
       <r>   -1.8819    1.0000 </r>
       <r>   -1.8803    1.0000 </r>
       <r>   -1.8543    1.0000 </r>
       <r>   -1.8501    1.0000 </r>
       <r>   -1.8411    1.0000 </r>
       <r>   -1.8241    1.0000 </r>
       <r>   -1.8067    1.0000 </r>
       <r>   -1.7948    1.0000 </r>
       <r>   -1.7750    1.0000 </r>
       <r>   -1.7692    1.0000 </r>
       <r>   -1.7599    1.0000 </r>
       <r>   -1.7348    1.0000 </r>
       <r>   -1.7224    1.0000 </r>
       <r>   -1.6896    1.0000 </r>
       <r>   -1.6853    1.0000 </r>
       <r>   -1.6700    1.0000 </r>
       <r>   -1.6604    1.0000 </r>
       <r>   -1.6456    1.0000 </r>
       <r>   -1.6359    1.0000 </r>
       <r>   -1.6165    1.0000 </r>
       <r>   -1.6087    1.0000 </r>
       <r>   -1.5768    1.0000 </r>
       <r>   -1.5366    1.0000 </r>
       <r>   -1.5295    1.0000 </r>
       <r>   -1.5190    1.0000 </r>
       <r>   -1.5004    1.0000 </r>
       <r>   -1.4766    1.0000 </r>
       <r>   -1.4571    1.0000 </r>
       <r>   -1.4412    1.0000 </r>
       <r>   -1.4331    1.0000 </r>
       <r>   -1.4220    1.0000 </r>
       <r>   -1.3926    1.0000 </r>
       <r>   -1.3816    1.0000 </r>
       <r>   -1.3646    1.0000 </r>
       <r>   -1.3346    1.0000 </r>
       <r>   -1.3177    1.0000 </r>
       <r>   -1.2922    1.0000 </r>
       <r>   -1.2871    1.0000 </r>
       <r>   -1.2640    1.0000 </r>
       <r>   -1.2307    1.0000 </r>
       <r>   -1.2037    1.0000 </r>
       <r>   -1.1885    1.0000 </r>
       <r>   -1.1859    1.0000 </r>
       <r>   -1.1566    1.0000 </r>
       <r>   -1.1162    1.0000 </r>
       <r>   -1.0927    1.0000 </r>
       <r>   -1.0647    1.0000 </r>
       <r>   -1.0412    1.0000 </r>
       <r>   -1.0365    1.0000 </r>
       <r>   -1.0224    1.0000 </r>
       <r>   -0.9911    1.0000 </r>
       <r>   -0.9836    1.0000 </r>
       <r>   -0.9644    1.0000 </r>
       <r>   -0.9422    1.0000 </r>
       <r>   -0.9222    1.0000 </r>
       <r>   -0.8963    1.0000 </r>
       <r>   -0.8758    1.0000 </r>
       <r>   -0.8662    1.0000 </r>
       <r>   -0.8612    1.0000 </r>
       <r>   -0.8283    1.0000 </r>
       <r>   -0.8042    1.0000 </r>
       <r>   -0.7940    1.0000 </r>
       <r>   -0.7789    1.0000 </r>
       <r>   -0.7662    1.0000 </r>
       <r>   -0.7531    1.0000 </r>
       <r>   -0.7319    1.0000 </r>
       <r>   -0.7080    1.0000 </r>
       <r>   -0.6847    1.0000 </r>
       <r>   -0.6733    1.0000 </r>
       <r>   -0.6654    1.0000 </r>
       <r>   -0.6630    1.0000 </r>
       <r>   -0.6462    1.0000 </r>
       <r>   -0.6360    1.0000 </r>
       <r>   -0.6182    1.0000 </r>
       <r>   -0.6084    1.0000 </r>
       <r>   -0.5849    1.0000 </r>
       <r>   -0.5624    1.0000 </r>
       <r>   -0.5505    1.0000 </r>
       <r>   -0.5395    1.0000 </r>
       <r>   -0.5347    1.0000 </r>
       <r>   -0.5129    1.0000 </r>
       <r>   -0.4994    1.0000 </r>
       <r>   -0.4899    1.0000 </r>
       <r>   -0.4834    1.0000 </r>
       <r>   -0.4709    1.0000 </r>
       <r>   -0.4678    1.0000 </r>
       <r>   -0.4605    1.0000 </r>
       <r>   -0.4560    1.0000 </r>
       <r>   -0.4434    1.0000 </r>
       <r>   -0.4276    1.0000 </r>
       <r>   -0.4270    1.0000 </r>
       <r>   -0.4189    1.0000 </r>
       <r>   -0.4084    1.0000 </r>
       <r>   -0.4011    1.0000 </r>
       <r>   -0.3949    1.0000 </r>
       <r>   -0.3755    1.0000 </r>
       <r>   -0.3716    1.0000 </r>
       <r>   -0.3707    1.0000 </r>
       <r>   -0.3461    1.0000 </r>
       <r>   -0.3385    1.0000 </r>
       <r>   -0.3212    1.0000 </r>
       <r>   -0.3196    1.0000 </r>
       <r>   -0.3076    1.0000 </r>
       <r>   -0.2939    1.0000 </r>
       <r>   -0.2904    1.0000 </r>
       <r>   -0.2838    1.0000 </r>
       <r>   -0.2760    1.0000 </r>
       <r>   -0.2621    1.0000 </r>
       <r>   -0.2492    1.0000 </r>
       <r>   -0.2420    1.0000 </r>
       <r>   -0.2285    1.0000 </r>
       <r>   -0.2114    1.0000 </r>
       <r>   -0.2027    1.0000 </r>
       <r>   -0.1928    1.0000 </r>
       <r>   -0.1711    1.0000 </r>
       <r>   -0.1562    1.0000 </r>
       <r>   -0.1499    1.0000 </r>
       <r>   -0.1296    1.0000 </r>
       <r>   -0.1171    1.0000 </r>
       <r>   -0.1140    1.0000 </r>
       <r>   -0.0872    1.0000 </r>
       <r>   -0.0847    1.0000 </r>
       <r>   -0.0536    1.0000 </r>
       <r>   -0.0323    1.0000 </r>
       <r>   -0.0116    1.0000 </r>
       <r>    0.0003    1.0000 </r>
       <r>    0.0102    1.0000 </r>
       <r>    0.0162    1.0000 </r>
       <r>    0.0411    1.0000 </r>
       <r>    0.0498    1.0000 </r>
       <r>    0.0819    1.0000 </r>
       <r>    0.1057    1.0000 </r>
       <r>    0.1272    1.0000 </r>
       <r>    0.1395    1.0000 </r>
       <r>    0.1472    1.0000 </r>
       <r>    0.1718    1.0000 </r>
       <r>    0.2187    1.0000 </r>
       <r>    0.2368    1.0000 </r>
       <r>    0.2687    1.0000 </r>
       <r>    0.2890    1.0000 </r>
       <r>    0.3132    1.0000 </r>
       <r>    0.3166    1.0000 </r>
       <r>    0.3393    1.0000 </r>
       <r>    0.3865    1.0000 </r>
       <r>    0.4065    1.0000 </r>
       <r>    0.4230    1.0000 </r>
       <r>    0.4561    1.0000 </r>
       <r>    0.4792    1.0001 </r>
       <r>    0.5338    1.0005 </r>
       <r>    0.5551    1.0010 </r>
       <r>    0.5798    1.0021 </r>
       <r>    0.6201    1.0059 </r>
       <r>    0.6541    1.0121 </r>
       <r>    0.6870    1.0210 </r>
       <r>    0.7261    1.0324 </r>
       <r>    0.7928    1.0176 </r>
       <r>    0.8326    0.9503 </r>
       <r>    0.8550    0.8834 </r>
       <r>    0.9039    0.6642 </r>
       <r>    0.9116    0.6233 </r>
       <r>    0.9444    0.4397 </r>
       <r>    0.9756    0.2734 </r>
       <r>    1.0089    0.1289 </r>
       <r>    1.0291    0.0644 </r>
       <r>    1.0473    0.0217 </r>
       <r>    1.1118   -0.0352 </r>
       <r>    1.1262   -0.0350 </r>
       <r>    1.1484   -0.0306 </r>
       <r>    1.2153   -0.0116 </r>
       <r>    1.2312   -0.0084 </r>
       <r>    1.2955   -0.0017 </r>
       <r>    1.3066   -0.0012 </r>
       <r>    1.3622   -0.0002 </r>
       <r>    1.4095   -0.0000 </r>
       <r>    1.4244   -0.0000 </r>
       <r>    1.4605   -0.0000 </r>
       <r>    1.5241   -0.0000 </r>
       <r>    1.5401   -0.0000 </r>
       <r>    1.6685   -0.0000 </r>
       <r>    1.6823   -0.0000 </r>
       <r>    1.6929   -0.0000 </r>
       <r>    1.7369   -0.0000 </r>
       <r>    1.7900   -0.0000 </r>
       <r>    1.7964   -0.0000 </r>
       <r>    1.8184   -0.0000 </r>
       <r>    1.8388   -0.0000 </r>
       <r>    1.8535   -0.0000 </r>
       <r>    1.8840   -0.0000 </r>
       <r>    1.9272   -0.0000 </r>
       <r>    1.9582   -0.0000 </r>
       <r>    1.9855   -0.0000 </r>
       <r>    1.9876   -0.0000 </r>
       <r>    2.0482   -0.0000 </r>
       <r>    2.0572   -0.0000 </r>
       <r>    2.1217   -0.0000 </r>
       <r>    2.1669   -0.0000 </r>
       <r>    2.1782   -0.0000 </r>
       <r>    2.2082   -0.0000 </r>
       <r>    2.2346   -0.0000 </r>
       <r>    2.2834   -0.0000 </r>
       <r>    2.3249   -0.0000 </r>
      </set>
     </set>
     <set comment="spin 2">
      <set comment="kpoint 1">
       <r>  -43.4083    1.0000 </r>
       <r>  -43.3908    1.0000 </r>
       <r>  -43.3782    1.0000 </r>
       <r>  -43.3650    1.0000 </r>
       <r>  -43.3548    1.0000 </r>
       <r>  -43.3515    1.0000 </r>
       <r>  -43.3512    1.0000 </r>
       <r>  -43.3204    1.0000 </r>
       <r>  -43.3168    1.0000 </r>
       <r>  -43.3040    1.0000 </r>
       <r>  -43.2867    1.0000 </r>
       <r>  -43.2799    1.0000 </r>
       <r>  -43.2782    1.0000 </r>
       <r>  -43.2554    1.0000 </r>
       <r>  -43.1936    1.0000 </r>
       <r>  -43.1821    1.0000 </r>
       <r>  -43.1615    1.0000 </r>
       <r>  -43.1564    1.0000 </r>
       <r>  -43.1512    1.0000 </r>
       <r>  -43.1381    1.0000 </r>
       <r>  -43.0689    1.0000 </r>
       <r>  -42.9979    1.0000 </r>
       <r>  -42.9256    1.0000 </r>
       <r>  -42.8233    1.0000 </r>
       <r>  -42.8083    1.0000 </r>
       <r>  -42.7843    1.0000 </r>
       <r>  -42.7083    1.0000 </r>
       <r>  -42.6669    1.0000 </r>
       <r>  -42.6307    1.0000 </r>
       <r>  -42.5602    1.0000 </r>
       <r>  -42.4966    1.0000 </r>
       <r>  -42.3497    1.0000 </r>
       <r>  -42.1978    1.0000 </r>
       <r>  -42.1908    1.0000 </r>
       <r>  -42.0220    1.0000 </r>
       <r>  -41.8357    1.0000 </r>
       <r>  -39.8490    1.0000 </r>
       <r>  -39.7277    1.0000 </r>
       <r>  -39.6303    1.0000 </r>
       <r>  -15.5508    1.0000 </r>
       <r>  -15.5409    1.0000 </r>
       <r>  -15.5367    1.0000 </r>
       <r>  -15.5252    1.0000 </r>
       <r>  -15.5067    1.0000 </r>
       <r>   -7.8619    1.0000 </r>
       <r>   -7.0502    1.0000 </r>
       <r>   -6.0302    1.0000 </r>
       <r>   -5.1014    1.0000 </r>
       <r>   -5.0707    1.0000 </r>
       <r>   -5.0630    1.0000 </r>
       <r>   -4.9995    1.0000 </r>
       <r>   -4.6593    1.0000 </r>
       <r>   -4.3958    1.0000 </r>
       <r>   -4.3490    1.0000 </r>
       <r>   -4.3247    1.0000 </r>
       <r>   -4.1555    1.0000 </r>
       <r>   -3.7021    1.0000 </r>
       <r>   -3.6593    1.0000 </r>
       <r>   -3.6299    1.0000 </r>
       <r>   -3.6010    1.0000 </r>
       <r>   -3.5410    1.0000 </r>
       <r>   -3.5152    1.0000 </r>
       <r>   -3.4551    1.0000 </r>
       <r>   -3.3984    1.0000 </r>
       <r>   -3.1552    1.0000 </r>
       <r>   -2.9812    1.0000 </r>
       <r>   -2.9055    1.0000 </r>
       <r>   -2.8818    1.0000 </r>
       <r>   -2.8662    1.0000 </r>
       <r>   -2.8367    1.0000 </r>
       <r>   -2.8184    1.0000 </r>
       <r>   -2.7473    1.0000 </r>
       <r>   -2.7004    1.0000 </r>
       <r>   -2.6362    1.0000 </r>
       <r>   -2.5282    1.0000 </r>
       <r>   -2.4875    1.0000 </r>
       <r>   -2.4380    1.0000 </r>
       <r>   -2.4160    1.0000 </r>
       <r>   -2.3707    1.0000 </r>
       <r>   -2.3611    1.0000 </r>
       <r>   -2.2979    1.0000 </r>
       <r>   -2.2660    1.0000 </r>
       <r>   -2.2314    1.0000 </r>
       <r>   -2.2194    1.0000 </r>
       <r>   -2.2032    1.0000 </r>
       <r>   -2.1754    1.0000 </r>
       <r>   -2.1602    1.0000 </r>
       <r>   -2.1265    1.0000 </r>
       <r>   -2.1182    1.0000 </r>
       <r>   -2.0905    1.0000 </r>
       <r>   -2.0766    1.0000 </r>
       <r>   -2.0464    1.0000 </r>
       <r>   -2.0310    1.0000 </r>
       <r>   -2.0287    1.0000 </r>
       <r>   -1.9851    1.0000 </r>
       <r>   -1.9101    1.0000 </r>
       <r>   -1.8730    1.0000 </r>
       <r>   -1.8652    1.0000 </r>
       <r>   -1.8181    1.0000 </r>
       <r>   -1.7856    1.0000 </r>
       <r>   -1.7657    1.0000 </r>
       <r>   -1.7384    1.0000 </r>
       <r>   -1.7040    1.0000 </r>
       <r>   -1.6507    1.0000 </r>
       <r>   -1.6143    1.0000 </r>
       <r>   -1.5829    1.0000 </r>
       <r>   -1.5502    1.0000 </r>
       <r>   -1.5421    1.0000 </r>
       <r>   -1.5326    1.0000 </r>
       <r>   -1.5098    1.0000 </r>
       <r>   -1.4938    1.0000 </r>
       <r>   -1.4735    1.0000 </r>
       <r>   -1.4593    1.0000 </r>
       <r>   -1.4418    1.0000 </r>
       <r>   -1.4323    1.0000 </r>
       <r>   -1.4218    1.0000 </r>
       <r>   -1.4057    1.0000 </r>
       <r>   -1.3707    1.0000 </r>
       <r>   -1.3547    1.0000 </r>
       <r>   -1.3439    1.0000 </r>
       <r>   -1.3282    1.0000 </r>
       <r>   -1.3036    1.0000 </r>
       <r>   -1.2897    1.0000 </r>
       <r>   -1.2690    1.0000 </r>
       <r>   -1.2478    1.0000 </r>
       <r>   -1.2344    1.0000 </r>
       <r>   -1.2026    1.0000 </r>
       <r>   -1.1711    1.0000 </r>
       <r>   -1.1551    1.0000 </r>
       <r>   -1.1471    1.0000 </r>
       <r>   -1.1229    1.0000 </r>
       <r>   -1.1034    1.0000 </r>
       <r>   -1.1003    1.0000 </r>
       <r>   -1.0891    1.0000 </r>
       <r>   -1.0614    1.0000 </r>
       <r>   -1.0410    1.0000 </r>
       <r>   -1.0366    1.0000 </r>
       <r>   -1.0273    1.0000 </r>
       <r>   -1.0048    1.0000 </r>
       <r>   -0.9859    1.0000 </r>
       <r>   -0.9625    1.0000 </r>
       <r>   -0.9577    1.0000 </r>
       <r>   -0.9468    1.0000 </r>
       <r>   -0.9308    1.0000 </r>
       <r>   -0.9042    1.0000 </r>
       <r>   -0.8986    1.0000 </r>
       <r>   -0.8639    1.0000 </r>
       <r>   -0.8575    1.0000 </r>
       <r>   -0.8521    1.0000 </r>
       <r>   -0.8373    1.0000 </r>
       <r>   -0.8196    1.0000 </r>
       <r>   -0.7936    1.0000 </r>
       <r>   -0.7751    1.0000 </r>
       <r>   -0.7676    1.0000 </r>
       <r>   -0.7457    1.0000 </r>
       <r>   -0.7262    1.0000 </r>
       <r>   -0.7156    1.0000 </r>
       <r>   -0.7069    1.0000 </r>
       <r>   -0.6858    1.0000 </r>
       <r>   -0.6671    1.0000 </r>
       <r>   -0.6628    1.0000 </r>
       <r>   -0.6484    1.0000 </r>
       <r>   -0.6275    1.0000 </r>
       <r>   -0.6223    1.0000 </r>
       <r>   -0.5903    1.0000 </r>
       <r>   -0.5812    1.0000 </r>
       <r>   -0.5659    1.0000 </r>
       <r>   -0.5427    1.0000 </r>
       <r>   -0.5372    1.0000 </r>
       <r>   -0.5125    1.0000 </r>
       <r>   -0.5036    1.0000 </r>
       <r>   -0.4715    1.0000 </r>
       <r>   -0.4469    1.0000 </r>
       <r>   -0.4183    1.0000 </r>
       <r>   -0.4012    1.0000 </r>
       <r>   -0.3904    1.0000 </r>
       <r>   -0.3750    1.0000 </r>
       <r>   -0.3553    1.0000 </r>
       <r>   -0.3352    1.0000 </r>
       <r>   -0.3008    1.0000 </r>
       <r>   -0.2961    1.0000 </r>
       <r>   -0.2565    1.0000 </r>
       <r>   -0.2277    1.0000 </r>
       <r>   -0.2171    1.0000 </r>
       <r>   -0.1963    1.0000 </r>
       <r>   -0.1761    1.0000 </r>
       <r>   -0.1683    1.0000 </r>
       <r>   -0.1315    1.0000 </r>
       <r>   -0.1289    1.0000 </r>
       <r>   -0.1088    1.0000 </r>
       <r>   -0.0869    1.0000 </r>
       <r>   -0.0767    1.0000 </r>
       <r>   -0.0430    1.0000 </r>
       <r>   -0.0321    1.0000 </r>
       <r>    0.0155    1.0000 </r>
       <r>    0.0331    1.0000 </r>
       <r>    0.0617    1.0000 </r>
       <r>    0.0759    1.0000 </r>
       <r>    0.1042    1.0000 </r>
       <r>    0.1179    1.0000 </r>
       <r>    0.1467    1.0000 </r>
       <r>    0.1605    1.0000 </r>
       <r>    0.1881    1.0000 </r>
       <r>    0.1955    1.0000 </r>
       <r>    0.2170    1.0000 </r>
       <r>    0.2339    1.0000 </r>
       <r>    0.2493    1.0000 </r>
       <r>    0.2660    1.0000 </r>
       <r>    0.2780    1.0000 </r>
       <r>    0.3078    1.0000 </r>
       <r>    0.3236    1.0000 </r>
       <r>    0.3301    1.0000 </r>
       <r>    0.3500    1.0000 </r>
       <r>    0.3867    1.0000 </r>
       <r>    0.4072    1.0000 </r>
       <r>    0.4371    1.0000 </r>
       <r>    0.4679    1.0001 </r>
       <r>    0.4780    1.0001 </r>
       <r>    0.5152    1.0003 </r>
       <r>    0.5431    1.0007 </r>
       <r>    0.5564    1.0011 </r>
       <r>    0.5958    1.0033 </r>
       <r>    0.6083    1.0045 </r>
       <r>    0.6431    1.0098 </r>
       <r>    0.6714    1.0165 </r>
       <r>    0.6907    1.0221 </r>
       <r>    0.7165    1.0299 </r>
       <r>    0.7241    1.0319 </r>
       <r>    0.7764    1.0295 </r>
       <r>    0.8112    0.9942 </r>
       <r>    0.8362    0.9412 </r>
       <r>    0.8825    0.7709 </r>
       <r>    0.9259    0.5437 </r>
       <r>    0.9765    0.2691 </r>
       <r>    1.0035    0.1496 </r>
       <r>    1.0249    0.0765 </r>
       <r>    1.0501    0.0163 </r>
       <r>    1.0691   -0.0119 </r>
       <r>    1.0753   -0.0183 </r>
       <r>    1.0947   -0.0312 </r>
       <r>    1.1072   -0.0347 </r>
       <r>    1.1279   -0.0348 </r>
       <r>    1.1414   -0.0323 </r>
       <r>    1.1810   -0.0208 </r>
       <r>    1.1929   -0.0173 </r>
       <r>    1.2144   -0.0118 </r>
       <r>    1.2217   -0.0103 </r>
       <r>    1.2517   -0.0053 </r>
       <r>    1.2596   -0.0044 </r>
       <r>    1.2835   -0.0024 </r>
       <r>    1.2988   -0.0015 </r>
       <r>    1.3089   -0.0012 </r>
       <r>    1.3161   -0.0009 </r>
       <r>    1.3254   -0.0007 </r>
       <r>    1.3453   -0.0004 </r>
       <r>    1.3527   -0.0003 </r>
       <r>    1.3618   -0.0002 </r>
       <r>    1.3899   -0.0001 </r>
       <r>    1.4049   -0.0000 </r>
       <r>    1.4171   -0.0000 </r>
       <r>    1.4349   -0.0000 </r>
       <r>    1.4416   -0.0000 </r>
       <r>    1.4678   -0.0000 </r>
       <r>    1.4888   -0.0000 </r>
       <r>    1.5179   -0.0000 </r>
       <r>    1.5491   -0.0000 </r>
       <r>    1.5548   -0.0000 </r>
       <r>    1.5827   -0.0000 </r>
       <r>    1.6012   -0.0000 </r>
       <r>    1.6171   -0.0000 </r>
       <r>    1.6426   -0.0000 </r>
       <r>    1.6602   -0.0000 </r>
       <r>    1.6704   -0.0000 </r>
       <r>    1.6861   -0.0000 </r>
       <r>    1.7075   -0.0000 </r>
       <r>    1.7217   -0.0000 </r>
       <r>    1.7382   -0.0000 </r>
       <r>    1.7454   -0.0000 </r>
       <r>    1.7671   -0.0000 </r>
       <r>    1.7763   -0.0000 </r>
       <r>    1.7859   -0.0000 </r>
       <r>    1.8070   -0.0000 </r>
       <r>    1.8342   -0.0000 </r>
       <r>    1.8393   -0.0000 </r>
       <r>    1.8605   -0.0000 </r>
       <r>    1.8727   -0.0000 </r>
       <r>    1.8981   -0.0000 </r>
       <r>    1.9017   -0.0000 </r>
       <r>    1.9186   -0.0000 </r>
       <r>    1.9391   -0.0000 </r>
       <r>    1.9648   -0.0000 </r>
       <r>    1.9785   -0.0000 </r>
       <r>    1.9844   -0.0000 </r>
       <r>    1.9896   -0.0000 </r>
       <r>    1.9956   -0.0000 </r>
       <r>    2.0137   -0.0000 </r>
       <r>    2.0232   -0.0000 </r>
       <r>    2.0435   -0.0000 </r>
       <r>    2.0624   -0.0000 </r>
       <r>    2.0771   -0.0000 </r>
       <r>    2.0908   -0.0000 </r>
       <r>    2.1038   -0.0000 </r>
       <r>    2.1125   -0.0000 </r>
       <r>    2.1186   -0.0000 </r>
       <r>    2.1223   -0.0000 </r>
       <r>    2.1416   -0.0000 </r>
       <r>    2.1529   -0.0000 </r>
       <r>    2.1636   -0.0000 </r>
       <r>    2.1728   -0.0000 </r>
       <r>    2.1809   -0.0000 </r>
       <r>    2.2035   -0.0000 </r>
       <r>    2.2109   -0.0000 </r>
       <r>    2.2249   -0.0000 </r>
       <r>    2.2387   -0.0000 </r>
       <r>    2.2467   -0.0000 </r>
       <r>    2.2563   -0.0000 </r>
       <r>    2.2626   -0.0000 </r>
       <r>    2.2644   -0.0000 </r>
       <r>    2.2733   -0.0000 </r>
       <r>    2.2781   -0.0000 </r>
       <r>    2.2882   -0.0000 </r>
       <r>    2.3078   -0.0000 </r>
       <r>    2.3186   -0.0000 </r>
       <r>    2.3270   -0.0000 </r>
       <r>    2.3370   -0.0000 </r>
       <r>    2.3403   -0.0000 </r>
       <r>    2.3594   -0.0000 </r>
       <r>    2.3657   -0.0000 </r>
       <r>    2.3723   -0.0000 </r>
       <r>    2.3773   -0.0000 </r>
       <r>    2.3909   -0.0000 </r>
       <r>    2.4009   -0.0000 </r>
       <r>    2.4047   -0.0000 </r>
       <r>    2.4126   -0.0000 </r>
       <r>    2.4243   -0.0000 </r>
       <r>    2.4317   -0.0000 </r>
       <r>    2.4394   -0.0000 </r>
       <r>    2.4478   -0.0000 </r>
       <r>    2.4549   -0.0000 </r>
       <r>    2.4607   -0.0000 </r>
       <r>    2.4658   -0.0000 </r>
       <r>    2.4801   -0.0000 </r>
       <r>    2.4987   -0.0000 </r>
       <r>    2.5026   -0.0000 </r>
       <r>    2.5190   -0.0000 </r>
       <r>    2.5382   -0.0000 </r>
       <r>    2.5672   -0.0000 </r>
       <r>    2.5724   -0.0000 </r>
       <r>    2.5838   -0.0000 </r>
       <r>    2.6124   -0.0000 </r>
       <r>    2.6211   -0.0000 </r>
       <r>    2.6252   -0.0000 </r>
       <r>    2.6290   -0.0000 </r>
       <r>    2.6410   -0.0000 </r>
       <r>    2.6537   -0.0000 </r>
       <r>    2.6625   -0.0000 </r>
       <r>    2.6652   -0.0000 </r>
       <r>    2.6838   -0.0000 </r>
       <r>    2.7035   -0.0000 </r>
       <r>    2.7335   -0.0000 </r>
       <r>    2.7791   -0.0000 </r>
       <r>    2.7873   -0.0000 </r>
       <r>    2.8209   -0.0000 </r>
       <r>    2.8656   -0.0000 </r>
       <r>    2.8740   -0.0000 </r>
       <r>    2.9154   -0.0000 </r>
       <r>    2.9307   -0.0000 </r>
       <r>    2.9639   -0.0000 </r>
       <r>    2.9713   -0.0000 </r>
      </set>
      <set comment="kpoint 2">
       <r>  -43.4083    1.0000 </r>
       <r>  -43.3908    1.0000 </r>
       <r>  -43.3782    1.0000 </r>
       <r>  -43.3650    1.0000 </r>
       <r>  -43.3548    1.0000 </r>
       <r>  -43.3515    1.0000 </r>
       <r>  -43.3512    1.0000 </r>
       <r>  -43.3203    1.0000 </r>
       <r>  -43.3168    1.0000 </r>
       <r>  -43.3040    1.0000 </r>
       <r>  -43.2867    1.0000 </r>
       <r>  -43.2799    1.0000 </r>
       <r>  -43.2782    1.0000 </r>
       <r>  -43.2554    1.0000 </r>
       <r>  -43.1936    1.0000 </r>
       <r>  -43.1821    1.0000 </r>
       <r>  -43.1615    1.0000 </r>
       <r>  -43.1564    1.0000 </r>
       <r>  -43.1512    1.0000 </r>
       <r>  -43.1381    1.0000 </r>
       <r>  -43.0689    1.0000 </r>
       <r>  -42.9979    1.0000 </r>
       <r>  -42.9256    1.0000 </r>
       <r>  -42.8233    1.0000 </r>
       <r>  -42.8083    1.0000 </r>
       <r>  -42.7843    1.0000 </r>
       <r>  -42.7083    1.0000 </r>
       <r>  -42.6669    1.0000 </r>
       <r>  -42.6307    1.0000 </r>
       <r>  -42.5602    1.0000 </r>
       <r>  -42.4966    1.0000 </r>
       <r>  -42.3497    1.0000 </r>
       <r>  -42.1978    1.0000 </r>
       <r>  -42.1908    1.0000 </r>
       <r>  -42.0220    1.0000 </r>
       <r>  -41.8357    1.0000 </r>
       <r>  -39.8490    1.0000 </r>
       <r>  -39.7277    1.0000 </r>
       <r>  -39.6303    1.0000 </r>
       <r>  -15.5507    1.0000 </r>
       <r>  -15.5409    1.0000 </r>
       <r>  -15.5367    1.0000 </r>
       <r>  -15.5251    1.0000 </r>
       <r>  -15.5067    1.0000 </r>
       <r>   -7.8371    1.0000 </r>
       <r>   -6.9263    1.0000 </r>
       <r>   -5.9903    1.0000 </r>
       <r>   -5.8272    1.0000 </r>
       <r>   -5.0586    1.0000 </r>
       <r>   -4.9542    1.0000 </r>
       <r>   -4.9185    1.0000 </r>
       <r>   -4.5342    1.0000 </r>
       <r>   -4.2475    1.0000 </r>
       <r>   -4.1968    1.0000 </r>
       <r>   -4.1580    1.0000 </r>
       <r>   -4.1261    1.0000 </r>
       <r>   -4.0868    1.0000 </r>
       <r>   -3.8367    1.0000 </r>
       <r>   -3.6221    1.0000 </r>
       <r>   -3.4409    1.0000 </r>
       <r>   -3.4028    1.0000 </r>
       <r>   -3.3794    1.0000 </r>
       <r>   -3.3208    1.0000 </r>
       <r>   -3.2409    1.0000 </r>
       <r>   -3.2252    1.0000 </r>
       <r>   -3.1571    1.0000 </r>
       <r>   -3.0391    1.0000 </r>
       <r>   -2.9069    1.0000 </r>
       <r>   -2.8477    1.0000 </r>
       <r>   -2.7477    1.0000 </r>
       <r>   -2.7193    1.0000 </r>
       <r>   -2.6601    1.0000 </r>
       <r>   -2.6149    1.0000 </r>
       <r>   -2.5894    1.0000 </r>
       <r>   -2.5712    1.0000 </r>
       <r>   -2.5413    1.0000 </r>
       <r>   -2.5194    1.0000 </r>
       <r>   -2.4840    1.0000 </r>
       <r>   -2.4524    1.0000 </r>
       <r>   -2.4124    1.0000 </r>
       <r>   -2.3729    1.0000 </r>
       <r>   -2.3409    1.0000 </r>
       <r>   -2.3196    1.0000 </r>
       <r>   -2.2353    1.0000 </r>
       <r>   -2.2033    1.0000 </r>
       <r>   -2.1699    1.0000 </r>
       <r>   -2.1524    1.0000 </r>
       <r>   -2.1329    1.0000 </r>
       <r>   -2.1150    1.0000 </r>
       <r>   -2.0911    1.0000 </r>
       <r>   -2.0620    1.0000 </r>
       <r>   -2.0264    1.0000 </r>
       <r>   -1.9959    1.0000 </r>
       <r>   -1.9768    1.0000 </r>
       <r>   -1.9582    1.0000 </r>
       <r>   -1.9439    1.0000 </r>
       <r>   -1.9348    1.0000 </r>
       <r>   -1.8952    1.0000 </r>
       <r>   -1.8765    1.0000 </r>
       <r>   -1.8328    1.0000 </r>
       <r>   -1.7785    1.0000 </r>
       <r>   -1.7609    1.0000 </r>
       <r>   -1.7471    1.0000 </r>
       <r>   -1.7230    1.0000 </r>
       <r>   -1.6627    1.0000 </r>
       <r>   -1.6349    1.0000 </r>
       <r>   -1.6079    1.0000 </r>
       <r>   -1.5833    1.0000 </r>
       <r>   -1.5651    1.0000 </r>
       <r>   -1.5466    1.0000 </r>
       <r>   -1.5222    1.0000 </r>
       <r>   -1.4988    1.0000 </r>
       <r>   -1.4824    1.0000 </r>
       <r>   -1.4749    1.0000 </r>
       <r>   -1.4466    1.0000 </r>
       <r>   -1.4339    1.0000 </r>
       <r>   -1.3954    1.0000 </r>
       <r>   -1.3756    1.0000 </r>
       <r>   -1.3571    1.0000 </r>
       <r>   -1.3361    1.0000 </r>
       <r>   -1.3167    1.0000 </r>
       <r>   -1.2841    1.0000 </r>
       <r>   -1.2610    1.0000 </r>
       <r>   -1.2520    1.0000 </r>
       <r>   -1.2297    1.0000 </r>
       <r>   -1.2117    1.0000 </r>
       <r>   -1.2034    1.0000 </r>
       <r>   -1.1659    1.0000 </r>
       <r>   -1.1475    1.0000 </r>
       <r>   -1.1390    1.0000 </r>
       <r>   -1.1204    1.0000 </r>
       <r>   -1.1056    1.0000 </r>
       <r>   -1.0899    1.0000 </r>
       <r>   -1.0637    1.0000 </r>
       <r>   -1.0526    1.0000 </r>
       <r>   -1.0389    1.0000 </r>
       <r>   -1.0068    1.0000 </r>
       <r>   -1.0052    1.0000 </r>
       <r>   -0.9855    1.0000 </r>
       <r>   -0.9683    1.0000 </r>
       <r>   -0.9587    1.0000 </r>
       <r>   -0.9455    1.0000 </r>
       <r>   -0.9300    1.0000 </r>
       <r>   -0.9132    1.0000 </r>
       <r>   -0.9041    1.0000 </r>
       <r>   -0.8835    1.0000 </r>
       <r>   -0.8647    1.0000 </r>
       <r>   -0.8485    1.0000 </r>
       <r>   -0.8340    1.0000 </r>
       <r>   -0.8173    1.0000 </r>
       <r>   -0.7923    1.0000 </r>
       <r>   -0.7800    1.0000 </r>
       <r>   -0.7661    1.0000 </r>
       <r>   -0.7585    1.0000 </r>
       <r>   -0.7391    1.0000 </r>
       <r>   -0.7214    1.0000 </r>
       <r>   -0.7090    1.0000 </r>
       <r>   -0.6962    1.0000 </r>
       <r>   -0.6842    1.0000 </r>
       <r>   -0.6599    1.0000 </r>
       <r>   -0.6482    1.0000 </r>
       <r>   -0.6296    1.0000 </r>
       <r>   -0.6112    1.0000 </r>
       <r>   -0.5898    1.0000 </r>
       <r>   -0.5629    1.0000 </r>
       <r>   -0.5443    1.0000 </r>
       <r>   -0.5314    1.0000 </r>
       <r>   -0.5173    1.0000 </r>
       <r>   -0.4964    1.0000 </r>
       <r>   -0.4749    1.0000 </r>
       <r>   -0.4486    1.0000 </r>
       <r>   -0.4263    1.0000 </r>
       <r>   -0.4029    1.0000 </r>
       <r>   -0.3960    1.0000 </r>
       <r>   -0.3705    1.0000 </r>
       <r>   -0.3603    1.0000 </r>
       <r>   -0.3448    1.0000 </r>
       <r>   -0.3365    1.0000 </r>
       <r>   -0.3258    1.0000 </r>
       <r>   -0.2943    1.0000 </r>
       <r>   -0.2855    1.0000 </r>
       <r>   -0.2730    1.0000 </r>
       <r>   -0.2473    1.0000 </r>
       <r>   -0.2390    1.0000 </r>
       <r>   -0.2188    1.0000 </r>
       <r>   -0.1838    1.0000 </r>
       <r>   -0.1613    1.0000 </r>
       <r>   -0.1518    1.0000 </r>
       <r>   -0.1317    1.0000 </r>
       <r>   -0.1244    1.0000 </r>
       <r>   -0.1121    1.0000 </r>
       <r>   -0.0903    1.0000 </r>
       <r>   -0.0643    1.0000 </r>
       <r>   -0.0415    1.0000 </r>
       <r>   -0.0208    1.0000 </r>
       <r>   -0.0123    1.0000 </r>
       <r>    0.0216    1.0000 </r>
       <r>    0.0478    1.0000 </r>
       <r>    0.0596    1.0000 </r>
       <r>    0.0782    1.0000 </r>
       <r>    0.0881    1.0000 </r>
       <r>    0.0994    1.0000 </r>
       <r>    0.1200    1.0000 </r>
       <r>    0.1457    1.0000 </r>
       <r>    0.1824    1.0000 </r>
       <r>    0.1869    1.0000 </r>
       <r>    0.2054    1.0000 </r>
       <r>    0.2477    1.0000 </r>
       <r>    0.2628    1.0000 </r>
       <r>    0.2994    1.0000 </r>
       <r>    0.3480    1.0000 </r>
       <r>    0.3574    1.0000 </r>
       <r>    0.3674    1.0000 </r>
       <r>    0.3862    1.0000 </r>
       <r>    0.4121    1.0000 </r>
       <r>    0.4362    1.0000 </r>
       <r>    0.4758    1.0001 </r>
       <r>    0.4997    1.0002 </r>
       <r>    0.5204    1.0003 </r>
       <r>    0.5422    1.0007 </r>
       <r>    0.5480    1.0008 </r>
       <r>    0.5811    1.0022 </r>
       <r>    0.6089    1.0045 </r>
       <r>    0.6458    1.0103 </r>
       <r>    0.6646    1.0147 </r>
       <r>    0.6843    1.0202 </r>
       <r>    0.7231    1.0316 </r>
       <r>    0.7726    1.0312 </r>
       <r>    0.7798    1.0276 </r>
       <r>    0.8052    1.0031 </r>
       <r>    0.8438    0.9198 </r>
       <r>    0.8858    0.7553 </r>
       <r>    0.8974    0.6984 </r>
       <r>    0.9554    0.3787 </r>
       <r>    0.9878    0.2158 </r>
       <r>    0.9964    0.1781 </r>
       <r>    1.0360    0.0466 </r>
       <r>    1.0527    0.0116 </r>
       <r>    1.0635   -0.0050 </r>
       <r>    1.1194   -0.0354 </r>
       <r>    1.1278   -0.0348 </r>
       <r>    1.1466   -0.0310 </r>
       <r>    1.1866   -0.0191 </r>
       <r>    1.2001   -0.0154 </r>
       <r>    1.2233   -0.0099 </r>
       <r>    1.2415   -0.0067 </r>
       <r>    1.2632   -0.0040 </r>
       <r>    1.2853   -0.0023 </r>
       <r>    1.2985   -0.0016 </r>
       <r>    1.3149   -0.0010 </r>
       <r>    1.3416   -0.0004 </r>
       <r>    1.3650   -0.0002 </r>
       <r>    1.3873   -0.0001 </r>
       <r>    1.3911   -0.0001 </r>
       <r>    1.4144   -0.0000 </r>
       <r>    1.4262   -0.0000 </r>
       <r>    1.4405   -0.0000 </r>
       <r>    1.4598   -0.0000 </r>
       <r>    1.4855   -0.0000 </r>
       <r>    1.4944   -0.0000 </r>
       <r>    1.5162   -0.0000 </r>
       <r>    1.5228   -0.0000 </r>
       <r>    1.5422   -0.0000 </r>
       <r>    1.5554   -0.0000 </r>
       <r>    1.5760   -0.0000 </r>
       <r>    1.5922   -0.0000 </r>
       <r>    1.6096   -0.0000 </r>
       <r>    1.6240   -0.0000 </r>
       <r>    1.6335   -0.0000 </r>
       <r>    1.6483   -0.0000 </r>
       <r>    1.6648   -0.0000 </r>
       <r>    1.6784   -0.0000 </r>
       <r>    1.6960   -0.0000 </r>
       <r>    1.7073   -0.0000 </r>
       <r>    1.7294   -0.0000 </r>
       <r>    1.7419   -0.0000 </r>
       <r>    1.7504   -0.0000 </r>
       <r>    1.7618   -0.0000 </r>
       <r>    1.7888   -0.0000 </r>
       <r>    1.7967   -0.0000 </r>
       <r>    1.8073   -0.0000 </r>
       <r>    1.8234   -0.0000 </r>
       <r>    1.8408   -0.0000 </r>
       <r>    1.8653   -0.0000 </r>
       <r>    1.8740   -0.0000 </r>
       <r>    1.8913   -0.0000 </r>
       <r>    1.9113   -0.0000 </r>
       <r>    1.9198   -0.0000 </r>
       <r>    1.9283   -0.0000 </r>
       <r>    1.9394   -0.0000 </r>
       <r>    1.9495   -0.0000 </r>
       <r>    1.9649   -0.0000 </r>
       <r>    1.9734   -0.0000 </r>
       <r>    1.9799   -0.0000 </r>
       <r>    2.0086   -0.0000 </r>
       <r>    2.0193   -0.0000 </r>
       <r>    2.0291   -0.0000 </r>
       <r>    2.0396   -0.0000 </r>
       <r>    2.0624   -0.0000 </r>
       <r>    2.0719   -0.0000 </r>
       <r>    2.0784   -0.0000 </r>
       <r>    2.0909   -0.0000 </r>
       <r>    2.0946   -0.0000 </r>
       <r>    2.1102   -0.0000 </r>
       <r>    2.1135   -0.0000 </r>
       <r>    2.1338   -0.0000 </r>
       <r>    2.1423   -0.0000 </r>
       <r>    2.1572   -0.0000 </r>
       <r>    2.1669   -0.0000 </r>
       <r>    2.1743   -0.0000 </r>
       <r>    2.1786   -0.0000 </r>
       <r>    2.1941   -0.0000 </r>
       <r>    2.2062   -0.0000 </r>
       <r>    2.2190   -0.0000 </r>
       <r>    2.2289   -0.0000 </r>
       <r>    2.2433   -0.0000 </r>
       <r>    2.2586   -0.0000 </r>
       <r>    2.2760   -0.0000 </r>
       <r>    2.2914   -0.0000 </r>
       <r>    2.2937   -0.0000 </r>
       <r>    2.3051   -0.0000 </r>
       <r>    2.3119   -0.0000 </r>
       <r>    2.3229   -0.0000 </r>
       <r>    2.3344   -0.0000 </r>
       <r>    2.3479   -0.0000 </r>
       <r>    2.3567   -0.0000 </r>
       <r>    2.3611   -0.0000 </r>
       <r>    2.3790   -0.0000 </r>
       <r>    2.3884   -0.0000 </r>
       <r>    2.3920   -0.0000 </r>
       <r>    2.3984   -0.0000 </r>
       <r>    2.4211   -0.0000 </r>
       <r>    2.4271   -0.0000 </r>
       <r>    2.4389   -0.0000 </r>
       <r>    2.4480   -0.0000 </r>
       <r>    2.4539   -0.0000 </r>
       <r>    2.4609   -0.0000 </r>
       <r>    2.4737   -0.0000 </r>
       <r>    2.4787   -0.0000 </r>
       <r>    2.4881   -0.0000 </r>
       <r>    2.4932   -0.0000 </r>
       <r>    2.5005   -0.0000 </r>
       <r>    2.5139   -0.0000 </r>
       <r>    2.5207   -0.0000 </r>
       <r>    2.5430   -0.0000 </r>
       <r>    2.5506   -0.0000 </r>
       <r>    2.5615   -0.0000 </r>
       <r>    2.5708   -0.0000 </r>
       <r>    2.5756   -0.0000 </r>
       <r>    2.5891   -0.0000 </r>
       <r>    2.6078   -0.0000 </r>
       <r>    2.6124   -0.0000 </r>
       <r>    2.6182   -0.0000 </r>
       <r>    2.6334   -0.0000 </r>
       <r>    2.6406   -0.0000 </r>
       <r>    2.6555   -0.0000 </r>
       <r>    2.6747   -0.0000 </r>
       <r>    2.7042   -0.0000 </r>
       <r>    2.7228   -0.0000 </r>
       <r>    2.7466   -0.0000 </r>
       <r>    2.7577   -0.0000 </r>
       <r>    2.7696   -0.0000 </r>
       <r>    2.7861   -0.0000 </r>
       <r>    2.8007   -0.0000 </r>
       <r>    2.8166   -0.0000 </r>
       <r>    2.8347   -0.0000 </r>
       <r>    2.8393   -0.0000 </r>
       <r>    2.8555   -0.0000 </r>
       <r>    2.8734   -0.0000 </r>
      </set>
      <set comment="kpoint 3">
       <r>  -43.4083    1.0000 </r>
       <r>  -43.3908    1.0000 </r>
       <r>  -43.3782    1.0000 </r>
       <r>  -43.3650    1.0000 </r>
       <r>  -43.3548    1.0000 </r>
       <r>  -43.3515    1.0000 </r>
       <r>  -43.3512    1.0000 </r>
       <r>  -43.3203    1.0000 </r>
       <r>  -43.3168    1.0000 </r>
       <r>  -43.3040    1.0000 </r>
       <r>  -43.2867    1.0000 </r>
       <r>  -43.2799    1.0000 </r>
       <r>  -43.2782    1.0000 </r>
       <r>  -43.2554    1.0000 </r>
       <r>  -43.1936    1.0000 </r>
       <r>  -43.1821    1.0000 </r>
       <r>  -43.1614    1.0000 </r>
       <r>  -43.1564    1.0000 </r>
       <r>  -43.1512    1.0000 </r>
       <r>  -43.1380    1.0000 </r>
       <r>  -43.0689    1.0000 </r>
       <r>  -42.9979    1.0000 </r>
       <r>  -42.9256    1.0000 </r>
       <r>  -42.8233    1.0000 </r>
       <r>  -42.8083    1.0000 </r>
       <r>  -42.7843    1.0000 </r>
       <r>  -42.7083    1.0000 </r>
       <r>  -42.6669    1.0000 </r>
       <r>  -42.6307    1.0000 </r>
       <r>  -42.5602    1.0000 </r>
       <r>  -42.4966    1.0000 </r>
       <r>  -42.3497    1.0000 </r>
       <r>  -42.1978    1.0000 </r>
       <r>  -42.1908    1.0000 </r>
       <r>  -42.0220    1.0000 </r>
       <r>  -41.8357    1.0000 </r>
       <r>  -39.8490    1.0000 </r>
       <r>  -39.7277    1.0000 </r>
       <r>  -39.6303    1.0000 </r>
       <r>  -15.5507    1.0000 </r>
       <r>  -15.5409    1.0000 </r>
       <r>  -15.5367    1.0000 </r>
       <r>  -15.5251    1.0000 </r>
       <r>  -15.5067    1.0000 </r>
       <r>   -7.8117    1.0000 </r>
       <r>   -6.5754    1.0000 </r>
       <r>   -6.5162    1.0000 </r>
       <r>   -5.6627    1.0000 </r>
       <r>   -5.4897    1.0000 </r>
       <r>   -4.6538    1.0000 </r>
       <r>   -4.6292    1.0000 </r>
       <r>   -4.6130    1.0000 </r>
       <r>   -4.5832    1.0000 </r>
       <r>   -4.3521    1.0000 </r>
       <r>   -4.2159    1.0000 </r>
       <r>   -3.9328    1.0000 </r>
       <r>   -3.8897    1.0000 </r>
       <r>   -3.8379    1.0000 </r>
       <r>   -3.7398    1.0000 </r>
       <r>   -3.2587    1.0000 </r>
       <r>   -3.2366    1.0000 </r>
       <r>   -3.1708    1.0000 </r>
       <r>   -3.1434    1.0000 </r>
       <r>   -3.1228    1.0000 </r>
       <r>   -3.0929    1.0000 </r>
       <r>   -3.0758    1.0000 </r>
       <r>   -3.0430    1.0000 </r>
       <r>   -3.0074    1.0000 </r>
       <r>   -2.9686    1.0000 </r>
       <r>   -2.9141    1.0000 </r>
       <r>   -2.8596    1.0000 </r>
       <r>   -2.8319    1.0000 </r>
       <r>   -2.7659    1.0000 </r>
       <r>   -2.7463    1.0000 </r>
       <r>   -2.5567    1.0000 </r>
       <r>   -2.5531    1.0000 </r>
       <r>   -2.4918    1.0000 </r>
       <r>   -2.4418    1.0000 </r>
       <r>   -2.4215    1.0000 </r>
       <r>   -2.3946    1.0000 </r>
       <r>   -2.3379    1.0000 </r>
       <r>   -2.2997    1.0000 </r>
       <r>   -2.2833    1.0000 </r>
       <r>   -2.2658    1.0000 </r>
       <r>   -2.2346    1.0000 </r>
       <r>   -2.1946    1.0000 </r>
       <r>   -2.1778    1.0000 </r>
       <r>   -2.1531    1.0000 </r>
       <r>   -2.1111    1.0000 </r>
       <r>   -2.0728    1.0000 </r>
       <r>   -2.0598    1.0000 </r>
       <r>   -2.0201    1.0000 </r>
       <r>   -1.9946    1.0000 </r>
       <r>   -1.9716    1.0000 </r>
       <r>   -1.9634    1.0000 </r>
       <r>   -1.9456    1.0000 </r>
       <r>   -1.9405    1.0000 </r>
       <r>   -1.9125    1.0000 </r>
       <r>   -1.8943    1.0000 </r>
       <r>   -1.8591    1.0000 </r>
       <r>   -1.8397    1.0000 </r>
       <r>   -1.8021    1.0000 </r>
       <r>   -1.7880    1.0000 </r>
       <r>   -1.7541    1.0000 </r>
       <r>   -1.7194    1.0000 </r>
       <r>   -1.6968    1.0000 </r>
       <r>   -1.6634    1.0000 </r>
       <r>   -1.6207    1.0000 </r>
       <r>   -1.5878    1.0000 </r>
       <r>   -1.5776    1.0000 </r>
       <r>   -1.5729    1.0000 </r>
       <r>   -1.5426    1.0000 </r>
       <r>   -1.5300    1.0000 </r>
       <r>   -1.5158    1.0000 </r>
       <r>   -1.4831    1.0000 </r>
       <r>   -1.4277    1.0000 </r>
       <r>   -1.4084    1.0000 </r>
       <r>   -1.3946    1.0000 </r>
       <r>   -1.3630    1.0000 </r>
       <r>   -1.3601    1.0000 </r>
       <r>   -1.3294    1.0000 </r>
       <r>   -1.3145    1.0000 </r>
       <r>   -1.2858    1.0000 </r>
       <r>   -1.2529    1.0000 </r>
       <r>   -1.2227    1.0000 </r>
       <r>   -1.2141    1.0000 </r>
       <r>   -1.1900    1.0000 </r>
       <r>   -1.1721    1.0000 </r>
       <r>   -1.1407    1.0000 </r>
       <r>   -1.1337    1.0000 </r>
       <r>   -1.1135    1.0000 </r>
       <r>   -1.0911    1.0000 </r>
       <r>   -1.0853    1.0000 </r>
       <r>   -1.0570    1.0000 </r>
       <r>   -1.0325    1.0000 </r>
       <r>   -1.0177    1.0000 </r>
       <r>   -1.0083    1.0000 </r>
       <r>   -0.9869    1.0000 </r>
       <r>   -0.9806    1.0000 </r>
       <r>   -0.9545    1.0000 </r>
       <r>   -0.9473    1.0000 </r>
       <r>   -0.9342    1.0000 </r>
       <r>   -0.9315    1.0000 </r>
       <r>   -0.9190    1.0000 </r>
       <r>   -0.8672    1.0000 </r>
       <r>   -0.8536    1.0000 </r>
       <r>   -0.8500    1.0000 </r>
       <r>   -0.8228    1.0000 </r>
       <r>   -0.8041    1.0000 </r>
       <r>   -0.7812    1.0000 </r>
       <r>   -0.7578    1.0000 </r>
       <r>   -0.7443    1.0000 </r>
       <r>   -0.7339    1.0000 </r>
       <r>   -0.7094    1.0000 </r>
       <r>   -0.6868    1.0000 </r>
       <r>   -0.6730    1.0000 </r>
       <r>   -0.6588    1.0000 </r>
       <r>   -0.6268    1.0000 </r>
       <r>   -0.6141    1.0000 </r>
       <r>   -0.5942    1.0000 </r>
       <r>   -0.5796    1.0000 </r>
       <r>   -0.5654    1.0000 </r>
       <r>   -0.5594    1.0000 </r>
       <r>   -0.5580    1.0000 </r>
       <r>   -0.5231    1.0000 </r>
       <r>   -0.5152    1.0000 </r>
       <r>   -0.5005    1.0000 </r>
       <r>   -0.4889    1.0000 </r>
       <r>   -0.4708    1.0000 </r>
       <r>   -0.4603    1.0000 </r>
       <r>   -0.4535    1.0000 </r>
       <r>   -0.4344    1.0000 </r>
       <r>   -0.4144    1.0000 </r>
       <r>   -0.4001    1.0000 </r>
       <r>   -0.3976    1.0000 </r>
       <r>   -0.3763    1.0000 </r>
       <r>   -0.3627    1.0000 </r>
       <r>   -0.3243    1.0000 </r>
       <r>   -0.3160    1.0000 </r>
       <r>   -0.3049    1.0000 </r>
       <r>   -0.2850    1.0000 </r>
       <r>   -0.2588    1.0000 </r>
       <r>   -0.2445    1.0000 </r>
       <r>   -0.2289    1.0000 </r>
       <r>   -0.2102    1.0000 </r>
       <r>   -0.1957    1.0000 </r>
       <r>   -0.1882    1.0000 </r>
       <r>   -0.1703    1.0000 </r>
       <r>   -0.1663    1.0000 </r>
       <r>   -0.1494    1.0000 </r>
       <r>   -0.1387    1.0000 </r>
       <r>   -0.1136    1.0000 </r>
       <r>   -0.1055    1.0000 </r>
       <r>   -0.0918    1.0000 </r>
       <r>   -0.0777    1.0000 </r>
       <r>   -0.0681    1.0000 </r>
       <r>   -0.0461    1.0000 </r>
       <r>   -0.0068    1.0000 </r>
       <r>    0.0376    1.0000 </r>
       <r>    0.0424    1.0000 </r>
       <r>    0.0664    1.0000 </r>
       <r>    0.1266    1.0000 </r>
       <r>    0.1381    1.0000 </r>
       <r>    0.1543    1.0000 </r>
       <r>    0.1606    1.0000 </r>
       <r>    0.1742    1.0000 </r>
       <r>    0.1867    1.0000 </r>
       <r>    0.2085    1.0000 </r>
       <r>    0.2357    1.0000 </r>
       <r>    0.2626    1.0000 </r>
       <r>    0.2871    1.0000 </r>
       <r>    0.3101    1.0000 </r>
       <r>    0.3286    1.0000 </r>
       <r>    0.3825    1.0000 </r>
       <r>    0.3973    1.0000 </r>
       <r>    0.4262    1.0000 </r>
       <r>    0.4816    1.0001 </r>
       <r>    0.5160    1.0003 </r>
       <r>    0.5205    1.0003 </r>
       <r>    0.5443    1.0007 </r>
       <r>    0.5611    1.0012 </r>
       <r>    0.5817    1.0022 </r>
       <r>    0.6209    1.0060 </r>
       <r>    0.6537    1.0120 </r>
       <r>    0.6975    1.0242 </r>
       <r>    0.7125    1.0288 </r>
       <r>    0.7337    1.0339 </r>
       <r>    0.7600    1.0347 </r>
       <r>    0.7729    1.0311 </r>
       <r>    0.7943    1.0161 </r>
       <r>    0.8352    0.9436 </r>
       <r>    0.8732    0.8122 </r>
       <r>    0.8769    0.7963 </r>
       <r>    0.9358    0.4878 </r>
       <r>    0.9543    0.3846 </r>
       <r>    0.9874    0.2172 </r>
       <r>    1.0391    0.0392 </r>
       <r>    1.0751   -0.0181 </r>
       <r>    1.1083   -0.0348 </r>
       <r>    1.1372   -0.0332 </r>
       <r>    1.1658   -0.0255 </r>
       <r>    1.1900   -0.0182 </r>
       <r>    1.1957   -0.0166 </r>
       <r>    1.2206   -0.0105 </r>
       <r>    1.2428   -0.0065 </r>
       <r>    1.2672   -0.0036 </r>
       <r>    1.2916   -0.0019 </r>
       <r>    1.3240   -0.0007 </r>
       <r>    1.3452   -0.0004 </r>
       <r>    1.3769   -0.0001 </r>
       <r>    1.3829   -0.0001 </r>
       <r>    1.3986   -0.0001 </r>
       <r>    1.4286   -0.0000 </r>
       <r>    1.4550   -0.0000 </r>
       <r>    1.4712   -0.0000 </r>
       <r>    1.4914   -0.0000 </r>
       <r>    1.5040   -0.0000 </r>
       <r>    1.5239   -0.0000 </r>
       <r>    1.5338   -0.0000 </r>
       <r>    1.5502   -0.0000 </r>
       <r>    1.5554   -0.0000 </r>
       <r>    1.5764   -0.0000 </r>
       <r>    1.5925   -0.0000 </r>
       <r>    1.5967   -0.0000 </r>
       <r>    1.6224   -0.0000 </r>
       <r>    1.6457   -0.0000 </r>
       <r>    1.6524   -0.0000 </r>
       <r>    1.6638   -0.0000 </r>
       <r>    1.6846   -0.0000 </r>
       <r>    1.6941   -0.0000 </r>
       <r>    1.7074   -0.0000 </r>
       <r>    1.7255   -0.0000 </r>
       <r>    1.7352   -0.0000 </r>
       <r>    1.7469   -0.0000 </r>
       <r>    1.7707   -0.0000 </r>
       <r>    1.7822   -0.0000 </r>
       <r>    1.7854   -0.0000 </r>
       <r>    1.7987   -0.0000 </r>
       <r>    1.8224   -0.0000 </r>
       <r>    1.8323   -0.0000 </r>
       <r>    1.8531   -0.0000 </r>
       <r>    1.8673   -0.0000 </r>
       <r>    1.8741   -0.0000 </r>
       <r>    1.8949   -0.0000 </r>
       <r>    1.9065   -0.0000 </r>
       <r>    1.9199   -0.0000 </r>
       <r>    1.9284   -0.0000 </r>
       <r>    1.9402   -0.0000 </r>
       <r>    1.9498   -0.0000 </r>
       <r>    1.9590   -0.0000 </r>
       <r>    1.9674   -0.0000 </r>
       <r>    1.9737   -0.0000 </r>
       <r>    1.9812   -0.0000 </r>
       <r>    1.9854   -0.0000 </r>
       <r>    1.9984   -0.0000 </r>
       <r>    2.0095   -0.0000 </r>
       <r>    2.0127   -0.0000 </r>
       <r>    2.0245   -0.0000 </r>
       <r>    2.0393   -0.0000 </r>
       <r>    2.0504   -0.0000 </r>
       <r>    2.0609   -0.0000 </r>
       <r>    2.0737   -0.0000 </r>
       <r>    2.0802   -0.0000 </r>
       <r>    2.0882   -0.0000 </r>
       <r>    2.1047   -0.0000 </r>
       <r>    2.1136   -0.0000 </r>
       <r>    2.1232   -0.0000 </r>
       <r>    2.1352   -0.0000 </r>
       <r>    2.1385   -0.0000 </r>
       <r>    2.1608   -0.0000 </r>
       <r>    2.1635   -0.0000 </r>
       <r>    2.1832   -0.0000 </r>
       <r>    2.1894   -0.0000 </r>
       <r>    2.2096   -0.0000 </r>
       <r>    2.2303   -0.0000 </r>
       <r>    2.2321   -0.0000 </r>
       <r>    2.2485   -0.0000 </r>
       <r>    2.2581   -0.0000 </r>
       <r>    2.2712   -0.0000 </r>
       <r>    2.2771   -0.0000 </r>
       <r>    2.2865   -0.0000 </r>
       <r>    2.2947   -0.0000 </r>
       <r>    2.3081   -0.0000 </r>
       <r>    2.3220   -0.0000 </r>
       <r>    2.3270   -0.0000 </r>
       <r>    2.3522   -0.0000 </r>
       <r>    2.3695   -0.0000 </r>
       <r>    2.3888   -0.0000 </r>
       <r>    2.3903   -0.0000 </r>
       <r>    2.4006   -0.0000 </r>
       <r>    2.4072   -0.0000 </r>
       <r>    2.4197   -0.0000 </r>
       <r>    2.4479   -0.0000 </r>
       <r>    2.4518   -0.0000 </r>
       <r>    2.4670   -0.0000 </r>
       <r>    2.4770   -0.0000 </r>
       <r>    2.4865   -0.0000 </r>
       <r>    2.4920   -0.0000 </r>
       <r>    2.4952   -0.0000 </r>
       <r>    2.5083   -0.0000 </r>
       <r>    2.5227   -0.0000 </r>
       <r>    2.5264   -0.0000 </r>
       <r>    2.5372   -0.0000 </r>
       <r>    2.5482   -0.0000 </r>
       <r>    2.5572   -0.0000 </r>
       <r>    2.5605   -0.0000 </r>
       <r>    2.5748   -0.0000 </r>
       <r>    2.5811   -0.0000 </r>
       <r>    2.5874   -0.0000 </r>
       <r>    2.5947   -0.0000 </r>
       <r>    2.6071   -0.0000 </r>
       <r>    2.6137   -0.0000 </r>
       <r>    2.6314   -0.0000 </r>
       <r>    2.6434   -0.0000 </r>
       <r>    2.6571   -0.0000 </r>
       <r>    2.6638   -0.0000 </r>
       <r>    2.6841   -0.0000 </r>
       <r>    2.6968   -0.0000 </r>
       <r>    2.7070   -0.0000 </r>
       <r>    2.7340   -0.0000 </r>
       <r>    2.7498   -0.0000 </r>
       <r>    2.7704   -0.0000 </r>
       <r>    2.7882   -0.0000 </r>
       <r>    2.7979   -0.0000 </r>
       <r>    2.8399   -0.0000 </r>
       <r>    2.8609   -0.0000 </r>
       <r>    2.8795   -0.0000 </r>
       <r>    2.9007   -0.0000 </r>
       <r>    2.9174   -0.0000 </r>
      </set>
      <set comment="kpoint 4">
       <r>  -43.4083    1.0000 </r>
       <r>  -43.3908    1.0000 </r>
       <r>  -43.3782    1.0000 </r>
       <r>  -43.3650    1.0000 </r>
       <r>  -43.3548    1.0000 </r>
       <r>  -43.3515    1.0000 </r>
       <r>  -43.3512    1.0000 </r>
       <r>  -43.3203    1.0000 </r>
       <r>  -43.3168    1.0000 </r>
       <r>  -43.3040    1.0000 </r>
       <r>  -43.2867    1.0000 </r>
       <r>  -43.2799    1.0000 </r>
       <r>  -43.2782    1.0000 </r>
       <r>  -43.2554    1.0000 </r>
       <r>  -43.1936    1.0000 </r>
       <r>  -43.1821    1.0000 </r>
       <r>  -43.1615    1.0000 </r>
       <r>  -43.1564    1.0000 </r>
       <r>  -43.1512    1.0000 </r>
       <r>  -43.1381    1.0000 </r>
       <r>  -43.0689    1.0000 </r>
       <r>  -42.9979    1.0000 </r>
       <r>  -42.9256    1.0000 </r>
       <r>  -42.8233    1.0000 </r>
       <r>  -42.8083    1.0000 </r>
       <r>  -42.7843    1.0000 </r>
       <r>  -42.7083    1.0000 </r>
       <r>  -42.6669    1.0000 </r>
       <r>  -42.6307    1.0000 </r>
       <r>  -42.5602    1.0000 </r>
       <r>  -42.4965    1.0000 </r>
       <r>  -42.3497    1.0000 </r>
       <r>  -42.1978    1.0000 </r>
       <r>  -42.1908    1.0000 </r>
       <r>  -42.0220    1.0000 </r>
       <r>  -41.8357    1.0000 </r>
       <r>  -39.8490    1.0000 </r>
       <r>  -39.7277    1.0000 </r>
       <r>  -39.6303    1.0000 </r>
       <r>  -15.5507    1.0000 </r>
       <r>  -15.5409    1.0000 </r>
       <r>  -15.5367    1.0000 </r>
       <r>  -15.5252    1.0000 </r>
       <r>  -15.5067    1.0000 </r>
       <r>   -7.8355    1.0000 </r>
       <r>   -6.9259    1.0000 </r>
       <r>   -5.9715    1.0000 </r>
       <r>   -5.8536    1.0000 </r>
       <r>   -5.0624    1.0000 </r>
       <r>   -4.9583    1.0000 </r>
       <r>   -4.8940    1.0000 </r>
       <r>   -4.5537    1.0000 </r>
       <r>   -4.2570    1.0000 </r>
       <r>   -4.1878    1.0000 </r>
       <r>   -4.1618    1.0000 </r>
       <r>   -4.1210    1.0000 </r>
       <r>   -4.0719    1.0000 </r>
       <r>   -3.8519    1.0000 </r>
       <r>   -3.6272    1.0000 </r>
       <r>   -3.4446    1.0000 </r>
       <r>   -3.3899    1.0000 </r>
       <r>   -3.3802    1.0000 </r>
       <r>   -3.3365    1.0000 </r>
       <r>   -3.2405    1.0000 </r>
       <r>   -3.2103    1.0000 </r>
       <r>   -3.1666    1.0000 </r>
       <r>   -3.0526    1.0000 </r>
       <r>   -2.8847    1.0000 </r>
       <r>   -2.8615    1.0000 </r>
       <r>   -2.7651    1.0000 </r>
       <r>   -2.6865    1.0000 </r>
       <r>   -2.6566    1.0000 </r>
       <r>   -2.6223    1.0000 </r>
       <r>   -2.6092    1.0000 </r>
       <r>   -2.5700    1.0000 </r>
       <r>   -2.5375    1.0000 </r>
       <r>   -2.5107    1.0000 </r>
       <r>   -2.4814    1.0000 </r>
       <r>   -2.4425    1.0000 </r>
       <r>   -2.3867    1.0000 </r>
       <r>   -2.3662    1.0000 </r>
       <r>   -2.3513    1.0000 </r>
       <r>   -2.2794    1.0000 </r>
       <r>   -2.2606    1.0000 </r>
       <r>   -2.2345    1.0000 </r>
       <r>   -2.1939    1.0000 </r>
       <r>   -2.1650    1.0000 </r>
       <r>   -2.1422    1.0000 </r>
       <r>   -2.1131    1.0000 </r>
       <r>   -2.0919    1.0000 </r>
       <r>   -2.0541    1.0000 </r>
       <r>   -2.0380    1.0000 </r>
       <r>   -2.0223    1.0000 </r>
       <r>   -1.9871    1.0000 </r>
       <r>   -1.9505    1.0000 </r>
       <r>   -1.9465    1.0000 </r>
       <r>   -1.9241    1.0000 </r>
       <r>   -1.8849    1.0000 </r>
       <r>   -1.8648    1.0000 </r>
       <r>   -1.8447    1.0000 </r>
       <r>   -1.8231    1.0000 </r>
       <r>   -1.7661    1.0000 </r>
       <r>   -1.7194    1.0000 </r>
       <r>   -1.6852    1.0000 </r>
       <r>   -1.6763    1.0000 </r>
       <r>   -1.6310    1.0000 </r>
       <r>   -1.6037    1.0000 </r>
       <r>   -1.5827    1.0000 </r>
       <r>   -1.5722    1.0000 </r>
       <r>   -1.5493    1.0000 </r>
       <r>   -1.5311    1.0000 </r>
       <r>   -1.4928    1.0000 </r>
       <r>   -1.4765    1.0000 </r>
       <r>   -1.4533    1.0000 </r>
       <r>   -1.4356    1.0000 </r>
       <r>   -1.4214    1.0000 </r>
       <r>   -1.3866    1.0000 </r>
       <r>   -1.3690    1.0000 </r>
       <r>   -1.3450    1.0000 </r>
       <r>   -1.3280    1.0000 </r>
       <r>   -1.3116    1.0000 </r>
       <r>   -1.2856    1.0000 </r>
       <r>   -1.2635    1.0000 </r>
       <r>   -1.2427    1.0000 </r>
       <r>   -1.2153    1.0000 </r>
       <r>   -1.1971    1.0000 </r>
       <r>   -1.1759    1.0000 </r>
       <r>   -1.1670    1.0000 </r>
       <r>   -1.1552    1.0000 </r>
       <r>   -1.1432    1.0000 </r>
       <r>   -1.1255    1.0000 </r>
       <r>   -1.1054    1.0000 </r>
       <r>   -1.0932    1.0000 </r>
       <r>   -1.0848    1.0000 </r>
       <r>   -1.0595    1.0000 </r>
       <r>   -1.0537    1.0000 </r>
       <r>   -1.0277    1.0000 </r>
       <r>   -1.0135    1.0000 </r>
       <r>   -1.0000    1.0000 </r>
       <r>   -0.9831    1.0000 </r>
       <r>   -0.9648    1.0000 </r>
       <r>   -0.9551    1.0000 </r>
       <r>   -0.9242    1.0000 </r>
       <r>   -0.9033    1.0000 </r>
       <r>   -0.8843    1.0000 </r>
       <r>   -0.8739    1.0000 </r>
       <r>   -0.8484    1.0000 </r>
       <r>   -0.8334    1.0000 </r>
       <r>   -0.8209    1.0000 </r>
       <r>   -0.8118    1.0000 </r>
       <r>   -0.7866    1.0000 </r>
       <r>   -0.7818    1.0000 </r>
       <r>   -0.7565    1.0000 </r>
       <r>   -0.7364    1.0000 </r>
       <r>   -0.7313    1.0000 </r>
       <r>   -0.7182    1.0000 </r>
       <r>   -0.6957    1.0000 </r>
       <r>   -0.6896    1.0000 </r>
       <r>   -0.6860    1.0000 </r>
       <r>   -0.6666    1.0000 </r>
       <r>   -0.6524    1.0000 </r>
       <r>   -0.6351    1.0000 </r>
       <r>   -0.6152    1.0000 </r>
       <r>   -0.6019    1.0000 </r>
       <r>   -0.5655    1.0000 </r>
       <r>   -0.5611    1.0000 </r>
       <r>   -0.5450    1.0000 </r>
       <r>   -0.5171    1.0000 </r>
       <r>   -0.4863    1.0000 </r>
       <r>   -0.4655    1.0000 </r>
       <r>   -0.4479    1.0000 </r>
       <r>   -0.4293    1.0000 </r>
       <r>   -0.4185    1.0000 </r>
       <r>   -0.4096    1.0000 </r>
       <r>   -0.3787    1.0000 </r>
       <r>   -0.3688    1.0000 </r>
       <r>   -0.3576    1.0000 </r>
       <r>   -0.3308    1.0000 </r>
       <r>   -0.3188    1.0000 </r>
       <r>   -0.2902    1.0000 </r>
       <r>   -0.2775    1.0000 </r>
       <r>   -0.2513    1.0000 </r>
       <r>   -0.2258    1.0000 </r>
       <r>   -0.2210    1.0000 </r>
       <r>   -0.2042    1.0000 </r>
       <r>   -0.1797    1.0000 </r>
       <r>   -0.1624    1.0000 </r>
       <r>   -0.1572    1.0000 </r>
       <r>   -0.1440    1.0000 </r>
       <r>   -0.1258    1.0000 </r>
       <r>   -0.1180    1.0000 </r>
       <r>   -0.0946    1.0000 </r>
       <r>   -0.0792    1.0000 </r>
       <r>   -0.0550    1.0000 </r>
       <r>   -0.0304    1.0000 </r>
       <r>   -0.0099    1.0000 </r>
       <r>    0.0121    1.0000 </r>
       <r>    0.0368    1.0000 </r>
       <r>    0.0565    1.0000 </r>
       <r>    0.0669    1.0000 </r>
       <r>    0.0832    1.0000 </r>
       <r>    0.1152    1.0000 </r>
       <r>    0.1314    1.0000 </r>
       <r>    0.1413    1.0000 </r>
       <r>    0.1630    1.0000 </r>
       <r>    0.1923    1.0000 </r>
       <r>    0.2080    1.0000 </r>
       <r>    0.2370    1.0000 </r>
       <r>    0.2673    1.0000 </r>
       <r>    0.2775    1.0000 </r>
       <r>    0.3100    1.0000 </r>
       <r>    0.3398    1.0000 </r>
       <r>    0.3476    1.0000 </r>
       <r>    0.3685    1.0000 </r>
       <r>    0.3977    1.0000 </r>
       <r>    0.4541    1.0000 </r>
       <r>    0.4632    1.0000 </r>
       <r>    0.4888    1.0001 </r>
       <r>    0.5253    1.0004 </r>
       <r>    0.5440    1.0007 </r>
       <r>    0.5703    1.0016 </r>
       <r>    0.5785    1.0020 </r>
       <r>    0.6324    1.0078 </r>
       <r>    0.6654    1.0149 </r>
       <r>    0.6981    1.0244 </r>
       <r>    0.7243    1.0319 </r>
       <r>    0.7621    1.0343 </r>
       <r>    0.8059    1.0021 </r>
       <r>    0.8166    0.9849 </r>
       <r>    0.8396    0.9317 </r>
       <r>    0.8665    0.8402 </r>
       <r>    0.8884    0.7432 </r>
       <r>    0.9194    0.5799 </r>
       <r>    0.9451    0.4357 </r>
       <r>    0.9498    0.4095 </r>
       <r>    0.9815    0.2449 </r>
       <r>    1.0107    0.1225 </r>
       <r>    1.0254    0.0748 </r>
       <r>    1.0780   -0.0207 </r>
       <r>    1.1041   -0.0341 </r>
       <r>    1.1452   -0.0314 </r>
       <r>    1.1585   -0.0277 </r>
       <r>    1.1820   -0.0205 </r>
       <r>    1.2041   -0.0143 </r>
       <r>    1.2152   -0.0116 </r>
       <r>    1.2377   -0.0073 </r>
       <r>    1.2655   -0.0038 </r>
       <r>    1.2692   -0.0035 </r>
       <r>    1.2976   -0.0016 </r>
       <r>    1.3162   -0.0009 </r>
       <r>    1.3289   -0.0006 </r>
       <r>    1.3502   -0.0003 </r>
       <r>    1.3573   -0.0002 </r>
       <r>    1.3823   -0.0001 </r>
       <r>    1.3939   -0.0001 </r>
       <r>    1.4002   -0.0000 </r>
       <r>    1.4253   -0.0000 </r>
       <r>    1.4498   -0.0000 </r>
       <r>    1.4779   -0.0000 </r>
       <r>    1.4933   -0.0000 </r>
       <r>    1.5110   -0.0000 </r>
       <r>    1.5324   -0.0000 </r>
       <r>    1.5507   -0.0000 </r>
       <r>    1.5668   -0.0000 </r>
       <r>    1.5745   -0.0000 </r>
       <r>    1.5886   -0.0000 </r>
       <r>    1.6005   -0.0000 </r>
       <r>    1.6173   -0.0000 </r>
       <r>    1.6389   -0.0000 </r>
       <r>    1.6575   -0.0000 </r>
       <r>    1.6668   -0.0000 </r>
       <r>    1.6837   -0.0000 </r>
       <r>    1.7048   -0.0000 </r>
       <r>    1.7217   -0.0000 </r>
       <r>    1.7313   -0.0000 </r>
       <r>    1.7467   -0.0000 </r>
       <r>    1.7670   -0.0000 </r>
       <r>    1.7783   -0.0000 </r>
       <r>    1.7894   -0.0000 </r>
       <r>    1.8049   -0.0000 </r>
       <r>    1.8207   -0.0000 </r>
       <r>    1.8354   -0.0000 </r>
       <r>    1.8432   -0.0000 </r>
       <r>    1.8559   -0.0000 </r>
       <r>    1.8631   -0.0000 </r>
       <r>    1.8859   -0.0000 </r>
       <r>    1.8908   -0.0000 </r>
       <r>    1.9115   -0.0000 </r>
       <r>    1.9233   -0.0000 </r>
       <r>    1.9399   -0.0000 </r>
       <r>    1.9430   -0.0000 </r>
       <r>    1.9490   -0.0000 </r>
       <r>    1.9620   -0.0000 </r>
       <r>    1.9851   -0.0000 </r>
       <r>    2.0004   -0.0000 </r>
       <r>    2.0104   -0.0000 </r>
       <r>    2.0260   -0.0000 </r>
       <r>    2.0338   -0.0000 </r>
       <r>    2.0452   -0.0000 </r>
       <r>    2.0577   -0.0000 </r>
       <r>    2.0721   -0.0000 </r>
       <r>    2.0926   -0.0000 </r>
       <r>    2.0961   -0.0000 </r>
       <r>    2.1110   -0.0000 </r>
       <r>    2.1213   -0.0000 </r>
       <r>    2.1263   -0.0000 </r>
       <r>    2.1354   -0.0000 </r>
       <r>    2.1448   -0.0000 </r>
       <r>    2.1571   -0.0000 </r>
       <r>    2.1759   -0.0000 </r>
       <r>    2.1786   -0.0000 </r>
       <r>    2.1951   -0.0000 </r>
       <r>    2.2037   -0.0000 </r>
       <r>    2.2304   -0.0000 </r>
       <r>    2.2358   -0.0000 </r>
       <r>    2.2474   -0.0000 </r>
       <r>    2.2510   -0.0000 </r>
       <r>    2.2652   -0.0000 </r>
       <r>    2.2792   -0.0000 </r>
       <r>    2.2891   -0.0000 </r>
       <r>    2.3040   -0.0000 </r>
       <r>    2.3200   -0.0000 </r>
       <r>    2.3246   -0.0000 </r>
       <r>    2.3371   -0.0000 </r>
       <r>    2.3532   -0.0000 </r>
       <r>    2.3612   -0.0000 </r>
       <r>    2.3743   -0.0000 </r>
       <r>    2.3877   -0.0000 </r>
       <r>    2.3934   -0.0000 </r>
       <r>    2.3949   -0.0000 </r>
       <r>    2.4048   -0.0000 </r>
       <r>    2.4143   -0.0000 </r>
       <r>    2.4265   -0.0000 </r>
       <r>    2.4427   -0.0000 </r>
       <r>    2.4555   -0.0000 </r>
       <r>    2.4566   -0.0000 </r>
       <r>    2.4625   -0.0000 </r>
       <r>    2.4730   -0.0000 </r>
       <r>    2.4817   -0.0000 </r>
       <r>    2.4890   -0.0000 </r>
       <r>    2.5082   -0.0000 </r>
       <r>    2.5131   -0.0000 </r>
       <r>    2.5248   -0.0000 </r>
       <r>    2.5330   -0.0000 </r>
       <r>    2.5386   -0.0000 </r>
       <r>    2.5536   -0.0000 </r>
       <r>    2.5609   -0.0000 </r>
       <r>    2.5652   -0.0000 </r>
       <r>    2.5830   -0.0000 </r>
       <r>    2.5949   -0.0000 </r>
       <r>    2.6052   -0.0000 </r>
       <r>    2.6118   -0.0000 </r>
       <r>    2.6182   -0.0000 </r>
       <r>    2.6255   -0.0000 </r>
       <r>    2.6453   -0.0000 </r>
       <r>    2.6626   -0.0000 </r>
       <r>    2.6816   -0.0000 </r>
       <r>    2.6861   -0.0000 </r>
       <r>    2.6994   -0.0000 </r>
       <r>    2.7294   -0.0000 </r>
       <r>    2.7412   -0.0000 </r>
       <r>    2.7712   -0.0000 </r>
       <r>    2.7889   -0.0000 </r>
       <r>    2.8099   -0.0000 </r>
       <r>    2.8150   -0.0000 </r>
       <r>    2.8226   -0.0000 </r>
       <r>    2.8391   -0.0000 </r>
       <r>    2.8682   -0.0000 </r>
       <r>    2.8892   -0.0000 </r>
      </set>
      <set comment="kpoint 5">
       <r>  -43.4083    1.0000 </r>
       <r>  -43.3908    1.0000 </r>
       <r>  -43.3782    1.0000 </r>
       <r>  -43.3650    1.0000 </r>
       <r>  -43.3548    1.0000 </r>
       <r>  -43.3515    1.0000 </r>
       <r>  -43.3512    1.0000 </r>
       <r>  -43.3203    1.0000 </r>
       <r>  -43.3168    1.0000 </r>
       <r>  -43.3040    1.0000 </r>
       <r>  -43.2867    1.0000 </r>
       <r>  -43.2799    1.0000 </r>
       <r>  -43.2782    1.0000 </r>
       <r>  -43.2554    1.0000 </r>
       <r>  -43.1936    1.0000 </r>
       <r>  -43.1821    1.0000 </r>
       <r>  -43.1615    1.0000 </r>
       <r>  -43.1564    1.0000 </r>
       <r>  -43.1512    1.0000 </r>
       <r>  -43.1381    1.0000 </r>
       <r>  -43.0689    1.0000 </r>
       <r>  -42.9979    1.0000 </r>
       <r>  -42.9256    1.0000 </r>
       <r>  -42.8233    1.0000 </r>
       <r>  -42.8083    1.0000 </r>
       <r>  -42.7843    1.0000 </r>
       <r>  -42.7083    1.0000 </r>
       <r>  -42.6669    1.0000 </r>
       <r>  -42.6307    1.0000 </r>
       <r>  -42.5602    1.0000 </r>
       <r>  -42.4965    1.0000 </r>
       <r>  -42.3497    1.0000 </r>
       <r>  -42.1978    1.0000 </r>
       <r>  -42.1908    1.0000 </r>
       <r>  -42.0220    1.0000 </r>
       <r>  -41.8357    1.0000 </r>
       <r>  -39.8490    1.0000 </r>
       <r>  -39.7277    1.0000 </r>
       <r>  -39.6303    1.0000 </r>
       <r>  -15.5507    1.0000 </r>
       <r>  -15.5409    1.0000 </r>
       <r>  -15.5367    1.0000 </r>
       <r>  -15.5251    1.0000 </r>
       <r>  -15.5067    1.0000 </r>
       <r>   -7.8151    1.0000 </r>
       <r>   -6.7987    1.0000 </r>
       <r>   -5.8700    1.0000 </r>
       <r>   -5.8095    1.0000 </r>
       <r>   -5.6788    1.0000 </r>
       <r>   -4.9849    1.0000 </r>
       <r>   -4.8835    1.0000 </r>
       <r>   -4.7986    1.0000 </r>
       <r>   -4.4245    1.0000 </r>
       <r>   -4.0426    1.0000 </r>
       <r>   -4.0233    1.0000 </r>
       <r>   -3.9717    1.0000 </r>
       <r>   -3.8595    1.0000 </r>
       <r>   -3.6531    1.0000 </r>
       <r>   -3.5333    1.0000 </r>
       <r>   -3.4939    1.0000 </r>
       <r>   -3.4410    1.0000 </r>
       <r>   -3.4358    1.0000 </r>
       <r>   -3.1612    1.0000 </r>
       <r>   -3.1156    1.0000 </r>
       <r>   -3.0989    1.0000 </r>
       <r>   -3.0130    1.0000 </r>
       <r>   -2.9367    1.0000 </r>
       <r>   -2.8742    1.0000 </r>
       <r>   -2.8469    1.0000 </r>
       <r>   -2.7997    1.0000 </r>
       <r>   -2.7917    1.0000 </r>
       <r>   -2.7384    1.0000 </r>
       <r>   -2.7101    1.0000 </r>
       <r>   -2.6066    1.0000 </r>
       <r>   -2.5864    1.0000 </r>
       <r>   -2.5659    1.0000 </r>
       <r>   -2.4959    1.0000 </r>
       <r>   -2.4645    1.0000 </r>
       <r>   -2.4064    1.0000 </r>
       <r>   -2.3894    1.0000 </r>
       <r>   -2.3543    1.0000 </r>
       <r>   -2.3234    1.0000 </r>
       <r>   -2.2981    1.0000 </r>
       <r>   -2.2781    1.0000 </r>
       <r>   -2.2527    1.0000 </r>
       <r>   -2.2318    1.0000 </r>
       <r>   -2.2210    1.0000 </r>
       <r>   -2.1921    1.0000 </r>
       <r>   -2.1738    1.0000 </r>
       <r>   -2.1344    1.0000 </r>
       <r>   -2.1022    1.0000 </r>
       <r>   -2.0883    1.0000 </r>
       <r>   -2.0566    1.0000 </r>
       <r>   -2.0384    1.0000 </r>
       <r>   -2.0015    1.0000 </r>
       <r>   -1.9764    1.0000 </r>
       <r>   -1.9562    1.0000 </r>
       <r>   -1.9175    1.0000 </r>
       <r>   -1.8847    1.0000 </r>
       <r>   -1.8638    1.0000 </r>
       <r>   -1.8253    1.0000 </r>
       <r>   -1.7859    1.0000 </r>
       <r>   -1.7575    1.0000 </r>
       <r>   -1.7328    1.0000 </r>
       <r>   -1.7158    1.0000 </r>
       <r>   -1.6704    1.0000 </r>
       <r>   -1.6674    1.0000 </r>
       <r>   -1.6308    1.0000 </r>
       <r>   -1.5810    1.0000 </r>
       <r>   -1.5556    1.0000 </r>
       <r>   -1.5257    1.0000 </r>
       <r>   -1.5140    1.0000 </r>
       <r>   -1.4779    1.0000 </r>
       <r>   -1.4638    1.0000 </r>
       <r>   -1.4566    1.0000 </r>
       <r>   -1.4317    1.0000 </r>
       <r>   -1.4153    1.0000 </r>
       <r>   -1.3930    1.0000 </r>
       <r>   -1.3629    1.0000 </r>
       <r>   -1.3416    1.0000 </r>
       <r>   -1.3255    1.0000 </r>
       <r>   -1.3103    1.0000 </r>
       <r>   -1.2789    1.0000 </r>
       <r>   -1.2629    1.0000 </r>
       <r>   -1.2422    1.0000 </r>
       <r>   -1.2110    1.0000 </r>
       <r>   -1.1979    1.0000 </r>
       <r>   -1.1881    1.0000 </r>
       <r>   -1.1601    1.0000 </r>
       <r>   -1.1516    1.0000 </r>
       <r>   -1.1235    1.0000 </r>
       <r>   -1.1194    1.0000 </r>
       <r>   -1.0947    1.0000 </r>
       <r>   -1.0772    1.0000 </r>
       <r>   -1.0691    1.0000 </r>
       <r>   -1.0332    1.0000 </r>
       <r>   -1.0188    1.0000 </r>
       <r>   -1.0019    1.0000 </r>
       <r>   -0.9927    1.0000 </r>
       <r>   -0.9760    1.0000 </r>
       <r>   -0.9619    1.0000 </r>
       <r>   -0.9414    1.0000 </r>
       <r>   -0.9198    1.0000 </r>
       <r>   -0.8922    1.0000 </r>
       <r>   -0.8845    1.0000 </r>
       <r>   -0.8612    1.0000 </r>
       <r>   -0.8446    1.0000 </r>
       <r>   -0.8233    1.0000 </r>
       <r>   -0.8114    1.0000 </r>
       <r>   -0.7983    1.0000 </r>
       <r>   -0.7788    1.0000 </r>
       <r>   -0.7576    1.0000 </r>
       <r>   -0.7352    1.0000 </r>
       <r>   -0.7321    1.0000 </r>
       <r>   -0.7053    1.0000 </r>
       <r>   -0.6871    1.0000 </r>
       <r>   -0.6733    1.0000 </r>
       <r>   -0.6500    1.0000 </r>
       <r>   -0.6355    1.0000 </r>
       <r>   -0.6166    1.0000 </r>
       <r>   -0.6017    1.0000 </r>
       <r>   -0.5921    1.0000 </r>
       <r>   -0.5742    1.0000 </r>
       <r>   -0.5575    1.0000 </r>
       <r>   -0.5401    1.0000 </r>
       <r>   -0.5396    1.0000 </r>
       <r>   -0.5157    1.0000 </r>
       <r>   -0.5019    1.0000 </r>
       <r>   -0.4904    1.0000 </r>
       <r>   -0.4722    1.0000 </r>
       <r>   -0.4532    1.0000 </r>
       <r>   -0.4430    1.0000 </r>
       <r>   -0.4242    1.0000 </r>
       <r>   -0.4077    1.0000 </r>
       <r>   -0.3914    1.0000 </r>
       <r>   -0.3741    1.0000 </r>
       <r>   -0.3585    1.0000 </r>
       <r>   -0.3428    1.0000 </r>
       <r>   -0.3116    1.0000 </r>
       <r>   -0.3048    1.0000 </r>
       <r>   -0.2857    1.0000 </r>
       <r>   -0.2642    1.0000 </r>
       <r>   -0.2367    1.0000 </r>
       <r>   -0.2255    1.0000 </r>
       <r>   -0.2063    1.0000 </r>
       <r>   -0.1847    1.0000 </r>
       <r>   -0.1693    1.0000 </r>
       <r>   -0.1412    1.0000 </r>
       <r>   -0.1267    1.0000 </r>
       <r>   -0.1060    1.0000 </r>
       <r>   -0.0933    1.0000 </r>
       <r>   -0.0652    1.0000 </r>
       <r>   -0.0525    1.0000 </r>
       <r>   -0.0396    1.0000 </r>
       <r>   -0.0247    1.0000 </r>
       <r>   -0.0040    1.0000 </r>
       <r>    0.0119    1.0000 </r>
       <r>    0.0352    1.0000 </r>
       <r>    0.0463    1.0000 </r>
       <r>    0.0642    1.0000 </r>
       <r>    0.0781    1.0000 </r>
       <r>    0.0973    1.0000 </r>
       <r>    0.1236    1.0000 </r>
       <r>    0.1375    1.0000 </r>
       <r>    0.1654    1.0000 </r>
       <r>    0.1967    1.0000 </r>
       <r>    0.2071    1.0000 </r>
       <r>    0.2408    1.0000 </r>
       <r>    0.2795    1.0000 </r>
       <r>    0.3022    1.0000 </r>
       <r>    0.3226    1.0000 </r>
       <r>    0.3594    1.0000 </r>
       <r>    0.3748    1.0000 </r>
       <r>    0.3826    1.0000 </r>
       <r>    0.4308    1.0000 </r>
       <r>    0.4516    1.0000 </r>
       <r>    0.4644    1.0000 </r>
       <r>    0.5163    1.0003 </r>
       <r>    0.5318    1.0005 </r>
       <r>    0.5493    1.0009 </r>
       <r>    0.5780    1.0020 </r>
       <r>    0.6006    1.0037 </r>
       <r>    0.6172    1.0055 </r>
       <r>    0.6523    1.0117 </r>
       <r>    0.6927    1.0228 </r>
       <r>    0.7073    1.0272 </r>
       <r>    0.7246    1.0320 </r>
       <r>    0.7376    1.0345 </r>
       <r>    0.7787    1.0283 </r>
       <r>    0.8102    0.9957 </r>
       <r>    0.8477    0.9077 </r>
       <r>    0.8601    0.8649 </r>
       <r>    0.9055    0.6558 </r>
       <r>    0.9496    0.4110 </r>
       <r>    0.9742    0.2802 </r>
       <r>    1.0026    0.1531 </r>
       <r>    1.0360    0.0466 </r>
       <r>    1.0557    0.0067 </r>
       <r>    1.0761   -0.0191 </r>
       <r>    1.0879   -0.0278 </r>
       <r>    1.1323   -0.0341 </r>
       <r>    1.1610   -0.0270 </r>
       <r>    1.1866   -0.0192 </r>
       <r>    1.1942   -0.0170 </r>
       <r>    1.2108   -0.0127 </r>
       <r>    1.2349   -0.0078 </r>
       <r>    1.2618   -0.0042 </r>
       <r>    1.2833   -0.0024 </r>
       <r>    1.3043   -0.0013 </r>
       <r>    1.3380   -0.0005 </r>
       <r>    1.3516   -0.0003 </r>
       <r>    1.3687   -0.0002 </r>
       <r>    1.3988   -0.0001 </r>
       <r>    1.4356   -0.0000 </r>
       <r>    1.4470   -0.0000 </r>
       <r>    1.4703   -0.0000 </r>
       <r>    1.4859   -0.0000 </r>
       <r>    1.4943   -0.0000 </r>
       <r>    1.5065   -0.0000 </r>
       <r>    1.5350   -0.0000 </r>
       <r>    1.5448   -0.0000 </r>
       <r>    1.5632   -0.0000 </r>
       <r>    1.5876   -0.0000 </r>
       <r>    1.5956   -0.0000 </r>
       <r>    1.6168   -0.0000 </r>
       <r>    1.6378   -0.0000 </r>
       <r>    1.6415   -0.0000 </r>
       <r>    1.6511   -0.0000 </r>
       <r>    1.6765   -0.0000 </r>
       <r>    1.6982   -0.0000 </r>
       <r>    1.7051   -0.0000 </r>
       <r>    1.7136   -0.0000 </r>
       <r>    1.7245   -0.0000 </r>
       <r>    1.7290   -0.0000 </r>
       <r>    1.7541   -0.0000 </r>
       <r>    1.7633   -0.0000 </r>
       <r>    1.7743   -0.0000 </r>
       <r>    1.7914   -0.0000 </r>
       <r>    1.8080   -0.0000 </r>
       <r>    1.8234   -0.0000 </r>
       <r>    1.8307   -0.0000 </r>
       <r>    1.8601   -0.0000 </r>
       <r>    1.8671   -0.0000 </r>
       <r>    1.8736   -0.0000 </r>
       <r>    1.8790   -0.0000 </r>
       <r>    1.8990   -0.0000 </r>
       <r>    1.9158   -0.0000 </r>
       <r>    1.9295   -0.0000 </r>
       <r>    1.9400   -0.0000 </r>
       <r>    1.9465   -0.0000 </r>
       <r>    1.9596   -0.0000 </r>
       <r>    1.9651   -0.0000 </r>
       <r>    1.9785   -0.0000 </r>
       <r>    1.9965   -0.0000 </r>
       <r>    2.0076   -0.0000 </r>
       <r>    2.0164   -0.0000 </r>
       <r>    2.0346   -0.0000 </r>
       <r>    2.0467   -0.0000 </r>
       <r>    2.0538   -0.0000 </r>
       <r>    2.0684   -0.0000 </r>
       <r>    2.0733   -0.0000 </r>
       <r>    2.0837   -0.0000 </r>
       <r>    2.0988   -0.0000 </r>
       <r>    2.1053   -0.0000 </r>
       <r>    2.1142   -0.0000 </r>
       <r>    2.1281   -0.0000 </r>
       <r>    2.1319   -0.0000 </r>
       <r>    2.1450   -0.0000 </r>
       <r>    2.1521   -0.0000 </r>
       <r>    2.1689   -0.0000 </r>
       <r>    2.1803   -0.0000 </r>
       <r>    2.1889   -0.0000 </r>
       <r>    2.2077   -0.0000 </r>
       <r>    2.2163   -0.0000 </r>
       <r>    2.2231   -0.0000 </r>
       <r>    2.2382   -0.0000 </r>
       <r>    2.2488   -0.0000 </r>
       <r>    2.2539   -0.0000 </r>
       <r>    2.2728   -0.0000 </r>
       <r>    2.2858   -0.0000 </r>
       <r>    2.2921   -0.0000 </r>
       <r>    2.3071   -0.0000 </r>
       <r>    2.3184   -0.0000 </r>
       <r>    2.3276   -0.0000 </r>
       <r>    2.3396   -0.0000 </r>
       <r>    2.3599   -0.0000 </r>
       <r>    2.3640   -0.0000 </r>
       <r>    2.3685   -0.0000 </r>
       <r>    2.3757   -0.0000 </r>
       <r>    2.3901   -0.0000 </r>
       <r>    2.3930   -0.0000 </r>
       <r>    2.4133   -0.0000 </r>
       <r>    2.4263   -0.0000 </r>
       <r>    2.4301   -0.0000 </r>
       <r>    2.4367   -0.0000 </r>
       <r>    2.4413   -0.0000 </r>
       <r>    2.4533   -0.0000 </r>
       <r>    2.4674   -0.0000 </r>
       <r>    2.4787   -0.0000 </r>
       <r>    2.4932   -0.0000 </r>
       <r>    2.4999   -0.0000 </r>
       <r>    2.5100   -0.0000 </r>
       <r>    2.5179   -0.0000 </r>
       <r>    2.5225   -0.0000 </r>
       <r>    2.5314   -0.0000 </r>
       <r>    2.5467   -0.0000 </r>
       <r>    2.5544   -0.0000 </r>
       <r>    2.5668   -0.0000 </r>
       <r>    2.5807   -0.0000 </r>
       <r>    2.6008   -0.0000 </r>
       <r>    2.6149   -0.0000 </r>
       <r>    2.6369   -0.0000 </r>
       <r>    2.6565   -0.0000 </r>
       <r>    2.6707   -0.0000 </r>
       <r>    2.6846   -0.0000 </r>
       <r>    2.6946   -0.0000 </r>
       <r>    2.7065   -0.0000 </r>
       <r>    2.7208   -0.0000 </r>
       <r>    2.7282   -0.0000 </r>
       <r>    2.7539   -0.0000 </r>
       <r>    2.7594   -0.0000 </r>
       <r>    2.7744   -0.0000 </r>
       <r>    2.7906   -0.0000 </r>
       <r>    2.8016   -0.0000 </r>
       <r>    2.8127   -0.0000 </r>
       <r>    2.8235   -0.0000 </r>
       <r>    2.8350   -0.0000 </r>
       <r>    2.8479   -0.0000 </r>
       <r>    2.8668   -0.0000 </r>
      </set>
      <set comment="kpoint 6">
       <r>  -43.4083    1.0000 </r>
       <r>  -43.3908    1.0000 </r>
       <r>  -43.3782    1.0000 </r>
       <r>  -43.3650    1.0000 </r>
       <r>  -43.3548    1.0000 </r>
       <r>  -43.3515    1.0000 </r>
       <r>  -43.3512    1.0000 </r>
       <r>  -43.3203    1.0000 </r>
       <r>  -43.3168    1.0000 </r>
       <r>  -43.3040    1.0000 </r>
       <r>  -43.2867    1.0000 </r>
       <r>  -43.2799    1.0000 </r>
       <r>  -43.2782    1.0000 </r>
       <r>  -43.2554    1.0000 </r>
       <r>  -43.1936    1.0000 </r>
       <r>  -43.1821    1.0000 </r>
       <r>  -43.1614    1.0000 </r>
       <r>  -43.1564    1.0000 </r>
       <r>  -43.1512    1.0000 </r>
       <r>  -43.1380    1.0000 </r>
       <r>  -43.0689    1.0000 </r>
       <r>  -42.9979    1.0000 </r>
       <r>  -42.9256    1.0000 </r>
       <r>  -42.8233    1.0000 </r>
       <r>  -42.8083    1.0000 </r>
       <r>  -42.7843    1.0000 </r>
       <r>  -42.7083    1.0000 </r>
       <r>  -42.6669    1.0000 </r>
       <r>  -42.6307    1.0000 </r>
       <r>  -42.5602    1.0000 </r>
       <r>  -42.4965    1.0000 </r>
       <r>  -42.3497    1.0000 </r>
       <r>  -42.1978    1.0000 </r>
       <r>  -42.1908    1.0000 </r>
       <r>  -42.0220    1.0000 </r>
       <r>  -41.8357    1.0000 </r>
       <r>  -39.8490    1.0000 </r>
       <r>  -39.7277    1.0000 </r>
       <r>  -39.6303    1.0000 </r>
       <r>  -15.5506    1.0000 </r>
       <r>  -15.5409    1.0000 </r>
       <r>  -15.5367    1.0000 </r>
       <r>  -15.5251    1.0000 </r>
       <r>  -15.5067    1.0000 </r>
       <r>   -7.7942    1.0000 </r>
       <r>   -6.4381    1.0000 </r>
       <r>   -6.3926    1.0000 </r>
       <r>   -5.5465    1.0000 </r>
       <r>   -5.4882    1.0000 </r>
       <r>   -5.3823    1.0000 </r>
       <r>   -5.3172    1.0000 </r>
       <r>   -4.5805    1.0000 </r>
       <r>   -4.5560    1.0000 </r>
       <r>   -4.2296    1.0000 </r>
       <r>   -4.0483    1.0000 </r>
       <r>   -3.7774    1.0000 </r>
       <r>   -3.7453    1.0000 </r>
       <r>   -3.4655    1.0000 </r>
       <r>   -3.4227    1.0000 </r>
       <r>   -3.2482    1.0000 </r>
       <r>   -3.2238    1.0000 </r>
       <r>   -3.1533    1.0000 </r>
       <r>   -3.1317    1.0000 </r>
       <r>   -3.0647    1.0000 </r>
       <r>   -3.0276    1.0000 </r>
       <r>   -2.9940    1.0000 </r>
       <r>   -2.9721    1.0000 </r>
       <r>   -2.9110    1.0000 </r>
       <r>   -2.8857    1.0000 </r>
       <r>   -2.8554    1.0000 </r>
       <r>   -2.8384    1.0000 </r>
       <r>   -2.7975    1.0000 </r>
       <r>   -2.7518    1.0000 </r>
       <r>   -2.7144    1.0000 </r>
       <r>   -2.5619    1.0000 </r>
       <r>   -2.5417    1.0000 </r>
       <r>   -2.5250    1.0000 </r>
       <r>   -2.5025    1.0000 </r>
       <r>   -2.4496    1.0000 </r>
       <r>   -2.4210    1.0000 </r>
       <r>   -2.3955    1.0000 </r>
       <r>   -2.3667    1.0000 </r>
       <r>   -2.3472    1.0000 </r>
       <r>   -2.3059    1.0000 </r>
       <r>   -2.2971    1.0000 </r>
       <r>   -2.2759    1.0000 </r>
       <r>   -2.2336    1.0000 </r>
       <r>   -2.1965    1.0000 </r>
       <r>   -2.1855    1.0000 </r>
       <r>   -2.1743    1.0000 </r>
       <r>   -2.1336    1.0000 </r>
       <r>   -2.0679    1.0000 </r>
       <r>   -2.0457    1.0000 </r>
       <r>   -2.0371    1.0000 </r>
       <r>   -1.9954    1.0000 </r>
       <r>   -1.9863    1.0000 </r>
       <r>   -1.9468    1.0000 </r>
       <r>   -1.9287    1.0000 </r>
       <r>   -1.9118    1.0000 </r>
       <r>   -1.8902    1.0000 </r>
       <r>   -1.8546    1.0000 </r>
       <r>   -1.8387    1.0000 </r>
       <r>   -1.7889    1.0000 </r>
       <r>   -1.7681    1.0000 </r>
       <r>   -1.7328    1.0000 </r>
       <r>   -1.7170    1.0000 </r>
       <r>   -1.6839    1.0000 </r>
       <r>   -1.6482    1.0000 </r>
       <r>   -1.6402    1.0000 </r>
       <r>   -1.6162    1.0000 </r>
       <r>   -1.5763    1.0000 </r>
       <r>   -1.5522    1.0000 </r>
       <r>   -1.5069    1.0000 </r>
       <r>   -1.4929    1.0000 </r>
       <r>   -1.4707    1.0000 </r>
       <r>   -1.4561    1.0000 </r>
       <r>   -1.4312    1.0000 </r>
       <r>   -1.4081    1.0000 </r>
       <r>   -1.3826    1.0000 </r>
       <r>   -1.3701    1.0000 </r>
       <r>   -1.3513    1.0000 </r>
       <r>   -1.3238    1.0000 </r>
       <r>   -1.3047    1.0000 </r>
       <r>   -1.2742    1.0000 </r>
       <r>   -1.2538    1.0000 </r>
       <r>   -1.2357    1.0000 </r>
       <r>   -1.2242    1.0000 </r>
       <r>   -1.2052    1.0000 </r>
       <r>   -1.1831    1.0000 </r>
       <r>   -1.1461    1.0000 </r>
       <r>   -1.1349    1.0000 </r>
       <r>   -1.1220    1.0000 </r>
       <r>   -1.1020    1.0000 </r>
       <r>   -1.0926    1.0000 </r>
       <r>   -1.0640    1.0000 </r>
       <r>   -1.0448    1.0000 </r>
       <r>   -1.0407    1.0000 </r>
       <r>   -1.0216    1.0000 </r>
       <r>   -1.0040    1.0000 </r>
       <r>   -0.9723    1.0000 </r>
       <r>   -0.9505    1.0000 </r>
       <r>   -0.9427    1.0000 </r>
       <r>   -0.9048    1.0000 </r>
       <r>   -0.8853    1.0000 </r>
       <r>   -0.8706    1.0000 </r>
       <r>   -0.8426    1.0000 </r>
       <r>   -0.8113    1.0000 </r>
       <r>   -0.7952    1.0000 </r>
       <r>   -0.7826    1.0000 </r>
       <r>   -0.7438    1.0000 </r>
       <r>   -0.7348    1.0000 </r>
       <r>   -0.7244    1.0000 </r>
       <r>   -0.7075    1.0000 </r>
       <r>   -0.6878    1.0000 </r>
       <r>   -0.6806    1.0000 </r>
       <r>   -0.6699    1.0000 </r>
       <r>   -0.6476    1.0000 </r>
       <r>   -0.6318    1.0000 </r>
       <r>   -0.6188    1.0000 </r>
       <r>   -0.5980    1.0000 </r>
       <r>   -0.5725    1.0000 </r>
       <r>   -0.5559    1.0000 </r>
       <r>   -0.5447    1.0000 </r>
       <r>   -0.5305    1.0000 </r>
       <r>   -0.5099    1.0000 </r>
       <r>   -0.4977    1.0000 </r>
       <r>   -0.4777    1.0000 </r>
       <r>   -0.4628    1.0000 </r>
       <r>   -0.4502    1.0000 </r>
       <r>   -0.4422    1.0000 </r>
       <r>   -0.4296    1.0000 </r>
       <r>   -0.4111    1.0000 </r>
       <r>   -0.3959    1.0000 </r>
       <r>   -0.3842    1.0000 </r>
       <r>   -0.3697    1.0000 </r>
       <r>   -0.3434    1.0000 </r>
       <r>   -0.3268    1.0000 </r>
       <r>   -0.3167    1.0000 </r>
       <r>   -0.3064    1.0000 </r>
       <r>   -0.2933    1.0000 </r>
       <r>   -0.2763    1.0000 </r>
       <r>   -0.2588    1.0000 </r>
       <r>   -0.2517    1.0000 </r>
       <r>   -0.2355    1.0000 </r>
       <r>   -0.2210    1.0000 </r>
       <r>   -0.2081    1.0000 </r>
       <r>   -0.1953    1.0000 </r>
       <r>   -0.1776    1.0000 </r>
       <r>   -0.1672    1.0000 </r>
       <r>   -0.1473    1.0000 </r>
       <r>   -0.1308    1.0000 </r>
       <r>   -0.0942    1.0000 </r>
       <r>   -0.0836    1.0000 </r>
       <r>   -0.0504    1.0000 </r>
       <r>   -0.0339    1.0000 </r>
       <r>   -0.0117    1.0000 </r>
       <r>    0.0079    1.0000 </r>
       <r>    0.0214    1.0000 </r>
       <r>    0.0620    1.0000 </r>
       <r>    0.0774    1.0000 </r>
       <r>    0.0955    1.0000 </r>
       <r>    0.1192    1.0000 </r>
       <r>    0.1257    1.0000 </r>
       <r>    0.1528    1.0000 </r>
       <r>    0.1857    1.0000 </r>
       <r>    0.2044    1.0000 </r>
       <r>    0.2112    1.0000 </r>
       <r>    0.2238    1.0000 </r>
       <r>    0.2625    1.0000 </r>
       <r>    0.2951    1.0000 </r>
       <r>    0.3042    1.0000 </r>
       <r>    0.3364    1.0000 </r>
       <r>    0.3613    1.0000 </r>
       <r>    0.4116    1.0000 </r>
       <r>    0.4192    1.0000 </r>
       <r>    0.4533    1.0000 </r>
       <r>    0.4705    1.0001 </r>
       <r>    0.5089    1.0002 </r>
       <r>    0.5143    1.0003 </r>
       <r>    0.5433    1.0007 </r>
       <r>    0.5649    1.0014 </r>
       <r>    0.5893    1.0027 </r>
       <r>    0.6279    1.0070 </r>
       <r>    0.6451    1.0102 </r>
       <r>    0.6817    1.0194 </r>
       <r>    0.7083    1.0275 </r>
       <r>    0.7274    1.0326 </r>
       <r>    0.7575    1.0350 </r>
       <r>    0.7792    1.0280 </r>
       <r>    0.8208    0.9769 </r>
       <r>    0.8528    0.8907 </r>
       <r>    0.8871    0.7491 </r>
       <r>    0.9142    0.6089 </r>
       <r>    0.9637    0.3345 </r>
       <r>    0.9791    0.2562 </r>
       <r>    1.0125    0.1163 </r>
       <r>    1.0313    0.0585 </r>
       <r>    1.0510    0.0146 </r>
       <r>    1.0598    0.0003 </r>
       <r>    1.1063   -0.0345 </r>
       <r>    1.1367   -0.0333 </r>
       <r>    1.1572   -0.0281 </r>
       <r>    1.1805   -0.0210 </r>
       <r>    1.2131   -0.0121 </r>
       <r>    1.2345   -0.0078 </r>
       <r>    1.2639   -0.0040 </r>
       <r>    1.3000   -0.0015 </r>
       <r>    1.3256   -0.0007 </r>
       <r>    1.3488   -0.0003 </r>
       <r>    1.3722   -0.0001 </r>
       <r>    1.3782   -0.0001 </r>
       <r>    1.4137   -0.0000 </r>
       <r>    1.4272   -0.0000 </r>
       <r>    1.4339   -0.0000 </r>
       <r>    1.4588   -0.0000 </r>
       <r>    1.4832   -0.0000 </r>
       <r>    1.4917   -0.0000 </r>
       <r>    1.5163   -0.0000 </r>
       <r>    1.5269   -0.0000 </r>
       <r>    1.5476   -0.0000 </r>
       <r>    1.5636   -0.0000 </r>
       <r>    1.5672   -0.0000 </r>
       <r>    1.5976   -0.0000 </r>
       <r>    1.6084   -0.0000 </r>
       <r>    1.6288   -0.0000 </r>
       <r>    1.6591   -0.0000 </r>
       <r>    1.6797   -0.0000 </r>
       <r>    1.6877   -0.0000 </r>
       <r>    1.6987   -0.0000 </r>
       <r>    1.7150   -0.0000 </r>
       <r>    1.7227   -0.0000 </r>
       <r>    1.7404   -0.0000 </r>
       <r>    1.7632   -0.0000 </r>
       <r>    1.7722   -0.0000 </r>
       <r>    1.7863   -0.0000 </r>
       <r>    1.7937   -0.0000 </r>
       <r>    1.8100   -0.0000 </r>
       <r>    1.8215   -0.0000 </r>
       <r>    1.8389   -0.0000 </r>
       <r>    1.8506   -0.0000 </r>
       <r>    1.8522   -0.0000 </r>
       <r>    1.8686   -0.0000 </r>
       <r>    1.8819   -0.0000 </r>
       <r>    1.8922   -0.0000 </r>
       <r>    1.9082   -0.0000 </r>
       <r>    1.9191   -0.0000 </r>
       <r>    1.9358   -0.0000 </r>
       <r>    1.9401   -0.0000 </r>
       <r>    1.9540   -0.0000 </r>
       <r>    1.9644   -0.0000 </r>
       <r>    1.9716   -0.0000 </r>
       <r>    1.9811   -0.0000 </r>
       <r>    1.9893   -0.0000 </r>
       <r>    2.0040   -0.0000 </r>
       <r>    2.0148   -0.0000 </r>
       <r>    2.0166   -0.0000 </r>
       <r>    2.0316   -0.0000 </r>
       <r>    2.0396   -0.0000 </r>
       <r>    2.0469   -0.0000 </r>
       <r>    2.0588   -0.0000 </r>
       <r>    2.0717   -0.0000 </r>
       <r>    2.0808   -0.0000 </r>
       <r>    2.0960   -0.0000 </r>
       <r>    2.1036   -0.0000 </r>
       <r>    2.1211   -0.0000 </r>
       <r>    2.1331   -0.0000 </r>
       <r>    2.1391   -0.0000 </r>
       <r>    2.1534   -0.0000 </r>
       <r>    2.1654   -0.0000 </r>
       <r>    2.1790   -0.0000 </r>
       <r>    2.1851   -0.0000 </r>
       <r>    2.2023   -0.0000 </r>
       <r>    2.2148   -0.0000 </r>
       <r>    2.2244   -0.0000 </r>
       <r>    2.2416   -0.0000 </r>
       <r>    2.2516   -0.0000 </r>
       <r>    2.2583   -0.0000 </r>
       <r>    2.2713   -0.0000 </r>
       <r>    2.2808   -0.0000 </r>
       <r>    2.2925   -0.0000 </r>
       <r>    2.3065   -0.0000 </r>
       <r>    2.3132   -0.0000 </r>
       <r>    2.3198   -0.0000 </r>
       <r>    2.3269   -0.0000 </r>
       <r>    2.3367   -0.0000 </r>
       <r>    2.3497   -0.0000 </r>
       <r>    2.3548   -0.0000 </r>
       <r>    2.3690   -0.0000 </r>
       <r>    2.3800   -0.0000 </r>
       <r>    2.3958   -0.0000 </r>
       <r>    2.4103   -0.0000 </r>
       <r>    2.4155   -0.0000 </r>
       <r>    2.4287   -0.0000 </r>
       <r>    2.4451   -0.0000 </r>
       <r>    2.4487   -0.0000 </r>
       <r>    2.4535   -0.0000 </r>
       <r>    2.4606   -0.0000 </r>
       <r>    2.4750   -0.0000 </r>
       <r>    2.4844   -0.0000 </r>
       <r>    2.4995   -0.0000 </r>
       <r>    2.5111   -0.0000 </r>
       <r>    2.5184   -0.0000 </r>
       <r>    2.5198   -0.0000 </r>
       <r>    2.5287   -0.0000 </r>
       <r>    2.5385   -0.0000 </r>
       <r>    2.5544   -0.0000 </r>
       <r>    2.5608   -0.0000 </r>
       <r>    2.5684   -0.0000 </r>
       <r>    2.5770   -0.0000 </r>
       <r>    2.5823   -0.0000 </r>
       <r>    2.5915   -0.0000 </r>
       <r>    2.6031   -0.0000 </r>
       <r>    2.6100   -0.0000 </r>
       <r>    2.6196   -0.0000 </r>
       <r>    2.6308   -0.0000 </r>
       <r>    2.6384   -0.0000 </r>
       <r>    2.6477   -0.0000 </r>
       <r>    2.6665   -0.0000 </r>
       <r>    2.6987   -0.0000 </r>
       <r>    2.7250   -0.0000 </r>
       <r>    2.7409   -0.0000 </r>
       <r>    2.7707   -0.0000 </r>
       <r>    2.7809   -0.0000 </r>
       <r>    2.8019   -0.0000 </r>
       <r>    2.8124   -0.0000 </r>
       <r>    2.8215   -0.0000 </r>
       <r>    2.8383   -0.0000 </r>
       <r>    2.8831   -0.0000 </r>
       <r>    2.8989   -0.0000 </r>
      </set>
      <set comment="kpoint 7">
       <r>  -43.4083    1.0000 </r>
       <r>  -43.3908    1.0000 </r>
       <r>  -43.3782    1.0000 </r>
       <r>  -43.3650    1.0000 </r>
       <r>  -43.3548    1.0000 </r>
       <r>  -43.3515    1.0000 </r>
       <r>  -43.3512    1.0000 </r>
       <r>  -43.3203    1.0000 </r>
       <r>  -43.3168    1.0000 </r>
       <r>  -43.3040    1.0000 </r>
       <r>  -43.2867    1.0000 </r>
       <r>  -43.2799    1.0000 </r>
       <r>  -43.2782    1.0000 </r>
       <r>  -43.2554    1.0000 </r>
       <r>  -43.1936    1.0000 </r>
       <r>  -43.1821    1.0000 </r>
       <r>  -43.1615    1.0000 </r>
       <r>  -43.1564    1.0000 </r>
       <r>  -43.1512    1.0000 </r>
       <r>  -43.1381    1.0000 </r>
       <r>  -43.0689    1.0000 </r>
       <r>  -42.9979    1.0000 </r>
       <r>  -42.9256    1.0000 </r>
       <r>  -42.8233    1.0000 </r>
       <r>  -42.8083    1.0000 </r>
       <r>  -42.7843    1.0000 </r>
       <r>  -42.7083    1.0000 </r>
       <r>  -42.6669    1.0000 </r>
       <r>  -42.6307    1.0000 </r>
       <r>  -42.5602    1.0000 </r>
       <r>  -42.4965    1.0000 </r>
       <r>  -42.3497    1.0000 </r>
       <r>  -42.1978    1.0000 </r>
       <r>  -42.1908    1.0000 </r>
       <r>  -42.0220    1.0000 </r>
       <r>  -41.8357    1.0000 </r>
       <r>  -39.8490    1.0000 </r>
       <r>  -39.7277    1.0000 </r>
       <r>  -39.6303    1.0000 </r>
       <r>  -15.5507    1.0000 </r>
       <r>  -15.5409    1.0000 </r>
       <r>  -15.5367    1.0000 </r>
       <r>  -15.5251    1.0000 </r>
       <r>  -15.5067    1.0000 </r>
       <r>   -7.8150    1.0000 </r>
       <r>   -6.7991    1.0000 </r>
       <r>   -5.8745    1.0000 </r>
       <r>   -5.7998    1.0000 </r>
       <r>   -5.6849    1.0000 </r>
       <r>   -4.9647    1.0000 </r>
       <r>   -4.8832    1.0000 </r>
       <r>   -4.8164    1.0000 </r>
       <r>   -4.4345    1.0000 </r>
       <r>   -4.0438    1.0000 </r>
       <r>   -4.0237    1.0000 </r>
       <r>   -3.9663    1.0000 </r>
       <r>   -3.8381    1.0000 </r>
       <r>   -3.6949    1.0000 </r>
       <r>   -3.5308    1.0000 </r>
       <r>   -3.4798    1.0000 </r>
       <r>   -3.4397    1.0000 </r>
       <r>   -3.4145    1.0000 </r>
       <r>   -3.1616    1.0000 </r>
       <r>   -3.1288    1.0000 </r>
       <r>   -3.0859    1.0000 </r>
       <r>   -3.0348    1.0000 </r>
       <r>   -2.9136    1.0000 </r>
       <r>   -2.8662    1.0000 </r>
       <r>   -2.8430    1.0000 </r>
       <r>   -2.8214    1.0000 </r>
       <r>   -2.7702    1.0000 </r>
       <r>   -2.7369    1.0000 </r>
       <r>   -2.6963    1.0000 </r>
       <r>   -2.6513    1.0000 </r>
       <r>   -2.5924    1.0000 </r>
       <r>   -2.5534    1.0000 </r>
       <r>   -2.5011    1.0000 </r>
       <r>   -2.4716    1.0000 </r>
       <r>   -2.4193    1.0000 </r>
       <r>   -2.3939    1.0000 </r>
       <r>   -2.3653    1.0000 </r>
       <r>   -2.3271    1.0000 </r>
       <r>   -2.3039    1.0000 </r>
       <r>   -2.2810    1.0000 </r>
       <r>   -2.2412    1.0000 </r>
       <r>   -2.2127    1.0000 </r>
       <r>   -2.2003    1.0000 </r>
       <r>   -2.1868    1.0000 </r>
       <r>   -2.1693    1.0000 </r>
       <r>   -2.1482    1.0000 </r>
       <r>   -2.1275    1.0000 </r>
       <r>   -2.0890    1.0000 </r>
       <r>   -2.0659    1.0000 </r>
       <r>   -2.0186    1.0000 </r>
       <r>   -1.9961    1.0000 </r>
       <r>   -1.9848    1.0000 </r>
       <r>   -1.9576    1.0000 </r>
       <r>   -1.9386    1.0000 </r>
       <r>   -1.9090    1.0000 </r>
       <r>   -1.8359    1.0000 </r>
       <r>   -1.8021    1.0000 </r>
       <r>   -1.7724    1.0000 </r>
       <r>   -1.7671    1.0000 </r>
       <r>   -1.7238    1.0000 </r>
       <r>   -1.7129    1.0000 </r>
       <r>   -1.6747    1.0000 </r>
       <r>   -1.6645    1.0000 </r>
       <r>   -1.6237    1.0000 </r>
       <r>   -1.5680    1.0000 </r>
       <r>   -1.5419    1.0000 </r>
       <r>   -1.5378    1.0000 </r>
       <r>   -1.5027    1.0000 </r>
       <r>   -1.4785    1.0000 </r>
       <r>   -1.4656    1.0000 </r>
       <r>   -1.4522    1.0000 </r>
       <r>   -1.4325    1.0000 </r>
       <r>   -1.4054    1.0000 </r>
       <r>   -1.3945    1.0000 </r>
       <r>   -1.3836    1.0000 </r>
       <r>   -1.3283    1.0000 </r>
       <r>   -1.3133    1.0000 </r>
       <r>   -1.3073    1.0000 </r>
       <r>   -1.2733    1.0000 </r>
       <r>   -1.2580    1.0000 </r>
       <r>   -1.2464    1.0000 </r>
       <r>   -1.2350    1.0000 </r>
       <r>   -1.2042    1.0000 </r>
       <r>   -1.1772    1.0000 </r>
       <r>   -1.1669    1.0000 </r>
       <r>   -1.1463    1.0000 </r>
       <r>   -1.1317    1.0000 </r>
       <r>   -1.1182    1.0000 </r>
       <r>   -1.1011    1.0000 </r>
       <r>   -1.0893    1.0000 </r>
       <r>   -1.0719    1.0000 </r>
       <r>   -1.0479    1.0000 </r>
       <r>   -1.0361    1.0000 </r>
       <r>   -1.0086    1.0000 </r>
       <r>   -0.9812    1.0000 </r>
       <r>   -0.9685    1.0000 </r>
       <r>   -0.9535    1.0000 </r>
       <r>   -0.9433    1.0000 </r>
       <r>   -0.9215    1.0000 </r>
       <r>   -0.9009    1.0000 </r>
       <r>   -0.8844    1.0000 </r>
       <r>   -0.8569    1.0000 </r>
       <r>   -0.8464    1.0000 </r>
       <r>   -0.8184    1.0000 </r>
       <r>   -0.7948    1.0000 </r>
       <r>   -0.7790    1.0000 </r>
       <r>   -0.7719    1.0000 </r>
       <r>   -0.7574    1.0000 </r>
       <r>   -0.7427    1.0000 </r>
       <r>   -0.7316    1.0000 </r>
       <r>   -0.7129    1.0000 </r>
       <r>   -0.6852    1.0000 </r>
       <r>   -0.6755    1.0000 </r>
       <r>   -0.6613    1.0000 </r>
       <r>   -0.6409    1.0000 </r>
       <r>   -0.6262    1.0000 </r>
       <r>   -0.6100    1.0000 </r>
       <r>   -0.5877    1.0000 </r>
       <r>   -0.5842    1.0000 </r>
       <r>   -0.5567    1.0000 </r>
       <r>   -0.5452    1.0000 </r>
       <r>   -0.5337    1.0000 </r>
       <r>   -0.5177    1.0000 </r>
       <r>   -0.4948    1.0000 </r>
       <r>   -0.4902    1.0000 </r>
       <r>   -0.4759    1.0000 </r>
       <r>   -0.4676    1.0000 </r>
       <r>   -0.4455    1.0000 </r>
       <r>   -0.4210    1.0000 </r>
       <r>   -0.4036    1.0000 </r>
       <r>   -0.3893    1.0000 </r>
       <r>   -0.3673    1.0000 </r>
       <r>   -0.3447    1.0000 </r>
       <r>   -0.3279    1.0000 </r>
       <r>   -0.3174    1.0000 </r>
       <r>   -0.2876    1.0000 </r>
       <r>   -0.2711    1.0000 </r>
       <r>   -0.2541    1.0000 </r>
       <r>   -0.2372    1.0000 </r>
       <r>   -0.2138    1.0000 </r>
       <r>   -0.1999    1.0000 </r>
       <r>   -0.1938    1.0000 </r>
       <r>   -0.1829    1.0000 </r>
       <r>   -0.1763    1.0000 </r>
       <r>   -0.1466    1.0000 </r>
       <r>   -0.1250    1.0000 </r>
       <r>   -0.0915    1.0000 </r>
       <r>   -0.0767    1.0000 </r>
       <r>   -0.0587    1.0000 </r>
       <r>   -0.0377    1.0000 </r>
       <r>   -0.0093    1.0000 </r>
       <r>    0.0104    1.0000 </r>
       <r>    0.0184    1.0000 </r>
       <r>    0.0434    1.0000 </r>
       <r>    0.0594    1.0000 </r>
       <r>    0.0710    1.0000 </r>
       <r>    0.0867    1.0000 </r>
       <r>    0.1044    1.0000 </r>
       <r>    0.1194    1.0000 </r>
       <r>    0.1335    1.0000 </r>
       <r>    0.1587    1.0000 </r>
       <r>    0.1875    1.0000 </r>
       <r>    0.2037    1.0000 </r>
       <r>    0.2303    1.0000 </r>
       <r>    0.2593    1.0000 </r>
       <r>    0.2933    1.0000 </r>
       <r>    0.3425    1.0000 </r>
       <r>    0.3563    1.0000 </r>
       <r>    0.3758    1.0000 </r>
       <r>    0.3822    1.0000 </r>
       <r>    0.4288    1.0000 </r>
       <r>    0.4510    1.0000 </r>
       <r>    0.4688    1.0001 </r>
       <r>    0.4965    1.0001 </r>
       <r>    0.5258    1.0004 </r>
       <r>    0.5469    1.0008 </r>
       <r>    0.5828    1.0023 </r>
       <r>    0.6079    1.0044 </r>
       <r>    0.6316    1.0076 </r>
       <r>    0.6473    1.0106 </r>
       <r>    0.6826    1.0197 </r>
       <r>    0.7048    1.0265 </r>
       <r>    0.7168    1.0300 </r>
       <r>    0.7723    1.0313 </r>
       <r>    0.8049    1.0035 </r>
       <r>    0.8164    0.9852 </r>
       <r>    0.8288    0.9596 </r>
       <r>    0.8848    0.7600 </r>
       <r>    0.9071    0.6473 </r>
       <r>    0.9409    0.4594 </r>
       <r>    0.9763    0.2697 </r>
       <r>    1.0051    0.1434 </r>
       <r>    1.0408    0.0353 </r>
       <r>    1.0624   -0.0034 </r>
       <r>    1.0976   -0.0323 </r>
       <r>    1.1079   -0.0348 </r>
       <r>    1.1253   -0.0351 </r>
       <r>    1.1514   -0.0297 </r>
       <r>    1.1691   -0.0245 </r>
       <r>    1.1950   -0.0167 </r>
       <r>    1.2187   -0.0109 </r>
       <r>    1.2382   -0.0072 </r>
       <r>    1.2417   -0.0067 </r>
       <r>    1.2583   -0.0045 </r>
       <r>    1.2726   -0.0032 </r>
       <r>    1.3261   -0.0007 </r>
       <r>    1.3479   -0.0003 </r>
       <r>    1.3659   -0.0002 </r>
       <r>    1.3996   -0.0001 </r>
       <r>    1.4234   -0.0000 </r>
       <r>    1.4380   -0.0000 </r>
       <r>    1.4649   -0.0000 </r>
       <r>    1.4825   -0.0000 </r>
       <r>    1.4936   -0.0000 </r>
       <r>    1.5145   -0.0000 </r>
       <r>    1.5283   -0.0000 </r>
       <r>    1.5529   -0.0000 </r>
       <r>    1.5642   -0.0000 </r>
       <r>    1.5860   -0.0000 </r>
       <r>    1.6007   -0.0000 </r>
       <r>    1.6205   -0.0000 </r>
       <r>    1.6352   -0.0000 </r>
       <r>    1.6513   -0.0000 </r>
       <r>    1.6649   -0.0000 </r>
       <r>    1.6777   -0.0000 </r>
       <r>    1.6861   -0.0000 </r>
       <r>    1.6997   -0.0000 </r>
       <r>    1.7144   -0.0000 </r>
       <r>    1.7322   -0.0000 </r>
       <r>    1.7393   -0.0000 </r>
       <r>    1.7605   -0.0000 </r>
       <r>    1.7752   -0.0000 </r>
       <r>    1.7778   -0.0000 </r>
       <r>    1.8072   -0.0000 </r>
       <r>    1.8104   -0.0000 </r>
       <r>    1.8148   -0.0000 </r>
       <r>    1.8298   -0.0000 </r>
       <r>    1.8392   -0.0000 </r>
       <r>    1.8578   -0.0000 </r>
       <r>    1.8707   -0.0000 </r>
       <r>    1.8936   -0.0000 </r>
       <r>    1.9032   -0.0000 </r>
       <r>    1.9126   -0.0000 </r>
       <r>    1.9162   -0.0000 </r>
       <r>    1.9361   -0.0000 </r>
       <r>    1.9465   -0.0000 </r>
       <r>    1.9598   -0.0000 </r>
       <r>    1.9820   -0.0000 </r>
       <r>    1.9861   -0.0000 </r>
       <r>    2.0016   -0.0000 </r>
       <r>    2.0075   -0.0000 </r>
       <r>    2.0200   -0.0000 </r>
       <r>    2.0279   -0.0000 </r>
       <r>    2.0437   -0.0000 </r>
       <r>    2.0502   -0.0000 </r>
       <r>    2.0625   -0.0000 </r>
       <r>    2.0755   -0.0000 </r>
       <r>    2.0831   -0.0000 </r>
       <r>    2.0990   -0.0000 </r>
       <r>    2.1080   -0.0000 </r>
       <r>    2.1216   -0.0000 </r>
       <r>    2.1298   -0.0000 </r>
       <r>    2.1426   -0.0000 </r>
       <r>    2.1596   -0.0000 </r>
       <r>    2.1651   -0.0000 </r>
       <r>    2.1732   -0.0000 </r>
       <r>    2.1835   -0.0000 </r>
       <r>    2.1958   -0.0000 </r>
       <r>    2.2047   -0.0000 </r>
       <r>    2.2180   -0.0000 </r>
       <r>    2.2248   -0.0000 </r>
       <r>    2.2386   -0.0000 </r>
       <r>    2.2429   -0.0000 </r>
       <r>    2.2663   -0.0000 </r>
       <r>    2.2744   -0.0000 </r>
       <r>    2.2785   -0.0000 </r>
       <r>    2.2959   -0.0000 </r>
       <r>    2.3063   -0.0000 </r>
       <r>    2.3154   -0.0000 </r>
       <r>    2.3199   -0.0000 </r>
       <r>    2.3397   -0.0000 </r>
       <r>    2.3544   -0.0000 </r>
       <r>    2.3623   -0.0000 </r>
       <r>    2.3768   -0.0000 </r>
       <r>    2.3844   -0.0000 </r>
       <r>    2.3932   -0.0000 </r>
       <r>    2.4015   -0.0000 </r>
       <r>    2.4065   -0.0000 </r>
       <r>    2.4157   -0.0000 </r>
       <r>    2.4281   -0.0000 </r>
       <r>    2.4393   -0.0000 </r>
       <r>    2.4465   -0.0000 </r>
       <r>    2.4588   -0.0000 </r>
       <r>    2.4692   -0.0000 </r>
       <r>    2.4793   -0.0000 </r>
       <r>    2.4838   -0.0000 </r>
       <r>    2.5006   -0.0000 </r>
       <r>    2.5038   -0.0000 </r>
       <r>    2.5119   -0.0000 </r>
       <r>    2.5277   -0.0000 </r>
       <r>    2.5317   -0.0000 </r>
       <r>    2.5456   -0.0000 </r>
       <r>    2.5555   -0.0000 </r>
       <r>    2.5748   -0.0000 </r>
       <r>    2.5856   -0.0000 </r>
       <r>    2.5960   -0.0000 </r>
       <r>    2.6050   -0.0000 </r>
       <r>    2.6345   -0.0000 </r>
       <r>    2.6574   -0.0000 </r>
       <r>    2.6688   -0.0000 </r>
       <r>    2.6844   -0.0000 </r>
       <r>    2.6945   -0.0000 </r>
       <r>    2.7061   -0.0000 </r>
       <r>    2.7098   -0.0000 </r>
       <r>    2.7239   -0.0000 </r>
       <r>    2.7353   -0.0000 </r>
       <r>    2.7487   -0.0000 </r>
       <r>    2.7628   -0.0000 </r>
       <r>    2.7817   -0.0000 </r>
       <r>    2.7945   -0.0000 </r>
       <r>    2.8029   -0.0000 </r>
       <r>    2.8169   -0.0000 </r>
       <r>    2.8276   -0.0000 </r>
       <r>    2.8434   -0.0000 </r>
       <r>    2.8712   -0.0000 </r>
      </set>
      <set comment="kpoint 8">
       <r>  -43.4083    1.0000 </r>
       <r>  -43.3908    1.0000 </r>
       <r>  -43.3782    1.0000 </r>
       <r>  -43.3649    1.0000 </r>
       <r>  -43.3548    1.0000 </r>
       <r>  -43.3515    1.0000 </r>
       <r>  -43.3512    1.0000 </r>
       <r>  -43.3203    1.0000 </r>
       <r>  -43.3168    1.0000 </r>
       <r>  -43.3040    1.0000 </r>
       <r>  -43.2868    1.0000 </r>
       <r>  -43.2799    1.0000 </r>
       <r>  -43.2782    1.0000 </r>
       <r>  -43.2554    1.0000 </r>
       <r>  -43.1936    1.0000 </r>
       <r>  -43.1821    1.0000 </r>
       <r>  -43.1615    1.0000 </r>
       <r>  -43.1564    1.0000 </r>
       <r>  -43.1512    1.0000 </r>
       <r>  -43.1381    1.0000 </r>
       <r>  -43.0689    1.0000 </r>
       <r>  -42.9979    1.0000 </r>
       <r>  -42.9256    1.0000 </r>
       <r>  -42.8233    1.0000 </r>
       <r>  -42.8083    1.0000 </r>
       <r>  -42.7843    1.0000 </r>
       <r>  -42.7083    1.0000 </r>
       <r>  -42.6669    1.0000 </r>
       <r>  -42.6307    1.0000 </r>
       <r>  -42.5602    1.0000 </r>
       <r>  -42.4965    1.0000 </r>
       <r>  -42.3497    1.0000 </r>
       <r>  -42.1978    1.0000 </r>
       <r>  -42.1908    1.0000 </r>
       <r>  -42.0220    1.0000 </r>
       <r>  -41.8357    1.0000 </r>
       <r>  -39.8490    1.0000 </r>
       <r>  -39.7277    1.0000 </r>
       <r>  -39.6303    1.0000 </r>
       <r>  -15.5506    1.0000 </r>
       <r>  -15.5409    1.0000 </r>
       <r>  -15.5367    1.0000 </r>
       <r>  -15.5252    1.0000 </r>
       <r>  -15.5067    1.0000 </r>
       <r>   -7.8084    1.0000 </r>
       <r>   -6.5771    1.0000 </r>
       <r>   -6.5106    1.0000 </r>
       <r>   -5.6850    1.0000 </r>
       <r>   -5.4798    1.0000 </r>
       <r>   -4.6479    1.0000 </r>
       <r>   -4.6363    1.0000 </r>
       <r>   -4.6010    1.0000 </r>
       <r>   -4.5726    1.0000 </r>
       <r>   -4.3858    1.0000 </r>
       <r>   -4.2048    1.0000 </r>
       <r>   -3.9268    1.0000 </r>
       <r>   -3.9011    1.0000 </r>
       <r>   -3.8699    1.0000 </r>
       <r>   -3.6994    1.0000 </r>
       <r>   -3.2743    1.0000 </r>
       <r>   -3.2401    1.0000 </r>
       <r>   -3.1710    1.0000 </r>
       <r>   -3.1604    1.0000 </r>
       <r>   -3.1250    1.0000 </r>
       <r>   -3.1219    1.0000 </r>
       <r>   -3.0744    1.0000 </r>
       <r>   -3.0526    1.0000 </r>
       <r>   -2.9989    1.0000 </r>
       <r>   -2.9576    1.0000 </r>
       <r>   -2.9006    1.0000 </r>
       <r>   -2.8605    1.0000 </r>
       <r>   -2.8127    1.0000 </r>
       <r>   -2.7873    1.0000 </r>
       <r>   -2.7674    1.0000 </r>
       <r>   -2.5143    1.0000 </r>
       <r>   -2.4731    1.0000 </r>
       <r>   -2.4554    1.0000 </r>
       <r>   -2.4198    1.0000 </r>
       <r>   -2.4132    1.0000 </r>
       <r>   -2.4014    1.0000 </r>
       <r>   -2.3482    1.0000 </r>
       <r>   -2.3366    1.0000 </r>
       <r>   -2.2979    1.0000 </r>
       <r>   -2.2718    1.0000 </r>
       <r>   -2.2462    1.0000 </r>
       <r>   -2.2203    1.0000 </r>
       <r>   -2.2077    1.0000 </r>
       <r>   -2.1811    1.0000 </r>
       <r>   -2.1607    1.0000 </r>
       <r>   -2.0886    1.0000 </r>
       <r>   -2.0691    1.0000 </r>
       <r>   -2.0356    1.0000 </r>
       <r>   -2.0162    1.0000 </r>
       <r>   -1.9855    1.0000 </r>
       <r>   -1.9755    1.0000 </r>
       <r>   -1.9539    1.0000 </r>
       <r>   -1.9082    1.0000 </r>
       <r>   -1.8711    1.0000 </r>
       <r>   -1.8538    1.0000 </r>
       <r>   -1.8412    1.0000 </r>
       <r>   -1.8364    1.0000 </r>
       <r>   -1.7982    1.0000 </r>
       <r>   -1.7788    1.0000 </r>
       <r>   -1.7728    1.0000 </r>
       <r>   -1.7287    1.0000 </r>
       <r>   -1.6999    1.0000 </r>
       <r>   -1.6715    1.0000 </r>
       <r>   -1.6428    1.0000 </r>
       <r>   -1.5910    1.0000 </r>
       <r>   -1.5720    1.0000 </r>
       <r>   -1.5700    1.0000 </r>
       <r>   -1.5498    1.0000 </r>
       <r>   -1.5229    1.0000 </r>
       <r>   -1.4960    1.0000 </r>
       <r>   -1.4816    1.0000 </r>
       <r>   -1.4539    1.0000 </r>
       <r>   -1.4074    1.0000 </r>
       <r>   -1.3755    1.0000 </r>
       <r>   -1.3670    1.0000 </r>
       <r>   -1.3280    1.0000 </r>
       <r>   -1.3119    1.0000 </r>
       <r>   -1.2702    1.0000 </r>
       <r>   -1.2382    1.0000 </r>
       <r>   -1.2151    1.0000 </r>
       <r>   -1.2070    1.0000 </r>
       <r>   -1.1985    1.0000 </r>
       <r>   -1.1756    1.0000 </r>
       <r>   -1.1678    1.0000 </r>
       <r>   -1.1538    1.0000 </r>
       <r>   -1.1395    1.0000 </r>
       <r>   -1.1201    1.0000 </r>
       <r>   -1.1043    1.0000 </r>
       <r>   -1.0768    1.0000 </r>
       <r>   -1.0583    1.0000 </r>
       <r>   -1.0503    1.0000 </r>
       <r>   -1.0297    1.0000 </r>
       <r>   -1.0221    1.0000 </r>
       <r>   -1.0017    1.0000 </r>
       <r>   -0.9937    1.0000 </r>
       <r>   -0.9783    1.0000 </r>
       <r>   -0.9496    1.0000 </r>
       <r>   -0.9156    1.0000 </r>
       <r>   -0.9075    1.0000 </r>
       <r>   -0.8775    1.0000 </r>
       <r>   -0.8651    1.0000 </r>
       <r>   -0.8386    1.0000 </r>
       <r>   -0.8264    1.0000 </r>
       <r>   -0.8052    1.0000 </r>
       <r>   -0.7958    1.0000 </r>
       <r>   -0.7730    1.0000 </r>
       <r>   -0.7667    1.0000 </r>
       <r>   -0.7384    1.0000 </r>
       <r>   -0.7179    1.0000 </r>
       <r>   -0.7135    1.0000 </r>
       <r>   -0.6838    1.0000 </r>
       <r>   -0.6761    1.0000 </r>
       <r>   -0.6720    1.0000 </r>
       <r>   -0.6492    1.0000 </r>
       <r>   -0.6122    1.0000 </r>
       <r>   -0.5916    1.0000 </r>
       <r>   -0.5743    1.0000 </r>
       <r>   -0.5604    1.0000 </r>
       <r>   -0.5500    1.0000 </r>
       <r>   -0.5470    1.0000 </r>
       <r>   -0.5371    1.0000 </r>
       <r>   -0.5087    1.0000 </r>
       <r>   -0.5067    1.0000 </r>
       <r>   -0.4877    1.0000 </r>
       <r>   -0.4752    1.0000 </r>
       <r>   -0.4591    1.0000 </r>
       <r>   -0.4400    1.0000 </r>
       <r>   -0.4288    1.0000 </r>
       <r>   -0.4089    1.0000 </r>
       <r>   -0.4050    1.0000 </r>
       <r>   -0.3850    1.0000 </r>
       <r>   -0.3654    1.0000 </r>
       <r>   -0.3539    1.0000 </r>
       <r>   -0.3485    1.0000 </r>
       <r>   -0.3398    1.0000 </r>
       <r>   -0.3112    1.0000 </r>
       <r>   -0.2964    1.0000 </r>
       <r>   -0.2892    1.0000 </r>
       <r>   -0.2733    1.0000 </r>
       <r>   -0.2528    1.0000 </r>
       <r>   -0.2401    1.0000 </r>
       <r>   -0.2238    1.0000 </r>
       <r>   -0.2082    1.0000 </r>
       <r>   -0.1891    1.0000 </r>
       <r>   -0.1737    1.0000 </r>
       <r>   -0.1502    1.0000 </r>
       <r>   -0.1253    1.0000 </r>
       <r>   -0.1100    1.0000 </r>
       <r>   -0.0830    1.0000 </r>
       <r>   -0.0796    1.0000 </r>
       <r>   -0.0603    1.0000 </r>
       <r>   -0.0283    1.0000 </r>
       <r>   -0.0208    1.0000 </r>
       <r>    0.0160    1.0000 </r>
       <r>    0.0275    1.0000 </r>
       <r>    0.0436    1.0000 </r>
       <r>    0.0743    1.0000 </r>
       <r>    0.0960    1.0000 </r>
       <r>    0.1081    1.0000 </r>
       <r>    0.1207    1.0000 </r>
       <r>    0.1488    1.0000 </r>
       <r>    0.1744    1.0000 </r>
       <r>    0.1867    1.0000 </r>
       <r>    0.2097    1.0000 </r>
       <r>    0.2352    1.0000 </r>
       <r>    0.2608    1.0000 </r>
       <r>    0.2820    1.0000 </r>
       <r>    0.2874    1.0000 </r>
       <r>    0.3051    1.0000 </r>
       <r>    0.3392    1.0000 </r>
       <r>    0.3900    1.0000 </r>
       <r>    0.4602    1.0000 </r>
       <r>    0.4745    1.0001 </r>
       <r>    0.4861    1.0001 </r>
       <r>    0.5174    1.0003 </r>
       <r>    0.5418    1.0007 </r>
       <r>    0.5750    1.0019 </r>
       <r>    0.6190    1.0058 </r>
       <r>    0.6408    1.0093 </r>
       <r>    0.6759    1.0178 </r>
       <r>    0.7093    1.0278 </r>
       <r>    0.7193    1.0307 </r>
       <r>    0.7707    1.0319 </r>
       <r>    0.7934    1.0170 </r>
       <r>    0.8309    0.9546 </r>
       <r>    0.8331    0.9492 </r>
       <r>    0.8618    0.8585 </r>
       <r>    0.8952    0.7093 </r>
       <r>    0.9052    0.6576 </r>
       <r>    0.9311    0.5146 </r>
       <r>    0.9829    0.2381 </r>
       <r>    1.0260    0.0731 </r>
       <r>    1.0689   -0.0116 </r>
       <r>    1.0780   -0.0207 </r>
       <r>    1.1003   -0.0331 </r>
       <r>    1.1108   -0.0351 </r>
       <r>    1.1568   -0.0282 </r>
       <r>    1.1697   -0.0243 </r>
       <r>    1.1751   -0.0226 </r>
       <r>    1.2211   -0.0104 </r>
       <r>    1.2438   -0.0064 </r>
       <r>    1.2575   -0.0046 </r>
       <r>    1.2854   -0.0022 </r>
       <r>    1.2914   -0.0019 </r>
       <r>    1.3007   -0.0015 </r>
       <r>    1.3347   -0.0005 </r>
       <r>    1.3793   -0.0001 </r>
       <r>    1.3927   -0.0001 </r>
       <r>    1.4070   -0.0000 </r>
       <r>    1.4216   -0.0000 </r>
       <r>    1.4293   -0.0000 </r>
       <r>    1.4515   -0.0000 </r>
       <r>    1.4854   -0.0000 </r>
       <r>    1.5038   -0.0000 </r>
       <r>    1.5172   -0.0000 </r>
       <r>    1.5450   -0.0000 </r>
       <r>    1.5763   -0.0000 </r>
       <r>    1.5834   -0.0000 </r>
       <r>    1.5957   -0.0000 </r>
       <r>    1.5965   -0.0000 </r>
       <r>    1.6198   -0.0000 </r>
       <r>    1.6355   -0.0000 </r>
       <r>    1.6433   -0.0000 </r>
       <r>    1.6648   -0.0000 </r>
       <r>    1.6832   -0.0000 </r>
       <r>    1.7005   -0.0000 </r>
       <r>    1.7208   -0.0000 </r>
       <r>    1.7402   -0.0000 </r>
       <r>    1.7543   -0.0000 </r>
       <r>    1.7671   -0.0000 </r>
       <r>    1.7764   -0.0000 </r>
       <r>    1.7891   -0.0000 </r>
       <r>    1.8032   -0.0000 </r>
       <r>    1.8199   -0.0000 </r>
       <r>    1.8233   -0.0000 </r>
       <r>    1.8348   -0.0000 </r>
       <r>    1.8550   -0.0000 </r>
       <r>    1.8628   -0.0000 </r>
       <r>    1.8759   -0.0000 </r>
       <r>    1.8900   -0.0000 </r>
       <r>    1.8951   -0.0000 </r>
       <r>    1.9123   -0.0000 </r>
       <r>    1.9214   -0.0000 </r>
       <r>    1.9238   -0.0000 </r>
       <r>    1.9344   -0.0000 </r>
       <r>    1.9453   -0.0000 </r>
       <r>    1.9552   -0.0000 </r>
       <r>    1.9613   -0.0000 </r>
       <r>    1.9785   -0.0000 </r>
       <r>    1.9873   -0.0000 </r>
       <r>    1.9926   -0.0000 </r>
       <r>    1.9997   -0.0000 </r>
       <r>    2.0144   -0.0000 </r>
       <r>    2.0237   -0.0000 </r>
       <r>    2.0377   -0.0000 </r>
       <r>    2.0550   -0.0000 </r>
       <r>    2.0602   -0.0000 </r>
       <r>    2.0686   -0.0000 </r>
       <r>    2.0795   -0.0000 </r>
       <r>    2.0815   -0.0000 </r>
       <r>    2.0939   -0.0000 </r>
       <r>    2.0978   -0.0000 </r>
       <r>    2.1200   -0.0000 </r>
       <r>    2.1326   -0.0000 </r>
       <r>    2.1379   -0.0000 </r>
       <r>    2.1517   -0.0000 </r>
       <r>    2.1562   -0.0000 </r>
       <r>    2.1624   -0.0000 </r>
       <r>    2.1750   -0.0000 </r>
       <r>    2.1800   -0.0000 </r>
       <r>    2.2095   -0.0000 </r>
       <r>    2.2228   -0.0000 </r>
       <r>    2.2305   -0.0000 </r>
       <r>    2.2546   -0.0000 </r>
       <r>    2.2640   -0.0000 </r>
       <r>    2.2762   -0.0000 </r>
       <r>    2.2931   -0.0000 </r>
       <r>    2.3095   -0.0000 </r>
       <r>    2.3303   -0.0000 </r>
       <r>    2.3421   -0.0000 </r>
       <r>    2.3588   -0.0000 </r>
       <r>    2.3776   -0.0000 </r>
       <r>    2.3809   -0.0000 </r>
       <r>    2.3870   -0.0000 </r>
       <r>    2.3975   -0.0000 </r>
       <r>    2.4184   -0.0000 </r>
       <r>    2.4229   -0.0000 </r>
       <r>    2.4348   -0.0000 </r>
       <r>    2.4391   -0.0000 </r>
       <r>    2.4541   -0.0000 </r>
       <r>    2.4639   -0.0000 </r>
       <r>    2.4664   -0.0000 </r>
       <r>    2.4866   -0.0000 </r>
       <r>    2.4996   -0.0000 </r>
       <r>    2.5014   -0.0000 </r>
       <r>    2.5138   -0.0000 </r>
       <r>    2.5266   -0.0000 </r>
       <r>    2.5396   -0.0000 </r>
       <r>    2.5429   -0.0000 </r>
       <r>    2.5493   -0.0000 </r>
       <r>    2.5575   -0.0000 </r>
       <r>    2.5624   -0.0000 </r>
       <r>    2.5700   -0.0000 </r>
       <r>    2.5816   -0.0000 </r>
       <r>    2.5880   -0.0000 </r>
       <r>    2.5963   -0.0000 </r>
       <r>    2.6069   -0.0000 </r>
       <r>    2.6218   -0.0000 </r>
       <r>    2.6365   -0.0000 </r>
       <r>    2.6429   -0.0000 </r>
       <r>    2.6556   -0.0000 </r>
       <r>    2.6679   -0.0000 </r>
       <r>    2.6769   -0.0000 </r>
       <r>    2.6888   -0.0000 </r>
       <r>    2.7115   -0.0000 </r>
       <r>    2.7219   -0.0000 </r>
       <r>    2.7311   -0.0000 </r>
       <r>    2.7595   -0.0000 </r>
       <r>    2.7691   -0.0000 </r>
       <r>    2.7992   -0.0000 </r>
       <r>    2.8163   -0.0000 </r>
       <r>    2.8700   -0.0000 </r>
       <r>    2.8829   -0.0000 </r>
       <r>    2.8961   -0.0000 </r>
       <r>    2.9210   -0.0000 </r>
      </set>
      <set comment="kpoint 9">
       <r>  -43.4083    1.0000 </r>
       <r>  -43.3908    1.0000 </r>
       <r>  -43.3782    1.0000 </r>
       <r>  -43.3649    1.0000 </r>
       <r>  -43.3548    1.0000 </r>
       <r>  -43.3515    1.0000 </r>
       <r>  -43.3512    1.0000 </r>
       <r>  -43.3203    1.0000 </r>
       <r>  -43.3168    1.0000 </r>
       <r>  -43.3040    1.0000 </r>
       <r>  -43.2868    1.0000 </r>
       <r>  -43.2799    1.0000 </r>
       <r>  -43.2782    1.0000 </r>
       <r>  -43.2554    1.0000 </r>
       <r>  -43.1936    1.0000 </r>
       <r>  -43.1821    1.0000 </r>
       <r>  -43.1614    1.0000 </r>
       <r>  -43.1564    1.0000 </r>
       <r>  -43.1512    1.0000 </r>
       <r>  -43.1381    1.0000 </r>
       <r>  -43.0689    1.0000 </r>
       <r>  -42.9979    1.0000 </r>
       <r>  -42.9256    1.0000 </r>
       <r>  -42.8233    1.0000 </r>
       <r>  -42.8083    1.0000 </r>
       <r>  -42.7843    1.0000 </r>
       <r>  -42.7083    1.0000 </r>
       <r>  -42.6669    1.0000 </r>
       <r>  -42.6307    1.0000 </r>
       <r>  -42.5602    1.0000 </r>
       <r>  -42.4966    1.0000 </r>
       <r>  -42.3497    1.0000 </r>
       <r>  -42.1978    1.0000 </r>
       <r>  -42.1908    1.0000 </r>
       <r>  -42.0220    1.0000 </r>
       <r>  -41.8357    1.0000 </r>
       <r>  -39.8490    1.0000 </r>
       <r>  -39.7277    1.0000 </r>
       <r>  -39.6303    1.0000 </r>
       <r>  -15.5506    1.0000 </r>
       <r>  -15.5409    1.0000 </r>
       <r>  -15.5367    1.0000 </r>
       <r>  -15.5251    1.0000 </r>
       <r>  -15.5067    1.0000 </r>
       <r>   -7.7925    1.0000 </r>
       <r>   -6.4406    1.0000 </r>
       <r>   -6.3872    1.0000 </r>
       <r>   -5.5610    1.0000 </r>
       <r>   -5.4977    1.0000 </r>
       <r>   -5.4063    1.0000 </r>
       <r>   -5.2669    1.0000 </r>
       <r>   -4.5951    1.0000 </r>
       <r>   -4.5465    1.0000 </r>
       <r>   -4.2618    1.0000 </r>
       <r>   -4.0211    1.0000 </r>
       <r>   -3.7704    1.0000 </r>
       <r>   -3.7522    1.0000 </r>
       <r>   -3.4644    1.0000 </r>
       <r>   -3.4162    1.0000 </r>
       <r>   -3.2540    1.0000 </r>
       <r>   -3.2161    1.0000 </r>
       <r>   -3.1650    1.0000 </r>
       <r>   -3.1283    1.0000 </r>
       <r>   -3.0627    1.0000 </r>
       <r>   -3.0398    1.0000 </r>
       <r>   -3.0194    1.0000 </r>
       <r>   -2.9635    1.0000 </r>
       <r>   -2.9211    1.0000 </r>
       <r>   -2.9000    1.0000 </r>
       <r>   -2.8751    1.0000 </r>
       <r>   -2.8398    1.0000 </r>
       <r>   -2.7956    1.0000 </r>
       <r>   -2.7553    1.0000 </r>
       <r>   -2.6950    1.0000 </r>
       <r>   -2.5570    1.0000 </r>
       <r>   -2.5043    1.0000 </r>
       <r>   -2.4837    1.0000 </r>
       <r>   -2.4575    1.0000 </r>
       <r>   -2.4366    1.0000 </r>
       <r>   -2.4153    1.0000 </r>
       <r>   -2.4084    1.0000 </r>
       <r>   -2.3697    1.0000 </r>
       <r>   -2.3520    1.0000 </r>
       <r>   -2.3281    1.0000 </r>
       <r>   -2.2978    1.0000 </r>
       <r>   -2.2596    1.0000 </r>
       <r>   -2.2446    1.0000 </r>
       <r>   -2.2221    1.0000 </r>
       <r>   -2.2009    1.0000 </r>
       <r>   -2.1692    1.0000 </r>
       <r>   -2.1407    1.0000 </r>
       <r>   -2.1126    1.0000 </r>
       <r>   -2.0845    1.0000 </r>
       <r>   -2.0353    1.0000 </r>
       <r>   -2.0213    1.0000 </r>
       <r>   -1.9852    1.0000 </r>
       <r>   -1.9522    1.0000 </r>
       <r>   -1.9275    1.0000 </r>
       <r>   -1.9008    1.0000 </r>
       <r>   -1.8816    1.0000 </r>
       <r>   -1.8326    1.0000 </r>
       <r>   -1.7991    1.0000 </r>
       <r>   -1.7912    1.0000 </r>
       <r>   -1.7630    1.0000 </r>
       <r>   -1.7455    1.0000 </r>
       <r>   -1.7275    1.0000 </r>
       <r>   -1.6881    1.0000 </r>
       <r>   -1.6732    1.0000 </r>
       <r>   -1.6449    1.0000 </r>
       <r>   -1.6155    1.0000 </r>
       <r>   -1.5915    1.0000 </r>
       <r>   -1.5580    1.0000 </r>
       <r>   -1.5238    1.0000 </r>
       <r>   -1.4824    1.0000 </r>
       <r>   -1.4747    1.0000 </r>
       <r>   -1.4356    1.0000 </r>
       <r>   -1.4257    1.0000 </r>
       <r>   -1.3982    1.0000 </r>
       <r>   -1.3579    1.0000 </r>
       <r>   -1.3363    1.0000 </r>
       <r>   -1.3232    1.0000 </r>
       <r>   -1.3040    1.0000 </r>
       <r>   -1.2905    1.0000 </r>
       <r>   -1.2731    1.0000 </r>
       <r>   -1.2435    1.0000 </r>
       <r>   -1.2311    1.0000 </r>
       <r>   -1.2164    1.0000 </r>
       <r>   -1.1959    1.0000 </r>
       <r>   -1.1866    1.0000 </r>
       <r>   -1.1595    1.0000 </r>
       <r>   -1.1361    1.0000 </r>
       <r>   -1.1304    1.0000 </r>
       <r>   -1.1135    1.0000 </r>
       <r>   -1.0867    1.0000 </r>
       <r>   -1.0764    1.0000 </r>
       <r>   -1.0441    1.0000 </r>
       <r>   -1.0310    1.0000 </r>
       <r>   -1.0232    1.0000 </r>
       <r>   -0.9998    1.0000 </r>
       <r>   -0.9722    1.0000 </r>
       <r>   -0.9648    1.0000 </r>
       <r>   -0.9396    1.0000 </r>
       <r>   -0.9088    1.0000 </r>
       <r>   -0.8797    1.0000 </r>
       <r>   -0.8521    1.0000 </r>
       <r>   -0.8296    1.0000 </r>
       <r>   -0.8126    1.0000 </r>
       <r>   -0.8017    1.0000 </r>
       <r>   -0.7766    1.0000 </r>
       <r>   -0.7628    1.0000 </r>
       <r>   -0.7430    1.0000 </r>
       <r>   -0.7338    1.0000 </r>
       <r>   -0.7272    1.0000 </r>
       <r>   -0.6986    1.0000 </r>
       <r>   -0.6809    1.0000 </r>
       <r>   -0.6615    1.0000 </r>
       <r>   -0.6444    1.0000 </r>
       <r>   -0.6141    1.0000 </r>
       <r>   -0.6056    1.0000 </r>
       <r>   -0.5853    1.0000 </r>
       <r>   -0.5688    1.0000 </r>
       <r>   -0.5494    1.0000 </r>
       <r>   -0.5460    1.0000 </r>
       <r>   -0.5338    1.0000 </r>
       <r>   -0.5134    1.0000 </r>
       <r>   -0.4892    1.0000 </r>
       <r>   -0.4847    1.0000 </r>
       <r>   -0.4531    1.0000 </r>
       <r>   -0.4453    1.0000 </r>
       <r>   -0.4288    1.0000 </r>
       <r>   -0.4089    1.0000 </r>
       <r>   -0.3917    1.0000 </r>
       <r>   -0.3859    1.0000 </r>
       <r>   -0.3768    1.0000 </r>
       <r>   -0.3719    1.0000 </r>
       <r>   -0.3494    1.0000 </r>
       <r>   -0.3396    1.0000 </r>
       <r>   -0.3280    1.0000 </r>
       <r>   -0.3100    1.0000 </r>
       <r>   -0.3032    1.0000 </r>
       <r>   -0.2927    1.0000 </r>
       <r>   -0.2759    1.0000 </r>
       <r>   -0.2518    1.0000 </r>
       <r>   -0.2443    1.0000 </r>
       <r>   -0.2362    1.0000 </r>
       <r>   -0.2102    1.0000 </r>
       <r>   -0.1996    1.0000 </r>
       <r>   -0.1834    1.0000 </r>
       <r>   -0.1663    1.0000 </r>
       <r>   -0.1546    1.0000 </r>
       <r>   -0.1235    1.0000 </r>
       <r>   -0.1094    1.0000 </r>
       <r>   -0.0958    1.0000 </r>
       <r>   -0.0740    1.0000 </r>
       <r>   -0.0374    1.0000 </r>
       <r>   -0.0194    1.0000 </r>
       <r>   -0.0085    1.0000 </r>
       <r>    0.0113    1.0000 </r>
       <r>    0.0481    1.0000 </r>
       <r>    0.0892    1.0000 </r>
       <r>    0.1041    1.0000 </r>
       <r>    0.1210    1.0000 </r>
       <r>    0.1413    1.0000 </r>
       <r>    0.1667    1.0000 </r>
       <r>    0.1771    1.0000 </r>
       <r>    0.2118    1.0000 </r>
       <r>    0.2270    1.0000 </r>
       <r>    0.2502    1.0000 </r>
       <r>    0.2774    1.0000 </r>
       <r>    0.2949    1.0000 </r>
       <r>    0.3217    1.0000 </r>
       <r>    0.3381    1.0000 </r>
       <r>    0.3624    1.0000 </r>
       <r>    0.3839    1.0000 </r>
       <r>    0.4218    1.0000 </r>
       <r>    0.4358    1.0000 </r>
       <r>    0.4706    1.0001 </r>
       <r>    0.4795    1.0001 </r>
       <r>    0.4970    1.0002 </r>
       <r>    0.5471    1.0008 </r>
       <r>    0.5702    1.0016 </r>
       <r>    0.5822    1.0023 </r>
       <r>    0.6340    1.0080 </r>
       <r>    0.6462    1.0104 </r>
       <r>    0.6965    1.0240 </r>
       <r>    0.7162    1.0298 </r>
       <r>    0.7405    1.0349 </r>
       <r>    0.7743    1.0304 </r>
       <r>    0.8303    0.9560 </r>
       <r>    0.8550    0.8832 </r>
       <r>    0.8727    0.8146 </r>
       <r>    0.8889    0.7406 </r>
       <r>    0.9189    0.5831 </r>
       <r>    0.9380    0.4756 </r>
       <r>    0.9720    0.2914 </r>
       <r>    0.9917    0.1982 </r>
       <r>    1.0258    0.0737 </r>
       <r>    1.0578    0.0032 </r>
       <r>    1.0778   -0.0206 </r>
       <r>    1.1060   -0.0345 </r>
       <r>    1.1267   -0.0349 </r>
       <r>    1.1853   -0.0195 </r>
       <r>    1.1948   -0.0168 </r>
       <r>    1.2047   -0.0142 </r>
       <r>    1.2451   -0.0062 </r>
       <r>    1.2531   -0.0051 </r>
       <r>    1.2674   -0.0036 </r>
       <r>    1.2996   -0.0015 </r>
       <r>    1.3289   -0.0006 </r>
       <r>    1.3527   -0.0003 </r>
       <r>    1.3841   -0.0001 </r>
       <r>    1.4011   -0.0000 </r>
       <r>    1.4134   -0.0000 </r>
       <r>    1.4294   -0.0000 </r>
       <r>    1.4448   -0.0000 </r>
       <r>    1.4848   -0.0000 </r>
       <r>    1.5042   -0.0000 </r>
       <r>    1.5178   -0.0000 </r>
       <r>    1.5411   -0.0000 </r>
       <r>    1.5470   -0.0000 </r>
       <r>    1.5633   -0.0000 </r>
       <r>    1.5891   -0.0000 </r>
       <r>    1.5930   -0.0000 </r>
       <r>    1.6177   -0.0000 </r>
       <r>    1.6382   -0.0000 </r>
       <r>    1.6532   -0.0000 </r>
       <r>    1.6646   -0.0000 </r>
       <r>    1.6781   -0.0000 </r>
       <r>    1.6998   -0.0000 </r>
       <r>    1.7101   -0.0000 </r>
       <r>    1.7307   -0.0000 </r>
       <r>    1.7434   -0.0000 </r>
       <r>    1.7526   -0.0000 </r>
       <r>    1.7627   -0.0000 </r>
       <r>    1.7796   -0.0000 </r>
       <r>    1.7961   -0.0000 </r>
       <r>    1.8091   -0.0000 </r>
       <r>    1.8186   -0.0000 </r>
       <r>    1.8330   -0.0000 </r>
       <r>    1.8351   -0.0000 </r>
       <r>    1.8578   -0.0000 </r>
       <r>    1.8725   -0.0000 </r>
       <r>    1.8793   -0.0000 </r>
       <r>    1.8898   -0.0000 </r>
       <r>    1.9018   -0.0000 </r>
       <r>    1.9146   -0.0000 </r>
       <r>    1.9239   -0.0000 </r>
       <r>    1.9298   -0.0000 </r>
       <r>    1.9441   -0.0000 </r>
       <r>    1.9548   -0.0000 </r>
       <r>    1.9616   -0.0000 </r>
       <r>    1.9738   -0.0000 </r>
       <r>    1.9913   -0.0000 </r>
       <r>    2.0047   -0.0000 </r>
       <r>    2.0079   -0.0000 </r>
       <r>    2.0214   -0.0000 </r>
       <r>    2.0287   -0.0000 </r>
       <r>    2.0392   -0.0000 </r>
       <r>    2.0460   -0.0000 </r>
       <r>    2.0520   -0.0000 </r>
       <r>    2.0735   -0.0000 </r>
       <r>    2.0868   -0.0000 </r>
       <r>    2.0983   -0.0000 </r>
       <r>    2.1135   -0.0000 </r>
       <r>    2.1185   -0.0000 </r>
       <r>    2.1391   -0.0000 </r>
       <r>    2.1491   -0.0000 </r>
       <r>    2.1526   -0.0000 </r>
       <r>    2.1629   -0.0000 </r>
       <r>    2.1793   -0.0000 </r>
       <r>    2.1886   -0.0000 </r>
       <r>    2.2000   -0.0000 </r>
       <r>    2.2072   -0.0000 </r>
       <r>    2.2150   -0.0000 </r>
       <r>    2.2332   -0.0000 </r>
       <r>    2.2484   -0.0000 </r>
       <r>    2.2542   -0.0000 </r>
       <r>    2.2595   -0.0000 </r>
       <r>    2.2768   -0.0000 </r>
       <r>    2.2840   -0.0000 </r>
       <r>    2.2979   -0.0000 </r>
       <r>    2.3048   -0.0000 </r>
       <r>    2.3178   -0.0000 </r>
       <r>    2.3314   -0.0000 </r>
       <r>    2.3498   -0.0000 </r>
       <r>    2.3623   -0.0000 </r>
       <r>    2.3636   -0.0000 </r>
       <r>    2.3708   -0.0000 </r>
       <r>    2.3907   -0.0000 </r>
       <r>    2.4049   -0.0000 </r>
       <r>    2.4165   -0.0000 </r>
       <r>    2.4294   -0.0000 </r>
       <r>    2.4320   -0.0000 </r>
       <r>    2.4447   -0.0000 </r>
       <r>    2.4497   -0.0000 </r>
       <r>    2.4633   -0.0000 </r>
       <r>    2.4700   -0.0000 </r>
       <r>    2.4761   -0.0000 </r>
       <r>    2.4852   -0.0000 </r>
       <r>    2.4933   -0.0000 </r>
       <r>    2.5019   -0.0000 </r>
       <r>    2.5179   -0.0000 </r>
       <r>    2.5221   -0.0000 </r>
       <r>    2.5284   -0.0000 </r>
       <r>    2.5433   -0.0000 </r>
       <r>    2.5523   -0.0000 </r>
       <r>    2.5593   -0.0000 </r>
       <r>    2.5725   -0.0000 </r>
       <r>    2.5814   -0.0000 </r>
       <r>    2.5891   -0.0000 </r>
       <r>    2.5985   -0.0000 </r>
       <r>    2.6050   -0.0000 </r>
       <r>    2.6127   -0.0000 </r>
       <r>    2.6188   -0.0000 </r>
       <r>    2.6285   -0.0000 </r>
       <r>    2.6377   -0.0000 </r>
       <r>    2.6492   -0.0000 </r>
       <r>    2.6646   -0.0000 </r>
       <r>    2.6990   -0.0000 </r>
       <r>    2.7225   -0.0000 </r>
       <r>    2.7390   -0.0000 </r>
       <r>    2.7598   -0.0000 </r>
       <r>    2.7783   -0.0000 </r>
       <r>    2.8031   -0.0000 </r>
       <r>    2.8097   -0.0000 </r>
       <r>    2.8357   -0.0000 </r>
       <r>    2.8479   -0.0000 </r>
       <r>    2.8578   -0.0000 </r>
       <r>    2.8917   -0.0000 </r>
      </set>
      <set comment="kpoint 10">
       <r>  -43.4083    1.0000 </r>
       <r>  -43.3908    1.0000 </r>
       <r>  -43.3782    1.0000 </r>
       <r>  -43.3649    1.0000 </r>
       <r>  -43.3548    1.0000 </r>
       <r>  -43.3515    1.0000 </r>
       <r>  -43.3512    1.0000 </r>
       <r>  -43.3203    1.0000 </r>
       <r>  -43.3168    1.0000 </r>
       <r>  -43.3040    1.0000 </r>
       <r>  -43.2868    1.0000 </r>
       <r>  -43.2799    1.0000 </r>
       <r>  -43.2782    1.0000 </r>
       <r>  -43.2554    1.0000 </r>
       <r>  -43.1936    1.0000 </r>
       <r>  -43.1821    1.0000 </r>
       <r>  -43.1614    1.0000 </r>
       <r>  -43.1564    1.0000 </r>
       <r>  -43.1512    1.0000 </r>
       <r>  -43.1381    1.0000 </r>
       <r>  -43.0689    1.0000 </r>
       <r>  -42.9979    1.0000 </r>
       <r>  -42.9256    1.0000 </r>
       <r>  -42.8233    1.0000 </r>
       <r>  -42.8083    1.0000 </r>
       <r>  -42.7843    1.0000 </r>
       <r>  -42.7083    1.0000 </r>
       <r>  -42.6669    1.0000 </r>
       <r>  -42.6307    1.0000 </r>
       <r>  -42.5602    1.0000 </r>
       <r>  -42.4966    1.0000 </r>
       <r>  -42.3497    1.0000 </r>
       <r>  -42.1978    1.0000 </r>
       <r>  -42.1908    1.0000 </r>
       <r>  -42.0220    1.0000 </r>
       <r>  -41.8357    1.0000 </r>
       <r>  -39.8490    1.0000 </r>
       <r>  -39.7277    1.0000 </r>
       <r>  -39.6303    1.0000 </r>
       <r>  -15.5506    1.0000 </r>
       <r>  -15.5409    1.0000 </r>
       <r>  -15.5367    1.0000 </r>
       <r>  -15.5251    1.0000 </r>
       <r>  -15.5067    1.0000 </r>
       <r>   -7.7762    1.0000 </r>
       <r>   -6.0717    1.0000 </r>
       <r>   -6.0574    1.0000 </r>
       <r>   -6.0113    1.0000 </r>
       <r>   -5.9789    1.0000 </r>
       <r>   -5.2225    1.0000 </r>
       <r>   -5.1587    1.0000 </r>
       <r>   -5.1287    1.0000 </r>
       <r>   -4.8984    1.0000 </r>
       <r>   -4.0036    1.0000 </r>
       <r>   -3.9589    1.0000 </r>
       <r>   -3.8523    1.0000 </r>
       <r>   -3.5912    1.0000 </r>
       <r>   -3.0922    1.0000 </r>
       <r>   -3.0524    1.0000 </r>
       <r>   -3.0339    1.0000 </r>
       <r>   -3.0150    1.0000 </r>
       <r>   -3.0099    1.0000 </r>
       <r>   -2.9985    1.0000 </r>
       <r>   -2.9633    1.0000 </r>
       <r>   -2.9599    1.0000 </r>
       <r>   -2.9474    1.0000 </r>
       <r>   -2.8887    1.0000 </r>
       <r>   -2.8577    1.0000 </r>
       <r>   -2.8263    1.0000 </r>
       <r>   -2.7877    1.0000 </r>
       <r>   -2.7701    1.0000 </r>
       <r>   -2.7634    1.0000 </r>
       <r>   -2.7354    1.0000 </r>
       <r>   -2.7235    1.0000 </r>
       <r>   -2.7031    1.0000 </r>
       <r>   -2.6842    1.0000 </r>
       <r>   -2.6478    1.0000 </r>
       <r>   -2.6280    1.0000 </r>
       <r>   -2.6021    1.0000 </r>
       <r>   -2.5828    1.0000 </r>
       <r>   -2.5686    1.0000 </r>
       <r>   -2.5430    1.0000 </r>
       <r>   -2.4480    1.0000 </r>
       <r>   -2.4086    1.0000 </r>
       <r>   -2.3317    1.0000 </r>
       <r>   -2.3058    1.0000 </r>
       <r>   -2.2608    1.0000 </r>
       <r>   -2.2410    1.0000 </r>
       <r>   -2.2007    1.0000 </r>
       <r>   -2.1533    1.0000 </r>
       <r>   -2.1418    1.0000 </r>
       <r>   -2.0803    1.0000 </r>
       <r>   -2.0722    1.0000 </r>
       <r>   -2.0531    1.0000 </r>
       <r>   -2.0169    1.0000 </r>
       <r>   -1.9824    1.0000 </r>
       <r>   -1.9769    1.0000 </r>
       <r>   -1.9458    1.0000 </r>
       <r>   -1.9290    1.0000 </r>
       <r>   -1.8907    1.0000 </r>
       <r>   -1.8472    1.0000 </r>
       <r>   -1.8358    1.0000 </r>
       <r>   -1.8191    1.0000 </r>
       <r>   -1.8064    1.0000 </r>
       <r>   -1.7507    1.0000 </r>
       <r>   -1.7414    1.0000 </r>
       <r>   -1.7203    1.0000 </r>
       <r>   -1.6823    1.0000 </r>
       <r>   -1.6633    1.0000 </r>
       <r>   -1.6277    1.0000 </r>
       <r>   -1.6130    1.0000 </r>
       <r>   -1.6076    1.0000 </r>
       <r>   -1.5572    1.0000 </r>
       <r>   -1.5187    1.0000 </r>
       <r>   -1.4910    1.0000 </r>
       <r>   -1.4610    1.0000 </r>
       <r>   -1.4419    1.0000 </r>
       <r>   -1.4184    1.0000 </r>
       <r>   -1.3903    1.0000 </r>
       <r>   -1.3858    1.0000 </r>
       <r>   -1.3635    1.0000 </r>
       <r>   -1.3578    1.0000 </r>
       <r>   -1.3183    1.0000 </r>
       <r>   -1.3126    1.0000 </r>
       <r>   -1.2971    1.0000 </r>
       <r>   -1.2820    1.0000 </r>
       <r>   -1.2437    1.0000 </r>
       <r>   -1.2116    1.0000 </r>
       <r>   -1.1979    1.0000 </r>
       <r>   -1.1711    1.0000 </r>
       <r>   -1.1555    1.0000 </r>
       <r>   -1.1446    1.0000 </r>
       <r>   -1.1230    1.0000 </r>
       <r>   -1.1089    1.0000 </r>
       <r>   -1.0910    1.0000 </r>
       <r>   -1.0707    1.0000 </r>
       <r>   -1.0585    1.0000 </r>
       <r>   -1.0408    1.0000 </r>
       <r>   -1.0195    1.0000 </r>
       <r>   -0.9904    1.0000 </r>
       <r>   -0.9807    1.0000 </r>
       <r>   -0.9200    1.0000 </r>
       <r>   -0.8943    1.0000 </r>
       <r>   -0.8630    1.0000 </r>
       <r>   -0.8563    1.0000 </r>
       <r>   -0.8301    1.0000 </r>
       <r>   -0.7927    1.0000 </r>
       <r>   -0.7807    1.0000 </r>
       <r>   -0.7749    1.0000 </r>
       <r>   -0.7375    1.0000 </r>
       <r>   -0.7292    1.0000 </r>
       <r>   -0.7171    1.0000 </r>
       <r>   -0.6935    1.0000 </r>
       <r>   -0.6801    1.0000 </r>
       <r>   -0.6647    1.0000 </r>
       <r>   -0.6491    1.0000 </r>
       <r>   -0.6367    1.0000 </r>
       <r>   -0.6302    1.0000 </r>
       <r>   -0.6060    1.0000 </r>
       <r>   -0.5894    1.0000 </r>
       <r>   -0.5686    1.0000 </r>
       <r>   -0.5289    1.0000 </r>
       <r>   -0.5241    1.0000 </r>
       <r>   -0.5024    1.0000 </r>
       <r>   -0.4887    1.0000 </r>
       <r>   -0.4758    1.0000 </r>
       <r>   -0.4514    1.0000 </r>
       <r>   -0.4221    1.0000 </r>
       <r>   -0.4118    1.0000 </r>
       <r>   -0.4026    1.0000 </r>
       <r>   -0.3819    1.0000 </r>
       <r>   -0.3685    1.0000 </r>
       <r>   -0.3468    1.0000 </r>
       <r>   -0.3361    1.0000 </r>
       <r>   -0.3282    1.0000 </r>
       <r>   -0.3244    1.0000 </r>
       <r>   -0.3120    1.0000 </r>
       <r>   -0.2896    1.0000 </r>
       <r>   -0.2771    1.0000 </r>
       <r>   -0.2710    1.0000 </r>
       <r>   -0.2687    1.0000 </r>
       <r>   -0.2416    1.0000 </r>
       <r>   -0.2265    1.0000 </r>
       <r>   -0.2069    1.0000 </r>
       <r>   -0.1909    1.0000 </r>
       <r>   -0.1733    1.0000 </r>
       <r>   -0.1624    1.0000 </r>
       <r>   -0.1415    1.0000 </r>
       <r>   -0.1288    1.0000 </r>
       <r>   -0.1145    1.0000 </r>
       <r>   -0.1059    1.0000 </r>
       <r>   -0.1011    1.0000 </r>
       <r>   -0.0833    1.0000 </r>
       <r>   -0.0710    1.0000 </r>
       <r>   -0.0443    1.0000 </r>
       <r>   -0.0387    1.0000 </r>
       <r>   -0.0232    1.0000 </r>
       <r>   -0.0125    1.0000 </r>
       <r>    0.0138    1.0000 </r>
       <r>    0.0453    1.0000 </r>
       <r>    0.0663    1.0000 </r>
       <r>    0.0692    1.0000 </r>
       <r>    0.0980    1.0000 </r>
       <r>    0.1356    1.0000 </r>
       <r>    0.2175    1.0000 </r>
       <r>    0.2348    1.0000 </r>
       <r>    0.2689    1.0000 </r>
       <r>    0.2750    1.0000 </r>
       <r>    0.2961    1.0000 </r>
       <r>    0.3389    1.0000 </r>
       <r>    0.3516    1.0000 </r>
       <r>    0.3839    1.0000 </r>
       <r>    0.3852    1.0000 </r>
       <r>    0.4148    1.0000 </r>
       <r>    0.4243    1.0000 </r>
       <r>    0.4633    1.0000 </r>
       <r>    0.4690    1.0001 </r>
       <r>    0.4855    1.0001 </r>
       <r>    0.4975    1.0002 </r>
       <r>    0.5403    1.0007 </r>
       <r>    0.5671    1.0015 </r>
       <r>    0.5711    1.0017 </r>
       <r>    0.5985    1.0035 </r>
       <r>    0.6385    1.0089 </r>
       <r>    0.6741    1.0172 </r>
       <r>    0.6963    1.0239 </r>
       <r>    0.7365    1.0344 </r>
       <r>    0.7908    1.0194 </r>
       <r>    0.7982    1.0119 </r>
       <r>    0.8205    0.9775 </r>
       <r>    0.8740    0.8088 </r>
       <r>    0.9006    0.6818 </r>
       <r>    0.9568    0.3713 </r>
       <r>    0.9705    0.2991 </r>
       <r>    0.9990    0.1673 </r>
       <r>    1.0120    0.1180 </r>
       <r>    1.0331    0.0537 </r>
       <r>    1.0787   -0.0213 </r>
       <r>    1.1249   -0.0351 </r>
       <r>    1.1289   -0.0346 </r>
       <r>    1.1424   -0.0321 </r>
       <r>    1.1706   -0.0240 </r>
       <r>    1.1815   -0.0207 </r>
       <r>    1.2233   -0.0099 </r>
       <r>    1.2276   -0.0091 </r>
       <r>    1.2588   -0.0045 </r>
       <r>    1.2761   -0.0029 </r>
       <r>    1.2917   -0.0019 </r>
       <r>    1.3416   -0.0004 </r>
       <r>    1.3546   -0.0003 </r>
       <r>    1.3768   -0.0001 </r>
       <r>    1.3923   -0.0001 </r>
       <r>    1.4224   -0.0000 </r>
       <r>    1.4389   -0.0000 </r>
       <r>    1.4706   -0.0000 </r>
       <r>    1.4786   -0.0000 </r>
       <r>    1.4828   -0.0000 </r>
       <r>    1.5000   -0.0000 </r>
       <r>    1.5198   -0.0000 </r>
       <r>    1.5298   -0.0000 </r>
       <r>    1.5663   -0.0000 </r>
       <r>    1.5728   -0.0000 </r>
       <r>    1.5819   -0.0000 </r>
       <r>    1.6091   -0.0000 </r>
       <r>    1.6201   -0.0000 </r>
       <r>    1.6312   -0.0000 </r>
       <r>    1.6511   -0.0000 </r>
       <r>    1.6593   -0.0000 </r>
       <r>    1.6739   -0.0000 </r>
       <r>    1.6964   -0.0000 </r>
       <r>    1.7161   -0.0000 </r>
       <r>    1.7351   -0.0000 </r>
       <r>    1.7407   -0.0000 </r>
       <r>    1.7578   -0.0000 </r>
       <r>    1.7814   -0.0000 </r>
       <r>    1.7892   -0.0000 </r>
       <r>    1.8075   -0.0000 </r>
       <r>    1.8209   -0.0000 </r>
       <r>    1.8376   -0.0000 </r>
       <r>    1.8608   -0.0000 </r>
       <r>    1.8851   -0.0000 </r>
       <r>    1.9002   -0.0000 </r>
       <r>    1.9047   -0.0000 </r>
       <r>    1.9112   -0.0000 </r>
       <r>    1.9327   -0.0000 </r>
       <r>    1.9542   -0.0000 </r>
       <r>    1.9580   -0.0000 </r>
       <r>    1.9646   -0.0000 </r>
       <r>    1.9765   -0.0000 </r>
       <r>    1.9889   -0.0000 </r>
       <r>    1.9972   -0.0000 </r>
       <r>    2.0042   -0.0000 </r>
       <r>    2.0224   -0.0000 </r>
       <r>    2.0328   -0.0000 </r>
       <r>    2.0431   -0.0000 </r>
       <r>    2.0456   -0.0000 </r>
       <r>    2.0593   -0.0000 </r>
       <r>    2.0695   -0.0000 </r>
       <r>    2.0850   -0.0000 </r>
       <r>    2.0918   -0.0000 </r>
       <r>    2.1079   -0.0000 </r>
       <r>    2.1263   -0.0000 </r>
       <r>    2.1304   -0.0000 </r>
       <r>    2.1416   -0.0000 </r>
       <r>    2.1438   -0.0000 </r>
       <r>    2.1575   -0.0000 </r>
       <r>    2.1680   -0.0000 </r>
       <r>    2.1720   -0.0000 </r>
       <r>    2.1914   -0.0000 </r>
       <r>    2.1991   -0.0000 </r>
       <r>    2.2065   -0.0000 </r>
       <r>    2.2154   -0.0000 </r>
       <r>    2.2296   -0.0000 </r>
       <r>    2.2364   -0.0000 </r>
       <r>    2.2438   -0.0000 </r>
       <r>    2.2609   -0.0000 </r>
       <r>    2.2679   -0.0000 </r>
       <r>    2.2813   -0.0000 </r>
       <r>    2.2913   -0.0000 </r>
       <r>    2.2972   -0.0000 </r>
       <r>    2.3035   -0.0000 </r>
       <r>    2.3177   -0.0000 </r>
       <r>    2.3453   -0.0000 </r>
       <r>    2.3595   -0.0000 </r>
       <r>    2.3658   -0.0000 </r>
       <r>    2.3772   -0.0000 </r>
       <r>    2.3839   -0.0000 </r>
       <r>    2.3902   -0.0000 </r>
       <r>    2.4078   -0.0000 </r>
       <r>    2.4105   -0.0000 </r>
       <r>    2.4189   -0.0000 </r>
       <r>    2.4317   -0.0000 </r>
       <r>    2.4449   -0.0000 </r>
       <r>    2.4495   -0.0000 </r>
       <r>    2.4538   -0.0000 </r>
       <r>    2.4603   -0.0000 </r>
       <r>    2.4694   -0.0000 </r>
       <r>    2.4757   -0.0000 </r>
       <r>    2.4825   -0.0000 </r>
       <r>    2.4873   -0.0000 </r>
       <r>    2.4985   -0.0000 </r>
       <r>    2.4996   -0.0000 </r>
       <r>    2.5045   -0.0000 </r>
       <r>    2.5127   -0.0000 </r>
       <r>    2.5253   -0.0000 </r>
       <r>    2.5308   -0.0000 </r>
       <r>    2.5372   -0.0000 </r>
       <r>    2.5513   -0.0000 </r>
       <r>    2.5625   -0.0000 </r>
       <r>    2.5670   -0.0000 </r>
       <r>    2.5681   -0.0000 </r>
       <r>    2.5803   -0.0000 </r>
       <r>    2.5861   -0.0000 </r>
       <r>    2.5911   -0.0000 </r>
       <r>    2.5948   -0.0000 </r>
       <r>    2.6027   -0.0000 </r>
       <r>    2.6120   -0.0000 </r>
       <r>    2.6234   -0.0000 </r>
       <r>    2.6350   -0.0000 </r>
       <r>    2.6452   -0.0000 </r>
       <r>    2.6571   -0.0000 </r>
       <r>    2.6899   -0.0000 </r>
       <r>    2.7063   -0.0000 </r>
       <r>    2.7188   -0.0000 </r>
       <r>    2.7780   -0.0000 </r>
       <r>    2.8059   -0.0000 </r>
       <r>    2.8226   -0.0000 </r>
       <r>    2.8595   -0.0000 </r>
       <r>    2.9025   -0.0000 </r>
      </set>
     </set>
    </set>
   </array>
  </eigenvalues>
  <separator name="orbital magnetization" >
   <v name="MAGDIPOLOUT">      0.00000000      0.00000000      0.00000000</v>
  </separator>
  <dos>
   <i name="efermi">      0.93367163 </i>
   <total>
    <array>
     <dimension dim="1">gridpoints</dimension>
     <dimension dim="2">spin</dimension>
     <field>energy</field>
     <field>total</field>
     <field>integrated</field>
     <set>
      <set comment="spin 1">
       <r>   -45.7273     0.0000     0.0000 </r>
       <r>   -45.5572     0.0000     0.0000 </r>
       <r>   -45.3872     0.0000     0.0000 </r>
       <r>   -45.2171     0.0000     0.0000 </r>
       <r>   -45.0471     0.0000     0.0000 </r>
       <r>   -44.8770     0.0000     0.0000 </r>
       <r>   -44.7069     0.0000     0.0000 </r>
       <r>   -44.5369     0.0000     0.0000 </r>
       <r>   -44.3668     0.0000     0.0000 </r>
       <r>   -44.1968    -0.0000    -0.0000 </r>
       <r>   -44.0267    -0.0000    -0.0000 </r>
       <r>   -43.8567    -0.0000    -0.0000 </r>
       <r>   -43.6866    -0.0000    -0.0000 </r>
       <r>   -43.5165    -0.0000    -0.0000 </r>
       <r>   -43.3465    -0.0026    -0.0004 </r>
       <r>   -43.1764    -0.2014    -0.0347 </r>
       <r>   -43.0064     0.8528     0.1103 </r>
       <r>   -42.8363    12.3856     2.2166 </r>
       <r>   -42.6662     5.0903     3.0823 </r>
       <r>   -42.4962    -0.6531     2.9712 </r>
       <r>   -42.3261     0.2387     3.0118 </r>
       <r>   -42.1561    13.5171     5.3105 </r>
       <r>   -41.9860    25.9625     9.7256 </r>
       <r>   -41.8159    46.9214    17.7050 </r>
       <r>   -41.6459    37.5854    24.0968 </r>
       <r>   -41.4758    -0.4674    24.0173 </r>
       <r>   -41.3058     1.8560    24.3329 </r>
       <r>   -41.1357    12.8485    26.5179 </r>
       <r>   -40.9657     3.2132    27.0643 </r>
       <r>   -40.7956    -0.3673    27.0018 </r>
       <r>   -40.6255    -0.0450    26.9942 </r>
       <r>   -40.4555    -0.8346    26.8523 </r>
       <r>   -40.2854     6.8439    28.0161 </r>
       <r>   -40.1154    40.1742    34.8481 </r>
       <r>   -39.9453    25.5662    39.1958 </r>
       <r>   -39.7752    -0.9389    39.0362 </r>
       <r>   -39.6052    -0.2116    39.0002 </r>
       <r>   -39.4351    -0.0011    39.0000 </r>
       <r>   -39.2651    -0.0000    39.0000 </r>
       <r>   -39.0950    -0.0000    39.0000 </r>
       <r>   -38.9250     0.0000    39.0000 </r>
       <r>   -38.7549     0.0000    39.0000 </r>
       <r>   -38.5848     0.0000    39.0000 </r>
       <r>   -38.4148     0.0000    39.0000 </r>
       <r>   -38.2447     0.0000    39.0000 </r>
       <r>   -38.0747     0.0000    39.0000 </r>
       <r>   -37.9046     0.0000    39.0000 </r>
       <r>   -37.7345     0.0000    39.0000 </r>
       <r>   -37.5645     0.0000    39.0000 </r>
       <r>   -37.3944     0.0000    39.0000 </r>
       <r>   -37.2244     0.0000    39.0000 </r>
       <r>   -37.0543     0.0000    39.0000 </r>
       <r>   -36.8843     0.0000    39.0000 </r>
       <r>   -36.7142     0.0000    39.0000 </r>
       <r>   -36.5441     0.0000    39.0000 </r>
       <r>   -36.3741     0.0000    39.0000 </r>
       <r>   -36.2040     0.0000    39.0000 </r>
       <r>   -36.0340     0.0000    39.0000 </r>
       <r>   -35.8639     0.0000    39.0000 </r>
       <r>   -35.6938     0.0000    39.0000 </r>
       <r>   -35.5238     0.0000    39.0000 </r>
       <r>   -35.3537     0.0000    39.0000 </r>
       <r>   -35.1837     0.0000    39.0000 </r>
       <r>   -35.0136     0.0000    39.0000 </r>
       <r>   -34.8435     0.0000    39.0000 </r>
       <r>   -34.6735     0.0000    39.0000 </r>
       <r>   -34.5034     0.0000    39.0000 </r>
       <r>   -34.3334     0.0000    39.0000 </r>
       <r>   -34.1633     0.0000    39.0000 </r>
       <r>   -33.9933     0.0000    39.0000 </r>
       <r>   -33.8232     0.0000    39.0000 </r>
       <r>   -33.6531     0.0000    39.0000 </r>
       <r>   -33.4831     0.0000    39.0000 </r>
       <r>   -33.3130     0.0000    39.0000 </r>
       <r>   -33.1430     0.0000    39.0000 </r>
       <r>   -32.9729     0.0000    39.0000 </r>
       <r>   -32.8028     0.0000    39.0000 </r>
       <r>   -32.6328     0.0000    39.0000 </r>
       <r>   -32.4627     0.0000    39.0000 </r>
       <r>   -32.2927     0.0000    39.0000 </r>
       <r>   -32.1226     0.0000    39.0000 </r>
       <r>   -31.9526     0.0000    39.0000 </r>
       <r>   -31.7825     0.0000    39.0000 </r>
       <r>   -31.6124     0.0000    39.0000 </r>
       <r>   -31.4424     0.0000    39.0000 </r>
       <r>   -31.2723     0.0000    39.0000 </r>
       <r>   -31.1023     0.0000    39.0000 </r>
       <r>   -30.9322     0.0000    39.0000 </r>
       <r>   -30.7621     0.0000    39.0000 </r>
       <r>   -30.5921     0.0000    39.0000 </r>
       <r>   -30.4220     0.0000    39.0000 </r>
       <r>   -30.2520     0.0000    39.0000 </r>
       <r>   -30.0819     0.0000    39.0000 </r>
       <r>   -29.9118     0.0000    39.0000 </r>
       <r>   -29.7418     0.0000    39.0000 </r>
       <r>   -29.5717     0.0000    39.0000 </r>
       <r>   -29.4017     0.0000    39.0000 </r>
       <r>   -29.2316     0.0000    39.0000 </r>
       <r>   -29.0616     0.0000    39.0000 </r>
       <r>   -28.8915     0.0000    39.0000 </r>
       <r>   -28.7214     0.0000    39.0000 </r>
       <r>   -28.5514     0.0000    39.0000 </r>
       <r>   -28.3813     0.0000    39.0000 </r>
       <r>   -28.2113     0.0000    39.0000 </r>
       <r>   -28.0412     0.0000    39.0000 </r>
       <r>   -27.8711     0.0000    39.0000 </r>
       <r>   -27.7011     0.0000    39.0000 </r>
       <r>   -27.5310     0.0000    39.0000 </r>
       <r>   -27.3610     0.0000    39.0000 </r>
       <r>   -27.1909     0.0000    39.0000 </r>
       <r>   -27.0209     0.0000    39.0000 </r>
       <r>   -26.8508     0.0000    39.0000 </r>
       <r>   -26.6807     0.0000    39.0000 </r>
       <r>   -26.5107     0.0000    39.0000 </r>
       <r>   -26.3406     0.0000    39.0000 </r>
       <r>   -26.1706     0.0000    39.0000 </r>
       <r>   -26.0005     0.0000    39.0000 </r>
       <r>   -25.8304     0.0000    39.0000 </r>
       <r>   -25.6604     0.0000    39.0000 </r>
       <r>   -25.4903     0.0000    39.0000 </r>
       <r>   -25.3203     0.0000    39.0000 </r>
       <r>   -25.1502     0.0000    39.0000 </r>
       <r>   -24.9801     0.0000    39.0000 </r>
       <r>   -24.8101     0.0000    39.0000 </r>
       <r>   -24.6400     0.0000    39.0000 </r>
       <r>   -24.4700     0.0000    39.0000 </r>
       <r>   -24.2999     0.0000    39.0000 </r>
       <r>   -24.1299     0.0000    39.0000 </r>
       <r>   -23.9598     0.0000    39.0000 </r>
       <r>   -23.7897     0.0000    39.0000 </r>
       <r>   -23.6197     0.0000    39.0000 </r>
       <r>   -23.4496     0.0000    39.0000 </r>
       <r>   -23.2796     0.0000    39.0000 </r>
       <r>   -23.1095     0.0000    39.0000 </r>
       <r>   -22.9394     0.0000    39.0000 </r>
       <r>   -22.7694     0.0000    39.0000 </r>
       <r>   -22.5993     0.0000    39.0000 </r>
       <r>   -22.4293     0.0000    39.0000 </r>
       <r>   -22.2592     0.0000    39.0000 </r>
       <r>   -22.0892     0.0000    39.0000 </r>
       <r>   -21.9191     0.0000    39.0000 </r>
       <r>   -21.7490     0.0000    39.0000 </r>
       <r>   -21.5790     0.0000    39.0000 </r>
       <r>   -21.4089     0.0000    39.0000 </r>
       <r>   -21.2389     0.0000    39.0000 </r>
       <r>   -21.0688     0.0000    39.0000 </r>
       <r>   -20.8987     0.0000    39.0000 </r>
       <r>   -20.7287     0.0000    39.0000 </r>
       <r>   -20.5586     0.0000    39.0000 </r>
       <r>   -20.3886     0.0000    39.0000 </r>
       <r>   -20.2185     0.0000    39.0000 </r>
       <r>   -20.0485     0.0000    39.0000 </r>
       <r>   -19.8784     0.0000    39.0000 </r>
       <r>   -19.7083     0.0000    39.0000 </r>
       <r>   -19.5383     0.0000    39.0000 </r>
       <r>   -19.3682     0.0000    39.0000 </r>
       <r>   -19.1982     0.0000    39.0000 </r>
       <r>   -19.0281     0.0000    39.0000 </r>
       <r>   -18.8580     0.0000    39.0000 </r>
       <r>   -18.6880     0.0000    39.0000 </r>
       <r>   -18.5179     0.0000    39.0000 </r>
       <r>   -18.3479     0.0000    39.0000 </r>
       <r>   -18.1778     0.0000    39.0000 </r>
       <r>   -18.0077     0.0000    39.0000 </r>
       <r>   -17.8377     0.0000    39.0000 </r>
       <r>   -17.6676     0.0000    39.0000 </r>
       <r>   -17.4976     0.0000    39.0000 </r>
       <r>   -17.3275     0.0000    39.0000 </r>
       <r>   -17.1575     0.0000    39.0000 </r>
       <r>   -16.9874     0.0000    39.0000 </r>
       <r>   -16.8173    -0.0000    39.0000 </r>
       <r>   -16.6473    -0.0000    39.0000 </r>
       <r>   -16.4772    -0.0000    39.0000 </r>
       <r>   -16.3072    -0.0000    39.0000 </r>
       <r>   -16.1371    -0.0000    39.0000 </r>
       <r>   -15.9670    -0.0035    38.9994 </r>
       <r>   -15.7970    -0.3804    38.9347 </r>
       <r>   -15.6269     1.5910    39.2053 </r>
       <r>   -15.4569    22.8495    43.0910 </r>
       <r>   -15.2868     6.0798    44.1250 </r>
       <r>   -15.1168    -0.7186    44.0027 </r>
       <r>   -14.9467    -0.0161    44.0000 </r>
       <r>   -14.7766    -0.0000    44.0000 </r>
       <r>   -14.6066    -0.0000    44.0000 </r>
       <r>   -14.4365    -0.0000    44.0000 </r>
       <r>   -14.2665     0.0000    44.0000 </r>
       <r>   -14.0964     0.0000    44.0000 </r>
       <r>   -13.9263     0.0000    44.0000 </r>
       <r>   -13.7563     0.0000    44.0000 </r>
       <r>   -13.5862     0.0000    44.0000 </r>
       <r>   -13.4162     0.0000    44.0000 </r>
       <r>   -13.2461     0.0000    44.0000 </r>
       <r>   -13.0760     0.0000    44.0000 </r>
       <r>   -12.9060     0.0000    44.0000 </r>
       <r>   -12.7359     0.0000    44.0000 </r>
       <r>   -12.5659     0.0000    44.0000 </r>
       <r>   -12.3958     0.0000    44.0000 </r>
       <r>   -12.2258     0.0000    44.0000 </r>
       <r>   -12.0557     0.0000    44.0000 </r>
       <r>   -11.8856     0.0000    44.0000 </r>
       <r>   -11.7156     0.0000    44.0000 </r>
       <r>   -11.5455     0.0000    44.0000 </r>
       <r>   -11.3755     0.0000    44.0000 </r>
       <r>   -11.2054     0.0000    44.0000 </r>
       <r>   -11.0353     0.0000    44.0000 </r>
       <r>   -10.8653     0.0000    44.0000 </r>
       <r>   -10.6952     0.0000    44.0000 </r>
       <r>   -10.5252     0.0000    44.0000 </r>
       <r>   -10.3551     0.0000    44.0000 </r>
       <r>   -10.1851     0.0000    44.0000 </r>
       <r>   -10.0150     0.0000    44.0000 </r>
       <r>    -9.8449     0.0000    44.0000 </r>
       <r>    -9.6749     0.0000    44.0000 </r>
       <r>    -9.5048     0.0000    44.0000 </r>
       <r>    -9.3348     0.0000    44.0000 </r>
       <r>    -9.1647    -0.0000    44.0000 </r>
       <r>    -8.9946    -0.0000    44.0000 </r>
       <r>    -8.8246    -0.0000    44.0000 </r>
       <r>    -8.6545    -0.0000    44.0000 </r>
       <r>    -8.4845    -0.0000    44.0000 </r>
       <r>    -8.3144    -0.0000    44.0000 </r>
       <r>    -8.1443    -0.0121    43.9979 </r>
       <r>    -7.9743    -0.1681    43.9694 </r>
       <r>    -7.8042     2.3813    44.3743 </r>
       <r>    -7.6342     3.7532    45.0126 </r>
       <r>    -7.4641    -0.0385    45.0060 </r>
       <r>    -7.2941    -0.0663    44.9948 </r>
       <r>    -7.1240     0.2572    45.0385 </r>
       <r>    -6.9539     1.6532    45.3196 </r>
       <r>    -6.7839     1.4027    45.5582 </r>
       <r>    -6.6138     1.3404    45.7861 </r>
       <r>    -6.4438     2.7109    46.2471 </r>
       <r>    -6.2737     0.4622    46.3257 </r>
       <r>    -6.1036     1.6130    46.6000 </r>
       <r>    -5.9336     4.5018    47.3656 </r>
       <r>    -5.7635     3.3218    47.9305 </r>
       <r>    -5.5935     3.1774    48.4708 </r>
       <r>    -5.4234     3.1757    49.0109 </r>
       <r>    -5.2534     2.5122    49.4381 </r>
       <r>    -5.0833     5.7854    50.4220 </r>
       <r>    -4.9132     4.3112    51.1551 </r>
       <r>    -4.7432     4.5176    51.9234 </r>
       <r>    -4.5731     6.0172    52.9467 </r>
       <r>    -4.4031     7.4992    54.2220 </r>
       <r>    -4.2330     8.8460    55.7263 </r>
       <r>    -4.0629    13.0606    57.9474 </r>
       <r>    -3.8929    17.6645    60.9514 </r>
       <r>    -3.7228    28.4334    65.7867 </r>
       <r>    -3.5528    38.2235    72.2869 </r>
       <r>    -3.3827    36.5215    78.4977 </r>
       <r>    -3.2126    48.8412    86.8036 </r>
       <r>    -3.0426    50.3661    95.3688 </r>
       <r>    -2.8725    43.5019   102.7666 </r>
       <r>    -2.7025    44.9459   110.4101 </r>
       <r>    -2.5324    65.6318   121.5713 </r>
       <r>    -2.3624    79.2696   135.0518 </r>
       <r>    -2.1923    68.7366   146.7411 </r>
       <r>    -2.0222    72.0926   159.0010 </r>
       <r>    -1.8522    71.8650   171.2223 </r>
       <r>    -1.6821    67.4120   182.6863 </r>
       <r>    -1.5121    64.7063   193.6901 </r>
       <r>    -1.3420    58.2035   203.5881 </r>
       <r>    -1.1719    51.1339   212.2839 </r>
       <r>    -1.0019    48.6949   220.5649 </r>
       <r>    -0.8318    51.7087   229.3584 </r>
       <r>    -0.6618    63.3888   240.1382 </r>
       <r>    -0.4917    83.5241   254.3422 </r>
       <r>    -0.3217    96.8304   270.8090 </r>
       <r>    -0.1516    86.9668   285.5985 </r>
       <r>     0.0185    63.9220   296.4690 </r>
       <r>     0.1885    46.5977   304.3933 </r>
       <r>     0.3586    39.6764   311.1406 </r>
       <r>     0.5286    35.4402   317.1676 </r>
       <r>     0.6987    31.8138   322.5778 </r>
       <r>     0.8688    26.8764   327.1483 </r>
       <r>     1.0388    27.8265   331.8805 </r>
       <r>     1.2089    29.3759   336.8761 </r>
       <r>     1.3789    25.6498   341.2381 </r>
       <r>     1.5490    25.5858   345.5891 </r>
       <r>     1.7190    27.1647   350.2087 </r>
       <r>     1.8891    30.8175   355.4495 </r>
       <r>     2.0592    31.8654   360.8685 </r>
       <r>     2.2292    32.8816   366.4603 </r>
       <r>     2.3993    15.4824   369.0932 </r>
       <r>     2.5693    -0.3920   369.0265 </r>
       <r>     2.7394    -0.1550   369.0002 </r>
       <r>     2.9095    -0.0011   369.0000 </r>
       <r>     3.0795    -0.0000   369.0000 </r>
       <r>     3.2496    -0.0000   369.0000 </r>
       <r>     3.4196     0.0000   369.0000 </r>
       <r>     3.5897     0.0000   369.0000 </r>
       <r>     3.7598     0.0000   369.0000 </r>
       <r>     3.9298     0.0000   369.0000 </r>
       <r>     4.0999     0.0000   369.0000 </r>
       <r>     4.2699     0.0000   369.0000 </r>
       <r>     4.4400     0.0000   369.0000 </r>
       <r>     4.6100     0.0000   369.0000 </r>
       <r>     4.7801     0.0000   369.0000 </r>
       <r>     4.9502     0.0000   369.0000 </r>
       <r>     5.1202     0.0000   369.0000 </r>
       <r>     5.2903     0.0000   369.0000 </r>
      </set>
      <set comment="spin 2">
       <r>   -45.7273     0.0000     0.0000 </r>
       <r>   -45.5572     0.0000     0.0000 </r>
       <r>   -45.3872     0.0000     0.0000 </r>
       <r>   -45.2171     0.0000     0.0000 </r>
       <r>   -45.0471     0.0000     0.0000 </r>
       <r>   -44.8770     0.0000     0.0000 </r>
       <r>   -44.7069    -0.0000    -0.0000 </r>
       <r>   -44.5369    -0.0000    -0.0000 </r>
       <r>   -44.3668    -0.0000    -0.0000 </r>
       <r>   -44.1968    -0.0000    -0.0000 </r>
       <r>   -44.0267    -0.0000    -0.0000 </r>
       <r>   -43.8567    -0.0014    -0.0002 </r>
       <r>   -43.6866    -0.2856    -0.0488 </r>
       <r>   -43.5165    -1.5326    -0.3094 </r>
       <r>   -43.3465    35.7566     5.7713 </r>
       <r>   -43.1764    63.6295    16.5920 </r>
       <r>   -43.0064    28.9618    21.5172 </r>
       <r>   -42.8363    14.0986    23.9148 </r>
       <r>   -42.6662    21.6168    27.5909 </r>
       <r>   -42.4962    16.4504    30.3885 </r>
       <r>   -42.3261     7.5918    31.6795 </r>
       <r>   -42.1561    10.3457    33.4389 </r>
       <r>   -41.9860     7.6345    34.7372 </r>
       <r>   -41.8159     5.3391    35.6452 </r>
       <r>   -41.6459     2.3001    36.0363 </r>
       <r>   -41.4758    -0.2031    36.0018 </r>
       <r>   -41.3058    -0.0105    36.0000 </r>
       <r>   -41.1357    -0.0000    36.0000 </r>
       <r>   -40.9657    -0.0000    36.0000 </r>
       <r>   -40.7956    -0.0000    36.0000 </r>
       <r>   -40.6255    -0.0000    36.0000 </r>
       <r>   -40.4555    -0.0000    36.0000 </r>
       <r>   -40.2854    -0.0009    35.9998 </r>
       <r>   -40.1154    -0.0944    35.9838 </r>
       <r>   -39.9453     0.2517    36.0266 </r>
       <r>   -39.7752     6.2566    37.0906 </r>
       <r>   -39.6052     9.2039    38.6558 </r>
       <r>   -39.4351     2.2847    39.0443 </r>
       <r>   -39.2651    -0.2513    39.0016 </r>
       <r>   -39.0950    -0.0094    39.0000 </r>
       <r>   -38.9250    -0.0000    39.0000 </r>
       <r>   -38.7549    -0.0000    39.0000 </r>
       <r>   -38.5848    -0.0000    39.0000 </r>
       <r>   -38.4148     0.0000    39.0000 </r>
       <r>   -38.2447     0.0000    39.0000 </r>
       <r>   -38.0747     0.0000    39.0000 </r>
       <r>   -37.9046     0.0000    39.0000 </r>
       <r>   -37.7345     0.0000    39.0000 </r>
       <r>   -37.5645     0.0000    39.0000 </r>
       <r>   -37.3944     0.0000    39.0000 </r>
       <r>   -37.2244     0.0000    39.0000 </r>
       <r>   -37.0543     0.0000    39.0000 </r>
       <r>   -36.8843     0.0000    39.0000 </r>
       <r>   -36.7142     0.0000    39.0000 </r>
       <r>   -36.5441     0.0000    39.0000 </r>
       <r>   -36.3741     0.0000    39.0000 </r>
       <r>   -36.2040     0.0000    39.0000 </r>
       <r>   -36.0340     0.0000    39.0000 </r>
       <r>   -35.8639     0.0000    39.0000 </r>
       <r>   -35.6938     0.0000    39.0000 </r>
       <r>   -35.5238     0.0000    39.0000 </r>
       <r>   -35.3537     0.0000    39.0000 </r>
       <r>   -35.1837     0.0000    39.0000 </r>
       <r>   -35.0136     0.0000    39.0000 </r>
       <r>   -34.8435     0.0000    39.0000 </r>
       <r>   -34.6735     0.0000    39.0000 </r>
       <r>   -34.5034     0.0000    39.0000 </r>
       <r>   -34.3334     0.0000    39.0000 </r>
       <r>   -34.1633     0.0000    39.0000 </r>
       <r>   -33.9933     0.0000    39.0000 </r>
       <r>   -33.8232     0.0000    39.0000 </r>
       <r>   -33.6531     0.0000    39.0000 </r>
       <r>   -33.4831     0.0000    39.0000 </r>
       <r>   -33.3130     0.0000    39.0000 </r>
       <r>   -33.1430     0.0000    39.0000 </r>
       <r>   -32.9729     0.0000    39.0000 </r>
       <r>   -32.8028     0.0000    39.0000 </r>
       <r>   -32.6328     0.0000    39.0000 </r>
       <r>   -32.4627     0.0000    39.0000 </r>
       <r>   -32.2927     0.0000    39.0000 </r>
       <r>   -32.1226     0.0000    39.0000 </r>
       <r>   -31.9526     0.0000    39.0000 </r>
       <r>   -31.7825     0.0000    39.0000 </r>
       <r>   -31.6124     0.0000    39.0000 </r>
       <r>   -31.4424     0.0000    39.0000 </r>
       <r>   -31.2723     0.0000    39.0000 </r>
       <r>   -31.1023     0.0000    39.0000 </r>
       <r>   -30.9322     0.0000    39.0000 </r>
       <r>   -30.7621     0.0000    39.0000 </r>
       <r>   -30.5921     0.0000    39.0000 </r>
       <r>   -30.4220     0.0000    39.0000 </r>
       <r>   -30.2520     0.0000    39.0000 </r>
       <r>   -30.0819     0.0000    39.0000 </r>
       <r>   -29.9118     0.0000    39.0000 </r>
       <r>   -29.7418     0.0000    39.0000 </r>
       <r>   -29.5717     0.0000    39.0000 </r>
       <r>   -29.4017     0.0000    39.0000 </r>
       <r>   -29.2316     0.0000    39.0000 </r>
       <r>   -29.0616     0.0000    39.0000 </r>
       <r>   -28.8915     0.0000    39.0000 </r>
       <r>   -28.7214     0.0000    39.0000 </r>
       <r>   -28.5514     0.0000    39.0000 </r>
       <r>   -28.3813     0.0000    39.0000 </r>
       <r>   -28.2113     0.0000    39.0000 </r>
       <r>   -28.0412     0.0000    39.0000 </r>
       <r>   -27.8711     0.0000    39.0000 </r>
       <r>   -27.7011     0.0000    39.0000 </r>
       <r>   -27.5310     0.0000    39.0000 </r>
       <r>   -27.3610     0.0000    39.0000 </r>
       <r>   -27.1909     0.0000    39.0000 </r>
       <r>   -27.0209     0.0000    39.0000 </r>
       <r>   -26.8508     0.0000    39.0000 </r>
       <r>   -26.6807     0.0000    39.0000 </r>
       <r>   -26.5107     0.0000    39.0000 </r>
       <r>   -26.3406     0.0000    39.0000 </r>
       <r>   -26.1706     0.0000    39.0000 </r>
       <r>   -26.0005     0.0000    39.0000 </r>
       <r>   -25.8304     0.0000    39.0000 </r>
       <r>   -25.6604     0.0000    39.0000 </r>
       <r>   -25.4903     0.0000    39.0000 </r>
       <r>   -25.3203     0.0000    39.0000 </r>
       <r>   -25.1502     0.0000    39.0000 </r>
       <r>   -24.9801     0.0000    39.0000 </r>
       <r>   -24.8101     0.0000    39.0000 </r>
       <r>   -24.6400     0.0000    39.0000 </r>
       <r>   -24.4700     0.0000    39.0000 </r>
       <r>   -24.2999     0.0000    39.0000 </r>
       <r>   -24.1299     0.0000    39.0000 </r>
       <r>   -23.9598     0.0000    39.0000 </r>
       <r>   -23.7897     0.0000    39.0000 </r>
       <r>   -23.6197     0.0000    39.0000 </r>
       <r>   -23.4496     0.0000    39.0000 </r>
       <r>   -23.2796     0.0000    39.0000 </r>
       <r>   -23.1095     0.0000    39.0000 </r>
       <r>   -22.9394     0.0000    39.0000 </r>
       <r>   -22.7694     0.0000    39.0000 </r>
       <r>   -22.5993     0.0000    39.0000 </r>
       <r>   -22.4293     0.0000    39.0000 </r>
       <r>   -22.2592     0.0000    39.0000 </r>
       <r>   -22.0892     0.0000    39.0000 </r>
       <r>   -21.9191     0.0000    39.0000 </r>
       <r>   -21.7490     0.0000    39.0000 </r>
       <r>   -21.5790     0.0000    39.0000 </r>
       <r>   -21.4089     0.0000    39.0000 </r>
       <r>   -21.2389     0.0000    39.0000 </r>
       <r>   -21.0688     0.0000    39.0000 </r>
       <r>   -20.8987     0.0000    39.0000 </r>
       <r>   -20.7287     0.0000    39.0000 </r>
       <r>   -20.5586     0.0000    39.0000 </r>
       <r>   -20.3886     0.0000    39.0000 </r>
       <r>   -20.2185     0.0000    39.0000 </r>
       <r>   -20.0485     0.0000    39.0000 </r>
       <r>   -19.8784     0.0000    39.0000 </r>
       <r>   -19.7083     0.0000    39.0000 </r>
       <r>   -19.5383     0.0000    39.0000 </r>
       <r>   -19.3682     0.0000    39.0000 </r>
       <r>   -19.1982     0.0000    39.0000 </r>
       <r>   -19.0281     0.0000    39.0000 </r>
       <r>   -18.8580     0.0000    39.0000 </r>
       <r>   -18.6880     0.0000    39.0000 </r>
       <r>   -18.5179     0.0000    39.0000 </r>
       <r>   -18.3479     0.0000    39.0000 </r>
       <r>   -18.1778     0.0000    39.0000 </r>
       <r>   -18.0077     0.0000    39.0000 </r>
       <r>   -17.8377     0.0000    39.0000 </r>
       <r>   -17.6676     0.0000    39.0000 </r>
       <r>   -17.4976     0.0000    39.0000 </r>
       <r>   -17.3275     0.0000    39.0000 </r>
       <r>   -17.1575     0.0000    39.0000 </r>
       <r>   -16.9874     0.0000    39.0000 </r>
       <r>   -16.8173    -0.0000    39.0000 </r>
       <r>   -16.6473    -0.0000    39.0000 </r>
       <r>   -16.4772    -0.0000    39.0000 </r>
       <r>   -16.3072    -0.0000    39.0000 </r>
       <r>   -16.1371    -0.0000    39.0000 </r>
       <r>   -15.9670    -0.0054    38.9991 </r>
       <r>   -15.7970    -0.4661    38.9198 </r>
       <r>   -15.6269     2.5555    39.3544 </r>
       <r>   -15.4569    23.3727    43.3291 </r>
       <r>   -15.2868     4.5778    44.1076 </r>
       <r>   -15.1168    -0.6222    44.0018 </r>
       <r>   -14.9467    -0.0107    44.0000 </r>
       <r>   -14.7766    -0.0000    44.0000 </r>
       <r>   -14.6066    -0.0000    44.0000 </r>
       <r>   -14.4365    -0.0000    44.0000 </r>
       <r>   -14.2665     0.0000    44.0000 </r>
       <r>   -14.0964     0.0000    44.0000 </r>
       <r>   -13.9263     0.0000    44.0000 </r>
       <r>   -13.7563     0.0000    44.0000 </r>
       <r>   -13.5862     0.0000    44.0000 </r>
       <r>   -13.4162     0.0000    44.0000 </r>
       <r>   -13.2461     0.0000    44.0000 </r>
       <r>   -13.0760     0.0000    44.0000 </r>
       <r>   -12.9060     0.0000    44.0000 </r>
       <r>   -12.7359     0.0000    44.0000 </r>
       <r>   -12.5659     0.0000    44.0000 </r>
       <r>   -12.3958     0.0000    44.0000 </r>
       <r>   -12.2258     0.0000    44.0000 </r>
       <r>   -12.0557     0.0000    44.0000 </r>
       <r>   -11.8856     0.0000    44.0000 </r>
       <r>   -11.7156     0.0000    44.0000 </r>
       <r>   -11.5455     0.0000    44.0000 </r>
       <r>   -11.3755     0.0000    44.0000 </r>
       <r>   -11.2054     0.0000    44.0000 </r>
       <r>   -11.0353     0.0000    44.0000 </r>
       <r>   -10.8653     0.0000    44.0000 </r>
       <r>   -10.6952     0.0000    44.0000 </r>
       <r>   -10.5252     0.0000    44.0000 </r>
       <r>   -10.3551     0.0000    44.0000 </r>
       <r>   -10.1851     0.0000    44.0000 </r>
       <r>   -10.0150     0.0000    44.0000 </r>
       <r>    -9.8449     0.0000    44.0000 </r>
       <r>    -9.6749     0.0000    44.0000 </r>
       <r>    -9.5048     0.0000    44.0000 </r>
       <r>    -9.3348     0.0000    44.0000 </r>
       <r>    -9.1647    -0.0000    44.0000 </r>
       <r>    -8.9946    -0.0000    44.0000 </r>
       <r>    -8.8246    -0.0000    44.0000 </r>
       <r>    -8.6545    -0.0000    44.0000 </r>
       <r>    -8.4845    -0.0000    44.0000 </r>
       <r>    -8.3144    -0.0001    44.0000 </r>
       <r>    -8.1443    -0.0264    43.9955 </r>
       <r>    -7.9743    -0.1193    43.9752 </r>
       <r>    -7.8042     3.4221    44.5572 </r>
       <r>    -7.6342     2.7924    45.0320 </r>
       <r>    -7.4641    -0.1729    45.0026 </r>
       <r>    -7.2941    -0.0256    44.9983 </r>
       <r>    -7.1240     0.0025    44.9987 </r>
       <r>    -6.9539     0.8185    45.1379 </r>
       <r>    -6.7839     1.8799    45.4576 </r>
       <r>    -6.6138     0.8406    45.6005 </r>
       <r>    -6.4438     2.1608    45.9680 </r>
       <r>    -6.2737     2.0159    46.3108 </r>
       <r>    -6.1036     0.2564    46.3544 </r>
       <r>    -5.9336     2.8708    46.8426 </r>
       <r>    -5.7635     4.1719    47.5521 </r>
       <r>    -5.5935     2.9782    48.0586 </r>
       <r>    -5.4234     3.5022    48.6541 </r>
       <r>    -5.2534     2.4324    49.0678 </r>
       <r>    -5.0833     2.3806    49.4726 </r>
       <r>    -4.9132     5.6653    50.4361 </r>
       <r>    -4.7432     3.9050    51.1001 </r>
       <r>    -4.5731     4.4785    51.8617 </r>
       <r>    -4.4031     4.8419    52.6852 </r>
       <r>    -4.2330     4.3803    53.4301 </r>
       <r>    -4.0629     8.0528    54.7995 </r>
       <r>    -3.8929     7.7277    56.1137 </r>
       <r>    -3.7228     6.7525    57.2620 </r>
       <r>    -3.5528     6.2170    58.3192 </r>
       <r>    -3.3827    10.7315    60.1442 </r>
       <r>    -3.2126    10.9059    61.9989 </r>
       <r>    -3.0426    17.8418    65.0330 </r>
       <r>    -2.8725    20.6242    68.5403 </r>
       <r>    -2.7025    22.5224    72.3705 </r>
       <r>    -2.5324    20.9158    75.9274 </r>
       <r>    -2.3624    29.3537    80.9192 </r>
       <r>    -2.1923    34.9459    86.8621 </r>
       <r>    -2.0222    37.4253    93.2266 </r>
       <r>    -1.8522    37.1543    99.5450 </r>
       <r>    -1.6821    34.5705   105.4240 </r>
       <r>    -1.5121    38.1720   111.9155 </r>
       <r>    -1.3420    45.5385   119.6597 </r>
       <r>    -1.1719    50.2932   128.2125 </r>
       <r>    -1.0019    57.1984   137.9396 </r>
       <r>    -0.8318    53.9493   147.1141 </r>
       <r>    -0.6618    59.0681   157.1591 </r>
       <r>    -0.4917    60.3686   167.4253 </r>
       <r>    -0.3217    61.6297   177.9060 </r>
       <r>    -0.1516    60.1767   188.1396 </r>
       <r>     0.0185    52.4337   197.0564 </r>
       <r>     0.1885    47.5905   205.1496 </r>
       <r>     0.3586    41.5452   212.2147 </r>
       <r>     0.5286    39.2812   218.8948 </r>
       <r>     0.6987    36.9830   225.1841 </r>
       <r>     0.8688    33.8788   230.9454 </r>
       <r>     1.0388    34.3881   236.7934 </r>
       <r>     1.2089    41.1796   243.7964 </r>
       <r>     1.3789    47.3892   251.8553 </r>
       <r>     1.5490    54.0613   261.0489 </r>
       <r>     1.7190    63.7651   271.8927 </r>
       <r>     1.8891    73.7798   284.4396 </r>
       <r>     2.0592    86.1600   299.0919 </r>
       <r>     2.2292    89.3506   314.2867 </r>
       <r>     2.3993    92.2949   329.9823 </r>
       <r>     2.5693   102.1800   347.3588 </r>
       <r>     2.7394    77.1700   360.4823 </r>
       <r>     2.9095    44.7704   368.0959 </r>
       <r>     3.0795     6.2287   369.1551 </r>
       <r>     3.2496    -0.8770   369.0059 </r>
       <r>     3.4196    -0.0349   369.0000 </r>
       <r>     3.5897    -0.0001   369.0000 </r>
       <r>     3.7598    -0.0000   369.0000 </r>
       <r>     3.9298    -0.0000   369.0000 </r>
       <r>     4.0999     0.0000   369.0000 </r>
       <r>     4.2699     0.0000   369.0000 </r>
       <r>     4.4400     0.0000   369.0000 </r>
       <r>     4.6100     0.0000   369.0000 </r>
       <r>     4.7801     0.0000   369.0000 </r>
       <r>     4.9502     0.0000   369.0000 </r>
       <r>     5.1202     0.0000   369.0000 </r>
       <r>     5.2903     0.0000   369.0000 </r>
      </set>
     </set>
    </array>
   </total>
  </dos>
 </calculation>
 <structure name="finalpos" >
  <crystal>
   <varray name="basis" >
    <v>       8.50460000       0.00000000       0.00000000 </v>
    <v>      -0.00109899       8.50909993       0.00000000 </v>
    <v>       0.00000000       0.00000000      23.55660000 </v>
   </varray>
   <i name="volume">   1704.70848813 </i>
   <varray name="rec_basis" >
    <v>       0.11758343       0.00001519       0.00000000 </v>
    <v>       0.00000000       0.11752124       0.00000000 </v>
    <v>       0.00000000       0.00000000       0.04245095 </v>
   </varray>
  </crystal>
  <varray name="positions" >
   <v>       0.99760000       0.00330000       0.24221000 </v>
   <v>       0.66561000       0.99834000       0.00060000 </v>
   <v>       0.65781774       0.99014148       0.36916786 </v>
   <v>       0.83467000       0.16589000       0.18209000 </v>
   <v>       0.99866000       0.33404000       0.12198000 </v>
   <v>       0.33421000       0.33147000       0.00101000 </v>
   <v>       0.33490267       0.32243770       0.36514396 </v>
   <v>       0.83220000       0.50025000       0.06275000 </v>
   <v>       0.83451591       0.49616663       0.30323969 </v>
   <v>       0.33512000       0.67037000       0.00000000 </v>
   <v>       0.33145000       0.66488000       0.12292000 </v>
   <v>       0.50353741       0.83683561       0.30434947 </v>
   <v>       0.67111000       0.66550000       0.12148000 </v>
   <v>       0.99950000       0.00032000       0.00103000 </v>
   <v>       0.00310338       0.99728512       0.36064235 </v>
   <v>       0.16670000       0.16592000       0.06160000 </v>
   <v>       0.99930000       0.00013000       0.12183000 </v>
   <v>       0.16670000       0.16692000       0.18170000 </v>
   <v>       0.16290407       0.16699163       0.30367498 </v>
   <v>       0.33368000       0.99986000       0.00108000 </v>
   <v>       0.32770401       0.01015674       0.36211124 </v>
   <v>       0.50008000       0.16606000       0.06164000 </v>
   <v>       0.33365000       0.99945000       0.12194000 </v>
   <v>       0.50013000       0.16657000       0.18176000 </v>
   <v>       0.33374000       0.99994000       0.24252000 </v>
   <v>       0.50111641       0.16901205       0.30320771 </v>
   <v>       0.83412000       0.16807000       0.06130000 </v>
   <v>       0.66767000       0.99972000       0.12168000 </v>
   <v>       0.66792000       0.00032000       0.24233000 </v>
   <v>       0.83325648       0.16722537       0.30393857 </v>
   <v>       0.00033000       0.33346000       0.00076000 </v>
   <v>       0.00437738       0.33541262       0.36244896 </v>
   <v>       0.16704000       0.50116000       0.06077000 </v>
   <v>       0.16627000       0.49940000       0.18238000 </v>
   <v>       0.00000000       0.33319000       0.24260000 </v>
   <v>       0.16731672       0.50097790       0.30366960 </v>
   <v>       0.49811000       0.50186000       0.06112000 </v>
   <v>       0.33328000       0.33434000       0.12148000 </v>
   <v>       0.50051000       0.50053000       0.18145000 </v>
   <v>       0.33392000       0.33269000       0.24229000 </v>
   <v>       0.50039527       0.50293230       0.30373698 </v>
   <v>       0.66687000       0.33418000       0.00129000 </v>
   <v>       0.66276259       0.33475247       0.36183867 </v>
   <v>       0.66670000       0.33332000       0.12177000 </v>
   <v>       0.83466000       0.49916000       0.18181000 </v>
   <v>       0.66748000       0.33291000       0.24234000 </v>
   <v>       0.99949000       0.66581000       0.00112000 </v>
   <v>       0.98953005       0.66651259       0.36168440 </v>
   <v>       0.16773000       0.83295000       0.06141000 </v>
   <v>       0.00149000       0.66672000       0.12196000 </v>
   <v>       0.16592000       0.83389000       0.18235000 </v>
   <v>       0.99950000       0.66635000       0.24245000 </v>
   <v>       0.16839385       0.83176571       0.30364534 </v>
   <v>       0.49825000       0.83185000       0.06189000 </v>
   <v>       0.50064000       0.83335000       0.18189000 </v>
   <v>       0.33424000       0.66627000       0.24239000 </v>
   <v>       0.66521000       0.66629000       0.00100000 </v>
   <v>       0.68025721       0.65466615       0.36251186 </v>
   <v>       0.83382000       0.83268000       0.06128000 </v>
   <v>       0.83390000       0.83311000       0.18191000 </v>
   <v>       0.66721000       0.66675000       0.24221000 </v>
   <v>       0.83486478       0.83158107       0.30269567 </v>
   <v>       0.33273317       0.67076990       0.39606091 </v>
  </varray>
  <varray name="selective"  type="logical" >
   <v type="logical" >  F  F  F </v>
   <v type="logical" >  F  F  F </v>
   <v type="logical" >  T  T  T </v>
   <v type="logical" >  F  F  F </v>
   <v type="logical" >  F  F  F </v>
   <v type="logical" >  F  F  F </v>
   <v type="logical" >  T  T  T </v>
   <v type="logical" >  F  F  F </v>
   <v type="logical" >  T  T  T </v>
   <v type="logical" >  F  F  F </v>
   <v type="logical" >  F  F  F </v>
   <v type="logical" >  T  T  T </v>
   <v type="logical" >  F  F  F </v>
   <v type="logical" >  F  F  F </v>
   <v type="logical" >  T  T  T </v>
   <v type="logical" >  F  F  F </v>
   <v type="logical" >  F  F  F </v>
   <v type="logical" >  F  F  F </v>
   <v type="logical" >  T  T  T </v>
   <v type="logical" >  F  F  F </v>
   <v type="logical" >  T  T  T </v>
   <v type="logical" >  F  F  F </v>
   <v type="logical" >  F  F  F </v>
   <v type="logical" >  F  F  F </v>
   <v type="logical" >  F  F  F </v>
   <v type="logical" >  T  T  T </v>
   <v type="logical" >  F  F  F </v>
   <v type="logical" >  F  F  F </v>
   <v type="logical" >  F  F  F </v>
   <v type="logical" >  T  T  T </v>
   <v type="logical" >  F  F  F </v>
   <v type="logical" >  T  T  T </v>
   <v type="logical" >  F  F  F </v>
   <v type="logical" >  F  F  F </v>
   <v type="logical" >  F  F  F </v>
   <v type="logical" >  T  T  T </v>
   <v type="logical" >  F  F  F </v>
   <v type="logical" >  F  F  F </v>
   <v type="logical" >  F  F  F </v>
   <v type="logical" >  F  F  F </v>
   <v type="logical" >  T  T  T </v>
   <v type="logical" >  F  F  F </v>
   <v type="logical" >  T  T  T </v>
   <v type="logical" >  F  F  F </v>
   <v type="logical" >  F  F  F </v>
   <v type="logical" >  F  F  F </v>
   <v type="logical" >  F  F  F </v>
   <v type="logical" >  T  T  T </v>
   <v type="logical" >  F  F  F </v>
   <v type="logical" >  F  F  F </v>
   <v type="logical" >  F  F  F </v>
   <v type="logical" >  F  F  F </v>
   <v type="logical" >  T  T  T </v>
   <v type="logical" >  F  F  F </v>
   <v type="logical" >  F  F  F </v>
   <v type="logical" >  F  F  F </v>
   <v type="logical" >  F  F  F </v>
   <v type="logical" >  T  T  T </v>
   <v type="logical" >  F  F  F </v>
   <v type="logical" >  F  F  F </v>
   <v type="logical" >  F  F  F </v>
   <v type="logical" >  T  T  T </v>
   <v type="logical" >  T  T  T </v>
  </varray>
  <nose>
   <v>      -3.00000000       0.00000000       0.00010000       0.00010000 </v>
  </nose>
 </structure>
</modeling>
