INCAR-For-OPT                           
           1
     8.504600    0.000000    0.000000
    -0.001099    8.509100    0.000000
     0.000000    0.000000   23.556600
   Cr   Fe   Pb
    13    49     1
Direct configuration=     1
   0.99760000  0.00330000  0.24221000
   0.66561000  0.99834000  0.00060000
   0.65780000  0.99175000  0.36915000
   0.83467000  0.16589000  0.18209000
   0.99866000  0.33404000  0.12198000
   0.33421000  0.33147000  0.00101000
   0.33550000  0.32849000  0.36462000
   0.83220000  0.50025000  0.06275000
   0.83521000  0.49603000  0.30307000
   0.33512000  0.67037000  0.00000000
   0.33145000  0.66488000  0.12292000
   0.49962000  0.83335000  0.30679000
   0.67111000  0.66550000  0.12148000
   0.99950000  0.00032000  0.00103000
   0.00316000  0.99914000  0.36086000
   0.16670000  0.16592000  0.06160000
   0.99930000  0.00013000  0.12183000
   0.16670000  0.16692000  0.18170000
   0.16360000  0.16604000  0.30346000
   0.33368000  0.99986000  0.00108000
   0.32756000  0.01025000  0.36209000
   0.50008000  0.16606000  0.06164000
   0.33365000  0.99945000  0.12194000
   0.50013000  0.16657000  0.18176000
   0.33374000  0.99994000  0.24252000
   0.50066000  0.16830000  0.30318000
   0.83412000  0.16807000  0.06130000
   0.66767000  0.99972000  0.12168000
   0.66792000  0.00032000  0.24233000
   0.83272000  0.16753000  0.30371000
   0.00033000  0.33346000  0.00076000
   0.00522000  0.33193000  0.36210000
   0.16704000  0.50116000  0.06077000
   0.16627000  0.49940000  0.18238000
   0.00000000  0.33319000  0.24260000
   0.16947000  0.50324000  0.30406000
   0.49811000  0.50186000  0.06112000
   0.33328000  0.33434000  0.12148000
   0.50051000  0.50053000  0.18145000
   0.33392000  0.33269000  0.24229000
   0.49943000  0.50325000  0.30315000
   0.66687000  0.33418000  0.00129000
   0.66046000  0.33421000  0.36172000
   0.66670000  0.33332000  0.12177000
   0.83466000  0.49916000  0.18181000
   0.66748000  0.33291000  0.24234000
   0.99949000  0.66581000  0.00112000
   0.99206000  0.66651000  0.36146000
   0.16773000  0.83295000  0.06141000
   0.00149000  0.66672000  0.12196000
   0.16592000  0.83389000  0.18235000
   0.99950000  0.66635000  0.24245000
   0.16845000  0.83046000  0.30381000
   0.49825000  0.83185000  0.06189000
   0.50064000  0.83335000  0.18189000
   0.33424000  0.66627000  0.24239000
   0.66521000  0.66629000  0.00100000
   0.67829000  0.65494000  0.36178000
   0.83382000  0.83268000  0.06128000
   0.83390000  0.83311000  0.18191000
   0.66721000  0.66675000  0.24221000
   0.83457000  0.83216000  0.30292000
   0.33574000  0.66271000  0.40844000
Direct configuration=     2
   0.99760000  0.00330000  0.24221000
   0.66561000  0.99834000  0.00060000
   0.65777930  0.99138828  0.36920017
   0.83467000  0.16589000  0.18209000
   0.99866000  0.33404000  0.12198000
   0.33421000  0.33147000  0.00101000
   0.33522278  0.32712301  0.36453166
   0.83220000  0.50025000  0.06275000
   0.83512835  0.49608028  0.30317323
   0.33512000  0.67037000  0.00000000
   0.33145000  0.66488000  0.12292000
   0.49991077  0.83355797  0.30665272
   0.67111000  0.66550000  0.12148000
   0.99950000  0.00032000  0.00103000
   0.00317084  0.99887090  0.36076355
   0.16670000  0.16592000  0.06160000
   0.99930000  0.00013000  0.12183000
   0.16670000  0.16692000  0.18170000
   0.16375291  0.16635063  0.30347411
   0.33368000  0.99986000  0.00108000
   0.32753633  0.00962237  0.36232830
   0.50008000  0.16606000  0.06164000
   0.33365000  0.99945000  0.12194000
   0.50013000  0.16657000  0.18176000
   0.33374000  0.99994000  0.24252000
   0.50041069  0.16836025  0.30318574
   0.83412000  0.16807000  0.06130000
   0.66767000  0.99972000  0.12168000
   0.66792000  0.00032000  0.24233000
   0.83275975  0.16735674  0.30378252
   0.00033000  0.33346000  0.00076000
   0.00522180  0.33238826  0.36216260
   0.16704000  0.50116000  0.06077000
   0.16627000  0.49940000  0.18238000
   0.00000000  0.33319000  0.24260000
   0.16913389  0.50313058  0.30425271
   0.49811000  0.50186000  0.06112000
   0.33328000  0.33434000  0.12148000
   0.50051000  0.50053000  0.18145000
   0.33392000  0.33269000  0.24229000
   0.49949486  0.50377871  0.30354867
   0.66687000  0.33418000  0.00129000
   0.66065524  0.33445461  0.36172313
   0.66670000  0.33332000  0.12177000
   0.83466000  0.49916000  0.18181000
   0.66748000  0.33291000  0.24234000
   0.99949000  0.66581000  0.00112000
   0.99220556  0.66657862  0.36150392
   0.16773000  0.83295000  0.06141000
   0.00149000  0.66672000  0.12196000
   0.16592000  0.83389000  0.18235000
   0.99950000  0.66635000  0.24245000
   0.16890064  0.83034072  0.30423907
   0.49825000  0.83185000  0.06189000
   0.50064000  0.83335000  0.18189000
   0.33424000  0.66627000  0.24239000
   0.66521000  0.66629000  0.00100000
   0.67825330  0.65507470  0.36188057
   0.83382000  0.83268000  0.06128000
   0.83390000  0.83311000  0.18191000
   0.66721000  0.66675000  0.24221000
   0.83449666  0.83184490  0.30293455
   0.33562222  0.66418542  0.40687588
Direct configuration=     3
   0.99760000  0.00330000  0.24221000
   0.66561000  0.99834000  0.00060000
   0.65771722  0.99030310  0.36935068
   0.83467000  0.16589000  0.18209000
   0.99866000  0.33404000  0.12198000
   0.33421000  0.33147000  0.00101000
   0.33439111  0.32302206  0.36426664
   0.83220000  0.50025000  0.06275000
   0.83488342  0.49623112  0.30348290
   0.33512000  0.67037000  0.00000000
   0.33145000  0.66488000  0.12292000
   0.50078308  0.83418187  0.30624088
   0.67111000  0.66550000  0.12148000
   0.99950000  0.00032000  0.00103000
   0.00320337  0.99806360  0.36047421
   0.16670000  0.16592000  0.06160000
   0.99930000  0.00013000  0.12183000
   0.16670000  0.16692000  0.18170000
   0.16421166  0.16728253  0.30351643
   0.33368000  0.99986000  0.00108000
   0.32746534  0.00773948  0.36304318
   0.50008000  0.16606000  0.06164000
   0.33365000  0.99945000  0.12194000
   0.50013000  0.16657000  0.18176000
   0.33374000  0.99994000  0.24252000
   0.49966278  0.16854100  0.30320297
   0.83412000  0.16807000  0.06130000
   0.66767000  0.99972000  0.12168000
   0.66792000  0.00032000  0.24233000
   0.83287901  0.16683694  0.30400007
   0.00033000  0.33346000  0.00076000
   0.00522722  0.33376303  0.36235041
   0.16704000  0.50116000  0.06077000
   0.16627000  0.49940000  0.18238000
   0.00000000  0.33319000  0.24260000
   0.16812556  0.50280232  0.30483085
   0.49811000  0.50186000  0.06112000
   0.33328000  0.33434000  0.12148000
   0.50051000  0.50053000  0.18145000
   0.33392000  0.33269000  0.24229000
   0.49968943  0.50536485  0.30474467
   0.66687000  0.33418000  0.00129000
   0.66124097  0.33518845  0.36173252
   0.66670000  0.33332000  0.12177000
   0.83466000  0.49916000  0.18181000
   0.66748000  0.33291000  0.24234000
   0.99949000  0.66581000  0.00112000
   0.99264225  0.66678447  0.36163568
   0.16773000  0.83295000  0.06141000
   0.00149000  0.66672000  0.12196000
   0.16592000  0.83389000  0.18235000
   0.99950000  0.66635000  0.24245000
   0.17025256  0.82998288  0.30552627
   0.49825000  0.83185000  0.06189000
   0.50064000  0.83335000  0.18189000
   0.33424000  0.66627000  0.24239000
   0.66521000  0.66629000  0.00100000
   0.67814320  0.65547879  0.36218226
   0.83382000  0.83268000  0.06128000
   0.83390000  0.83311000  0.18191000
   0.66721000  0.66675000  0.24221000
   0.83427662  0.83089959  0.30297820
   0.33526887  0.66861169  0.40218352
Direct configuration=     4
   0.99760000  0.00330000  0.24221000
   0.66561000  0.99834000  0.00060000
   0.65770380  0.99006853  0.36938321
   0.83467000  0.16589000  0.18209000
   0.99866000  0.33404000  0.12198000
   0.33421000  0.33147000  0.00101000
   0.33421133  0.32213558  0.36420935
   0.83220000  0.50025000  0.06275000
   0.83483047  0.49626373  0.30354985
   0.33512000  0.67037000  0.00000000
   0.33145000  0.66488000  0.12292000
   0.50097164  0.83431673  0.30615186
   0.67111000  0.66550000  0.12148000
   0.99950000  0.00032000  0.00103000
   0.00321040  0.99788909  0.36041167
   0.16670000  0.16592000  0.06160000
   0.99930000  0.00013000  0.12183000
   0.16670000  0.16692000  0.18170000
   0.16431082  0.16748397  0.30352557
   0.33368000  0.99986000  0.00108000
   0.32744999  0.00733246  0.36319771
   0.50008000  0.16606000  0.06164000
   0.33365000  0.99945000  0.12194000
   0.50013000  0.16657000  0.18176000
   0.33374000  0.99994000  0.24252000
   0.49950110  0.16858007  0.30320670
   0.83412000  0.16807000  0.06130000
   0.66767000  0.99972000  0.12168000
   0.66792000  0.00032000  0.24233000
   0.83290479  0.16672458  0.30404710
   0.00033000  0.33346000  0.00076000
   0.00522839  0.33406021  0.36239101
   0.16704000  0.50116000  0.06077000
   0.16627000  0.49940000  0.18238000
   0.00000000  0.33319000  0.24260000
   0.16790759  0.50273136  0.30495582
   0.49811000  0.50186000  0.06112000
   0.33328000  0.33434000  0.12148000
   0.50051000  0.50053000  0.18145000
   0.33392000  0.33269000  0.24229000
   0.49973148  0.50570771  0.30500320
   0.66687000  0.33418000  0.00129000
   0.66136758  0.33534708  0.36173455
   0.66670000  0.33332000  0.12177000
   0.83466000  0.49916000  0.18181000
   0.66748000  0.33291000  0.24234000
   0.99949000  0.66581000  0.00112000
   0.99273665  0.66682897  0.36166416
   0.16773000  0.83295000  0.06141000
   0.00149000  0.66672000  0.12196000
   0.16592000  0.83389000  0.18235000
   0.99950000  0.66635000  0.24245000
   0.17054480  0.82990553  0.30580452
   0.49825000  0.83185000  0.06189000
   0.50064000  0.83335000  0.18189000
   0.33424000  0.66627000  0.24239000
   0.66521000  0.66629000  0.00100000
   0.67811940  0.65556614  0.36224748
   0.83382000  0.83268000  0.06128000
   0.83390000  0.83311000  0.18191000
   0.66721000  0.66675000  0.24221000
   0.83422906  0.83069525  0.30298763
   0.33519248  0.66956849  0.40116920
Direct configuration=     5
   0.99760000  0.00330000  0.24221000
   0.66561000  0.99834000  0.00060000
   0.65763299  0.99006824  0.36937172
   0.83467000  0.16589000  0.18209000
   0.99866000  0.33404000  0.12198000
   0.33421000  0.33147000  0.00101000
   0.33428050  0.32178735  0.36453107
   0.83220000  0.50025000  0.06275000
   0.83457498  0.49616423  0.30359857
   0.33512000  0.67037000  0.00000000
   0.33145000  0.66488000  0.12292000
   0.50202532  0.83565925  0.30560208
   0.67111000  0.66550000  0.12148000
   0.99950000  0.00032000  0.00103000
   0.00304568  0.99803521  0.36033884
   0.16670000  0.16592000  0.06160000
   0.99930000  0.00013000  0.12183000
   0.16670000  0.16692000  0.18170000
   0.16367210  0.16644737  0.30366299
   0.33368000  0.99986000  0.00108000
   0.32761958  0.00774458  0.36314603
   0.50008000  0.16606000  0.06164000
   0.33365000  0.99945000  0.12194000
   0.50013000  0.16657000  0.18176000
   0.33374000  0.99994000  0.24252000
   0.50048852  0.16825593  0.30322569
   0.83412000  0.16807000  0.06130000
   0.66767000  0.99972000  0.12168000
   0.66792000  0.00032000  0.24233000
   0.83294641  0.16693190  0.30403279
   0.00033000  0.33346000  0.00076000
   0.00487317  0.33427346  0.36250273
   0.16704000  0.50116000  0.06077000
   0.16627000  0.49940000  0.18238000
   0.00000000  0.33319000  0.24260000
   0.16780642  0.50227216  0.30457430
   0.49811000  0.50186000  0.06112000
   0.33328000  0.33434000  0.12148000
   0.50051000  0.50053000  0.18145000
   0.33392000  0.33269000  0.24229000
   0.49941192  0.50480469  0.30469465
   0.66687000  0.33418000  0.00129000
   0.66175903  0.33508894  0.36173008
   0.66670000  0.33332000  0.12177000
   0.83466000  0.49916000  0.18181000
   0.66748000  0.33291000  0.24234000
   0.99949000  0.66581000  0.00112000
   0.99234317  0.66665790  0.36193608
   0.16773000  0.83295000  0.06141000
   0.00149000  0.66672000  0.12196000
   0.16592000  0.83389000  0.18235000
   0.99950000  0.66635000  0.24245000
   0.17016670  0.83010454  0.30513096
   0.49825000  0.83185000  0.06189000
   0.50064000  0.83335000  0.18189000
   0.33424000  0.66627000  0.24239000
   0.66521000  0.66629000  0.00100000
   0.67856516  0.65588967  0.36260082
   0.83382000  0.83268000  0.06128000
   0.83390000  0.83311000  0.18191000
   0.66721000  0.66675000  0.24221000
   0.83475927  0.83093980  0.30287964
   0.33473560  0.67043498  0.39954946
Direct configuration=     6
   0.99760000  0.00330000  0.24221000
   0.66561000  0.99834000  0.00060000
   0.65757116  0.99006799  0.36936169
   0.83467000  0.16589000  0.18209000
   0.99866000  0.33404000  0.12198000
   0.33421000  0.33147000  0.00101000
   0.33434091  0.32148324  0.36481202
   0.83220000  0.50025000  0.06275000
   0.83435185  0.49607733  0.30364112
   0.33512000  0.67037000  0.00000000
   0.33145000  0.66488000  0.12292000
   0.50294550  0.83683167  0.30512196
   0.67111000  0.66550000  0.12148000
   0.99950000  0.00032000  0.00103000
   0.00290183  0.99816282  0.36027525
   0.16670000  0.16592000  0.06160000
   0.99930000  0.00013000  0.12183000
   0.16670000  0.16692000  0.18170000
   0.16311430  0.16554211  0.30378300
   0.33368000  0.99986000  0.00108000
   0.32776769  0.00810449  0.36310089
   0.50008000  0.16606000  0.06164000
   0.33365000  0.99945000  0.12194000
   0.50013000  0.16657000  0.18176000
   0.33374000  0.99994000  0.24252000
   0.50135083  0.16797286  0.30324228
   0.83412000  0.16807000  0.06130000
   0.66767000  0.99972000  0.12168000
   0.66792000  0.00032000  0.24233000
   0.83298275  0.16711295  0.30402029
   0.00033000  0.33346000  0.00076000
   0.00456296  0.33445970  0.36260029
   0.16704000  0.50116000  0.06077000
   0.16627000  0.49940000  0.18238000
   0.00000000  0.33319000  0.24260000
   0.16771806  0.50187115  0.30424111
   0.49811000  0.50186000  0.06112000
   0.33328000  0.33434000  0.12148000
   0.50051000  0.50053000  0.18145000
   0.33392000  0.33269000  0.24229000
   0.49913284  0.50401608  0.30442519
   0.66687000  0.33418000  0.00129000
   0.66210088  0.33486351  0.36172617
   0.66670000  0.33332000  0.12177000
   0.83466000  0.49916000  0.18181000
   0.66748000  0.33291000  0.24234000
   0.99949000  0.66581000  0.00112000
   0.99199955  0.66650851  0.36217354
   0.16773000  0.83295000  0.06141000
   0.00149000  0.66672000  0.12196000
   0.16592000  0.83389000  0.18235000
   0.99950000  0.66635000  0.24245000
   0.16983651  0.83027834  0.30454274
   0.49825000  0.83185000  0.06189000
   0.50064000  0.83335000  0.18189000
   0.33424000  0.66627000  0.24239000
   0.66521000  0.66629000  0.00100000
   0.67895443  0.65617222  0.36290939
   0.83382000  0.83268000  0.06128000
   0.83390000  0.83311000  0.18191000
   0.66721000  0.66675000  0.24221000
   0.83522230  0.83115337  0.30278533
   0.33433660  0.67119168  0.39813493
Direct configuration=     7
   0.99760000  0.00330000  0.24221000
   0.66561000  0.99834000  0.00060000
   0.65754847  0.99006790  0.36935800
   0.83467000  0.16589000  0.18209000
   0.99866000  0.33404000  0.12198000
   0.33421000  0.33147000  0.00101000
   0.33436308  0.32137164  0.36491513
   0.83220000  0.50025000  0.06275000
   0.83426997  0.49604544  0.30365674
   0.33512000  0.67037000  0.00000000
   0.33145000  0.66488000  0.12292000
   0.50328320  0.83726195  0.30494576
   0.67111000  0.66550000  0.12148000
   0.99950000  0.00032000  0.00103000
   0.00284903  0.99820965  0.36025191
   0.16670000  0.16592000  0.06160000
   0.99930000  0.00013000  0.12183000
   0.16670000  0.16692000  0.18170000
   0.16290959  0.16520989  0.30382704
   0.33368000  0.99986000  0.00108000
   0.32782204  0.00823657  0.36308432
   0.50008000  0.16606000  0.06164000
   0.33365000  0.99945000  0.12194000
   0.50013000  0.16657000  0.18176000
   0.33374000  0.99994000  0.24252000
   0.50166730  0.16786897  0.30324837
   0.83412000  0.16807000  0.06130000
   0.66767000  0.99972000  0.12168000
   0.66792000  0.00032000  0.24233000
   0.83299609  0.16717939  0.30401570
   0.00033000  0.33346000  0.00076000
   0.00444912  0.33452805  0.36263610
   0.16704000  0.50116000  0.06077000
   0.16627000  0.49940000  0.18238000
   0.00000000  0.33319000  0.24260000
   0.16768563  0.50172398  0.30411883
   0.49811000  0.50186000  0.06112000
   0.33328000  0.33434000  0.12148000
   0.50051000  0.50053000  0.18145000
   0.33392000  0.33269000  0.24229000
   0.49903042  0.50372667  0.30432630
   0.66687000  0.33418000  0.00129000
   0.66222634  0.33478078  0.36172474
   0.66670000  0.33332000  0.12177000
   0.83466000  0.49916000  0.18181000
   0.66748000  0.33291000  0.24234000
   0.99949000  0.66581000  0.00112000
   0.99187344  0.66645368  0.36226069
   0.16773000  0.83295000  0.06141000
   0.00149000  0.66672000  0.12196000
   0.16592000  0.83389000  0.18235000
   0.99950000  0.66635000  0.24245000
   0.16971533  0.83034212  0.30432686
   0.49825000  0.83185000  0.06189000
   0.50064000  0.83335000  0.18189000
   0.33424000  0.66627000  0.24239000
   0.66521000  0.66629000  0.00100000
   0.67909729  0.65627591  0.36302264
   0.83382000  0.83268000  0.06128000
   0.83390000  0.83311000  0.18191000
   0.66721000  0.66675000  0.24221000
   0.83539223  0.83123174  0.30275072
   0.33419017  0.67146939  0.39761581
Direct configuration=     8
   0.99760000  0.00330000  0.24221000
   0.66561000  0.99834000  0.00060000
   0.65800608  0.99000868  0.36933160
   0.83467000  0.16589000  0.18209000
   0.99866000  0.33404000  0.12198000
   0.33421000  0.33147000  0.00101000
   0.33447145  0.32159468  0.36506145
   0.83220000  0.50025000  0.06275000
   0.83409713  0.49655921  0.30365724
   0.33512000  0.67037000  0.00000000
   0.33145000  0.66488000  0.12292000
   0.50385509  0.83715148  0.30456836
   0.67111000  0.66550000  0.12148000
   0.99950000  0.00032000  0.00103000
   0.00261789  0.99778267  0.36049179
   0.16670000  0.16592000  0.06160000
   0.99930000  0.00013000  0.12183000
   0.16670000  0.16692000  0.18170000
   0.16327097  0.16601307  0.30380239
   0.33368000  0.99986000  0.00108000
   0.32785005  0.00916316  0.36266501
   0.50008000  0.16606000  0.06164000
   0.33365000  0.99945000  0.12194000
   0.50013000  0.16657000  0.18176000
   0.33374000  0.99994000  0.24252000
   0.50111446  0.16867921  0.30327970
   0.83412000  0.16807000  0.06130000
   0.66767000  0.99972000  0.12168000
   0.66792000  0.00032000  0.24233000
   0.83300499  0.16733842  0.30395185
   0.00033000  0.33346000  0.00076000
   0.00439457  0.33468273  0.36254827
   0.16704000  0.50116000  0.06077000
   0.16627000  0.49940000  0.18238000
   0.00000000  0.33319000  0.24260000
   0.16726802  0.50090306  0.30385272
   0.49811000  0.50186000  0.06112000
   0.33328000  0.33434000  0.12148000
   0.50051000  0.50053000  0.18145000
   0.33392000  0.33269000  0.24229000
   0.49994970  0.50326317  0.30398184
   0.66687000  0.33418000  0.00129000
   0.66246653  0.33468256  0.36175676
   0.66670000  0.33332000  0.12177000
   0.83466000  0.49916000  0.18181000
   0.66748000  0.33291000  0.24234000
   0.99949000  0.66581000  0.00112000
   0.99102612  0.66638436  0.36209656
   0.16773000  0.83295000  0.06141000
   0.00149000  0.66672000  0.12196000
   0.16592000  0.83389000  0.18235000
   0.99950000  0.66635000  0.24245000
   0.16900717  0.83106623  0.30382299
   0.49825000  0.83185000  0.06189000
   0.50064000  0.83335000  0.18189000
   0.33424000  0.66627000  0.24239000
   0.66521000  0.66629000  0.00100000
   0.67967038  0.65588423  0.36280351
   0.83382000  0.83268000  0.06128000
   0.83390000  0.83311000  0.18191000
   0.66721000  0.66675000  0.24221000
   0.83524679  0.83106994  0.30290134
   0.33380042  0.67120745  0.39700423
Direct configuration=     9
   0.99760000  0.00330000  0.24221000
   0.66561000  0.99834000  0.00060000
   0.65816344  0.98998832  0.36932252
   0.83467000  0.16589000  0.18209000
   0.99866000  0.33404000  0.12198000
   0.33421000  0.33147000  0.00101000
   0.33450872  0.32167138  0.36511176
   0.83220000  0.50025000  0.06275000
   0.83403769  0.49673587  0.30365741
   0.33512000  0.67037000  0.00000000
   0.33145000  0.66488000  0.12292000
   0.50405175  0.83711349  0.30443858
   0.67111000  0.66550000  0.12148000
   0.99950000  0.00032000  0.00103000
   0.00253840  0.99763584  0.36057428
   0.16670000  0.16592000  0.06160000
   0.99930000  0.00013000  0.12183000
   0.16670000  0.16692000  0.18170000
   0.16339524  0.16628926  0.30379391
   0.33368000  0.99986000  0.00108000
   0.32785968  0.00948178  0.36252083
   0.50008000  0.16606000  0.06164000
   0.33365000  0.99945000  0.12194000
   0.50013000  0.16657000  0.18176000
   0.33374000  0.99994000  0.24252000
   0.50092435  0.16895783  0.30329048
   0.83412000  0.16807000  0.06130000
   0.66767000  0.99972000  0.12168000
   0.66792000  0.00032000  0.24233000
   0.83300805  0.16739310  0.30392990
   0.00033000  0.33346000  0.00076000
   0.00437581  0.33473592  0.36251807
   0.16704000  0.50116000  0.06077000
   0.16627000  0.49940000  0.18238000
   0.00000000  0.33319000  0.24260000
   0.16712442  0.50062077  0.30376122
   0.49811000  0.50186000  0.06112000
   0.33328000  0.33434000  0.12148000
   0.50051000  0.50053000  0.18145000
   0.33392000  0.33269000  0.24229000
   0.50026582  0.50310378  0.30386339
   0.66687000  0.33418000  0.00129000
   0.66254912  0.33464878  0.36176776
   0.66670000  0.33332000  0.12177000
   0.83466000  0.49916000  0.18181000
   0.66748000  0.33291000  0.24234000
   0.99949000  0.66581000  0.00112000
   0.99073475  0.66636052  0.36204012
   0.16773000  0.83295000  0.06141000
   0.00149000  0.66672000  0.12196000
   0.16592000  0.83389000  0.18235000
   0.99950000  0.66635000  0.24245000
   0.16876365  0.83131523  0.30364973
   0.49825000  0.83185000  0.06189000
   0.50064000  0.83335000  0.18189000
   0.33424000  0.66627000  0.24239000
   0.66521000  0.66629000  0.00100000
   0.67986745  0.65574955  0.36272816
   0.83382000  0.83268000  0.06128000
   0.83390000  0.83311000  0.18191000
   0.66721000  0.66675000  0.24221000
   0.83519678  0.83101429  0.30295314
   0.33366639  0.67111738  0.39679392
Direct configuration=    10
   0.99760000  0.00330000  0.24221000
   0.66561000  0.99834000  0.00060000
   0.65823072  0.98997961  0.36931864
   0.83467000  0.16589000  0.18209000
   0.99866000  0.33404000  0.12198000
   0.33421000  0.33147000  0.00101000
   0.33452465  0.32170418  0.36513327
   0.83220000  0.50025000  0.06275000
   0.83401228  0.49681141  0.30365749
   0.33512000  0.67037000  0.00000000
   0.33145000  0.66488000  0.12292000
   0.50413583  0.83709725  0.30438310
   0.67111000  0.66550000  0.12148000
   0.99950000  0.00032000  0.00103000
   0.00250442  0.99757307  0.36060955
   0.16670000  0.16592000  0.06160000
   0.99930000  0.00013000  0.12183000
   0.16670000  0.16692000  0.18170000
   0.16344837  0.16640735  0.30379029
   0.33368000  0.99986000  0.00108000
   0.32786379  0.00961802  0.36245918
   0.50008000  0.16606000  0.06164000
   0.33365000  0.99945000  0.12194000
   0.50013000  0.16657000  0.18176000
   0.33374000  0.99994000  0.24252000
   0.50084307  0.16907695  0.30329508
   0.83412000  0.16807000  0.06130000
   0.66767000  0.99972000  0.12168000
   0.66792000  0.00032000  0.24233000
   0.83300936  0.16741648  0.30392051
   0.00033000  0.33346000  0.00076000
   0.00436779  0.33475866  0.36250516
   0.16704000  0.50116000  0.06077000
   0.16627000  0.49940000  0.18238000
   0.00000000  0.33319000  0.24260000
   0.16706302  0.50050008  0.30372209
   0.49811000  0.50186000  0.06112000
   0.33328000  0.33434000  0.12148000
   0.50051000  0.50053000  0.18145000
   0.33392000  0.33269000  0.24229000
   0.50040098  0.50303564  0.30381274
   0.66687000  0.33418000  0.00129000
   0.66258444  0.33463434  0.36177247
   0.66670000  0.33332000  0.12177000
   0.83466000  0.49916000  0.18181000
   0.66748000  0.33291000  0.24234000
   0.99949000  0.66581000  0.00112000
   0.99061017  0.66635033  0.36201599
   0.16773000  0.83295000  0.06141000
   0.00149000  0.66672000  0.12196000
   0.16592000  0.83389000  0.18235000
   0.99950000  0.66635000  0.24245000
   0.16865954  0.83142170  0.30357564
   0.49825000  0.83185000  0.06189000
   0.50064000  0.83335000  0.18189000
   0.33424000  0.66627000  0.24239000
   0.66521000  0.66629000  0.00100000
   0.67995171  0.65569196  0.36269594
   0.83382000  0.83268000  0.06128000
   0.83390000  0.83311000  0.18191000
   0.66721000  0.66675000  0.24221000
   0.83517540  0.83099050  0.30297528
   0.33360909  0.67107887  0.39670400
Direct configuration=    11
   0.99760000  0.00330000  0.24221000
   0.66561000  0.99834000  0.00060000
   0.65808000  0.99011945  0.36924746
   0.83467000  0.16589000  0.18209000
   0.99866000  0.33404000  0.12198000
   0.33421000  0.33147000  0.00101000
   0.33466961  0.32227157  0.36520853
   0.83220000  0.50025000  0.06275000
   0.83432545  0.49656378  0.30344992
   0.33512000  0.67037000  0.00000000
   0.33145000  0.66488000  0.12292000
   0.50382224  0.83684302  0.30432178
   0.67111000  0.66550000  0.12148000
   0.99950000  0.00032000  0.00103000
   0.00281555  0.99733446  0.36064249
   0.16670000  0.16592000  0.06160000
   0.99930000  0.00013000  0.12183000
   0.16670000  0.16692000  0.18170000
   0.16304524  0.16686636  0.30371625
   0.33368000  0.99986000  0.00108000
   0.32777080  0.00994691  0.36217865
   0.50008000  0.16606000  0.06164000
   0.33365000  0.99945000  0.12194000
   0.50013000  0.16657000  0.18176000
   0.33374000  0.99994000  0.24252000
   0.50096515  0.16899278  0.30325123
   0.83412000  0.16807000  0.06130000
   0.66767000  0.99972000  0.12168000
   0.66792000  0.00032000  0.24233000
   0.83324017  0.16726151  0.30391439
   0.00033000  0.33346000  0.00076000
   0.00442006  0.33499901  0.36244020
   0.16704000  0.50116000  0.06077000
   0.16627000  0.49940000  0.18238000
   0.00000000  0.33319000  0.24260000
   0.16713061  0.50058750  0.30370303
   0.49811000  0.50186000  0.06112000
   0.33328000  0.33434000  0.12148000
   0.50051000  0.50053000  0.18145000
   0.33392000  0.33269000  0.24229000
   0.50053372  0.50299668  0.30373695
   0.66687000  0.33418000  0.00129000
   0.66266907  0.33469067  0.36185328
   0.66670000  0.33332000  0.12177000
   0.83466000  0.49916000  0.18181000
   0.66748000  0.33291000  0.24234000
   0.99949000  0.66581000  0.00112000
   0.99008490  0.66636779  0.36182979
   0.16773000  0.83295000  0.06141000
   0.00149000  0.66672000  0.12196000
   0.16592000  0.83389000  0.18235000
   0.99950000  0.66635000  0.24245000
   0.16840666  0.83186660  0.30361650
   0.49825000  0.83185000  0.06189000
   0.50064000  0.83335000  0.18189000
   0.33424000  0.66627000  0.24239000
   0.66521000  0.66629000  0.00100000
   0.68011475  0.65518620  0.36259876
   0.83382000  0.83268000  0.06128000
   0.83390000  0.83311000  0.18191000
   0.66721000  0.66675000  0.24221000
   0.83499618  0.83137510  0.30286198
   0.33321859  0.67081466  0.39630297
Direct configuration=    12
   0.99760000  0.00330000  0.24221000
   0.66561000  0.99834000  0.00060000
   0.65801560  0.99017919  0.36921705
   0.83467000  0.16589000  0.18209000
   0.99866000  0.33404000  0.12198000
   0.33421000  0.33147000  0.00101000
   0.33473154  0.32251398  0.36524069
   0.83220000  0.50025000  0.06275000
   0.83445925  0.49645799  0.30336124
   0.33512000  0.67037000  0.00000000
   0.33145000  0.66488000  0.12292000
   0.50368827  0.83673440  0.30429558
   0.67111000  0.66550000  0.12148000
   0.99950000  0.00032000  0.00103000
   0.00294848  0.99723252  0.36065656
   0.16670000  0.16592000  0.06160000
   0.99930000  0.00013000  0.12183000
   0.16670000  0.16692000  0.18170000
   0.16287301  0.16706247  0.30368462
   0.33368000  0.99986000  0.00108000
   0.32773107  0.01008742  0.36205880
   0.50008000  0.16606000  0.06164000
   0.33365000  0.99945000  0.12194000
   0.50013000  0.16657000  0.18176000
   0.33374000  0.99994000  0.24252000
   0.50101731  0.16895682  0.30323249
   0.83412000  0.16807000  0.06130000
   0.66767000  0.99972000  0.12168000
   0.66792000  0.00032000  0.24233000
   0.83333878  0.16719530  0.30391177
   0.00033000  0.33346000  0.00076000
   0.00444240  0.33510169  0.36241245
   0.16704000  0.50116000  0.06077000
   0.16627000  0.49940000  0.18238000
   0.00000000  0.33319000  0.24260000
   0.16715948  0.50062485  0.30369489
   0.49811000  0.50186000  0.06112000
   0.33328000  0.33434000  0.12148000
   0.50051000  0.50053000  0.18145000
   0.33392000  0.33269000  0.24229000
   0.50059043  0.50298004  0.30370456
   0.66687000  0.33418000  0.00129000
   0.66270523  0.33471473  0.36188780
   0.66670000  0.33332000  0.12177000
   0.83466000  0.49916000  0.18181000
   0.66748000  0.33291000  0.24234000
   0.99949000  0.66581000  0.00112000
   0.98986048  0.66637526  0.36175025
   0.16773000  0.83295000  0.06141000
   0.00149000  0.66672000  0.12196000
   0.16592000  0.83389000  0.18235000
   0.99950000  0.66635000  0.24245000
   0.16829863  0.83205668  0.30363395
   0.49825000  0.83185000  0.06189000
   0.50064000  0.83335000  0.18189000
   0.33424000  0.66627000  0.24239000
   0.66521000  0.66629000  0.00100000
   0.68018441  0.65497012  0.36255724
   0.83382000  0.83268000  0.06128000
   0.83390000  0.83311000  0.18191000
   0.66721000  0.66675000  0.24221000
   0.83491961  0.83153940  0.30281358
   0.33305176  0.67070179  0.39613163
Direct configuration=    13
   0.99760000  0.00330000  0.24221000
   0.66561000  0.99834000  0.00060000
   0.65781774  0.99014148  0.36916786
   0.83467000  0.16589000  0.18209000
   0.99866000  0.33404000  0.12198000
   0.33421000  0.33147000  0.00101000
   0.33490267  0.32243770  0.36514396
   0.83220000  0.50025000  0.06275000
   0.83451591  0.49616663  0.30323969
   0.33512000  0.67037000  0.00000000
   0.33145000  0.66488000  0.12292000
   0.50353741  0.83683561  0.30434947
   0.67111000  0.66550000  0.12148000
   0.99950000  0.00032000  0.00103000
   0.00310338  0.99728512  0.36064235
   0.16670000  0.16592000  0.06160000
   0.99930000  0.00013000  0.12183000
   0.16670000  0.16692000  0.18170000
   0.16290407  0.16699163  0.30367498
   0.33368000  0.99986000  0.00108000
   0.32770401  0.01015674  0.36211124
   0.50008000  0.16606000  0.06164000
   0.33365000  0.99945000  0.12194000
   0.50013000  0.16657000  0.18176000
   0.33374000  0.99994000  0.24252000
   0.50111641  0.16901205  0.30320771
   0.83412000  0.16807000  0.06130000
   0.66767000  0.99972000  0.12168000
   0.66792000  0.00032000  0.24233000
   0.83325648  0.16722537  0.30393857
   0.00033000  0.33346000  0.00076000
   0.00437738  0.33541262  0.36244896
   0.16704000  0.50116000  0.06077000
   0.16627000  0.49940000  0.18238000
   0.00000000  0.33319000  0.24260000
   0.16731672  0.50097790  0.30366960
   0.49811000  0.50186000  0.06112000
   0.33328000  0.33434000  0.12148000
   0.50051000  0.50053000  0.18145000
   0.33392000  0.33269000  0.24229000
   0.50039527  0.50293230  0.30373698
   0.66687000  0.33418000  0.00129000
   0.66276259  0.33475247  0.36183867
   0.66670000  0.33332000  0.12177000
   0.83466000  0.49916000  0.18181000
   0.66748000  0.33291000  0.24234000
   0.99949000  0.66581000  0.00112000
   0.98953005  0.66651259  0.36168440
   0.16773000  0.83295000  0.06141000
   0.00149000  0.66672000  0.12196000
   0.16592000  0.83389000  0.18235000
   0.99950000  0.66635000  0.24245000
   0.16839385  0.83176571  0.30364534
   0.49825000  0.83185000  0.06189000
   0.50064000  0.83335000  0.18189000
   0.33424000  0.66627000  0.24239000
   0.66521000  0.66629000  0.00100000
   0.68025721  0.65466615  0.36251186
   0.83382000  0.83268000  0.06128000
   0.83390000  0.83311000  0.18191000
   0.66721000  0.66675000  0.24221000
   0.83486478  0.83158107  0.30269567
   0.33273317  0.67076990  0.39606091
