 
:: initializing oneAPI environment ...
   slurm_script: BASH_VERSION = 4.4.20(1)-release
   args: Using "$@" for setvars.sh arguments: --force
:: advisor -- latest
:: ccl -- latest
:: compiler -- latest
:: dal -- latest
:: debugger -- latest
:: dev-utilities -- latest
:: dnnl -- latest
:: dpcpp-ct -- latest
:: dpl -- latest
:: ipp -- latest
:: ippcp -- latest
:: mkl -- latest
:: mpi -- latest
:: pti -- latest
:: tbb -- latest
:: umf -- latest
:: vtune -- latest
:: oneAPI environment initialized ::
 
 running   96 mpi-ranks, on    1 nodes
 distrk:  each k-point on   12 cores,    8 groups
 distr:  one band on    4 cores,    3 groups
 vasp.6.5.1 10Mar25 (build Oct 09 2025 23:55:08) complex                        
  
 POSCAR found type information on POSCAR CrFe
 POSCAR found :  2 types and      62 ions
 -----------------------------------------------------------------------------
|                                                                             |
|           W    W    AA    RRRRR   N    N  II  N    N   GGGG   !!!           |
|           W    W   A  A   R    R  NN   N  II  NN   N  G    G  !!!           |
|           W    W  A    A  R    R  N N  N  II  N N  N  G       !!!           |
|           W WW W  AAAAAA  RRRRR   N  N N  II  N  N N  G  GGG   !            |
|           WW  WW  A    A  R   R   N   NN  II  N   NN  G    G                |
|           W    W  A    A  R    R  N    N  II  N    N   GGGG   !!!           |
|                                                                             |
|     You requested a magnetic or noncollinear calculation, but did not       |
|     specify the initial magnetic moment with the MAGMOM tag. Note that      |
|     a default of 1 will be used for all atoms. This ferromagnetic setup     |
|     may break the symmetry of the crystal, in particular it may rule        |
|     out finding an antiferromagnetic solution. Thence, we recommend         |
|     setting the initial magnetic moment manually or verifying carefully     |
|     that this magnetic setup is desired.                                    |
|                                                                             |
 -----------------------------------------------------------------------------

 scaLAPACK will be used
 -----------------------------------------------------------------------------
|                                                                             |
|           W    W    AA    RRRRR   N    N  II  N    N   GGGG   !!!           |
|           W    W   A  A   R    R  NN   N  II  NN   N  G    G  !!!           |
|           W    W  A    A  R    R  N N  N  II  N N  N  G       !!!           |
|           W WW W  AAAAAA  RRRRR   N  N N  II  N  N N  G  GGG   !            |
|           WW  WW  A    A  R   R   N   NN  II  N   NN  G    G                |
|           W    W  A    A  R    R  N    N  II  N    N   GGGG   !!!           |
|                                                                             |
|     For optimal performance we recommend to set                             |
|       NCORE = 2 up to number-of-cores-per-socket                            |
|     NCORE specifies how many cores store one orbital (NPAR=cpu/NCORE).      |
|     This setting can greatly improve the performance of VASP for DFT.       |
|     The default, NCORE=1 might be grossly inefficient on modern             |
|     multi-core architectures or massively parallel machines. Do your        |
|     own testing! More info at https://www.vasp.at/wiki/index.php/NCORE      |
|     Unfortunately you need to use the default for GW and RPA                |
|     calculations (for HF NCORE is supported but not extensively tested      |
|     yet).                                                                   |
|                                                                             |
 -----------------------------------------------------------------------------

 LDA part: xc-table for (Slater+PW92), standard interpolation
 POSCAR, INCAR and KPOINTS ok, starting setup
 FFT: planning ... GRIDC
 FFT: planning ... GRID_SOFT
 FFT: planning ... GRID
 WAVECAR not read
 WARNING: chargedensity file is incomplete
 WARNING: random wavefunctions but no delay for mixing, default for NELMDL
 entering main loop
       N       E                     dE             d eps       ncg     rms          rms(c)
DAV:   1     0.527978988780E+04    0.52798E+04   -0.23260E+05 15228   0.143E+03
DAV:   2    -0.100857192195E+03   -0.53806E+04   -0.51897E+04 14400   0.418E+02
DAV:   3    -0.518011933546E+03   -0.41715E+03   -0.36861E+03 14832   0.157E+02
DAV:   4    -0.574516571198E+03   -0.56505E+02   -0.52851E+02 25614   0.440E+01
DAV:   5    -0.577491369125E+03   -0.29748E+01   -0.28258E+01 23310   0.976E+00    0.925E+01
RMM:   6    -0.649236184417E+03   -0.71745E+02   -0.22960E+02 18451   0.279E+01    0.131E+02
RMM:   7    -0.540319525905E+03    0.10892E+03   -0.30260E+01 14443   0.164E+01    0.793E+01
RMM:   8    -0.620358307636E+03   -0.80039E+02   -0.62687E+01 18691   0.116E+01    0.126E+02
RMM:   9    -0.551279100682E+03    0.69079E+02   -0.31119E+01 16596   0.121E+01    0.959E+01
RMM:  10    -0.501296557171E+03    0.49983E+02   -0.47187E+01 17269   0.184E+01    0.552E+01
RMM:  11    -0.485814125135E+03    0.15482E+02   -0.56699E+01 19156   0.184E+01    0.384E+01
RMM:  12    -0.484244707384E+03    0.15694E+01   -0.15884E+01 16790   0.849E+00    0.350E+01
RMM:  13    -0.485050950360E+03   -0.80624E+00   -0.78643E+00 19645   0.352E+00    0.343E+01
RMM:  14    -0.485520119546E+03   -0.46917E+00   -0.19793E+00 21574   0.194E+00    0.334E+01
RMM:  15    -0.487005901263E+03   -0.14858E+01   -0.17079E+00 18209   0.243E+00    0.307E+01
RMM:  16    -0.489891836318E+03   -0.28859E+01   -0.45780E+00 21523   0.327E+00    0.272E+01
RMM:  17    -0.491852898126E+03   -0.19611E+01   -0.32924E+00 20694   0.252E+00    0.244E+01
RMM:  18    -0.492897286987E+03   -0.10444E+01   -0.16902E+00 20673   0.173E+00    0.233E+01
RMM:  19    -0.493888366686E+03   -0.99108E+00   -0.14665E+00 20418   0.170E+00    0.214E+01
RMM:  20    -0.494841715586E+03   -0.95335E+00   -0.17350E+00 20950   0.178E+00    0.195E+01
RMM:  21    -0.495666380399E+03   -0.82466E+00   -0.15429E+00 21058   0.144E+00    0.184E+01
RMM:  22    -0.495996634341E+03   -0.33025E+00   -0.70531E-01 22757   0.755E-01    0.183E+01
RMM:  23    -0.495800320074E+03    0.19631E+00   -0.17825E-01 20221   0.457E-01    0.188E+01
RMM:  24    -0.497903533327E+03   -0.21032E+01   -0.29720E+00 24825   0.230E+00    0.168E+01
RMM:  25    -0.499931863298E+03   -0.20283E+01   -0.66240E+00 25116   0.298E+00    0.118E+01
RMM:  26    -0.500806627478E+03   -0.87476E+00   -0.47037E+00 24838   0.229E+00    0.960E+00
RMM:  27    -0.500850455094E+03   -0.43828E-01   -0.74665E-01 23483   0.980E-01    0.884E+00
RMM:  28    -0.500873598686E+03   -0.23144E-01   -0.44418E-01 22422   0.506E-01    0.880E+00
RMM:  29    -0.500893703800E+03   -0.20105E-01   -0.13469E-01 23514   0.293E-01    0.895E+00
RMM:  30    -0.500784069885E+03    0.10963E+00   -0.92134E-02 19158   0.413E-01    0.937E+00
RMM:  31    -0.500872535995E+03   -0.88466E-01   -0.58866E-02 17374   0.369E-01    0.920E+00
RMM:  32    -0.500872770921E+03   -0.23493E-03   -0.35227E-02 20329   0.148E-01    0.913E+00
RMM:  33    -0.500825312220E+03    0.47459E-01   -0.36870E-01 25052   0.980E-01    0.786E+00
RMM:  34    -0.500555120836E+03    0.27019E+00   -0.56227E-01 25168   0.991E-01    0.761E+00
RMM:  35    -0.500458996428E+03    0.96124E-01   -0.73588E-01 24794   0.698E-01    0.780E+00
RMM:  36    -0.500552176141E+03   -0.93180E-01   -0.13612E-01 23727   0.453E-01    0.693E+00
RMM:  37    -0.500818183948E+03   -0.26601E+00   -0.90135E-01 25426   0.146E+00    0.632E+00
RMM:  38    -0.500756502914E+03    0.61681E-01   -0.26888E-01 25320   0.818E-01    0.465E+00
RMM:  39    -0.500674980361E+03    0.81523E-01   -0.39297E-01 25330   0.819E-01    0.327E+00
RMM:  40    -0.500704709937E+03   -0.29730E-01   -0.29691E-01 24398   0.396E-01    0.308E+00
RMM:  41    -0.500686712925E+03    0.17997E-01   -0.45004E-02 22503   0.310E-01    0.240E+00
RMM:  42    -0.500701240330E+03   -0.14527E-01   -0.47944E-02 23317   0.326E-01    0.191E+00
RMM:  43    -0.500714227730E+03   -0.12987E-01   -0.98171E-02 23970   0.445E-01    0.188E+00
RMM:  44    -0.500711273034E+03    0.29547E-02   -0.31825E-02 22041   0.238E-01    0.162E+00
RMM:  45    -0.500714020300E+03   -0.27473E-02   -0.17812E-02 20107   0.215E-01    0.114E+00
RMM:  46    -0.500722346272E+03   -0.83260E-02   -0.17334E-02 20070   0.201E-01    0.734E-01
RMM:  47    -0.500723403099E+03   -0.10568E-02   -0.76065E-03 20059   0.116E-01    0.592E-01
RMM:  48    -0.500723308717E+03    0.94382E-04   -0.42776E-03 19989   0.830E-02    0.540E-01
RMM:  49    -0.500723598061E+03   -0.28934E-03   -0.51825E-03 19534   0.898E-02    0.556E-01
RMM:  50    -0.500724171400E+03   -0.57334E-03   -0.33524E-03 18477   0.918E-02    0.332E-01
RMM:  51    -0.500724216934E+03   -0.45534E-04   -0.20353E-03 19462   0.635E-02    0.266E-01
RMM:  52    -0.500724454340E+03   -0.23741E-03   -0.83669E-04 20111   0.334E-02    0.253E-01
RMM:  53    -0.500724846863E+03   -0.39252E-03   -0.10361E-03 19786   0.491E-02    0.183E-01
RMM:  54    -0.500724980562E+03   -0.13370E-03   -0.13421E-03 20333   0.461E-02    0.188E-01
RMM:  55    -0.500725167173E+03   -0.18661E-03   -0.72217E-04 19489   0.358E-02    0.111E-01
RMM:  56    -0.500725298468E+03   -0.13130E-03   -0.56481E-04 18920   0.283E-02    0.879E-02
RMM:  57    -0.500725339713E+03   -0.41244E-04   -0.20197E-04 16377   0.156E-02    0.835E-02
RMM:  58    -0.500725386606E+03   -0.46893E-04   -0.17628E-04 16677   0.176E-02    0.761E-02
RMM:  59    -0.500725447614E+03   -0.61008E-04   -0.34119E-04 19911   0.240E-02    0.553E-02
RMM:  60    -0.500725497516E+03   -0.49901E-04   -0.23969E-04 16989   0.165E-02    0.682E-02
RMM:  61    -0.500725511719E+03   -0.14203E-04   -0.11564E-04 15608   0.150E-02    0.541E-02
RMM:  62    -0.500725528576E+03   -0.16857E-04   -0.89385E-05 13544   0.129E-02    0.490E-02
RMM:  63    -0.500725530660E+03   -0.20835E-05   -0.76970E-05 13443   0.136E-02
   1 F= -.50072553E+03 E0= -.50072728E+03  d E =-.500726E+03  mag=    93.0748
 curvature:   0.00 expect dE= 0.000E+00 dE for cont linesearch  0.000E+00
 trial: gam= 0.00000 g(F)=  0.223E+00 g(S)=  0.000E+00 ort = 0.000E+00 (trialstep = 0.100E+01)
 search vector abs. value=  0.223E+00
 bond charge predicted
       N       E                     dE             d eps       ncg     rms          rms(c)
DAV:   1    -0.499728355369E+03    0.99717E+00   -0.62923E+01 19224   0.249E+01    0.544E+00
RMM:   2    -0.500684897650E+03   -0.95654E+00   -0.93149E+00 16482   0.543E+00    0.357E+00
RMM:   3    -0.501587027779E+03   -0.90213E+00   -0.18248E+00 21662   0.200E+00    0.101E+01
RMM:   4    -0.500886823255E+03    0.70020E+00   -0.26037E-01 17130   0.978E-01    0.302E+00
RMM:   5    -0.500879871646E+03    0.69516E-02   -0.10162E-01 20660   0.458E-01    0.176E+00
RMM:   6    -0.500891989468E+03   -0.12118E-01   -0.46770E-02 21734   0.253E-01    0.157E+00
RMM:   7    -0.500901402821E+03   -0.94134E-02   -0.22137E-02 20977   0.189E-01    0.112E+00
RMM:   8    -0.500907334659E+03   -0.59318E-02   -0.13771E-02 20501   0.148E-01    0.808E-01
RMM:   9    -0.500907831104E+03   -0.49645E-03   -0.73522E-03 21419   0.929E-02    0.698E-01
RMM:  10    -0.500908638125E+03   -0.80702E-03   -0.28216E-03 22715   0.555E-02    0.681E-01
RMM:  11    -0.500909057222E+03   -0.41910E-03   -0.15450E-03 22998   0.338E-02    0.690E-01
RMM:  12    -0.500908361181E+03    0.69604E-03   -0.54834E-04 20225   0.266E-02    0.689E-01
RMM:  13    -0.500907096587E+03    0.12646E-02   -0.70701E-04 19707   0.329E-02    0.658E-01
RMM:  14    -0.500905870247E+03    0.12263E-02   -0.12339E-03 20940   0.406E-02    0.596E-01
RMM:  15    -0.500905504477E+03    0.36577E-03   -0.23623E-03 23326   0.714E-02    0.486E-01
RMM:  16    -0.500905295361E+03    0.20912E-03   -0.17810E-03 22118   0.536E-02    0.366E-01
RMM:  17    -0.500905889099E+03   -0.59374E-03   -0.10151E-03 21750   0.472E-02    0.268E-01
RMM:  18    -0.500906081548E+03   -0.19245E-03   -0.39527E-04 18654   0.274E-02    0.206E-01
RMM:  19    -0.500906186613E+03   -0.10507E-03   -0.17137E-04 15492   0.158E-02    0.179E-01
RMM:  20    -0.500906377952E+03   -0.19134E-03   -0.15435E-04 15989   0.251E-02    0.862E-02
RMM:  21    -0.500906428442E+03   -0.50490E-04   -0.79011E-05 13743   0.145E-02    0.563E-02
RMM:  22    -0.500906433294E+03   -0.48513E-05   -0.25447E-05 10307   0.919E-03
   2 F= -.50090643E+03 E0= -.50090818E+03  d E =-.180903E+00  mag=    93.1969
 trial-energy change:   -0.180903  1 .order   -0.179582   -0.223329   -0.135835
 step:   2.2862(harm=  2.5525)  dis= 0.10136  next Energy=  -500.996598 (dE=-0.271E+00)
 bond charge predicted
       N       E                     dE             d eps       ncg     rms          rms(c)
DAV:   1    -0.499132690333E+03    0.17737E+01   -0.10328E+02 19080   0.320E+01    0.749E+00
RMM:   2    -0.500675748500E+03   -0.15431E+01   -0.15041E+01 16529   0.698E+00    0.505E+00
RMM:   3    -0.502216176972E+03   -0.15404E+01   -0.26577E+00 21718   0.252E+00    0.134E+01
RMM:   4    -0.501000529746E+03    0.12156E+01   -0.49760E-01 17301   0.130E+00    0.433E+00
RMM:   5    -0.500967521089E+03    0.33009E-01   -0.19994E-01 20558   0.624E-01    0.226E+00
RMM:   6    -0.500980389315E+03   -0.12868E-01   -0.89219E-02 21780   0.344E-01    0.196E+00
RMM:   7    -0.500992627942E+03   -0.12239E-01   -0.40280E-02 21824   0.234E-01    0.150E+00
RMM:   8    -0.501003540670E+03   -0.10913E-01   -0.24220E-02 21235   0.180E-01    0.118E+00
RMM:   9    -0.501005995184E+03   -0.24545E-02   -0.13937E-02 21205   0.140E-01    0.987E-01
RMM:  10    -0.501007542186E+03   -0.15470E-02   -0.64166E-03 22339   0.824E-02    0.938E-01
RMM:  11    -0.501009139591E+03   -0.15974E-02   -0.32919E-03 22618   0.566E-02    0.939E-01
RMM:  12    -0.501009052909E+03    0.86683E-04   -0.14458E-03 22859   0.325E-02    0.951E-01
RMM:  13    -0.501012191798E+03   -0.31389E-02   -0.19012E-03 19630   0.594E-02    0.955E-01
RMM:  14    -0.501013354376E+03   -0.11626E-02   -0.14163E-03 19957   0.293E-02    0.988E-01
RMM:  15    -0.501010355377E+03    0.29990E-02   -0.10180E-03 20276   0.517E-02    0.945E-01
RMM:  16    -0.501010724755E+03   -0.36938E-03   -0.17491E-04 17711   0.158E-02    0.945E-01
RMM:  17    -0.501026129233E+03   -0.15404E-01   -0.15127E-02 24470   0.175E-01    0.109E+00
RMM:  18    -0.501017182354E+03    0.89469E-02   -0.25729E-03 23960   0.941E-02    0.100E+00
RMM:  19    -0.500995570725E+03    0.21612E-01   -0.59014E-02 24927   0.331E-01    0.594E-01
RMM:  20    -0.500997301194E+03   -0.17305E-02   -0.19024E-02 24267   0.134E-01    0.478E-01
RMM:  21    -0.500997856809E+03   -0.55561E-03   -0.40612E-03 23875   0.691E-02    0.421E-01
RMM:  22    -0.500998728686E+03   -0.87188E-03   -0.57044E-03 23900   0.825E-02    0.387E-01
RMM:  23    -0.500998808270E+03   -0.79583E-04   -0.15495E-03 24091   0.652E-02    0.252E-01
RMM:  24    -0.500998916895E+03   -0.10863E-03   -0.75241E-04 20974   0.313E-02    0.218E-01
RMM:  25    -0.500999005012E+03   -0.88117E-04   -0.23273E-04 17684   0.248E-02    0.164E-01
RMM:  26    -0.500999138014E+03   -0.13300E-03   -0.35249E-04 19106   0.325E-02    0.137E-01
RMM:  27    -0.500999150969E+03   -0.12955E-04   -0.14357E-04 13782   0.133E-02    0.120E-01
RMM:  28    -0.500999172729E+03   -0.21760E-04   -0.55278E-05 11490   0.109E-02    0.115E-01
RMM:  29    -0.500999148222E+03    0.24507E-04   -0.93538E-05 14153   0.171E-02    0.756E-02
RMM:  30    -0.500999163756E+03   -0.15534E-04   -0.27304E-05 10155   0.103E-02    0.652E-02
RMM:  31    -0.500999165648E+03   -0.18914E-05   -0.94047E-06  9102   0.719E-03
   3 F= -.50099917E+03 E0= -.50100082E+03  d E =-.273635E+00  mag=    93.4500
 curvature:  -1.24 expect dE=-0.595E-01 dE for cont linesearch -0.309E-04
 trial: gam= 0.20467 g(F)=  0.481E-01 g(S)=  0.000E+00 ort = 0.236E-02 (trialstep = 0.126E+01)
 search vector abs. value=  0.584E-01
 bond charge predicted
       N       E                     dE             d eps       ncg     rms          rms(c)
DAV:   1    -0.500626161728E+03    0.37300E+00   -0.23864E+01 18324   0.154E+01    0.324E+00
RMM:   2    -0.500995393572E+03   -0.36923E+00   -0.33623E+00 16057   0.339E+00    0.301E+00
RMM:   3    -0.501278403945E+03   -0.28301E+00   -0.67388E-01 20821   0.126E+00    0.597E+00
RMM:   4    -0.501043439886E+03    0.23496E+00   -0.74989E-02 16236   0.617E-01    0.202E+00
RMM:   5    -0.501040033326E+03    0.34066E-02   -0.25421E-02 20225   0.287E-01    0.123E+00
RMM:   6    -0.501047103321E+03   -0.70700E-02   -0.12768E-02 20612   0.155E-01    0.105E+00
RMM:   7    -0.501052330454E+03   -0.52271E-02   -0.78674E-03 18583   0.140E-01    0.551E-01
RMM:   8    -0.501052986697E+03   -0.65624E-03   -0.43583E-03 20228   0.902E-02    0.397E-01
RMM:   9    -0.501052896751E+03    0.89946E-04   -0.17282E-03 21966   0.472E-02    0.351E-01
RMM:  10    -0.501052840078E+03    0.56673E-04   -0.10400E-03 19553   0.476E-02    0.279E-01
RMM:  11    -0.501052911242E+03   -0.71165E-04   -0.10447E-03 18508   0.480E-02    0.227E-01
RMM:  12    -0.501053054688E+03   -0.14345E-03   -0.43831E-04 19573   0.243E-02    0.223E-01
RMM:  13    -0.501053182469E+03   -0.12778E-03   -0.13491E-04 15890   0.139E-02    0.229E-01
RMM:  14    -0.501053193054E+03   -0.10585E-04   -0.52970E-05 11680   0.945E-03    0.231E-01
RMM:  15    -0.501053194611E+03   -0.15567E-05   -0.29399E-05 10400   0.996E-03
   4 F= -.50105319E+03 E0= -.50105470E+03  d E =-.540290E-01  mag=    93.6627
 ZBRENT: can't locate minimum, use default step
 trial-energy change:   -0.054029  1 .order   -0.054197   -0.061042   -0.047352
 step:   5.0290(harm=  5.6059)  dis= 0.09566  next Energy=  -501.135257 (dE=-0.136E+00)
 bond charge predicted
       N       E                     dE             d eps       ncg     rms          rms(c)
DAV:   1    -0.497482104364E+03    0.35711E+01   -0.22133E+02 18369   0.456E+01    0.135E+01
RMM:   2    -0.501279725398E+03   -0.37976E+01   -0.30730E+01 17299   0.114E+01    0.155E+01
RMM:   3    -0.503376726651E+03   -0.20970E+01   -0.54489E+00 20598   0.429E+00    0.190E+01
RMM:   4    -0.501293281538E+03    0.20834E+01   -0.12987E+00 17766   0.216E+00    0.899E+00
RMM:   5    -0.501044003473E+03    0.24928E+00   -0.55843E-01 19763   0.114E+00    0.417E+00
RMM:   6    -0.501055928820E+03   -0.11925E-01   -0.25427E-01 20979   0.649E-01    0.307E+00
RMM:   7    -0.501098739616E+03   -0.42811E-01   -0.12472E-01 21939   0.420E-01    0.240E+00
RMM:   8    -0.501117398240E+03   -0.18659E-01   -0.59448E-02 22646   0.271E-01    0.190E+00
RMM:   9    -0.501127656734E+03   -0.10258E-01   -0.33758E-02 20920   0.256E-01    0.131E+00
RMM:  10    -0.501127562280E+03    0.94454E-04   -0.19811E-02 21251   0.175E-01    0.112E+00
RMM:  11    -0.501126850437E+03    0.71184E-03   -0.81398E-03 22332   0.115E-01    0.931E-01
RMM:  12    -0.501126878589E+03   -0.28151E-04   -0.68828E-03 19268   0.125E-01    0.724E-01
RMM:  13    -0.501128692556E+03   -0.18140E-02   -0.51052E-03 19083   0.987E-02    0.698E-01
RMM:  14    -0.501130547137E+03   -0.18546E-02   -0.29469E-03 20019   0.718E-02    0.571E-01
RMM:  15    -0.501132032746E+03   -0.14856E-02   -0.17760E-03 19825   0.486E-02    0.580E-01
RMM:  16    -0.501131819562E+03    0.21318E-03   -0.43073E-04 20386   0.227E-02    0.590E-01
RMM:  17    -0.501133255131E+03   -0.14356E-02   -0.82389E-04 19791   0.383E-02    0.606E-01
RMM:  18    -0.501131092562E+03    0.21626E-02   -0.72389E-04 18995   0.484E-02    0.591E-01
RMM:  19    -0.501128415370E+03    0.26772E-02   -0.31568E-03 23217   0.699E-02    0.550E-01
RMM:  20    -0.501126772100E+03    0.16433E-02   -0.41125E-03 23323   0.707E-02    0.442E-01
RMM:  21    -0.501125548874E+03    0.12232E-02   -0.52800E-03 23869   0.904E-02    0.327E-01
RMM:  22    -0.501124832654E+03    0.71622E-03   -0.10863E-02 24030   0.120E-01    0.270E-01
RMM:  23    -0.501125600400E+03   -0.76775E-03   -0.19777E-03 22460   0.455E-02    0.254E-01
RMM:  24    -0.501125723899E+03   -0.12350E-03   -0.37299E-04 17864   0.334E-02    0.202E-01
RMM:  25    -0.501125837641E+03   -0.11374E-03   -0.36411E-04 19638   0.332E-02    0.131E-01
RMM:  26    -0.501125843465E+03   -0.58248E-05   -0.29421E-04 17969   0.254E-02    0.909E-02
RMM:  27    -0.501125894944E+03   -0.51479E-04   -0.15446E-04 15620   0.147E-02    0.675E-02
RMM:  28    -0.501125882886E+03    0.12058E-04   -0.86503E-05 14006   0.171E-02    0.461E-02
RMM:  29    -0.501125882858E+03    0.28893E-07   -0.57022E-05 12478   0.109E-02
   5 F= -.50112588E+03 E0= -.50112601E+03  d E =-.126717E+00  mag=    94.0380
 curvature:  -3.31 expect dE=-0.120E+00 dE for cont linesearch -0.291E-04
 trial: gam= 0.76136 g(F)=  0.363E-01 g(S)=  0.000E+00 ort = 0.716E-03 (trialstep = 0.165E+01)
 search vector abs. value=  0.713E-01
 bond charge predicted
       N       E                     dE             d eps       ncg     rms          rms(c)
DAV:   1    -0.500254078409E+03    0.87180E+00   -0.53276E+01 18477   0.226E+01    0.606E+00
RMM:   2    -0.500996706034E+03   -0.74263E+00   -0.69544E+00 16674   0.491E+00    0.440E+00
RMM:   3    -0.502037271475E+03   -0.10406E+01   -0.15816E+00 21113   0.194E+00    0.110E+01
RMM:   4    -0.501198127024E+03    0.83914E+00   -0.29252E-01 16695   0.107E+00    0.382E+00
RMM:   5    -0.501157465082E+03    0.40662E-01   -0.10981E-01 19197   0.526E-01    0.182E+00
RMM:   6    -0.501166409086E+03   -0.89440E-02   -0.48622E-02 21280   0.275E-01    0.149E+00
RMM:   7    -0.501173646994E+03   -0.72379E-02   -0.23000E-02 21511   0.183E-01    0.107E+00
RMM:   8    -0.501178571682E+03   -0.49247E-02   -0.12303E-02 20882   0.137E-01    0.775E-01
RMM:   9    -0.501179111319E+03   -0.53964E-03   -0.69310E-03 20564   0.110E-01    0.580E-01
RMM:  10    -0.501178946938E+03    0.16438E-03   -0.33154E-03 21535   0.674E-02    0.505E-01
RMM:  11    -0.501178821589E+03    0.12535E-03   -0.20225E-03 20010   0.649E-02    0.377E-01
RMM:  12    -0.501178954363E+03   -0.13277E-03   -0.21018E-03 19247   0.642E-02    0.288E-01
RMM:  13    -0.501179241635E+03   -0.28727E-03   -0.10816E-03 19542   0.414E-02    0.244E-01
RMM:  14    -0.501179399699E+03   -0.15806E-03   -0.50198E-04 19245   0.329E-02    0.159E-01
RMM:  15    -0.501179461200E+03   -0.61501E-04   -0.22738E-04 17680   0.173E-02    0.150E-01
RMM:  16    -0.501179495726E+03   -0.34526E-04   -0.90745E-05 13699   0.130E-02    0.143E-01
RMM:  17    -0.501179571223E+03   -0.75497E-04   -0.12736E-04 15480   0.158E-02    0.130E-01
RMM:  18    -0.501179672952E+03   -0.10173E-03   -0.17004E-04 16997   0.170E-02    0.126E-01
RMM:  19    -0.501179680428E+03   -0.74763E-05   -0.34582E-05 10869   0.804E-03
   6 F= -.50117968E+03 E0= -.50117848E+03  d E =-.537976E-01  mag=    94.2834
 trial-energy change:   -0.053798  1 .order   -0.051371   -0.060767   -0.041976
 step:   3.1366(harm=  5.3304)  dis= 0.05681  next Energy=  -501.200415 (dE=-0.745E-01)
 bond charge predicted
       N       E                     dE             d eps       ncg     rms          rms(c)
DAV:   1    -0.500437299417E+03    0.74237E+00   -0.43838E+01 18522   0.207E+01    0.537E+00
RMM:   2    -0.501028491930E+03   -0.59119E+00   -0.57196E+00 16579   0.438E+00    0.331E+00
RMM:   3    -0.501407374380E+03   -0.37888E+00   -0.12261E+00 22178   0.164E+00    0.601E+00
RMM:   4    -0.501267146291E+03    0.14023E+00   -0.20277E-01 18322   0.763E-01    0.400E+00
RMM:   5    -0.501187990341E+03    0.79156E-01   -0.72949E-02 18893   0.433E-01    0.159E+00
RMM:   6    -0.501195813969E+03   -0.78236E-02   -0.35104E-02 21064   0.234E-01    0.132E+00
RMM:   7    -0.501201163818E+03   -0.53498E-02   -0.16342E-02 21312   0.154E-01    0.988E-01
RMM:   8    -0.501205057215E+03   -0.38934E-02   -0.10029E-02 20136   0.131E-01    0.688E-01
RMM:   9    -0.501205603147E+03   -0.54593E-03   -0.56952E-03 20650   0.957E-02    0.579E-01
RMM:  10    -0.501205848961E+03   -0.24581E-03   -0.26544E-03 21403   0.605E-02    0.520E-01
RMM:  11    -0.501206590200E+03   -0.74124E-03   -0.27151E-03 19888   0.716E-02    0.423E-01
RMM:  12    -0.501208065887E+03   -0.14757E-02   -0.44188E-03 20836   0.850E-02    0.379E-01
RMM:  13    -0.501208980033E+03   -0.91415E-03   -0.23480E-03 19928   0.475E-02    0.369E-01
RMM:  14    -0.501209127715E+03   -0.14768E-03   -0.39052E-04 19832   0.208E-02    0.374E-01
RMM:  15    -0.501208524599E+03    0.60312E-03   -0.20032E-04 16234   0.235E-02    0.398E-01
RMM:  16    -0.501210341973E+03   -0.18174E-02   -0.18949E-03 23342   0.686E-02    0.366E-01
RMM:  17    -0.501211874057E+03   -0.15321E-02   -0.30874E-03 23300   0.579E-02    0.389E-01
RMM:  18    -0.501208570836E+03    0.33032E-02   -0.41644E-03 23970   0.102E-01    0.419E-01
RMM:  19    -0.501208019854E+03    0.55098E-03   -0.18443E-03 22539   0.394E-02    0.384E-01
RMM:  20    -0.501206817679E+03    0.12022E-02   -0.15699E-03 23548   0.519E-02    0.374E-01
RMM:  21    -0.501205044212E+03    0.17735E-02   -0.49928E-03 23838   0.779E-02    0.339E-01
RMM:  22    -0.501203660442E+03    0.13838E-02   -0.57530E-03 23801   0.789E-02    0.288E-01
RMM:  23    -0.501203434211E+03    0.22623E-03   -0.18326E-03 22622   0.408E-02    0.266E-01
RMM:  24    -0.501202035477E+03    0.13987E-02   -0.45024E-03 23996   0.904E-02    0.230E-01
RMM:  25    -0.501201131991E+03    0.90349E-03   -0.90497E-03 23921   0.984E-02    0.179E-01
RMM:  26    -0.501201433737E+03   -0.30175E-03   -0.11328E-03 21615   0.351E-02    0.157E-01
RMM:  27    -0.501200836228E+03    0.59751E-03   -0.33718E-03 23790   0.726E-02    0.152E-01
RMM:  28    -0.501200669306E+03    0.16692E-03   -0.33209E-03 23574   0.535E-02    0.115E-01
RMM:  29    -0.501200364306E+03    0.30500E-03   -0.27687E-03 23808   0.625E-02    0.134E-01
RMM:  30    -0.501200432179E+03   -0.67873E-04   -0.66349E-04 21334   0.255E-02    0.126E-01
RMM:  31    -0.501200423454E+03    0.87249E-05   -0.30386E-04 17909   0.190E-02    0.127E-01
RMM:  32    -0.501200400526E+03    0.22928E-04   -0.30355E-04 17729   0.157E-02    0.135E-01
RMM:  33    -0.501200488297E+03   -0.87771E-04   -0.39082E-04 19222   0.299E-02    0.103E-01
RMM:  34    -0.501200664047E+03   -0.17575E-03   -0.16953E-03 23586   0.523E-02    0.600E-02
RMM:  35    -0.501200667705E+03   -0.36582E-05   -0.18069E-04 15970   0.230E-02    0.754E-02
RMM:  36    -0.501200577300E+03    0.90406E-04   -0.16090E-04 16206   0.199E-02    0.853E-02
RMM:  37    -0.501200578658E+03   -0.13587E-05   -0.16229E-05  9202   0.650E-03
   7 F= -.50120058E+03 E0= -.50119961E+03  d E =-.746958E-01  mag=    94.7761
 curvature:  -3.32 expect dE=-0.124E+00 dE for cont linesearch -0.101E-05
 trial: gam= 0.66031 g(F)=  0.374E-01 g(S)=  0.000E+00 ort = 0.147E-03 (trialstep = 0.195E+01)
 search vector abs. value=  0.687E-01
 bond charge predicted
       N       E                     dE             d eps       ncg     rms          rms(c)
DAV:   1    -0.500129811473E+03    0.10708E+01   -0.69312E+01 18054   0.252E+01    0.648E+00
RMM:   2    -0.501051183216E+03   -0.92137E+00   -0.83052E+00 16605   0.573E+00    0.515E+00
RMM:   3    -0.502182900158E+03   -0.11317E+01   -0.18210E+00 21492   0.222E+00    0.115E+01
RMM:   4    -0.501229752339E+03    0.95315E+00   -0.29782E-01 16491   0.112E+00    0.370E+00
RMM:   5    -0.501224043437E+03    0.57089E-02   -0.12321E-01 19777   0.550E-01    0.213E+00
RMM:   6    -0.501238254012E+03   -0.14211E-01   -0.53836E-02 20672   0.309E-01    0.168E+00
RMM:   7    -0.501250622900E+03   -0.12369E-01   -0.26761E-02 20584   0.223E-01    0.104E+00
RMM:   8    -0.501254627280E+03   -0.40044E-02   -0.14460E-02 20999   0.151E-01    0.757E-01
RMM:   9    -0.501254230578E+03    0.39670E-03   -0.64871E-03 21724   0.103E-01    0.614E-01
RMM:  10    -0.501253621720E+03    0.60886E-03   -0.31106E-03 21818   0.713E-02    0.524E-01
RMM:  11    -0.501253007825E+03    0.61389E-03   -0.20534E-03 20097   0.670E-02    0.402E-01
RMM:  12    -0.501252852893E+03    0.15493E-03   -0.14279E-03 19545   0.556E-02    0.326E-01
RMM:  13    -0.501253060312E+03   -0.20742E-03   -0.76714E-04 19815   0.419E-02    0.250E-01
RMM:  14    -0.501253210779E+03   -0.15047E-03   -0.47010E-04 18431   0.365E-02    0.160E-01
RMM:  15    -0.501253267592E+03   -0.56813E-04   -0.21123E-04 17384   0.174E-02    0.155E-01
RMM:  16    -0.501253299093E+03   -0.31501E-04   -0.99909E-05 15055   0.162E-02    0.139E-01
RMM:  17    -0.501253378281E+03   -0.79188E-04   -0.30473E-04 20008   0.271E-02    0.104E-01
RMM:  18    -0.501253435930E+03   -0.57649E-04   -0.20803E-04 17333   0.170E-02    0.937E-02
RMM:  19    -0.501253450799E+03   -0.14869E-04   -0.39320E-05 11330   0.884E-03    0.945E-02
RMM:  20    -0.501253434757E+03    0.16042E-04   -0.10071E-05  9067   0.720E-03    0.984E-02
RMM:  21    -0.501253581255E+03   -0.14650E-03   -0.26910E-04 19977   0.238E-02    0.856E-02
RMM:  22    -0.501253648614E+03   -0.67360E-04   -0.20874E-04 17348   0.143E-02    0.938E-02
RMM:  23    -0.501253548952E+03    0.99663E-04   -0.69215E-05 11856   0.130E-02    0.102E-01
RMM:  24    -0.501253658684E+03   -0.10973E-03   -0.66380E-05 12707   0.132E-02    0.937E-02
RMM:  25    -0.501253876241E+03   -0.21756E-03   -0.68626E-04 22023   0.328E-02    0.892E-02
RMM:  26    -0.501253849277E+03    0.26964E-04   -0.91442E-05 13836   0.116E-02    0.980E-02
RMM:  27    -0.501253863381E+03   -0.14104E-04   -0.29791E-05 10382   0.604E-03    0.992E-02
RMM:  28    -0.501254003180E+03   -0.13980E-03   -0.25481E-04 18664   0.200E-02    0.929E-02
RMM:  29    -0.501254239521E+03   -0.23634E-03   -0.10001E-03 22893   0.388E-02    0.830E-02
RMM:  30    -0.501254358360E+03   -0.11884E-03   -0.47981E-04 20032   0.190E-02    0.974E-02
RMM:  31    -0.501254582448E+03   -0.22409E-03   -0.73447E-04 22846   0.385E-02    0.790E-02
RMM:  32    -0.501254830184E+03   -0.24774E-03   -0.14496E-03 23160   0.388E-02    0.830E-02
RMM:  33    -0.501254883596E+03   -0.53411E-04   -0.23002E-04 17137   0.134E-02    0.913E-02
RMM:  34    -0.501254909287E+03   -0.25691E-04   -0.70305E-05 12265   0.961E-03    0.955E-02
RMM:  35    -0.501254863824E+03    0.45462E-04   -0.17117E-05  9671   0.797E-03    0.105E-01
RMM:  36    -0.501255024814E+03   -0.16099E-03   -0.27810E-04 19613   0.239E-02    0.839E-02
RMM:  37    -0.501255183102E+03   -0.15829E-03   -0.62439E-04 21704   0.271E-02    0.809E-02
RMM:  38    -0.501255161718E+03    0.21384E-04   -0.57768E-05 12143   0.103E-02    0.925E-02
RMM:  39    -0.501255245289E+03   -0.83571E-04   -0.14146E-04 16033   0.148E-02    0.846E-02
RMM:  40    -0.501255343161E+03   -0.97873E-04   -0.27839E-04 18896   0.182E-02    0.806E-02
RMM:  41    -0.501255486067E+03   -0.14291E-03   -0.54099E-04 21658   0.279E-02    0.686E-02
RMM:  42    -0.501255559653E+03   -0.73586E-04   -0.27477E-04 18318   0.155E-02    0.730E-02
RMM:  43    -0.501255656139E+03   -0.96486E-04   -0.28853E-04 20950   0.239E-02    0.597E-02
RMM:  44    -0.501255782914E+03   -0.12677E-03   -0.80467E-04 22391   0.308E-02    0.492E-02
RMM:  45    -0.501255854530E+03   -0.71615E-04   -0.36909E-04 18744   0.167E-02    0.544E-02
RMM:  46    -0.501255888447E+03   -0.33917E-04   -0.72899E-05 13379   0.127E-02    0.495E-02
RMM:  47    -0.501255907293E+03   -0.18846E-04   -0.57214E-05 11483   0.944E-03    0.507E-02
RMM:  48    -0.501255912934E+03   -0.56416E-05   -0.14761E-05  8769   0.781E-03
   8 F= -.50125591E+03 E0= -.50125556E+03  d E =-.553343E-01  mag=    95.2094
 trial-energy change:   -0.055334  1 .order   -0.054066   -0.072948   -0.035185
 step:   3.2977(harm=  3.7591)  dis= 0.06022  next Energy=  -501.268558 (dE=-0.680E-01)
 bond charge predicted
       N       E                     dE             d eps       ncg     rms          rms(c)
DAV:   1    -0.500715461551E+03    0.54045E+00   -0.34118E+01 17892   0.176E+01    0.402E+00
RMM:   2    -0.501143967379E+03   -0.42851E+00   -0.40456E+00 15902   0.380E+00    0.269E+00
RMM:   3    -0.501469419145E+03   -0.32545E+00   -0.84327E-01 22015   0.139E+00    0.568E+00
RMM:   4    -0.501268379994E+03    0.20104E+00   -0.10808E-01 17113   0.649E-01    0.264E+00
RMM:   5    -0.501255140076E+03    0.13240E-01   -0.37598E-02 20013   0.321E-01    0.143E+00
RMM:   6    -0.501265381899E+03   -0.10242E-01   -0.19177E-02 20090   0.196E-01    0.113E+00
RMM:   7    -0.501270224636E+03   -0.48427E-02   -0.10620E-02 18990   0.156E-01    0.612E-01
RMM:   8    -0.501271002107E+03   -0.77747E-03   -0.55578E-03 20559   0.983E-02    0.463E-01
RMM:   9    -0.501270780446E+03    0.22166E-03   -0.22385E-03 22208   0.554E-02    0.406E-01
RMM:  10    -0.501270359131E+03    0.42132E-03   -0.14731E-03 20358   0.552E-02    0.310E-01
RMM:  11    -0.501270212116E+03    0.14701E-03   -0.11342E-03 19730   0.477E-02    0.248E-01
RMM:  12    -0.501270271440E+03   -0.59324E-04   -0.62739E-04 19910   0.335E-02    0.207E-01
RMM:  13    -0.501270434303E+03   -0.16286E-03   -0.50288E-04 19812   0.336E-02    0.155E-01
RMM:  14    -0.501270525240E+03   -0.90937E-04   -0.34099E-04 18283   0.229E-02    0.129E-01
RMM:  15    -0.501270557108E+03   -0.31869E-04   -0.12768E-04 15470   0.139E-02    0.120E-01
RMM:  16    -0.501270612770E+03   -0.55662E-04   -0.23663E-04 18940   0.228E-02    0.927E-02
RMM:  17    -0.501270680642E+03   -0.67872E-04   -0.35690E-04 19934   0.241E-02    0.750E-02
RMM:  18    -0.501270698182E+03   -0.17540E-04   -0.94299E-05 13948   0.106E-02    0.686E-02
RMM:  19    -0.501270718728E+03   -0.20546E-04   -0.55861E-05 12237   0.109E-02    0.649E-02
RMM:  20    -0.501270772830E+03   -0.54102E-04   -0.25743E-04 19409   0.204E-02    0.471E-02
RMM:  21    -0.501270797261E+03   -0.24432E-04   -0.14783E-04 15908   0.127E-02    0.447E-02
RMM:  22    -0.501270816404E+03   -0.19142E-04   -0.65547E-05 13507   0.120E-02    0.394E-02
RMM:  23    -0.501270843746E+03   -0.27343E-04   -0.19702E-04 18199   0.179E-02    0.270E-02
RMM:  24    -0.501270859330E+03   -0.15584E-04   -0.98551E-05 14018   0.112E-02    0.277E-02
RMM:  25    -0.501270868136E+03   -0.88059E-05   -0.60012E-05 13020   0.117E-02
   9 F= -.50127087E+03 E0= -.50127047E+03  d E =-.702895E-01  mag=    95.3029
 curvature:  -3.22 expect dE=-0.130E+00 dE for cont linesearch -0.577E-03
 trial: gam= 0.38927 g(F)=  0.404E-01 g(S)=  0.000E+00 ort = 0.351E-02 (trialstep = 0.222E+01)
 search vector abs. value=  0.535E-01
 bond charge predicted
       N       E                     dE             d eps       ncg     rms          rms(c)
DAV:   1    -0.499738478975E+03    0.15324E+01   -0.85981E+01 20025   0.304E+01    0.682E+00
RMM:   2    -0.501285783536E+03   -0.15473E+01   -0.12941E+01 16531   0.667E+00    0.747E+00
RMM:   3    -0.502046170567E+03   -0.76039E+00   -0.24767E+00 19942   0.251E+00    0.105E+01
RMM:   4    -0.501272992317E+03    0.77318E+00   -0.36332E-01 17966   0.116E+00    0.333E+00
RMM:   5    -0.501289330617E+03   -0.16338E-01   -0.17158E-01 21338   0.558E-01    0.251E+00
RMM:   6    -0.501296000866E+03   -0.66702E-02   -0.71655E-02 21524   0.325E-01    0.198E+00
RMM:   7    -0.501310341595E+03   -0.14341E-01   -0.33791E-02 22254   0.213E-01    0.164E+00
RMM:   8    -0.501325425171E+03   -0.15084E-01   -0.29438E-02 20260   0.225E-01    0.128E+00
RMM:   9    -0.501329473867E+03   -0.40487E-02   -0.19149E-02 20767   0.151E-01    0.110E+00
RMM:  10    -0.501332470443E+03   -0.29966E-02   -0.96500E-03 21362   0.113E-01    0.999E-01
RMM:  11    -0.501338643586E+03   -0.61731E-02   -0.23848E-02 21840   0.202E-01    0.698E-01
RMM:  12    -0.501341672792E+03   -0.30292E-02   -0.20936E-02 21157   0.146E-01    0.549E-01
RMM:  13    -0.501342856480E+03   -0.11837E-02   -0.53933E-03 21039   0.816E-02    0.448E-01
RMM:  14    -0.501344124794E+03   -0.12683E-02   -0.59858E-03 20499   0.936E-02    0.362E-01
RMM:  15    -0.501344263468E+03   -0.13867E-03   -0.21453E-03 21076   0.469E-02    0.339E-01
RMM:  16    -0.501344619264E+03   -0.35580E-03   -0.15618E-03 20324   0.531E-02    0.275E-01
RMM:  17    -0.501345026068E+03   -0.40680E-03   -0.41256E-03 22418   0.819E-02    0.147E-01
RMM:  18    -0.501345147951E+03   -0.12188E-03   -0.10123E-03 20913   0.315E-02    0.126E-01
RMM:  19    -0.501345230820E+03   -0.82869E-04   -0.60480E-04 19843   0.288E-02    0.107E-01
RMM:  20    -0.501345280416E+03   -0.49597E-04   -0.30285E-04 17554   0.208E-02    0.755E-02
RMM:  21    -0.501345299409E+03   -0.18993E-04   -0.25038E-04 18313   0.205E-02    0.521E-02
RMM:  22    -0.501345307279E+03   -0.78696E-05   -0.14279E-04 15410   0.126E-02    0.451E-02
RMM:  23    -0.501345309630E+03   -0.23512E-05   -0.34207E-05 10607   0.973E-03
  10 F= -.50134531E+03 E0= -.50134621E+03  d E =-.744415E-01  mag=    95.6326
 trial-energy change:   -0.074441  1 .order   -0.071954   -0.092573   -0.051334
 step:   3.9015(harm=  4.9752)  dis= 0.13928  next Energy=  -501.365918 (dE=-0.951E-01)
 bond charge predicted
       N       E                     dE             d eps       ncg     rms          rms(c)
DAV:   1    -0.500420721671E+03    0.92459E+00   -0.50908E+01 19782   0.230E+01    0.481E+00
RMM:   2    -0.501234739352E+03   -0.81402E+00   -0.74071E+00 16187   0.481E+00    0.429E+00
RMM:   3    -0.501803984428E+03   -0.56925E+00   -0.14602E+00 20072   0.179E+00    0.808E+00
RMM:   4    -0.501327482757E+03    0.47650E+00   -0.17808E-01 16954   0.855E-01    0.245E+00
RMM:   5    -0.501345576583E+03   -0.18094E-01   -0.82374E-02 21573   0.389E-01    0.195E+00
RMM:   6    -0.501350994612E+03   -0.54180E-02   -0.34752E-02 20639   0.233E-01    0.148E+00
RMM:   7    -0.501361199546E+03   -0.10205E-01   -0.17137E-02 21101   0.165E-01    0.108E+00
RMM:   8    -0.501367684261E+03   -0.64847E-02   -0.15846E-02 19952   0.162E-01    0.735E-01
RMM:   9    -0.501368147402E+03   -0.46314E-03   -0.73160E-03 21695   0.883E-02    0.627E-01
RMM:  10    -0.501368581952E+03   -0.43455E-03   -0.39841E-03 21089   0.809E-02    0.475E-01
RMM:  11    -0.501369061077E+03   -0.47913E-03   -0.58046E-03 20743   0.985E-02    0.319E-01
RMM:  12    -0.501369276434E+03   -0.21536E-03   -0.26668E-03 20389   0.526E-02    0.251E-01
RMM:  13    -0.501369488512E+03   -0.21208E-03   -0.15175E-03 20207   0.561E-02    0.176E-01
RMM:  14    -0.501369597655E+03   -0.10914E-03   -0.95610E-04 20002   0.318E-02    0.154E-01
RMM:  15    -0.501369627800E+03   -0.30145E-04   -0.23799E-04 18776   0.169E-02    0.149E-01
RMM:  16    -0.501369665911E+03   -0.38111E-04   -0.16558E-04 16235   0.153E-02    0.128E-01
RMM:  17    -0.501369684852E+03   -0.18941E-04   -0.16128E-04 16990   0.210E-02    0.681E-02
RMM:  18    -0.501369690975E+03   -0.61234E-05   -0.62395E-05 12566   0.112E-02
  11 F= -.50136969E+03 E0= -.50137122E+03  d E =-.988228E-01  mag=    95.7084
 curvature:  -2.71 expect dE=-0.623E-01 dE for cont linesearch -0.141E-02
 ZBRENT: extrapolating
 opt :   4.4001  next Energy=  -501.371010 (dE=-0.100E+00)
 bond charge predicted
       N       E                     dE             d eps       ncg     rms          rms(c)
DAV:   1    -0.501274264097E+03    0.95421E-01   -0.45822E+00 20151   0.682E+00    0.124E+00
RMM:   2    -0.501344988714E+03   -0.70725E-01   -0.67314E-01 15301   0.139E+00    0.949E-01
RMM:   3    -0.501409660731E+03   -0.64672E-01   -0.22237E-01 18597   0.517E-01    0.237E+00
RMM:   4    -0.501367554189E+03    0.42107E-01   -0.13371E-02 15258   0.259E-01    0.629E-01
RMM:   5    -0.501369135778E+03   -0.15816E-02   -0.44466E-03 21575   0.107E-01    0.509E-01
RMM:   6    -0.501369811086E+03   -0.67531E-03   -0.14471E-03 19446   0.507E-02    0.435E-01
RMM:   7    -0.501370972741E+03   -0.11617E-02   -0.13964E-03 17597   0.587E-02    0.228E-01
RMM:   8    -0.501371083551E+03   -0.11081E-03   -0.83826E-04 19271   0.385E-02    0.184E-01
RMM:   9    -0.501371104485E+03   -0.20934E-04   -0.31089E-04 18783   0.199E-02    0.164E-01
RMM:  10    -0.501371110244E+03   -0.57593E-05   -0.38833E-04 18550   0.281E-02    0.109E-01
RMM:  11    -0.501371136644E+03   -0.26400E-04   -0.33792E-04 18201   0.225E-02    0.799E-02
RMM:  12    -0.501371159322E+03   -0.22678E-04   -0.15492E-04 16523   0.162E-02    0.668E-02
RMM:  13    -0.501371170709E+03   -0.11387E-04   -0.70365E-05 13111   0.125E-02    0.538E-02
RMM:  14    -0.501371171680E+03   -0.97138E-06   -0.25075E-05 10020   0.894E-03
  12 F= -.50137117E+03 E0= -.50137288E+03  d E =-.100304E+00  mag=    95.7301
 curvature:  -2.52 expect dE=-0.666E-01 dE for cont linesearch -0.690E-06
 trial: gam= 0.54068 g(F)=  0.264E-01 g(S)=  0.000E+00 ort = 0.121E-03 (trialstep = 0.265E+01)
 search vector abs. value=  0.422E-01
 bond charge predicted
       N       E                     dE             d eps       ncg     rms          rms(c)
DAV:   1    -0.499666447421E+03    0.17047E+01   -0.11520E+02 19305   0.288E+01    0.772E+00
RMM:   2    -0.501143057083E+03   -0.14766E+01   -0.13523E+01 16278   0.624E+00    0.677E+00
RMM:   3    -0.502318607341E+03   -0.11756E+01   -0.23102E+00 20454   0.229E+00    0.119E+01
RMM:   4    -0.501365607733E+03    0.95300E+00   -0.43880E-01 16890   0.123E+00    0.450E+00
RMM:   5    -0.501365771645E+03   -0.16391E-03   -0.19124E-01 19925   0.586E-01    0.282E+00
RMM:   6    -0.501373093240E+03   -0.73216E-02   -0.84347E-02 20201   0.341E-01    0.223E+00
RMM:   7    -0.501397994780E+03   -0.24902E-01   -0.36594E-02 21017   0.231E-01    0.166E+00
RMM:   8    -0.501414265466E+03   -0.16271E-01   -0.28873E-02 20009   0.211E-01    0.935E-01
RMM:   9    -0.501415947614E+03   -0.16821E-02   -0.14094E-02 20928   0.122E-01    0.748E-01
RMM:  10    -0.501416147386E+03   -0.19977E-03   -0.46505E-03 21840   0.740E-02    0.667E-01
RMM:  11    -0.501415871556E+03    0.27583E-03   -0.53129E-03 19651   0.103E-01    0.437E-01
RMM:  12    -0.501415573587E+03    0.29797E-03   -0.52352E-03 19525   0.906E-02    0.306E-01
RMM:  13    -0.501415684624E+03   -0.11104E-03   -0.12303E-03 20928   0.390E-02    0.250E-01
RMM:  14    -0.501415766507E+03   -0.81883E-04   -0.79121E-04 17799   0.443E-02    0.185E-01
RMM:  15    -0.501415822137E+03   -0.55630E-04   -0.29022E-04 18944   0.218E-02    0.161E-01
RMM:  16    -0.501415839786E+03   -0.17649E-04   -0.93083E-05 13848   0.117E-02    0.143E-01
RMM:  17    -0.501415879160E+03   -0.39374E-04   -0.96139E-05 15096   0.167E-02    0.817E-02
RMM:  18    -0.501415886985E+03   -0.78248E-05   -0.43944E-05 11592   0.130E-02
  13 F= -.50141589E+03 E0= -.50141838E+03  d E =-.447153E-01  mag=    95.7844
 trial-energy change:   -0.044715  1 .order   -0.043434   -0.070212   -0.016656
 step:   3.3516(harm=  3.4782)  dis= 0.12351  next Energy=  -501.418103 (dE=-0.469E-01)
 bond charge predicted
       N       E                     dE             d eps       ncg     rms          rms(c)
DAV:   1    -0.501276465541E+03    0.13941E+00   -0.80890E+00 19566   0.762E+00    0.167E+00
RMM:   2    -0.501388531166E+03   -0.11207E+00   -0.10755E+00 15313   0.151E+00    0.112E+00
RMM:   3    -0.501471658987E+03   -0.83128E-01   -0.20718E-01 19578   0.540E-01    0.279E+00
RMM:   4    -0.501411757521E+03    0.59901E-01   -0.16228E-02 15384   0.282E-01    0.831E-01
RMM:   5    -0.501415541995E+03   -0.37845E-02   -0.64202E-03 20798   0.117E-01    0.597E-01
RMM:   6    -0.501418305816E+03   -0.27638E-02   -0.32745E-03 18648   0.817E-02    0.420E-01
RMM:   7    -0.501418433984E+03   -0.12817E-03   -0.16541E-03 17328   0.656E-02    0.226E-01
RMM:   8    -0.501418436426E+03   -0.24415E-05   -0.71903E-04 20284   0.337E-02    0.184E-01
RMM:   9    -0.501418447992E+03   -0.11566E-04   -0.32320E-04 18961   0.205E-02    0.163E-01
RMM:  10    -0.501418379010E+03    0.68982E-04   -0.27746E-04 17735   0.228E-02    0.103E-01
RMM:  11    -0.501418373222E+03    0.57880E-05   -0.17047E-04 16314   0.160E-02    0.823E-02
RMM:  12    -0.501418374515E+03   -0.12931E-05   -0.65581E-05 12716   0.124E-02
  14 F= -.50141837E+03 E0= -.50142105E+03  d E =-.472028E-01  mag=    95.7965
 curvature:  -2.71 expect dE=-0.340E-01 dE for cont linesearch -0.634E-04
 trial: gam= 0.27164 g(F)=  0.126E-01 g(S)=  0.000E+00 ort = 0.994E-03 (trialstep = 0.279E+01)
 search vector abs. value=  0.162E-01
 bond charge predicted
       N       E                     dE             d eps       ncg     rms          rms(c)
DAV:   1    -0.500796245739E+03    0.62213E+00   -0.47820E+01 19503   0.200E+01    0.391E+00
RMM:   2    -0.501305045915E+03   -0.50880E+00   -0.48594E+00 15711   0.382E+00    0.264E+00
RMM:   3    -0.501645727899E+03   -0.34068E+00   -0.86996E-01 19737   0.137E+00    0.575E+00
RMM:   4    -0.501410308188E+03    0.23542E+00   -0.86930E-02 16814   0.638E-01    0.206E+00
RMM:   5    -0.501426906170E+03   -0.16598E-01   -0.36408E-02 22355   0.283E-01    0.138E+00
RMM:   6    -0.501442343306E+03   -0.15437E-01   -0.18674E-02 19780   0.193E-01    0.968E-01
RMM:   7    -0.501443783631E+03   -0.14403E-02   -0.93221E-03 18624   0.149E-01    0.582E-01
RMM:   8    -0.501443346642E+03    0.43699E-03   -0.40122E-03 20906   0.867E-02    0.434E-01
RMM:   9    -0.501443108395E+03    0.23825E-03   -0.20314E-03 21688   0.517E-02    0.365E-01
RMM:  10    -0.501442701044E+03    0.40735E-03   -0.12442E-03 20559   0.463E-02    0.268E-01
RMM:  11    -0.501442541901E+03    0.15914E-03   -0.89206E-04 20153   0.384E-02    0.219E-01
RMM:  12    -0.501442535612E+03    0.62894E-05   -0.43840E-04 19721   0.259E-02    0.184E-01
RMM:  13    -0.501442595836E+03   -0.60224E-04   -0.33441E-04 18642   0.303E-02    0.122E-01
RMM:  14    -0.501442649459E+03   -0.53624E-04   -0.18675E-04 17601   0.204E-02    0.968E-02
RMM:  15    -0.501442662771E+03   -0.13312E-04   -0.66511E-05 13145   0.115E-02    0.888E-02
RMM:  16    -0.501442677141E+03   -0.14370E-04   -0.33421E-05 10808   0.111E-02    0.666E-02
RMM:  17    -0.501442685985E+03   -0.88440E-05   -0.42734E-05 10410   0.132E-02
  15 F= -.50144269E+03 E0= -.50144567E+03  d E =-.243115E-01  mag=    95.7945
 trial-energy change:   -0.024311  1 .order   -0.024288   -0.035871   -0.012704
 step:   4.3244(harm=  4.3244)  dis= 0.05472  next Energy=  -501.446146 (dE=-0.278E-01)
 bond charge predicted
       N       E                     dE             d eps       ncg     rms          rms(c)
DAV:   1    -0.501221555336E+03    0.22112E+00   -0.14154E+01 19476   0.110E+01    0.218E+00
RMM:   2    -0.501398380363E+03   -0.17683E+00   -0.16987E+00 15538   0.211E+00    0.143E+00
RMM:   3    -0.501473171920E+03   -0.74792E-01   -0.31361E-01 19543   0.727E-01    0.236E+00
RMM:   4    -0.501440898598E+03    0.32273E-01   -0.25070E-02 17684   0.321E-01    0.122E+00
RMM:   5    -0.501442149010E+03   -0.12504E-02   -0.83128E-03 21008   0.152E-01    0.771E-01
RMM:   6    -0.501445889019E+03   -0.37400E-02   -0.48494E-03 19081   0.105E-01    0.617E-01
RMM:   7    -0.501446741067E+03   -0.85205E-03   -0.28477E-03 17644   0.886E-02    0.296E-01
RMM:   8    -0.501446727357E+03    0.13710E-04   -0.13112E-03 20715   0.491E-02    0.230E-01
RMM:   9    -0.501446630396E+03    0.96962E-04   -0.57958E-04 21420   0.297E-02    0.188E-01
RMM:  10    -0.501446513734E+03    0.11666E-03   -0.38928E-04 19864   0.264E-02    0.134E-01
RMM:  11    -0.501446469513E+03    0.44221E-04   -0.28260E-04 18950   0.228E-02    0.105E-01
RMM:  12    -0.501446478829E+03   -0.93153E-05   -0.12988E-04 16187   0.151E-02    0.886E-02
RMM:  13    -0.501446510414E+03   -0.31585E-04   -0.10690E-04 15611   0.185E-02    0.586E-02
RMM:  14    -0.501446527732E+03   -0.17319E-04   -0.43776E-05 11647   0.118E-02    0.504E-02
RMM:  15    -0.501446528339E+03   -0.60657E-06   -0.14043E-05  9209   0.805E-03
  16 F= -.50144653E+03 E0= -.50144973E+03  d E =-.281538E-01  mag=    95.7916
 curvature:  -2.73 expect dE=-0.943E-02 dE for cont linesearch -0.685E-05
 trial: gam= 0.27455 g(F)=  0.345E-02 g(S)=  0.000E+00 ort = 0.202E-03 (trialstep = 0.310E+01)
 search vector abs. value=  0.479E-02
 bond charge predicted
       N       E                     dE             d eps       ncg     rms          rms(c)
DAV:   1    -0.501240184234E+03    0.20634E+00   -0.14575E+01 17253   0.106E+01    0.229E+00
RMM:   2    -0.501399195820E+03   -0.15901E+00   -0.14851E+00 16021   0.231E+00    0.157E+00
RMM:   3    -0.501474410478E+03   -0.75215E-01   -0.28120E-01 20004   0.806E-01    0.243E+00
RMM:   4    -0.501444281033E+03    0.30129E-01   -0.27234E-02 17415   0.364E-01    0.134E+00
RMM:   5    -0.501447226658E+03   -0.29456E-02   -0.85484E-03 20201   0.176E-01    0.795E-01
RMM:   6    -0.501451327921E+03   -0.41013E-02   -0.50834E-03 18241   0.118E-01    0.583E-01
RMM:   7    -0.501452017984E+03   -0.69006E-03   -0.24206E-03 17071   0.896E-02    0.298E-01
RMM:   8    -0.501451961243E+03    0.56741E-04   -0.10829E-03 20991   0.447E-02    0.245E-01
RMM:   9    -0.501451767072E+03    0.19417E-03   -0.48388E-04 20620   0.307E-02    0.181E-01
RMM:  10    -0.501451612774E+03    0.15430E-03   -0.41841E-04 18805   0.304E-02    0.123E-01
RMM:  11    -0.501451585228E+03    0.27547E-04   -0.17179E-04 17489   0.175E-02    0.106E-01
RMM:  12    -0.501451587943E+03   -0.27153E-05   -0.11420E-04 15898   0.191E-02    0.793E-02
RMM:  13    -0.501451611755E+03   -0.23812E-04   -0.87440E-05 14771   0.182E-02    0.540E-02
RMM:  14    -0.501451620226E+03   -0.84712E-05   -0.27682E-05 10090   0.104E-02
  17 F= -.50145162E+03 E0= -.50145504E+03  d E =-.509189E-02  mag=    95.8394
 trial-energy change:   -0.005092  1 .order   -0.004913   -0.010871    0.001045
 step:   2.8482(harm=  2.8274)  dis= 0.01597  next Energy=  -501.451662 (dE=-0.513E-02)
 bond charge predicted
       N       E                     dE             d eps       ncg     rms          rms(c)
DAV:   1    -0.501450330572E+03    0.12812E-02   -0.96545E-02 18315   0.863E-01    0.167E-01
RMM:   2    -0.501451337839E+03   -0.10073E-02   -0.94600E-03 15433   0.185E-01    0.121E-01
RMM:   3    -0.501451606711E+03   -0.26887E-03   -0.17574E-03 17261   0.640E-02    0.121E-01
RMM:   4    -0.501451706504E+03   -0.99793E-04   -0.22039E-04 16690   0.300E-02    0.149E-01
RMM:   5    -0.501451623621E+03    0.82883E-04   -0.51231E-05 11876   0.154E-02    0.843E-02
RMM:   6    -0.501451654336E+03   -0.30714E-04   -0.25026E-05  9457   0.115E-02    0.627E-02
RMM:   7    -0.501451662536E+03   -0.82008E-05   -0.25354E-05  8992   0.116E-02
  18 F= -.50145166E+03 E0= -.50145506E+03  d E =-.513420E-02  mag=    95.8357
 curvature:  -1.92 expect dE=-0.192E-02 dE for cont linesearch -0.479E-06
 trial: gam= 0.33062 g(F)=  0.100E-02 g(S)=  0.000E+00 ort =-0.346E-04 (trialstep = 0.305E+01)
 search vector abs. value=  0.150E-02
 bond charge predicted
       N       E                     dE             d eps       ncg     rms          rms(c)
DAV:   1    -0.501399664460E+03    0.51990E-01   -0.38900E+00 16344   0.540E+00    0.122E+00
RMM:   2    -0.501439227865E+03   -0.39563E-01   -0.35154E-01 15885   0.121E+00    0.915E-01
RMM:   3    -0.501489124353E+03   -0.49896E-01   -0.77092E-02 20961   0.464E-01    0.234E+00
RMM:   4    -0.501448434830E+03    0.40690E-01   -0.78191E-03 14953   0.225E-01    0.584E-01
RMM:   5    -0.501452359093E+03   -0.39243E-02   -0.32947E-03 18635   0.991E-02    0.352E-01
RMM:   6    -0.501453768709E+03   -0.14096E-02   -0.13700E-03 17491   0.642E-02    0.242E-01
RMM:   7    -0.501453654501E+03    0.11421E-03   -0.48355E-04 17775   0.395E-02    0.162E-01
RMM:   8    -0.501453600336E+03    0.54165E-04   -0.16426E-04 17215   0.181E-02    0.129E-01
RMM:   9    -0.501453534766E+03    0.65570E-04   -0.13433E-04 15419   0.194E-02    0.882E-02
RMM:  10    -0.501453501687E+03    0.33078E-04   -0.19505E-04 15848   0.240E-02    0.565E-02
RMM:  11    -0.501453507228E+03   -0.55411E-05   -0.49036E-05 12161   0.115E-02
  19 F= -.50145351E+03 E0= -.50145691E+03  d E =-.184469E-02  mag=    95.8830
 trial-energy change:   -0.001845  1 .order   -0.001974   -0.003016   -0.000931
 step:   4.4099(harm=  4.4099)  dis= 0.01276  next Energy=  -501.453844 (dE=-0.218E-02)
 bond charge predicted
       N       E                     dE             d eps       ncg     rms          rms(c)
DAV:   1    -0.501442863837E+03    0.10638E-01   -0.77550E-01 16371   0.242E+00    0.545E-01
RMM:   2    -0.501450605181E+03   -0.77413E-02   -0.69791E-02 15874   0.537E-01    0.399E-01
RMM:   3    -0.501459661462E+03   -0.90563E-02   -0.15026E-02 20758   0.203E-01    0.971E-01
RMM:   4    -0.501452567011E+03    0.70945E-02   -0.15093E-03 14595   0.977E-02    0.259E-01
RMM:   5    -0.501453394250E+03   -0.82724E-03   -0.66572E-04 17999   0.441E-02    0.158E-01
RMM:   6    -0.501453611780E+03   -0.21753E-03   -0.24481E-04 16420   0.275E-02    0.907E-02
RMM:   7    -0.501453608312E+03    0.34681E-05   -0.83598E-05 13734   0.147E-02
  20 F= -.50145361E+03 E0= -.50145705E+03  d E =-.194578E-02  mag=    95.8968
 curvature:  -3.35 expect dE=-0.181E-02 dE for cont linesearch -0.199E-06
 trial: gam= 0.54191 g(F)=  0.541E-03 g(S)=  0.000E+00 ort = 0.944E-05 (trialstep = 0.332E+01)
 search vector abs. value=  0.992E-03
 bond charge predicted
       N       E                     dE             d eps       ncg     rms          rms(c)
DAV:   1    -0.501421398061E+03    0.32214E-01   -0.25716E+00 15579   0.420E+00    0.101E+00
RMM:   2    -0.501444229790E+03   -0.22832E-01   -0.19775E-01 15849   0.991E-01    0.752E-01
RMM:   3    -0.501466302053E+03   -0.22072E-01   -0.42158E-02 21420   0.361E-01    0.147E+00
RMM:   4    -0.501451786459E+03    0.14516E-01   -0.47766E-03 15131   0.172E-01    0.557E-01
RMM:   5    -0.501453920867E+03   -0.21344E-02   -0.19592E-03 18679   0.844E-02    0.308E-01
RMM:   6    -0.501454608870E+03   -0.68800E-03   -0.94571E-04 17235   0.550E-02    0.247E-01
RMM:   7    -0.501454515655E+03    0.93215E-04   -0.33976E-04 16126   0.371E-02    0.157E-01
RMM:   8    -0.501454462892E+03    0.52763E-04   -0.17293E-04 16960   0.198E-02    0.128E-01
RMM:   9    -0.501454383255E+03    0.79637E-04   -0.23520E-04 15428   0.280E-02    0.756E-02
RMM:  10    -0.501454384657E+03   -0.14016E-05   -0.22980E-04 15227   0.257E-02    0.527E-02
RMM:  11    -0.501454395476E+03   -0.10819E-04   -0.45678E-05 11700   0.118E-02    0.469E-02
RMM:  12    -0.501454406052E+03   -0.10576E-04   -0.17320E-05  8841   0.105E-02    0.305E-02
RMM:  13    -0.501454413885E+03   -0.78334E-05   -0.12174E-05  8626   0.774E-03
  21 F= -.50145441E+03 E0= -.50145775E+03  d E =-.805574E-03  mag=    95.9105
 trial-energy change:   -0.000806  1 .order   -0.000889   -0.001813    0.000035
 step:   3.2349(harm=  3.2576)  dis= 0.00688  next Energy=  -501.454414 (dE=-0.806E-03)
 bond charge predicted
       N       E                     dE             d eps       ncg     rms          rms(c)
DAV:   1    -0.501454396335E+03    0.97167E-05   -0.17793E-03 17685   0.111E-01    0.277E-02
RMM:   2    -0.501454413410E+03   -0.17075E-04   -0.14373E-04 13717   0.293E-02    0.256E-02
RMM:   3    -0.501454417238E+03   -0.38277E-05   -0.26852E-05  8962   0.102E-02
  22 F= -.50145442E+03 E0= -.50145775E+03  d E =-.808926E-03  mag=    95.9103
 curvature:  -2.58 expect dE=-0.446E-03 dE for cont linesearch -0.146E-04
 ZBRENT: interpolating
 opt :   3.3104  next Energy=  -501.454414 (dE=-0.806E-03)
 bond charge predicted
       N       E                     dE             d eps       ncg     rms          rms(c)
DAV:   1    -0.501454408504E+03    0.49057E-05   -0.12969E-03 16146   0.980E-02    0.326E-02
RMM:   2    -0.501454633820E+03   -0.22532E-03   -0.15831E-04 19336   0.267E-02    0.162E-01
RMM:   3    -0.501454404833E+03    0.22899E-03   -0.31309E-05  9776   0.144E-02    0.179E-02
RMM:   4    -0.501454417067E+03   -0.12234E-04   -0.76737E-06  7831   0.651E-03    0.204E-02
RMM:   5    -0.501454416818E+03    0.24903E-06   -0.24316E-06  7162   0.401E-03
  23 F= -.50145442E+03 E0= -.50145776E+03  d E =-.808507E-03  mag=    95.9099
 curvature:  -0.01 expect dE=-0.183E-05 dE for cont linesearch -0.270E-07
 ZBRENT: bisectioning
 opt :   3.2727  next Energy=  -501.454421 (dE=-0.813E-03)
 bond charge predicted
       N       E                     dE             d eps       ncg     rms          rms(c)
DAV:   1    -0.501454412572E+03    0.44955E-05   -0.32840E-04 16056   0.493E-02    0.139E-02
RMM:   2    -0.501454416353E+03   -0.37811E-05   -0.27043E-05  7927   0.121E-02
  24 F= -.50145442E+03 E0= -.50145776E+03  d E =-.808041E-03  mag=    95.9099
 curvature:  -1.74 expect dE=-0.297E-03 dE for cont linesearch -0.167E-04
 ZBRENT: interpolating
 opt :   3.2973  next Energy=  -501.454417 (dE=-0.809E-03)
 bond charge predicted
       N       E                     dE             d eps       ncg     rms          rms(c)
DAV:   1    -0.501454417879E+03   -0.53077E-05   -0.13382E-04 16164   0.343E-02    0.181E-02
RMM:   2    -0.501454538575E+03   -0.12070E-03   -0.44926E-05 11192   0.134E-02    0.121E-01
RMM:   3    -0.501454407970E+03    0.13060E-03   -0.13301E-05  8678   0.115E-02    0.837E-03
RMM:   4    -0.501454416684E+03   -0.87138E-05   -0.29503E-06  6809   0.374E-03
  25 F= -.50145442E+03 E0= -.50145775E+03  d E =-.808373E-03  mag=    95.9100
 curvature:  -0.04 expect dE=-0.614E-05 dE for cont linesearch -0.200E-07
 trial: gam= 0.18998 g(F)=  0.175E-03 g(S)=  0.000E+00 ort =-0.238E-04 (trialstep = 0.332E+01)
 search vector abs. value=  0.202E-03
 bond charge predicted
       N       E                     dE             d eps       ncg     rms          rms(c)
DAV:   1    -0.501450051042E+03    0.43569E-02   -0.46544E-01 14805   0.151E+00    0.443E-01
RMM:   2    -0.501452889138E+03   -0.28381E-02   -0.21964E-02 15236   0.371E-01    0.339E-01
RMM:   3    -0.501455149156E+03   -0.22600E-02   -0.45878E-03 20732   0.128E-01    0.424E-01
RMM:   4    -0.501454642374E+03    0.50678E-03   -0.72931E-04 15141   0.662E-02    0.312E-01
RMM:   5    -0.501454715875E+03   -0.73501E-04   -0.35902E-04 15953   0.415E-02    0.151E-01
RMM:   6    -0.501454752160E+03   -0.36285E-04   -0.16205E-04 15356   0.279E-02    0.778E-02
RMM:   7    -0.501454753207E+03   -0.10463E-05   -0.72607E-05 12908   0.149E-02
  26 F= -.50145475E+03 E0= -.50145806E+03  d E =-.336522E-03  mag=    95.9114
 trial-energy change:   -0.000337  1 .order   -0.000369   -0.000566   -0.000173
 step:   4.7763(harm=  4.7763)  dis= 0.00523  next Energy=  -501.454824 (dE=-0.407E-03)
 reached required accuracy - stopping structural energy minimisation
