  62  62   0   0
  0.2749530E+02  0.8504600E-09  0.8509100E-09  0.2355660E-08  0.5000000E-15
  1.000000000000000E-004
  CAR 
 INCAR-For-OPT                           
      5.06704385    -45.91051176  301      0.75130266      1.00000000
    -45.911  0.0000E+00  0.0000E+00  0.0000E+00  0.0000E+00
    -45.741  0.0000E+00  0.0000E+00  0.0000E+00  0.0000E+00
    -45.571  0.0000E+00  0.0000E+00  0.0000E+00  0.0000E+00
    -45.401  0.0000E+00  0.0000E+00  0.0000E+00  0.0000E+00
    -45.231  0.0000E+00  0.0000E+00  0.0000E+00  0.0000E+00
    -45.061  0.0000E+00  0.0000E+00  0.0000E+00  0.0000E+00
    -44.891  0.0000E+00 -0.2133E-33  0.0000E+00 -0.3624E-34
    -44.721  0.0000E+00 -0.1829E-25  0.0000E+00 -0.3107E-26
    -44.551  0.0000E+00 -0.1208E-18  0.0000E+00 -0.2053E-19
    -44.381 -0.3117E-33 -0.5945E-13 -0.5297E-34 -0.1010E-13
    -44.211 -0.2218E-25 -0.2285E-08 -0.3769E-26 -0.3883E-09
    -44.041 -0.1186E-18 -0.6542E-05 -0.2015E-19 -0.1112E-05
    -43.871 -0.4564E-13 -0.1263E-02 -0.7756E-14 -0.2157E-03
    -43.701 -0.1321E-08 -0.4458E-02 -0.2244E-09 -0.9732E-03
    -43.532 -0.2738E-05  0.1439E+00 -0.4655E-06  0.2348E-01
    -43.362 -0.3719E-03  0.2058E+00 -0.6366E-04  0.5845E-01
    -43.192 -0.5445E-04  0.8136E-01 -0.7291E-04  0.7227E-01
    -43.022  0.3489E-01  0.4822E-01  0.5855E-02  0.8047E-01
    -42.852  0.2607E-01  0.6576E-01  0.1029E-01  0.9164E-01
    -42.682 -0.2107E-02  0.5302E-01  0.9927E-02  0.1007E+00
    -42.512  0.3652E-03  0.2523E-01  0.9989E-02  0.1049E+00
    -42.342  0.4354E-01  0.3411E-01  0.1739E-01  0.1107E+00
    -42.172  0.8562E-01  0.2956E-01  0.3194E-01  0.1158E+00
    -42.002  0.1395E+00  0.1792E-01  0.5565E-01  0.1188E+00
    -41.832  0.1395E+00  0.7762E-02  0.7935E-01  0.1201E+00
    -41.662  0.5888E-02 -0.6802E-03  0.8035E-01  0.1200E+00
    -41.492 -0.2919E-02 -0.3674E-04  0.7985E-01  0.1200E+00
    -41.323  0.5393E-02 -0.7381E-07  0.8077E-01  0.1200E+00
    -41.153  0.4188E-01 -0.9588E-11  0.8789E-01  0.1200E+00
    -40.983  0.1383E-01 -0.8712E-16  0.9024E-01  0.1200E+00
    -40.813 -0.1357E-02 -0.3122E-14  0.9001E-01  0.1200E+00
    -40.643 -0.1729E-02 -0.1607E-09  0.8971E-01  0.1200E+00
    -40.473  0.4197E-02 -0.5805E-06  0.9043E-01  0.1200E+00
    -40.303  0.1249E+00 -0.1322E-03  0.1116E+00  0.1200E+00
    -40.133  0.1104E+00 -0.6743E-03  0.1304E+00  0.1199E+00
    -39.963 -0.1285E-02  0.1590E-01  0.1302E+00  0.1226E+00
    -39.793 -0.1118E-02  0.3151E-01  0.1300E+00  0.1279E+00
    -39.623 -0.7720E-05  0.1309E-01  0.1300E+00  0.1301E+00
    -39.453 -0.3576E-08 -0.7444E-03  0.1300E+00  0.1300E+00
    -39.283 -0.1222E-12 -0.9741E-04  0.1300E+00  0.1300E+00
    -39.114  0.0000E+00 -0.3537E-06  0.1300E+00  0.1300E+00
    -38.944  0.0000E+00 -0.8122E-10  0.1300E+00  0.1300E+00
    -38.774  0.0000E+00 -0.1311E-14  0.1300E+00  0.1300E+00
    -38.604  0.0000E+00  0.0000E+00  0.1300E+00  0.1300E+00
    -38.434  0.0000E+00  0.0000E+00  0.1300E+00  0.1300E+00
    -38.264  0.0000E+00  0.0000E+00  0.1300E+00  0.1300E+00
    -38.094  0.0000E+00  0.0000E+00  0.1300E+00  0.1300E+00
    -37.924  0.0000E+00  0.0000E+00  0.1300E+00  0.1300E+00
    -37.754  0.0000E+00  0.0000E+00  0.1300E+00  0.1300E+00
    -37.584  0.0000E+00  0.0000E+00  0.1300E+00  0.1300E+00
    -37.414  0.0000E+00  0.0000E+00  0.1300E+00  0.1300E+00
    -37.244  0.0000E+00  0.0000E+00  0.1300E+00  0.1300E+00
    -37.074  0.0000E+00  0.0000E+00  0.1300E+00  0.1300E+00
    -36.904  0.0000E+00  0.0000E+00  0.1300E+00  0.1300E+00
    -36.735  0.0000E+00  0.0000E+00  0.1300E+00  0.1300E+00
    -36.565  0.0000E+00  0.0000E+00  0.1300E+00  0.1300E+00
    -36.395  0.0000E+00  0.0000E+00  0.1300E+00  0.1300E+00
    -36.225  0.0000E+00  0.0000E+00  0.1300E+00  0.1300E+00
    -36.055  0.0000E+00  0.0000E+00  0.1300E+00  0.1300E+00
    -35.885  0.0000E+00  0.0000E+00  0.1300E+00  0.1300E+00
    -35.715  0.0000E+00  0.0000E+00  0.1300E+00  0.1300E+00
    -35.545  0.0000E+00  0.0000E+00  0.1300E+00  0.1300E+00
    -35.375  0.0000E+00  0.0000E+00  0.1300E+00  0.1300E+00
    -35.205  0.0000E+00  0.0000E+00  0.1300E+00  0.1300E+00
    -35.035  0.0000E+00  0.0000E+00  0.1300E+00  0.1300E+00
    -34.865  0.0000E+00  0.0000E+00  0.1300E+00  0.1300E+00
    -34.695  0.0000E+00  0.0000E+00  0.1300E+00  0.1300E+00
    -34.526  0.0000E+00  0.0000E+00  0.1300E+00  0.1300E+00
    -34.356  0.0000E+00  0.0000E+00  0.1300E+00  0.1300E+00
    -34.186  0.0000E+00  0.0000E+00  0.1300E+00  0.1300E+00
    -34.016  0.0000E+00  0.0000E+00  0.1300E+00  0.1300E+00
    -33.846  0.0000E+00  0.0000E+00  0.1300E+00  0.1300E+00
    -33.676  0.0000E+00  0.0000E+00  0.1300E+00  0.1300E+00
    -33.506  0.0000E+00  0.0000E+00  0.1300E+00  0.1300E+00
    -33.336  0.0000E+00  0.0000E+00  0.1300E+00  0.1300E+00
    -33.166  0.0000E+00  0.0000E+00  0.1300E+00  0.1300E+00
    -32.996  0.0000E+00  0.0000E+00  0.1300E+00  0.1300E+00
    -32.826  0.0000E+00  0.0000E+00  0.1300E+00  0.1300E+00
    -32.656  0.0000E+00  0.0000E+00  0.1300E+00  0.1300E+00
    -32.486  0.0000E+00  0.0000E+00  0.1300E+00  0.1300E+00
    -32.316  0.0000E+00  0.0000E+00  0.1300E+00  0.1300E+00
    -32.147  0.0000E+00  0.0000E+00  0.1300E+00  0.1300E+00
    -31.977  0.0000E+00  0.0000E+00  0.1300E+00  0.1300E+00
    -31.807  0.0000E+00  0.0000E+00  0.1300E+00  0.1300E+00
    -31.637  0.0000E+00  0.0000E+00  0.1300E+00  0.1300E+00
    -31.467  0.0000E+00  0.0000E+00  0.1300E+00  0.1300E+00
    -31.297  0.0000E+00  0.0000E+00  0.1300E+00  0.1300E+00
    -31.127  0.0000E+00  0.0000E+00  0.1300E+00  0.1300E+00
    -30.957  0.0000E+00  0.0000E+00  0.1300E+00  0.1300E+00
    -30.787  0.0000E+00  0.0000E+00  0.1300E+00  0.1300E+00
    -30.617  0.0000E+00  0.0000E+00  0.1300E+00  0.1300E+00
    -30.447  0.0000E+00  0.0000E+00  0.1300E+00  0.1300E+00
    -30.277  0.0000E+00  0.0000E+00  0.1300E+00  0.1300E+00
    -30.107  0.0000E+00  0.0000E+00  0.1300E+00  0.1300E+00
    -29.938  0.0000E+00  0.0000E+00  0.1300E+00  0.1300E+00
    -29.768  0.0000E+00  0.0000E+00  0.1300E+00  0.1300E+00
    -29.598  0.0000E+00  0.0000E+00  0.1300E+00  0.1300E+00
    -29.428  0.0000E+00  0.0000E+00  0.1300E+00  0.1300E+00
    -29.258  0.0000E+00  0.0000E+00  0.1300E+00  0.1300E+00
    -29.088  0.0000E+00  0.0000E+00  0.1300E+00  0.1300E+00
    -28.918  0.0000E+00  0.0000E+00  0.1300E+00  0.1300E+00
    -28.748  0.0000E+00  0.0000E+00  0.1300E+00  0.1300E+00
    -28.578  0.0000E+00  0.0000E+00  0.1300E+00  0.1300E+00
    -28.408  0.0000E+00  0.0000E+00  0.1300E+00  0.1300E+00
    -28.238  0.0000E+00  0.0000E+00  0.1300E+00  0.1300E+00
    -28.068  0.0000E+00  0.0000E+00  0.1300E+00  0.1300E+00
    -27.898  0.0000E+00  0.0000E+00  0.1300E+00  0.1300E+00
    -27.729  0.0000E+00  0.0000E+00  0.1300E+00  0.1300E+00
    -27.559  0.0000E+00  0.0000E+00  0.1300E+00  0.1300E+00
    -27.389  0.0000E+00  0.0000E+00  0.1300E+00  0.1300E+00
    -27.219  0.0000E+00  0.0000E+00  0.1300E+00  0.1300E+00
    -27.049  0.0000E+00  0.0000E+00  0.1300E+00  0.1300E+00
    -26.879  0.0000E+00  0.0000E+00  0.1300E+00  0.1300E+00
    -26.709  0.0000E+00  0.0000E+00  0.1300E+00  0.1300E+00
    -26.539  0.0000E+00  0.0000E+00  0.1300E+00  0.1300E+00
    -26.369  0.0000E+00  0.0000E+00  0.1300E+00  0.1300E+00
    -26.199  0.0000E+00  0.0000E+00  0.1300E+00  0.1300E+00
    -26.029  0.0000E+00  0.0000E+00  0.1300E+00  0.1300E+00
    -25.859  0.0000E+00  0.0000E+00  0.1300E+00  0.1300E+00
    -25.689  0.0000E+00  0.0000E+00  0.1300E+00  0.1300E+00
    -25.519  0.0000E+00  0.0000E+00  0.1300E+00  0.1300E+00
    -25.350  0.0000E+00  0.0000E+00  0.1300E+00  0.1300E+00
    -25.180  0.0000E+00  0.0000E+00  0.1300E+00  0.1300E+00
    -25.010  0.0000E+00  0.0000E+00  0.1300E+00  0.1300E+00
    -24.840  0.0000E+00  0.0000E+00  0.1300E+00  0.1300E+00
    -24.670  0.0000E+00  0.0000E+00  0.1300E+00  0.1300E+00
    -24.500  0.0000E+00  0.0000E+00  0.1300E+00  0.1300E+00
    -24.330  0.0000E+00  0.0000E+00  0.1300E+00  0.1300E+00
    -24.160  0.0000E+00  0.0000E+00  0.1300E+00  0.1300E+00
    -23.990  0.0000E+00  0.0000E+00  0.1300E+00  0.1300E+00
    -23.820  0.0000E+00  0.0000E+00  0.1300E+00  0.1300E+00
    -23.650  0.0000E+00  0.0000E+00  0.1300E+00  0.1300E+00
    -23.480  0.0000E+00  0.0000E+00  0.1300E+00  0.1300E+00
    -23.310  0.0000E+00  0.0000E+00  0.1300E+00  0.1300E+00
    -23.141  0.0000E+00  0.0000E+00  0.1300E+00  0.1300E+00
    -22.971  0.0000E+00  0.0000E+00  0.1300E+00  0.1300E+00
    -22.801  0.0000E+00  0.0000E+00  0.1300E+00  0.1300E+00
    -22.631  0.0000E+00  0.0000E+00  0.1300E+00  0.1300E+00
    -22.461  0.0000E+00  0.0000E+00  0.1300E+00  0.1300E+00
    -22.291  0.0000E+00  0.0000E+00  0.1300E+00  0.1300E+00
    -22.121  0.0000E+00  0.0000E+00  0.1300E+00  0.1300E+00
    -21.951  0.0000E+00  0.0000E+00  0.1300E+00  0.1300E+00
    -21.781  0.0000E+00  0.0000E+00  0.1300E+00  0.1300E+00
    -21.611  0.0000E+00  0.0000E+00  0.1300E+00  0.1300E+00
    -21.441  0.0000E+00  0.0000E+00  0.1300E+00  0.1300E+00
    -21.271  0.0000E+00  0.0000E+00  0.1300E+00  0.1300E+00
    -21.101  0.0000E+00  0.0000E+00  0.1300E+00  0.1300E+00
    -20.932  0.0000E+00  0.0000E+00  0.1300E+00  0.1300E+00
    -20.762  0.0000E+00  0.0000E+00  0.1300E+00  0.1300E+00
    -20.592  0.0000E+00  0.0000E+00  0.1300E+00  0.1300E+00
    -20.422  0.0000E+00  0.0000E+00  0.1300E+00  0.1300E+00
    -20.252  0.0000E+00  0.0000E+00  0.1300E+00  0.1300E+00
    -20.082  0.0000E+00  0.0000E+00  0.1300E+00  0.1300E+00
    -19.912  0.0000E+00  0.0000E+00  0.1300E+00  0.1300E+00
    -19.742  0.0000E+00  0.0000E+00  0.1300E+00  0.1300E+00
    -19.572  0.0000E+00  0.0000E+00  0.1300E+00  0.1300E+00
    -19.402  0.0000E+00  0.0000E+00  0.1300E+00  0.1300E+00
    -19.232  0.0000E+00  0.0000E+00  0.1300E+00  0.1300E+00
    -19.062  0.0000E+00  0.0000E+00  0.1300E+00  0.1300E+00
    -18.892  0.0000E+00  0.0000E+00  0.1300E+00  0.1300E+00
    -18.722  0.0000E+00  0.0000E+00  0.1300E+00  0.1300E+00
    -18.553  0.0000E+00  0.0000E+00  0.1300E+00  0.1300E+00
    -18.383  0.0000E+00  0.0000E+00  0.1300E+00  0.1300E+00
    -18.213  0.0000E+00  0.0000E+00  0.1300E+00  0.1300E+00
    -18.043  0.0000E+00  0.0000E+00  0.1300E+00  0.1300E+00
    -17.873  0.0000E+00  0.0000E+00  0.1300E+00  0.1300E+00
    -17.703  0.0000E+00  0.0000E+00  0.1300E+00  0.1300E+00
    -17.533  0.0000E+00  0.0000E+00  0.1300E+00  0.1300E+00
    -17.363  0.0000E+00  0.0000E+00  0.1300E+00  0.1300E+00
    -17.193  0.0000E+00  0.0000E+00  0.1300E+00  0.1300E+00
    -17.023  0.0000E+00  0.0000E+00  0.1300E+00  0.1300E+00
    -16.853  0.0000E+00  0.0000E+00  0.1300E+00  0.1300E+00
    -16.683  0.0000E+00  0.0000E+00  0.1300E+00  0.1300E+00
    -16.513  0.0000E+00  0.0000E+00  0.1300E+00  0.1300E+00
    -16.344  0.0000E+00  0.0000E+00  0.1300E+00  0.1300E+00
    -16.174  0.0000E+00  0.0000E+00  0.1300E+00  0.1300E+00
    -16.004  0.0000E+00  0.0000E+00  0.1300E+00  0.1300E+00
    -15.834  0.0000E+00  0.0000E+00  0.1300E+00  0.1300E+00
    -15.664  0.0000E+00  0.0000E+00  0.1300E+00  0.1300E+00
    -15.494  0.0000E+00  0.0000E+00  0.1300E+00  0.1300E+00
    -15.324  0.0000E+00  0.0000E+00  0.1300E+00  0.1300E+00
    -15.154  0.0000E+00  0.0000E+00  0.1300E+00  0.1300E+00
    -14.984  0.0000E+00  0.0000E+00  0.1300E+00  0.1300E+00
    -14.814  0.0000E+00  0.0000E+00  0.1300E+00  0.1300E+00
    -14.644  0.0000E+00  0.0000E+00  0.1300E+00  0.1300E+00
    -14.474  0.0000E+00  0.0000E+00  0.1300E+00  0.1300E+00
    -14.304  0.0000E+00  0.0000E+00  0.1300E+00  0.1300E+00
    -14.135  0.0000E+00  0.0000E+00  0.1300E+00  0.1300E+00
    -13.965  0.0000E+00  0.0000E+00  0.1300E+00  0.1300E+00
    -13.795  0.0000E+00  0.0000E+00  0.1300E+00  0.1300E+00
    -13.625  0.0000E+00  0.0000E+00  0.1300E+00  0.1300E+00
    -13.455  0.0000E+00  0.0000E+00  0.1300E+00  0.1300E+00
    -13.285  0.0000E+00  0.0000E+00  0.1300E+00  0.1300E+00
    -13.115  0.0000E+00  0.0000E+00  0.1300E+00  0.1300E+00
    -12.945  0.0000E+00  0.0000E+00  0.1300E+00  0.1300E+00
    -12.775  0.0000E+00  0.0000E+00  0.1300E+00  0.1300E+00
    -12.605  0.0000E+00  0.0000E+00  0.1300E+00  0.1300E+00
    -12.435  0.0000E+00  0.0000E+00  0.1300E+00  0.1300E+00
    -12.265  0.0000E+00  0.0000E+00  0.1300E+00  0.1300E+00
    -12.095  0.0000E+00  0.0000E+00  0.1300E+00  0.1300E+00
    -11.925  0.0000E+00  0.0000E+00  0.1300E+00  0.1300E+00
    -11.756  0.0000E+00  0.0000E+00  0.1300E+00  0.1300E+00
    -11.586  0.0000E+00  0.0000E+00  0.1300E+00  0.1300E+00
    -11.416  0.0000E+00  0.0000E+00  0.1300E+00  0.1300E+00
    -11.246  0.0000E+00  0.0000E+00  0.1300E+00  0.1300E+00
    -11.076  0.0000E+00  0.0000E+00  0.1300E+00  0.1300E+00
    -10.906  0.0000E+00  0.0000E+00  0.1300E+00  0.1300E+00
    -10.736  0.0000E+00  0.0000E+00  0.1300E+00  0.1300E+00
    -10.566  0.0000E+00  0.0000E+00  0.1300E+00  0.1300E+00
    -10.396  0.0000E+00  0.0000E+00  0.1300E+00  0.1300E+00
    -10.226  0.0000E+00  0.0000E+00  0.1300E+00  0.1300E+00
    -10.056  0.0000E+00  0.0000E+00  0.1300E+00  0.1300E+00
     -9.886  0.0000E+00  0.0000E+00  0.1300E+00  0.1300E+00
     -9.716  0.0000E+00  0.0000E+00  0.1300E+00  0.1300E+00
     -9.547  0.0000E+00  0.0000E+00  0.1300E+00  0.1300E+00
     -9.377  0.0000E+00  0.0000E+00  0.1300E+00  0.1300E+00
     -9.207  0.0000E+00  0.0000E+00  0.1300E+00  0.1300E+00
     -9.037  0.0000E+00  0.0000E+00  0.1300E+00  0.1300E+00
     -8.867  0.0000E+00  0.0000E+00  0.1300E+00  0.1300E+00
     -8.697 -0.1769E-33  0.0000E+00  0.1300E+00  0.1300E+00
     -8.527 -0.9346E-26 -0.2916E-30  0.1300E+00  0.1300E+00
     -8.357 -0.3703E-19 -0.5484E-23  0.1300E+00  0.1300E+00
     -8.187 -0.1048E-13 -0.7503E-17  0.1300E+00  0.1300E+00
     -8.017 -0.2194E-09 -0.7632E-12  0.1300E+00  0.1300E+00
     -7.847 -0.3146E-06 -0.5530E-08  0.1300E+00  0.1300E+00
     -7.677 -0.2663E-04 -0.2635E-05  0.1300E+00  0.1300E+00
     -7.507  0.9535E-05 -0.6201E-04  0.1300E+00  0.1300E+00
     -7.337  0.2029E-02  0.3932E-03  0.1303E+00  0.1301E+00
     -7.168  0.5817E-02  0.3719E-02  0.1313E+00  0.1307E+00
     -6.998  0.3209E-02  0.5682E-02  0.1319E+00  0.1317E+00
     -6.828  0.4371E-02  0.1959E-02  0.1326E+00  0.1320E+00
     -6.658  0.9212E-02  0.7192E-02  0.1342E+00  0.1332E+00
     -6.488  0.1402E-02  0.6874E-02  0.1344E+00  0.1344E+00
     -6.318  0.6329E-02  0.1268E-02  0.1355E+00  0.1346E+00
     -6.148  0.1447E-01  0.1010E-01  0.1380E+00  0.1363E+00
     -5.978  0.1033E-01  0.1308E-01  0.1397E+00  0.1385E+00
     -5.808  0.1057E-01  0.9842E-02  0.1415E+00  0.1402E+00
     -5.638  0.1188E-01  0.1160E-01  0.1435E+00  0.1422E+00
     -5.468  0.5017E-02  0.8701E-02  0.1444E+00  0.1437E+00
     -5.298  0.1826E-01  0.5048E-02  0.1475E+00  0.1445E+00
     -5.128  0.1675E-01  0.1816E-01  0.1503E+00  0.1476E+00
     -4.959  0.1498E-01  0.1538E-01  0.1529E+00  0.1502E+00
     -4.789  0.1848E-01  0.1409E-01  0.1560E+00  0.1526E+00
     -4.619  0.2398E-01  0.1739E-01  0.1601E+00  0.1556E+00
     -4.449  0.2785E-01  0.1138E-01  0.1648E+00  0.1575E+00
     -4.279  0.3867E-01  0.2759E-01  0.1714E+00  0.1622E+00
     -4.109  0.5585E-01  0.2282E-01  0.1809E+00  0.1661E+00
     -3.939  0.8405E-01  0.2499E-01  0.1952E+00  0.1703E+00
     -3.769  0.1241E+00  0.1960E-01  0.2162E+00  0.1736E+00
     -3.599  0.1210E+00  0.2906E-01  0.2368E+00  0.1786E+00
     -3.429  0.1515E+00  0.3774E-01  0.2626E+00  0.1850E+00
     -3.259  0.1698E+00  0.5517E-01  0.2914E+00  0.1944E+00
     -3.089  0.1488E+00  0.6486E-01  0.3167E+00  0.2054E+00
     -2.919  0.1487E+00  0.7545E-01  0.3420E+00  0.2182E+00
     -2.750  0.1969E+00  0.6740E-01  0.3754E+00  0.2297E+00
     -2.580  0.2699E+00  0.8941E-01  0.4213E+00  0.2449E+00
     -2.410  0.2320E+00  0.1080E+00  0.4607E+00  0.2632E+00
     -2.240  0.2343E+00  0.1222E+00  0.5005E+00  0.2840E+00
     -2.070  0.2414E+00  0.1280E+00  0.5415E+00  0.3057E+00
     -1.900  0.2255E+00  0.1192E+00  0.5798E+00  0.3260E+00
     -1.730  0.2175E+00  0.1206E+00  0.6168E+00  0.3465E+00
     -1.560  0.2022E+00  0.1450E+00  0.6512E+00  0.3711E+00
     -1.390  0.1715E+00  0.1653E+00  0.6803E+00  0.3992E+00
     -1.220  0.1640E+00  0.1890E+00  0.7082E+00  0.4313E+00
     -1.050  0.1690E+00  0.1815E+00  0.7369E+00  0.4621E+00
     -0.880  0.1962E+00  0.1843E+00  0.7702E+00  0.4935E+00
     -0.710  0.2650E+00  0.1970E+00  0.8153E+00  0.5269E+00
     -0.540  0.3212E+00  0.2009E+00  0.8698E+00  0.5611E+00
     -0.371  0.3019E+00  0.2040E+00  0.9211E+00  0.5957E+00
     -0.201  0.2291E+00  0.1825E+00  0.9601E+00  0.6268E+00
     -0.031  0.1630E+00  0.1643E+00  0.9878E+00  0.6547E+00
      0.139  0.1330E+00  0.1411E+00  0.1010E+01  0.6787E+00
      0.309  0.1192E+00  0.1320E+00  0.1031E+01  0.7011E+00
      0.479  0.1091E+00  0.1274E+00  0.1049E+01  0.7227E+00
      0.649  0.9051E-01  0.1108E+00  0.1065E+01  0.7416E+00
      0.819  0.8652E-01  0.1184E+00  0.1079E+01  0.7617E+00
      0.989  0.9516E-01  0.1330E+00  0.1095E+01  0.7843E+00
      1.159  0.8587E-01  0.1551E+00  0.1110E+01  0.8106E+00
      1.329  0.8765E-01  0.1713E+00  0.1125E+01  0.8397E+00
      1.499  0.9082E-01  0.2042E+00  0.1140E+01  0.8744E+00
      1.669  0.9589E-01  0.2359E+00  0.1157E+01  0.9145E+00
      1.838  0.1050E+00  0.2746E+00  0.1174E+01  0.9612E+00
      2.008  0.1036E+00  0.3021E+00  0.1192E+01  0.1013E+01
      2.178  0.4857E-01  0.3034E+00  0.1200E+01  0.1064E+01
      2.348 -0.1307E-02  0.3399E+00  0.1200E+01  0.1122E+01
      2.518 -0.4835E-03  0.2846E+00  0.1200E+01  0.1170E+01
      2.688 -0.3325E-05  0.1564E+00  0.1200E+01  0.1197E+01
      2.858 -0.1625E-08  0.2235E-01  0.1200E+01  0.1201E+01
      3.028 -0.6077E-13 -0.3180E-02  0.1200E+01  0.1200E+01
      3.198  0.0000E+00 -0.1196E-03  0.1200E+01  0.1200E+01
      3.368  0.0000E+00 -0.3542E-06  0.1200E+01  0.1200E+01
      3.538  0.0000E+00 -0.1003E-09  0.1200E+01  0.1200E+01
      3.708  0.0000E+00 -0.2490E-14  0.1200E+01  0.1200E+01
      3.878  0.0000E+00  0.0000E+00  0.1200E+01  0.1200E+01
      4.047  0.0000E+00  0.0000E+00  0.1200E+01  0.1200E+01
      4.217  0.0000E+00  0.0000E+00  0.1200E+01  0.1200E+01
      4.387  0.0000E+00  0.0000E+00  0.1200E+01  0.1200E+01
      4.557  0.0000E+00  0.0000E+00  0.1200E+01  0.1200E+01
      4.727  0.0000E+00  0.0000E+00  0.1200E+01  0.1200E+01
      4.897  0.0000E+00  0.0000E+00  0.1200E+01  0.1200E+01
      5.067  0.0000E+00  0.0000E+00  0.1200E+01  0.1200E+01
