INCAR-For-OPT                           
           1
     8.504600    0.000000    0.000000
    -0.001099    8.509100    0.000000
     0.000000    0.000000   23.556601
   Cr   Fe
    13    49
Direct configuration=     1
   0.99760000  0.00330000  0.24221000
   0.66561000  0.99834000  0.00060000
   0.67354400  0.00891500  0.36928400
   0.83467000  0.16589000  0.18209000
   0.99866000  0.33404000  0.12198000
   0.33421000  0.33147000  0.00101000
   0.33492000  0.32166100  0.36416600
   0.83220000  0.50025000  0.06275000
   0.83124000  0.50129100  0.30439700
   0.33512000  0.67037000  0.00000000
   0.33145000  0.66488000  0.12292000
   0.50213000  0.83338100  0.29913600
   0.67111000  0.66550000  0.12148000
   0.99950000  0.00032000  0.00103000
   0.99726800  0.99707400  0.36118600
   0.16670000  0.16592000  0.06160000
   0.99930000  0.00013000  0.12183000
   0.16670000  0.16692000  0.18170000
   0.16532700  0.16232300  0.30409900
   0.33368000  0.99986000  0.00108000
   0.34278800  0.99186200  0.35939600
   0.50008000  0.16606000  0.06164000
   0.33365000  0.99945000  0.12194000
   0.50013000  0.16657000  0.18176000
   0.33374000  0.99994000  0.24252000
   0.50427000  0.16481800  0.30293500
   0.83412000  0.16807000  0.06130000
   0.66767000  0.99972000  0.12168000
   0.66792000  0.00032000  0.24233000
   0.83459500  0.16873300  0.30380900
   0.00033000  0.33346000  0.00076000
   0.00196900  0.33211200  0.36111800
   0.16704000  0.50116000  0.06077000
   0.16627000  0.49940000  0.18238000
   0.00000000  0.33319000  0.24260000
   0.16689500  0.49939100  0.30484700
   0.49811000  0.50186000  0.06112000
   0.33328000  0.33434000  0.12148000
   0.50051000  0.50053000  0.18145000
   0.33392000  0.33269000  0.24229000
   0.49886100  0.50205200  0.30516800
   0.66687000  0.33418000  0.00129000
   0.66605200  0.33549800  0.36105200
   0.66670000  0.33332000  0.12177000
   0.83466000  0.49916000  0.18181000
   0.66748000  0.33291000  0.24234000
   0.99949000  0.66581000  0.00112000
   0.00140400  0.66980100  0.36155500
   0.16773000  0.83295000  0.06141000
   0.00149000  0.66672000  0.12196000
   0.16592000  0.83389000  0.18235000
   0.99950000  0.66635000  0.24245000
   0.16581300  0.83274300  0.30350500
   0.49825000  0.83185000  0.06189000
   0.50064000  0.83335000  0.18189000
   0.33424000  0.66627000  0.24239000
   0.66521000  0.66629000  0.00100000
   0.65532100  0.67335100  0.36185000
   0.83382000  0.83268000  0.06128000
   0.83390000  0.83311000  0.18191000
   0.66721000  0.66675000  0.24221000
   0.83053200  0.83175400  0.30432900
Direct configuration=     2
   0.99760000  0.00330000  0.24221000
   0.66561000  0.99834000  0.00060000
   0.67325912  0.00896721  0.36621273
   0.83467000  0.16589000  0.18209000
   0.99866000  0.33404000  0.12198000
   0.33421000  0.33147000  0.00101000
   0.33501182  0.32218819  0.36414928
   0.83220000  0.50025000  0.06275000
   0.83161909  0.50123548  0.30442005
   0.33512000  0.67037000  0.00000000
   0.33145000  0.66488000  0.12292000
   0.50227093  0.83411871  0.30101804
   0.67111000  0.66550000  0.12148000
   0.99950000  0.00032000  0.00103000
   0.99593144  0.99747577  0.36129928
   0.16670000  0.16592000  0.06160000
   0.99930000  0.00013000  0.12183000
   0.16670000  0.16692000  0.18170000
   0.16547337  0.16240321  0.30415634
   0.33368000  0.99986000  0.00108000
   0.34358337  0.99292935  0.35946866
   0.50008000  0.16606000  0.06164000
   0.33365000  0.99945000  0.12194000
   0.50013000  0.16657000  0.18176000
   0.33374000  0.99994000  0.24252000
   0.50615647  0.16397700  0.30390659
   0.83412000  0.16807000  0.06130000
   0.66767000  0.99972000  0.12168000
   0.66792000  0.00032000  0.24233000
   0.83256123  0.16676797  0.30420042
   0.00033000  0.33346000  0.00076000
   0.00221827  0.33202306  0.36136869
   0.16704000  0.50116000  0.06077000
   0.16627000  0.49940000  0.18238000
   0.00000000  0.33319000  0.24260000
   0.16752833  0.50084072  0.30453897
   0.49811000  0.50186000  0.06112000
   0.33328000  0.33434000  0.12148000
   0.50051000  0.50053000  0.18145000
   0.33392000  0.33269000  0.24229000
   0.49814289  0.50280878  0.30474005
   0.66687000  0.33418000  0.00129000
   0.66554288  0.33398284  0.36125319
   0.66670000  0.33332000  0.12177000
   0.83466000  0.49916000  0.18181000
   0.66748000  0.33291000  0.24234000
   0.99949000  0.66581000  0.00112000
   0.00014216  0.66905007  0.36153522
   0.16773000  0.83295000  0.06141000
   0.00149000  0.66672000  0.12196000
   0.16592000  0.83389000  0.18235000
   0.99950000  0.66635000  0.24245000
   0.16710528  0.83125965  0.30338825
   0.49825000  0.83185000  0.06189000
   0.50064000  0.83335000  0.18189000
   0.33424000  0.66627000  0.24239000
   0.66521000  0.66629000  0.00100000
   0.65689195  0.67403111  0.36166449
   0.83382000  0.83268000  0.06128000
   0.83390000  0.83311000  0.18191000
   0.66721000  0.66675000  0.24221000
   0.82964280  0.83338235  0.30481390
Direct configuration=     3
   0.99760000  0.00330000  0.24221000
   0.66561000  0.99834000  0.00060000
   0.67289270  0.00903436  0.36226249
   0.83467000  0.16589000  0.18209000
   0.99866000  0.33404000  0.12198000
   0.33421000  0.33147000  0.00101000
   0.33512992  0.32286625  0.36412778
   0.83220000  0.50025000  0.06275000
   0.83210666  0.50116406  0.30444970
   0.33512000  0.67037000  0.00000000
   0.33145000  0.66488000  0.12292000
   0.50245218  0.83506755  0.30343869
   0.67111000  0.66550000  0.12148000
   0.99950000  0.00032000  0.00103000
   0.99421237  0.99799252  0.36144498
   0.16670000  0.16592000  0.06160000
   0.99930000  0.00013000  0.12183000
   0.16670000  0.16692000  0.18170000
   0.16566162  0.16250637  0.30423008
   0.33368000  0.99986000  0.00108000
   0.34460637  0.99430215  0.35956212
   0.50008000  0.16606000  0.06164000
   0.33365000  0.99945000  0.12194000
   0.50013000  0.16657000  0.18176000
   0.33374000  0.99994000  0.24252000
   0.50858283  0.16289532  0.30515624
   0.83412000  0.16807000  0.06130000
   0.66767000  0.99972000  0.12168000
   0.66792000  0.00032000  0.24233000
   0.82994543  0.16424056  0.30470387
   0.00033000  0.33346000  0.00076000
   0.00253887  0.33190866  0.36169112
   0.16704000  0.50116000  0.06077000
   0.16627000  0.49940000  0.18238000
   0.00000000  0.33319000  0.24260000
   0.16834291  0.50270533  0.30414279
   0.49811000  0.50186000  0.06112000
   0.33328000  0.33434000  0.12148000
   0.50051000  0.50053000  0.18145000
   0.33392000  0.33269000  0.24229000
   0.49721925  0.50378215  0.30418962
   0.66687000  0.33418000  0.00129000
   0.66488806  0.33203406  0.36151196
   0.66670000  0.33332000  0.12177000
   0.83466000  0.49916000  0.18181000
   0.66748000  0.33291000  0.24234000
   0.99949000  0.66581000  0.00112000
   0.99851920  0.66808423  0.36150977
   0.16773000  0.83295000  0.06141000
   0.00149000  0.66672000  0.12196000
   0.16592000  0.83389000  0.18235000
   0.99950000  0.66635000  0.24245000
   0.16876740  0.82935178  0.30323809
   0.49825000  0.83185000  0.06189000
   0.50064000  0.83335000  0.18189000
   0.33424000  0.66627000  0.24239000
   0.66521000  0.66629000  0.00100000
   0.65891249  0.67490587  0.36142588
   0.83382000  0.83268000  0.06128000
   0.83390000  0.83311000  0.18191000
   0.66721000  0.66675000  0.24221000
   0.82849913  0.83547672  0.30543756
Direct configuration=     4
   0.99760000  0.00330000  0.24221000
   0.66561000  0.99834000  0.00060000
   0.67094291  0.00743209  0.36077565
   0.83467000  0.16589000  0.18209000
   0.99866000  0.33404000  0.12198000
   0.33421000  0.33147000  0.00101000
   0.33521717  0.32398316  0.36394198
   0.83220000  0.50025000  0.06275000
   0.83211888  0.50062126  0.30440764
   0.33512000  0.67037000  0.00000000
   0.33145000  0.66488000  0.12292000
   0.50255571  0.83539475  0.30445394
   0.67111000  0.66550000  0.12148000
   0.99950000  0.00032000  0.00103000
   0.99453965  0.99846998  0.36155513
   0.16670000  0.16592000  0.06160000
   0.99930000  0.00013000  0.12183000
   0.16670000  0.16692000  0.18170000
   0.16518745  0.16254868  0.30431096
   0.33368000  0.99986000  0.00108000
   0.34364257  0.99519055  0.35982429
   0.50008000  0.16606000  0.06164000
   0.33365000  0.99945000  0.12194000
   0.50013000  0.16657000  0.18176000
   0.33374000  0.99994000  0.24252000
   0.50773873  0.16394429  0.30497008
   0.83412000  0.16807000  0.06130000
   0.66767000  0.99972000  0.12168000
   0.66792000  0.00032000  0.24233000
   0.83170777  0.16607451  0.30411704
   0.00033000  0.33346000  0.00076000
   0.00306515  0.33184408  0.36163016
   0.16704000  0.50116000  0.06077000
   0.16627000  0.49940000  0.18238000
   0.00000000  0.33319000  0.24260000
   0.16839418  0.50299884  0.30414116
   0.49811000  0.50186000  0.06112000
   0.33328000  0.33434000  0.12148000
   0.50051000  0.50053000  0.18145000
   0.33392000  0.33269000  0.24229000
   0.49746480  0.50411823  0.30415928
   0.66687000  0.33418000  0.00129000
   0.66410522  0.33188969  0.36190108
   0.66670000  0.33332000  0.12177000
   0.83466000  0.49916000  0.18181000
   0.66748000  0.33291000  0.24234000
   0.99949000  0.66581000  0.00112000
   0.99740270  0.66717443  0.36138459
   0.16773000  0.83295000  0.06141000
   0.00149000  0.66672000  0.12196000
   0.16592000  0.83389000  0.18235000
   0.99950000  0.66635000  0.24245000
   0.16897720  0.82913337  0.30357386
   0.49825000  0.83185000  0.06189000
   0.50064000  0.83335000  0.18189000
   0.33424000  0.66627000  0.24239000
   0.66521000  0.66629000  0.00100000
   0.66062974  0.67372998  0.36143326
   0.83382000  0.83268000  0.06128000
   0.83390000  0.83311000  0.18191000
   0.66721000  0.66675000  0.24221000
   0.82980910  0.83479250  0.30490429
Direct configuration=     5
   0.99760000  0.00330000  0.24221000
   0.66561000  0.99834000  0.00060000
   0.66509352  0.00262526  0.35631513
   0.83467000  0.16589000  0.18209000
   0.99866000  0.33404000  0.12198000
   0.33421000  0.33147000  0.00101000
   0.33547892  0.32733387  0.36338458
   0.83220000  0.50025000  0.06275000
   0.83215556  0.49899284  0.30428146
   0.33512000  0.67037000  0.00000000
   0.33145000  0.66488000  0.12292000
   0.50286630  0.83637634  0.30749970
   0.67111000  0.66550000  0.12148000
   0.99950000  0.00032000  0.00103000
   0.99552151  0.99990237  0.36188559
   0.16670000  0.16592000  0.06160000
   0.99930000  0.00013000  0.12183000
   0.16670000  0.16692000  0.18170000
   0.16376492  0.16267560  0.30455359
   0.33368000  0.99986000  0.00108000
   0.34075117  0.99785574  0.36061080
   0.50008000  0.16606000  0.06164000
   0.33365000  0.99945000  0.12194000
   0.50013000  0.16657000  0.18176000
   0.33374000  0.99994000  0.24252000
   0.50520642  0.16709118  0.30441160
   0.83412000  0.16807000  0.06130000
   0.66767000  0.99972000  0.12168000
   0.66792000  0.00032000  0.24233000
   0.83699480  0.17157634  0.30235655
   0.00033000  0.33346000  0.00076000
   0.00464400  0.33165033  0.36144727
   0.16704000  0.50116000  0.06077000
   0.16627000  0.49940000  0.18238000
   0.00000000  0.33319000  0.24260000
   0.16854798  0.50387937  0.30413626
   0.49811000  0.50186000  0.06112000
   0.33328000  0.33434000  0.12148000
   0.50051000  0.50053000  0.18145000
   0.33392000  0.33269000  0.24229000
   0.49820144  0.50512648  0.30406828
   0.66687000  0.33418000  0.00129000
   0.66175669  0.33145658  0.36306845
   0.66670000  0.33332000  0.12177000
   0.83466000  0.49916000  0.18181000
   0.66748000  0.33291000  0.24234000
   0.99949000  0.66581000  0.00112000
   0.99405321  0.66444503  0.36100906
   0.16773000  0.83295000  0.06141000
   0.00149000  0.66672000  0.12196000
   0.16592000  0.83389000  0.18235000
   0.99950000  0.66635000  0.24245000
   0.16960660  0.82847811  0.30458117
   0.49825000  0.83185000  0.06189000
   0.50064000  0.83335000  0.18189000
   0.33424000  0.66627000  0.24239000
   0.66521000  0.66629000  0.00100000
   0.66578148  0.67020232  0.36145538
   0.83382000  0.83268000  0.06128000
   0.83390000  0.83311000  0.18191000
   0.66721000  0.66675000  0.24221000
   0.83373904  0.83273981  0.30330447
Direct configuration=     6
   0.99760000  0.00330000  0.24221000
   0.66561000  0.99834000  0.00060000
   0.66101806  0.99773497  0.35460448
   0.83467000  0.16589000  0.18209000
   0.99866000  0.33404000  0.12198000
   0.33421000  0.33147000  0.00101000
   0.33539862  0.32924143  0.36320724
   0.83220000  0.50025000  0.06275000
   0.83199396  0.49838132  0.30404032
   0.33512000  0.67037000  0.00000000
   0.33145000  0.66488000  0.12292000
   0.50444746  0.83751134  0.30786169
   0.67111000  0.66550000  0.12148000
   0.99950000  0.00032000  0.00103000
   0.99653664  0.00102234  0.36156580
   0.16670000  0.16592000  0.06160000
   0.99930000  0.00013000  0.12183000
   0.16670000  0.16692000  0.18170000
   0.16462496  0.16245357  0.30449704
   0.33368000  0.99986000  0.00108000
   0.33792690  0.00011692  0.36104075
   0.50008000  0.16606000  0.06164000
   0.33365000  0.99945000  0.12194000
   0.50013000  0.16657000  0.18176000
   0.33374000  0.99994000  0.24252000
   0.50373143  0.16793862  0.30380587
   0.83412000  0.16807000  0.06130000
   0.66767000  0.99972000  0.12168000
   0.66792000  0.00032000  0.24233000
   0.83591812  0.17122585  0.30248804
   0.00033000  0.33346000  0.00076000
   0.00557219  0.33233987  0.36166895
   0.16704000  0.50116000  0.06077000
   0.16627000  0.49940000  0.18238000
   0.00000000  0.33319000  0.24260000
   0.16858072  0.50348258  0.30409455
   0.49811000  0.50186000  0.06112000
   0.33328000  0.33434000  0.12148000
   0.50051000  0.50053000  0.18145000
   0.33392000  0.33269000  0.24229000
   0.49892055  0.50501436  0.30431023
   0.66687000  0.33418000  0.00129000
   0.66152947  0.33177677  0.36312963
   0.66670000  0.33332000  0.12177000
   0.83466000  0.49916000  0.18181000
   0.66748000  0.33291000  0.24234000
   0.99949000  0.66581000  0.00112000
   0.99270074  0.66290345  0.36106421
   0.16773000  0.83295000  0.06141000
   0.00149000  0.66672000  0.12196000
   0.16592000  0.83389000  0.18235000
   0.99950000  0.66635000  0.24245000
   0.16950565  0.82925455  0.30493449
   0.49825000  0.83185000  0.06189000
   0.50064000  0.83335000  0.18189000
   0.33424000  0.66627000  0.24239000
   0.66521000  0.66629000  0.00100000
   0.66929177  0.66744728  0.36145654
   0.83382000  0.83268000  0.06128000
   0.83390000  0.83311000  0.18191000
   0.66721000  0.66675000  0.24221000
   0.83423089  0.83351120  0.30286590
Direct configuration=     7
   0.99760000  0.00330000  0.24221000
   0.66561000  0.99834000  0.00060000
   0.65733846  0.99331969  0.35306000
   0.83467000  0.16589000  0.18209000
   0.99866000  0.33404000  0.12198000
   0.33421000  0.33147000  0.00101000
   0.33532612  0.33096370  0.36304713
   0.83220000  0.50025000  0.06275000
   0.83184806  0.49782921  0.30382260
   0.33512000  0.67037000  0.00000000
   0.33145000  0.66488000  0.12292000
   0.50587504  0.83853609  0.30818852
   0.67111000  0.66550000  0.12148000
   0.99950000  0.00032000  0.00103000
   0.99745317  0.00203352  0.36127707
   0.16670000  0.16592000  0.06160000
   0.99930000  0.00013000  0.12183000
   0.16670000  0.16692000  0.18170000
   0.16540146  0.16225310  0.30444599
   0.33368000  0.99986000  0.00108000
   0.33537695  0.00215846  0.36142893
   0.50008000  0.16606000  0.06164000
   0.33365000  0.99945000  0.12194000
   0.50013000  0.16657000  0.18176000
   0.33374000  0.99994000  0.24252000
   0.50239971  0.16870374  0.30325898
   0.83412000  0.16807000  0.06130000
   0.66767000  0.99972000  0.12168000
   0.66792000  0.00032000  0.24233000
   0.83494603  0.17090940  0.30260675
   0.00033000  0.33346000  0.00076000
   0.00641023  0.33296243  0.36186909
   0.16704000  0.50116000  0.06077000
   0.16627000  0.49940000  0.18238000
   0.00000000  0.33319000  0.24260000
   0.16861028  0.50312433  0.30405689
   0.49811000  0.50186000  0.06112000
   0.33328000  0.33434000  0.12148000
   0.50051000  0.50053000  0.18145000
   0.33392000  0.33269000  0.24229000
   0.49956981  0.50491312  0.30452867
   0.66687000  0.33418000  0.00129000
   0.66132432  0.33206585  0.36318488
   0.66670000  0.33332000  0.12177000
   0.83466000  0.49916000  0.18181000
   0.66748000  0.33291000  0.24234000
   0.99949000  0.66581000  0.00112000
   0.99147964  0.66151161  0.36111400
   0.16773000  0.83295000  0.06141000
   0.00149000  0.66672000  0.12196000
   0.16592000  0.83389000  0.18235000
   0.99950000  0.66635000  0.24245000
   0.16941450  0.82995556  0.30525349
   0.49825000  0.83185000  0.06189000
   0.50064000  0.83335000  0.18189000
   0.33424000  0.66627000  0.24239000
   0.66521000  0.66629000  0.00100000
   0.67246109  0.66495985  0.36145759
   0.83382000  0.83268000  0.06128000
   0.83390000  0.83311000  0.18191000
   0.66721000  0.66675000  0.24221000
   0.83467497  0.83420767  0.30246993
Direct configuration=     8
   0.99760000  0.00330000  0.24221000
   0.66561000  0.99834000  0.00060000
   0.65242767  0.98706468  0.35393315
   0.83467000  0.16589000  0.18209000
   0.99866000  0.33404000  0.12198000
   0.33421000  0.33147000  0.00101000
   0.33486938  0.33231013  0.36317479
   0.83220000  0.50025000  0.06275000
   0.83240797  0.49695026  0.30336227
   0.33512000  0.67037000  0.00000000
   0.33145000  0.66488000  0.12292000
   0.50532661  0.83743674  0.30715573
   0.67111000  0.66550000  0.12148000
   0.99950000  0.00032000  0.00103000
   0.99976592  0.00347587  0.36084649
   0.16670000  0.16592000  0.06160000
   0.99930000  0.00013000  0.12183000
   0.16670000  0.16692000  0.18170000
   0.16555302  0.16349958  0.30417936
   0.33368000  0.99986000  0.00108000
   0.33175676  0.00590365  0.36212609
   0.50008000  0.16606000  0.06164000
   0.33365000  0.99945000  0.12194000
   0.50013000  0.16657000  0.18176000
   0.33374000  0.99994000  0.24252000
   0.50048844  0.16947404  0.30292365
   0.83412000  0.16807000  0.06130000
   0.66767000  0.99972000  0.12168000
   0.66792000  0.00032000  0.24233000
   0.83332128  0.16982589  0.30323957
   0.00033000  0.33346000  0.00076000
   0.00736648  0.33382779  0.36208130
   0.16704000  0.50116000  0.06077000
   0.16627000  0.49940000  0.18238000
   0.00000000  0.33319000  0.24260000
   0.16855769  0.50291455  0.30387659
   0.49811000  0.50186000  0.06112000
   0.33328000  0.33434000  0.12148000
   0.50051000  0.50053000  0.18145000
   0.33392000  0.33269000  0.24229000
   0.49985756  0.50458502  0.30451568
   0.66687000  0.33418000  0.00129000
   0.66166719  0.33296766  0.36273209
   0.66670000  0.33332000  0.12177000
   0.83466000  0.49916000  0.18181000
   0.66748000  0.33291000  0.24234000
   0.99949000  0.66581000  0.00112000
   0.99049918  0.66032214  0.36117100
   0.16773000  0.83295000  0.06141000
   0.00149000  0.66672000  0.12196000
   0.16592000  0.83389000  0.18235000
   0.99950000  0.66635000  0.24245000
   0.16904297  0.83005911  0.30511568
   0.49825000  0.83185000  0.06189000
   0.50064000  0.83335000  0.18189000
   0.33424000  0.66627000  0.24239000
   0.66521000  0.66629000  0.00100000
   0.67663886  0.66188321  0.36158924
   0.83382000  0.83268000  0.06128000
   0.83390000  0.83311000  0.18191000
   0.66721000  0.66675000  0.24221000
   0.83564577  0.83422394  0.30232299
Direct configuration=     9
   0.99760000  0.00330000  0.24221000
   0.66561000  0.99834000  0.00060000
   0.64901661  0.98271991  0.35453964
   0.83467000  0.16589000  0.18209000
   0.99866000  0.33404000  0.12198000
   0.33421000  0.33147000  0.00101000
   0.33455212  0.33324537  0.36326347
   0.83220000  0.50025000  0.06275000
   0.83279689  0.49633974  0.30304252
   0.33512000  0.67037000  0.00000000
   0.33145000  0.66488000  0.12292000
   0.50494566  0.83667312  0.30643835
   0.67111000  0.66550000  0.12148000
   0.99950000  0.00032000  0.00103000
   0.00137237  0.00447774  0.36054741
   0.16670000  0.16592000  0.06160000
   0.99930000  0.00013000  0.12183000
   0.16670000  0.16692000  0.18170000
   0.16565829  0.16436539  0.30399416
   0.33368000  0.99986000  0.00108000
   0.32924215  0.00850507  0.36261034
   0.50008000  0.16606000  0.06164000
   0.33365000  0.99945000  0.12194000
   0.50013000  0.16657000  0.18176000
   0.33374000  0.99994000  0.24252000
   0.49916087  0.17000910  0.30269074
   0.83412000  0.16807000  0.06130000
   0.66767000  0.99972000  0.12168000
   0.66792000  0.00032000  0.24233000
   0.83219273  0.16907328  0.30367912
   0.00033000  0.33346000  0.00076000
   0.00803069  0.33442887  0.36222870
   0.16704000  0.50116000  0.06077000
   0.16627000  0.49940000  0.18238000
   0.00000000  0.33319000  0.24260000
   0.16852116  0.50276883  0.30375136
   0.49811000  0.50186000  0.06112000
   0.33328000  0.33434000  0.12148000
   0.50051000  0.50053000  0.18145000
   0.33392000  0.33269000  0.24229000
   0.50005744  0.50435711  0.30450665
   0.66687000  0.33418000  0.00129000
   0.66190535  0.33359406  0.36241759
   0.66670000  0.33332000  0.12177000
   0.83466000  0.49916000  0.18181000
   0.66748000  0.33291000  0.24234000
   0.99949000  0.66581000  0.00112000
   0.98981815  0.65949593  0.36121060
   0.16773000  0.83295000  0.06141000
   0.00149000  0.66672000  0.12196000
   0.16592000  0.83389000  0.18235000
   0.99950000  0.66635000  0.24245000
   0.16878491  0.83013103  0.30501996
   0.49825000  0.83185000  0.06189000
   0.50064000  0.83335000  0.18189000
   0.33424000  0.66627000  0.24239000
   0.66521000  0.66629000  0.00100000
   0.67954076  0.65974616  0.36168067
   0.83382000  0.83268000  0.06128000
   0.83390000  0.83311000  0.18191000
   0.66721000  0.66675000  0.24221000
   0.83632009  0.83423524  0.30222093
Direct configuration=    10
   0.99760000  0.00330000  0.24221000
   0.66561000  0.99834000  0.00060000
   0.64719039  0.98222057  0.35789853
   0.83467000  0.16589000  0.18209000
   0.99866000  0.33404000  0.12198000
   0.33421000  0.33147000  0.00101000
   0.33402942  0.33277300  0.36373542
   0.83220000  0.50025000  0.06275000
   0.83400447  0.49547606  0.30269649
   0.33512000  0.67037000  0.00000000
   0.33145000  0.66488000  0.12292000
   0.50074329  0.83330604  0.30522806
   0.67111000  0.66550000  0.12148000
   0.99950000  0.00032000  0.00103000
   0.00283183  0.00431157  0.36069386
   0.16670000  0.16592000  0.06160000
   0.99930000  0.00013000  0.12183000
   0.16670000  0.16692000  0.18170000
   0.16428852  0.16646186  0.30347691
   0.33368000  0.99986000  0.00108000
   0.32798971  0.01108024  0.36291196
   0.50008000  0.16606000  0.06164000
   0.33365000  0.99945000  0.12194000
   0.50013000  0.16657000  0.18176000
   0.33374000  0.99994000  0.24252000
   0.49965112  0.16907768  0.30331895
   0.83412000  0.16807000  0.06130000
   0.66767000  0.99972000  0.12168000
   0.66792000  0.00032000  0.24233000
   0.83196454  0.16843259  0.30372889
   0.00033000  0.33346000  0.00076000
   0.00808508  0.33450086  0.36228812
   0.16704000  0.50116000  0.06077000
   0.16627000  0.49940000  0.18238000
   0.00000000  0.33319000  0.24260000
   0.16886455  0.50326488  0.30346219
   0.49811000  0.50186000  0.06112000
   0.33328000  0.33434000  0.12148000
   0.50051000  0.50053000  0.18145000
   0.33392000  0.33269000  0.24229000
   0.49937946  0.50420671  0.30388195
   0.66687000  0.33418000  0.00129000
   0.66181389  0.33396732  0.36201551
   0.66670000  0.33332000  0.12177000
   0.83466000  0.49916000  0.18181000
   0.66748000  0.33291000  0.24234000
   0.99949000  0.66581000  0.00112000
   0.99013867  0.65989227  0.36122536
   0.16773000  0.83295000  0.06141000
   0.00149000  0.66672000  0.12196000
   0.16592000  0.83389000  0.18235000
   0.99950000  0.66635000  0.24245000
   0.16899999  0.82971713  0.30450202
   0.49825000  0.83185000  0.06189000
   0.50064000  0.83335000  0.18189000
   0.33424000  0.66627000  0.24239000
   0.66521000  0.66629000  0.00100000
   0.68139103  0.65842023  0.36173959
   0.83382000  0.83268000  0.06128000
   0.83390000  0.83311000  0.18191000
   0.66721000  0.66675000  0.24221000
   0.83689902  0.83301505  0.30228823
Direct configuration=    11
   0.99760000  0.00330000  0.24221000
   0.66561000  0.99834000  0.00060000
   0.64580187  0.98184091  0.36045237
   0.83467000  0.16589000  0.18209000
   0.99866000  0.33404000  0.12198000
   0.33421000  0.33147000  0.00101000
   0.33363199  0.33241384  0.36409426
   0.83220000  0.50025000  0.06275000
   0.83492262  0.49481939  0.30243340
   0.33512000  0.67037000  0.00000000
   0.33145000  0.66488000  0.12292000
   0.49754812  0.83074598  0.30430784
   0.67111000  0.66550000  0.12148000
   0.99950000  0.00032000  0.00103000
   0.00394150  0.00418523  0.36080522
   0.16670000  0.16592000  0.06160000
   0.99930000  0.00013000  0.12183000
   0.16670000  0.16692000  0.18170000
   0.16324704  0.16805586  0.30308364
   0.33368000  0.99986000  0.00108000
   0.32703744  0.01303819  0.36314128
   0.50008000  0.16606000  0.06164000
   0.33365000  0.99945000  0.12194000
   0.50013000  0.16657000  0.18176000
   0.33374000  0.99994000  0.24252000
   0.50002387  0.16836950  0.30379659
   0.83412000  0.16807000  0.06130000
   0.66767000  0.99972000  0.12168000
   0.66792000  0.00032000  0.24233000
   0.83179105  0.16794546  0.30376674
   0.00033000  0.33346000  0.00076000
   0.00812643  0.33455560  0.36233330
   0.16704000  0.50116000  0.06077000
   0.16627000  0.49940000  0.18238000
   0.00000000  0.33319000  0.24260000
   0.16912564  0.50364203  0.30324233
   0.49811000  0.50186000  0.06112000
   0.33328000  0.33434000  0.12148000
   0.50051000  0.50053000  0.18145000
   0.33392000  0.33269000  0.24229000
   0.49886398  0.50409235  0.30340698
   0.66687000  0.33418000  0.00129000
   0.66174435  0.33425111  0.36170981
   0.66670000  0.33332000  0.12177000
   0.83466000  0.49916000  0.18181000
   0.66748000  0.33291000  0.24234000
   0.99949000  0.66581000  0.00112000
   0.99038237  0.66019361  0.36123659
   0.16773000  0.83295000  0.06141000
   0.00149000  0.66672000  0.12196000
   0.16592000  0.83389000  0.18235000
   0.99950000  0.66635000  0.24245000
   0.16916352  0.82940244  0.30410821
   0.49825000  0.83185000  0.06189000
   0.50064000  0.83335000  0.18189000
   0.33424000  0.66627000  0.24239000
   0.66521000  0.66629000  0.00100000
   0.68279783  0.65741210  0.36178438
   0.83382000  0.83268000  0.06128000
   0.83390000  0.83311000  0.18191000
   0.66721000  0.66675000  0.24221000
   0.83733920  0.83208730  0.30233940
Direct configuration=    12
   0.99760000  0.00330000  0.24221000
   0.66561000  0.99834000  0.00060000
   0.64539096  0.98172856  0.36120814
   0.83467000  0.16589000  0.18209000
   0.99866000  0.33404000  0.12198000
   0.33421000  0.33147000  0.00101000
   0.33351438  0.33230756  0.36420046
   0.83220000  0.50025000  0.06275000
   0.83519433  0.49462506  0.30235554
   0.33512000  0.67037000  0.00000000
   0.33145000  0.66488000  0.12292000
   0.49660256  0.82998837  0.30403552
   0.67111000  0.66550000  0.12148000
   0.99950000  0.00032000  0.00103000
   0.00426989  0.00414784  0.36083817
   0.16670000  0.16592000  0.06160000
   0.99930000  0.00013000  0.12183000
   0.16670000  0.16692000  0.18170000
   0.16293884  0.16852757  0.30296726
   0.33368000  0.99986000  0.00108000
   0.32675564  0.01361762  0.36320914
   0.50008000  0.16606000  0.06164000
   0.33365000  0.99945000  0.12194000
   0.50013000  0.16657000  0.18176000
   0.33374000  0.99994000  0.24252000
   0.50013418  0.16815992  0.30393795
   0.83412000  0.16807000  0.06130000
   0.66767000  0.99972000  0.12168000
   0.66792000  0.00032000  0.24233000
   0.83173970  0.16780131  0.30377794
   0.00033000  0.33346000  0.00076000
   0.00813867  0.33457179  0.36234667
   0.16704000  0.50116000  0.06077000
   0.16627000  0.49940000  0.18238000
   0.00000000  0.33319000  0.24260000
   0.16920291  0.50375365  0.30317727
   0.49811000  0.50186000  0.06112000
   0.33328000  0.33434000  0.12148000
   0.50051000  0.50053000  0.18145000
   0.33392000  0.33269000  0.24229000
   0.49871143  0.50405851  0.30326642
   0.66687000  0.33418000  0.00129000
   0.66172377  0.33433510  0.36161934
   0.66670000  0.33332000  0.12177000
   0.83466000  0.49916000  0.18181000
   0.66748000  0.33291000  0.24234000
   0.99949000  0.66581000  0.00112000
   0.99045449  0.66028279  0.36123991
   0.16773000  0.83295000  0.06141000
   0.00149000  0.66672000  0.12196000
   0.16592000  0.83389000  0.18235000
   0.99950000  0.66635000  0.24245000
   0.16921191  0.82930931  0.30399167
   0.49825000  0.83185000  0.06189000
   0.50064000  0.83335000  0.18189000
   0.33424000  0.66627000  0.24239000
   0.66521000  0.66629000  0.00100000
   0.68321415  0.65711376  0.36179763
   0.83382000  0.83268000  0.06128000
   0.83390000  0.83311000  0.18191000
   0.66721000  0.66675000  0.24221000
   0.83746946  0.83181275  0.30235454
Direct configuration=    13
   0.99760000  0.00330000  0.24221000
   0.66561000  0.99834000  0.00060000
   0.64867291  0.98315966  0.36535848
   0.83467000  0.16589000  0.18209000
   0.99866000  0.33404000  0.12198000
   0.33421000  0.33147000  0.00101000
   0.33330953  0.33082463  0.36460747
   0.83220000  0.50025000  0.06275000
   0.83520391  0.49505067  0.30246306
   0.33512000  0.67037000  0.00000000
   0.33145000  0.66488000  0.12292000
   0.49465081  0.82926407  0.30433467
   0.67111000  0.66550000  0.12148000
   0.99950000  0.00032000  0.00103000
   0.00475485  0.00225008  0.36076884
   0.16670000  0.16592000  0.06160000
   0.99930000  0.00013000  0.12183000
   0.16670000  0.16692000  0.18170000
   0.16365908  0.16716695  0.30310198
   0.33368000  0.99986000  0.00108000
   0.32430830  0.01532978  0.36275694
   0.50008000  0.16606000  0.06164000
   0.33365000  0.99945000  0.12194000
   0.50013000  0.16657000  0.18176000
   0.33374000  0.99994000  0.24252000
   0.49866803  0.16920002  0.30339593
   0.83412000  0.16807000  0.06130000
   0.66767000  0.99972000  0.12168000
   0.66792000  0.00032000  0.24233000
   0.83187741  0.16658123  0.30367813
   0.00033000  0.33346000  0.00076000
   0.00747941  0.33433326  0.36244149
   0.16704000  0.50116000  0.06077000
   0.16627000  0.49940000  0.18238000
   0.00000000  0.33319000  0.24260000
   0.17005166  0.50359143  0.30317263
   0.49811000  0.50186000  0.06112000
   0.33328000  0.33434000  0.12148000
   0.50051000  0.50053000  0.18145000
   0.33392000  0.33269000  0.24229000
   0.49928769  0.50277719  0.30286365
   0.66687000  0.33418000  0.00129000
   0.66110282  0.33466131  0.36149694
   0.66670000  0.33332000  0.12177000
   0.83466000  0.49916000  0.18181000
   0.66748000  0.33291000  0.24234000
   0.99949000  0.66581000  0.00112000
   0.99173600  0.66174952  0.36134404
   0.16773000  0.83295000  0.06141000
   0.00149000  0.66672000  0.12196000
   0.16592000  0.83389000  0.18235000
   0.99950000  0.66635000  0.24245000
   0.16877239  0.83096290  0.30388523
   0.49825000  0.83185000  0.06189000
   0.50064000  0.83335000  0.18189000
   0.33424000  0.66627000  0.24239000
   0.66521000  0.66629000  0.00100000
   0.68325413  0.65515506  0.36137526
   0.83382000  0.83268000  0.06128000
   0.83390000  0.83311000  0.18191000
   0.66721000  0.66675000  0.24221000
   0.83595236  0.83187371  0.30266727
Direct configuration=    14
   0.99760000  0.00330000  0.24221000
   0.66561000  0.99834000  0.00060000
   0.64953696  0.98353644  0.36645117
   0.83467000  0.16589000  0.18209000
   0.99866000  0.33404000  0.12198000
   0.33421000  0.33147000  0.00101000
   0.33325560  0.33043421  0.36471462
   0.83220000  0.50025000  0.06275000
   0.83520643  0.49516272  0.30249137
   0.33512000  0.67037000  0.00000000
   0.33145000  0.66488000  0.12292000
   0.49413696  0.82907338  0.30441342
   0.67111000  0.66550000  0.12148000
   0.99950000  0.00032000  0.00103000
   0.00488253  0.00175045  0.36075059
   0.16670000  0.16592000  0.06160000
   0.99930000  0.00013000  0.12183000
   0.16670000  0.16692000  0.18170000
   0.16384871  0.16680873  0.30313745
   0.33368000  0.99986000  0.00108000
   0.32366397  0.01578056  0.36263789
   0.50008000  0.16606000  0.06164000
   0.33365000  0.99945000  0.12194000
   0.50013000  0.16657000  0.18176000
   0.33374000  0.99994000  0.24252000
   0.49828203  0.16947385  0.30325323
   0.83412000  0.16807000  0.06130000
   0.66767000  0.99972000  0.12168000
   0.66792000  0.00032000  0.24233000
   0.83191367  0.16626001  0.30365185
   0.00033000  0.33346000  0.00076000
   0.00730585  0.33427046  0.36246645
   0.16704000  0.50116000  0.06077000
   0.16627000  0.49940000  0.18238000
   0.00000000  0.33319000  0.24260000
   0.17027512  0.50354872  0.30317141
   0.49811000  0.50186000  0.06112000
   0.33328000  0.33434000  0.12148000
   0.50051000  0.50053000  0.18145000
   0.33392000  0.33269000  0.24229000
   0.49943941  0.50243985  0.30275761
   0.66687000  0.33418000  0.00129000
   0.66093934  0.33474719  0.36146472
   0.66670000  0.33332000  0.12177000
   0.83466000  0.49916000  0.18181000
   0.66748000  0.33291000  0.24234000
   0.99949000  0.66581000  0.00112000
   0.99207339  0.66213567  0.36137145
   0.16773000  0.83295000  0.06141000
   0.00149000  0.66672000  0.12196000
   0.16592000  0.83389000  0.18235000
   0.99950000  0.66635000  0.24245000
   0.16865667  0.83139826  0.30385720
   0.49825000  0.83185000  0.06189000
   0.50064000  0.83335000  0.18189000
   0.33424000  0.66627000  0.24239000
   0.66521000  0.66629000  0.00100000
   0.68326466  0.65463939  0.36126406
   0.83382000  0.83268000  0.06128000
   0.83390000  0.83311000  0.18191000
   0.66721000  0.66675000  0.24221000
   0.83555294  0.83188976  0.30274960
Direct configuration=    15
   0.99760000  0.00330000  0.24221000
   0.66561000  0.99834000  0.00060000
   0.65221605  0.98667291  0.36792211
   0.83467000  0.16589000  0.18209000
   0.99866000  0.33404000  0.12198000
   0.33421000  0.33147000  0.00101000
   0.33349425  0.32981315  0.36486988
   0.83220000  0.50025000  0.06275000
   0.83558888  0.49523579  0.30263436
   0.33512000  0.67037000  0.00000000
   0.33145000  0.66488000  0.12292000
   0.49602668  0.83131229  0.30591352
   0.67111000  0.66550000  0.12148000
   0.99950000  0.00032000  0.00103000
   0.00370656  0.99996235  0.36092025
   0.16670000  0.16592000  0.06160000
   0.99930000  0.00013000  0.12183000
   0.16670000  0.16692000  0.18170000
   0.16261347  0.16706663  0.30301204
   0.33368000  0.99986000  0.00108000
   0.32429260  0.01475264  0.36269495
   0.50008000  0.16606000  0.06164000
   0.33365000  0.99945000  0.12194000
   0.50013000  0.16657000  0.18176000
   0.33374000  0.99994000  0.24252000
   0.49972060  0.16840780  0.30309103
   0.83412000  0.16807000  0.06130000
   0.66767000  0.99972000  0.12168000
   0.66792000  0.00032000  0.24233000
   0.83209424  0.16695184  0.30381879
   0.00033000  0.33346000  0.00076000
   0.00674613  0.33345263  0.36213607
   0.16704000  0.50116000  0.06077000
   0.16627000  0.49940000  0.18238000
   0.00000000  0.33319000  0.24260000
   0.17012761  0.50327284  0.30361191
   0.49811000  0.50186000  0.06112000
   0.33328000  0.33434000  0.12148000
   0.50051000  0.50053000  0.18145000
   0.33392000  0.33269000  0.24229000
   0.49977248  0.50200452  0.30281021
   0.66687000  0.33418000  0.00129000
   0.66046454  0.33420670  0.36152702
   0.66670000  0.33332000  0.12177000
   0.83466000  0.49916000  0.18181000
   0.66748000  0.33291000  0.24234000
   0.99949000  0.66581000  0.00112000
   0.99267872  0.66376462  0.36126013
   0.16773000  0.83295000  0.06141000
   0.00149000  0.66672000  0.12196000
   0.16592000  0.83389000  0.18235000
   0.99950000  0.66635000  0.24245000
   0.16773198  0.83119822  0.30371698
   0.49825000  0.83185000  0.06189000
   0.50064000  0.83335000  0.18189000
   0.33424000  0.66627000  0.24239000
   0.66521000  0.66629000  0.00100000
   0.68190698  0.65359220  0.36124276
   0.83382000  0.83268000  0.06128000
   0.83390000  0.83311000  0.18191000
   0.66721000  0.66675000  0.24221000
   0.83491823  0.83204752  0.30284010
Direct configuration=    16
   0.99760000  0.00330000  0.24221000
   0.66561000  0.99834000  0.00060000
   0.65368525  0.98839295  0.36872876
   0.83467000  0.16589000  0.18209000
   0.99866000  0.33404000  0.12198000
   0.33421000  0.33147000  0.00101000
   0.33362513  0.32947256  0.36495502
   0.83220000  0.50025000  0.06275000
   0.83579862  0.49527586  0.30271278
   0.33512000  0.67037000  0.00000000
   0.33145000  0.66488000  0.12292000
   0.49706299  0.83254010  0.30673618
   0.67111000  0.66550000  0.12148000
   0.99950000  0.00032000  0.00103000
   0.00306167  0.99898175  0.36101330
   0.16670000  0.16592000  0.06160000
   0.99930000  0.00013000  0.12183000
   0.16670000  0.16692000  0.18170000
   0.16193607  0.16720806  0.30294327
   0.33368000  0.99986000  0.00108000
   0.32463734  0.01418893  0.36272624
   0.50008000  0.16606000  0.06164000
   0.33365000  0.99945000  0.12194000
   0.50013000  0.16657000  0.18176000
   0.33374000  0.99994000  0.24252000
   0.50050951  0.16782318  0.30300208
   0.83412000  0.16807000  0.06130000
   0.66767000  0.99972000  0.12168000
   0.66792000  0.00032000  0.24233000
   0.83219326  0.16733124  0.30391033
   0.00033000  0.33346000  0.00076000
   0.00643918  0.33300414  0.36195489
   0.16704000  0.50116000  0.06077000
   0.16627000  0.49940000  0.18238000
   0.00000000  0.33319000  0.24260000
   0.17004672  0.50312155  0.30385348
   0.49811000  0.50186000  0.06112000
   0.33328000  0.33434000  0.12148000
   0.50051000  0.50053000  0.18145000
   0.33392000  0.33269000  0.24229000
   0.49995514  0.50176579  0.30283905
   0.66687000  0.33418000  0.00129000
   0.66020417  0.33391030  0.36156119
   0.66670000  0.33332000  0.12177000
   0.83466000  0.49916000  0.18181000
   0.66748000  0.33291000  0.24234000
   0.99949000  0.66581000  0.00112000
   0.99301069  0.66465794  0.36119908
   0.16773000  0.83295000  0.06141000
   0.00149000  0.66672000  0.12196000
   0.16592000  0.83389000  0.18235000
   0.99950000  0.66635000  0.24245000
   0.16722488  0.83108853  0.30364008
   0.49825000  0.83185000  0.06189000
   0.50064000  0.83335000  0.18189000
   0.33424000  0.66627000  0.24239000
   0.66521000  0.66629000  0.00100000
   0.68116243  0.65301793  0.36123108
   0.83382000  0.83268000  0.06128000
   0.83390000  0.83311000  0.18191000
   0.66721000  0.66675000  0.24221000
   0.83457015  0.83213403  0.30288973
Direct configuration=    17
   0.99760000  0.00330000  0.24221000
   0.66561000  0.99834000  0.00060000
   0.65572881  0.99036176  0.36910738
   0.83467000  0.16589000  0.18209000
   0.99866000  0.33404000  0.12198000
   0.33421000  0.33147000  0.00101000
   0.33454162  0.32846046  0.36475389
   0.83220000  0.50025000  0.06275000
   0.83587030  0.49547986  0.30273994
   0.33512000  0.67037000  0.00000000
   0.33145000  0.66488000  0.12292000
   0.49833130  0.83293332  0.30719405
   0.67111000  0.66550000  0.12148000
   0.99950000  0.00032000  0.00103000
   0.00238570  0.99862758  0.36103859
   0.16670000  0.16592000  0.06160000
   0.99930000  0.00013000  0.12183000
   0.16670000  0.16692000  0.18170000
   0.16305985  0.16588298  0.30329771
   0.33368000  0.99986000  0.00108000
   0.32507438  0.01342757  0.36231410
   0.50008000  0.16606000  0.06164000
   0.33365000  0.99945000  0.12194000
   0.50013000  0.16657000  0.18176000
   0.33374000  0.99994000  0.24252000
   0.49991963  0.16815217  0.30335135
   0.83412000  0.16807000  0.06130000
   0.66767000  0.99972000  0.12168000
   0.66792000  0.00032000  0.24233000
   0.83210291  0.16704567  0.30386841
   0.00033000  0.33346000  0.00076000
   0.00566952  0.33246561  0.36208223
   0.16704000  0.50116000  0.06077000
   0.16627000  0.49940000  0.18238000
   0.00000000  0.33319000  0.24260000
   0.17024080  0.50359071  0.30390357
   0.49811000  0.50186000  0.06112000
   0.33328000  0.33434000  0.12148000
   0.50051000  0.50053000  0.18145000
   0.33392000  0.33269000  0.24229000
   0.49954508  0.50262229  0.30292117
   0.66687000  0.33418000  0.00129000
   0.66009687  0.33332300  0.36177362
   0.66670000  0.33332000  0.12177000
   0.83466000  0.49916000  0.18181000
   0.66748000  0.33291000  0.24234000
   0.99949000  0.66581000  0.00112000
   0.99283951  0.66595740  0.36127302
   0.16773000  0.83295000  0.06141000
   0.00149000  0.66672000  0.12196000
   0.16592000  0.83389000  0.18235000
   0.99950000  0.66635000  0.24245000
   0.16811293  0.83106219  0.30373078
   0.49825000  0.83185000  0.06189000
   0.50064000  0.83335000  0.18189000
   0.33424000  0.66627000  0.24239000
   0.66521000  0.66629000  0.00100000
   0.67989030  0.65319867  0.36146149
   0.83382000  0.83268000  0.06128000
   0.83390000  0.83311000  0.18191000
   0.66721000  0.66675000  0.24221000
   0.83423218  0.83220726  0.30295237
Direct configuration=    18
   0.99760000  0.00330000  0.24221000
   0.66561000  0.99834000  0.00060000
   0.65556335  0.99020235  0.36907672
   0.83467000  0.16589000  0.18209000
   0.99866000  0.33404000  0.12198000
   0.33421000  0.33147000  0.00101000
   0.33446742  0.32854240  0.36477018
   0.83220000  0.50025000  0.06275000
   0.83586450  0.49546334  0.30273774
   0.33512000  0.67037000  0.00000000
   0.33145000  0.66488000  0.12292000
   0.49822861  0.83290149  0.30715698
   0.67111000  0.66550000  0.12148000
   0.99950000  0.00032000  0.00103000
   0.00244043  0.99865626  0.36103654
   0.16670000  0.16592000  0.06160000
   0.99930000  0.00013000  0.12183000
   0.16670000  0.16692000  0.18170000
   0.16296886  0.16599026  0.30326901
   0.33368000  0.99986000  0.00108000
   0.32503899  0.01348922  0.36234747
   0.50008000  0.16606000  0.06164000
   0.33365000  0.99945000  0.12194000
   0.50013000  0.16657000  0.18176000
   0.33374000  0.99994000  0.24252000
   0.49996739  0.16812553  0.30332307
   0.83412000  0.16807000  0.06130000
   0.66767000  0.99972000  0.12168000
   0.66792000  0.00032000  0.24233000
   0.83211022  0.16706879  0.30387181
   0.00033000  0.33346000  0.00076000
   0.00573183  0.33250921  0.36207192
   0.16704000  0.50116000  0.06077000
   0.16627000  0.49940000  0.18238000
   0.00000000  0.33319000  0.24260000
   0.17022509  0.50355273  0.30389951
   0.49811000  0.50186000  0.06112000
   0.33328000  0.33434000  0.12148000
   0.50051000  0.50053000  0.18145000
   0.33392000  0.33269000  0.24229000
   0.49957828  0.50255295  0.30291452
   0.66687000  0.33418000  0.00129000
   0.66010555  0.33337055  0.36175642
   0.66670000  0.33332000  0.12177000
   0.83466000  0.49916000  0.18181000
   0.66748000  0.33291000  0.24234000
   0.99949000  0.66581000  0.00112000
   0.99285337  0.66585218  0.36126703
   0.16773000  0.83295000  0.06141000
   0.00149000  0.66672000  0.12196000
   0.16592000  0.83389000  0.18235000
   0.99950000  0.66635000  0.24245000
   0.16804103  0.83106432  0.30372343
   0.49825000  0.83185000  0.06189000
   0.50064000  0.83335000  0.18189000
   0.33424000  0.66627000  0.24239000
   0.66521000  0.66629000  0.00100000
   0.67999330  0.65318404  0.36144284
   0.83382000  0.83268000  0.06128000
   0.83390000  0.83311000  0.18191000
   0.66721000  0.66675000  0.24221000
   0.83425954  0.83220133  0.30294730
Direct configuration=    19
   0.99760000  0.00330000  0.24221000
   0.66561000  0.99834000  0.00060000
   0.65660058  0.99117467  0.36917162
   0.83467000  0.16589000  0.18209000
   0.99866000  0.33404000  0.12198000
   0.33421000  0.33147000  0.00101000
   0.33501529  0.32842858  0.36466105
   0.83220000  0.50025000  0.06275000
   0.83552464  0.49563208  0.30286485
   0.33512000  0.67037000  0.00000000
   0.33145000  0.66488000  0.12292000
   0.49896529  0.83283594  0.30707010
   0.67111000  0.66550000  0.12148000
   0.99950000  0.00032000  0.00103000
   0.00236826  0.99878313  0.36100664
   0.16670000  0.16592000  0.06160000
   0.99930000  0.00013000  0.12183000
   0.16670000  0.16692000  0.18170000
   0.16267751  0.16615229  0.30331583
   0.33368000  0.99986000  0.00108000
   0.32595362  0.01214555  0.36239565
   0.50008000  0.16606000  0.06164000
   0.33365000  0.99945000  0.12194000
   0.50013000  0.16657000  0.18176000
   0.33374000  0.99994000  0.24252000
   0.50027358  0.16833506  0.30324647
   0.83412000  0.16807000  0.06130000
   0.66767000  0.99972000  0.12168000
   0.66792000  0.00032000  0.24233000
   0.83247289  0.16718690  0.30374583
   0.00033000  0.33346000  0.00076000
   0.00551428  0.33216100  0.36206500
   0.16704000  0.50116000  0.06077000
   0.16627000  0.49940000  0.18238000
   0.00000000  0.33319000  0.24260000
   0.16999270  0.50347472  0.30397872
   0.49811000  0.50186000  0.06112000
   0.33328000  0.33434000  0.12148000
   0.50051000  0.50053000  0.18145000
   0.33392000  0.33269000  0.24229000
   0.49955573  0.50303766  0.30307108
   0.66687000  0.33418000  0.00129000
   0.66016276  0.33348662  0.36183921
   0.66670000  0.33332000  0.12177000
   0.83466000  0.49916000  0.18181000
   0.66748000  0.33291000  0.24234000
   0.99949000  0.66581000  0.00112000
   0.99251893  0.66645113  0.36133628
   0.16773000  0.83295000  0.06141000
   0.00149000  0.66672000  0.12196000
   0.16592000  0.83389000  0.18235000
   0.99950000  0.66635000  0.24245000
   0.16849570  0.83079188  0.30376841
   0.49825000  0.83185000  0.06189000
   0.50064000  0.83335000  0.18189000
   0.33424000  0.66627000  0.24239000
   0.66521000  0.66629000  0.00100000
   0.67922842  0.65363785  0.36162444
   0.83382000  0.83268000  0.06128000
   0.83390000  0.83311000  0.18191000
   0.66721000  0.66675000  0.24221000
   0.83440454  0.83203180  0.30293225
Direct configuration=    20
   0.99760000  0.00330000  0.24221000
   0.66561000  0.99834000  0.00060000
   0.65706357  0.99160868  0.36921398
   0.83467000  0.16589000  0.18209000
   0.99866000  0.33404000  0.12198000
   0.33421000  0.33147000  0.00101000
   0.33525984  0.32837777  0.36461234
   0.83220000  0.50025000  0.06275000
   0.83537294  0.49570740  0.30292158
   0.33512000  0.67037000  0.00000000
   0.33145000  0.66488000  0.12292000
   0.49929412  0.83280668  0.30703132
   0.67111000  0.66550000  0.12148000
   0.99950000  0.00032000  0.00103000
   0.00233604  0.99883975  0.36099330
   0.16670000  0.16592000  0.06160000
   0.99930000  0.00013000  0.12183000
   0.16670000  0.16692000  0.18170000
   0.16254745  0.16622461  0.30333673
   0.33368000  0.99986000  0.00108000
   0.32636189  0.01154577  0.36241716
   0.50008000  0.16606000  0.06164000
   0.33365000  0.99945000  0.12194000
   0.50013000  0.16657000  0.18176000
   0.33374000  0.99994000  0.24252000
   0.50041025  0.16842858  0.30321228
   0.83412000  0.16807000  0.06130000
   0.66767000  0.99972000  0.12168000
   0.66792000  0.00032000  0.24233000
   0.83263478  0.16723962  0.30368960
   0.00033000  0.33346000  0.00076000
   0.00541717  0.33200556  0.36206191
   0.16704000  0.50116000  0.06077000
   0.16627000  0.49940000  0.18238000
   0.00000000  0.33319000  0.24260000
   0.16988896  0.50343990  0.30401408
   0.49811000  0.50186000  0.06112000
   0.33328000  0.33434000  0.12148000
   0.50051000  0.50053000  0.18145000
   0.33392000  0.33269000  0.24229000
   0.49954566  0.50325402  0.30314096
   0.66687000  0.33418000  0.00129000
   0.66018829  0.33353842  0.36187617
   0.66670000  0.33332000  0.12177000
   0.83466000  0.49916000  0.18181000
   0.66748000  0.33291000  0.24234000
   0.99949000  0.66581000  0.00112000
   0.99236965  0.66671848  0.36136719
   0.16773000  0.83295000  0.06141000
   0.00149000  0.66672000  0.12196000
   0.16592000  0.83389000  0.18235000
   0.99950000  0.66635000  0.24245000
   0.16869865  0.83067027  0.30378849
   0.49825000  0.83185000  0.06189000
   0.50064000  0.83335000  0.18189000
   0.33424000  0.66627000  0.24239000
   0.66521000  0.66629000  0.00100000
   0.67888700  0.65384042  0.36170551
   0.83382000  0.83268000  0.06128000
   0.83390000  0.83311000  0.18191000
   0.66721000  0.66675000  0.24221000
   0.83446927  0.83195612  0.30292553
Direct configuration=    21
   0.99760000  0.00330000  0.24221000
   0.66561000  0.99834000  0.00060000
   0.65778486  0.99202593  0.36919163
   0.83467000  0.16589000  0.18209000
   0.99866000  0.33404000  0.12198000
   0.33421000  0.33147000  0.00101000
   0.33549729  0.32844587  0.36459818
   0.83220000  0.50025000  0.06275000
   0.83508311  0.49593376  0.30309727
   0.33512000  0.67037000  0.00000000
   0.33145000  0.66488000  0.12292000
   0.49968890  0.83323768  0.30684811
   0.67111000  0.66550000  0.12148000
   0.99950000  0.00032000  0.00103000
   0.00281529  0.99901929  0.36090547
   0.16670000  0.16592000  0.06160000
   0.99930000  0.00013000  0.12183000
   0.16670000  0.16692000  0.18170000
   0.16330798  0.16595179  0.30348300
   0.33368000  0.99986000  0.00108000
   0.32719198  0.01047246  0.36220669
   0.50008000  0.16606000  0.06164000
   0.33365000  0.99945000  0.12194000
   0.50013000  0.16657000  0.18176000
   0.33374000  0.99994000  0.24252000
   0.50074806  0.16805084  0.30311124
   0.83412000  0.16807000  0.06130000
   0.66767000  0.99972000  0.12168000
   0.66792000  0.00032000  0.24233000
   0.83258959  0.16746724  0.30364595
   0.00033000  0.33346000  0.00076000
   0.00523258  0.33192596  0.36209366
   0.16704000  0.50116000  0.06077000
   0.16627000  0.49940000  0.18238000
   0.00000000  0.33319000  0.24260000
   0.16949726  0.50324074  0.30410328
   0.49811000  0.50186000  0.06112000
   0.33328000  0.33434000  0.12148000
   0.50051000  0.50053000  0.18145000
   0.33392000  0.33269000  0.24229000
   0.49955040  0.50330147  0.30322973
   0.66687000  0.33418000  0.00129000
   0.66039387  0.33404498  0.36181616
   0.66670000  0.33332000  0.12177000
   0.83466000  0.49916000  0.18181000
   0.66748000  0.33291000  0.24234000
   0.99949000  0.66581000  0.00112000
   0.99210987  0.66680885  0.36145255
   0.16773000  0.83295000  0.06141000
   0.00149000  0.66672000  0.12196000
   0.16592000  0.83389000  0.18235000
   0.99950000  0.66635000  0.24245000
   0.16868227  0.83061576  0.30385024
   0.49825000  0.83185000  0.06189000
   0.50064000  0.83335000  0.18189000
   0.33424000  0.66627000  0.24239000
   0.66521000  0.66629000  0.00100000
   0.67832702  0.65451583  0.36185780
   0.83382000  0.83268000  0.06128000
   0.83390000  0.83311000  0.18191000
   0.66721000  0.66675000  0.24221000
   0.83453454  0.83212021  0.30289870
Direct configuration=    22
   0.99760000  0.00330000  0.24221000
   0.66561000  0.99834000  0.00060000
   0.65776614  0.99201510  0.36919221
   0.83467000  0.16589000  0.18209000
   0.99866000  0.33404000  0.12198000
   0.33421000  0.33147000  0.00101000
   0.33549113  0.32844410  0.36459855
   0.83220000  0.50025000  0.06275000
   0.83509064  0.49592788  0.30309271
   0.33512000  0.67037000  0.00000000
   0.33145000  0.66488000  0.12292000
   0.49967865  0.83322649  0.30685286
   0.67111000  0.66550000  0.12148000
   0.99950000  0.00032000  0.00103000
   0.00280286  0.99901463  0.36090775
   0.16670000  0.16592000  0.06160000
   0.99930000  0.00013000  0.12183000
   0.16670000  0.16692000  0.18170000
   0.16328824  0.16595887  0.30347920
   0.33368000  0.99986000  0.00108000
   0.32717044  0.01050032  0.36221215
   0.50008000  0.16606000  0.06164000
   0.33365000  0.99945000  0.12194000
   0.50013000  0.16657000  0.18176000
   0.33374000  0.99994000  0.24252000
   0.50073929  0.16806064  0.30311386
   0.83412000  0.16807000  0.06130000
   0.66767000  0.99972000  0.12168000
   0.66792000  0.00032000  0.24233000
   0.83259077  0.16746133  0.30364708
   0.00033000  0.33346000  0.00076000
   0.00523737  0.33192803  0.36209283
   0.16704000  0.50116000  0.06077000
   0.16627000  0.49940000  0.18238000
   0.00000000  0.33319000  0.24260000
   0.16950743  0.50324591  0.30410096
   0.49811000  0.50186000  0.06112000
   0.33328000  0.33434000  0.12148000
   0.50051000  0.50053000  0.18145000
   0.33392000  0.33269000  0.24229000
   0.49955027  0.50330024  0.30322742
   0.66687000  0.33418000  0.00129000
   0.66038853  0.33403183  0.36181772
   0.66670000  0.33332000  0.12177000
   0.83466000  0.49916000  0.18181000
   0.66748000  0.33291000  0.24234000
   0.99949000  0.66581000  0.00112000
   0.99211661  0.66680651  0.36145033
   0.16773000  0.83295000  0.06141000
   0.00149000  0.66672000  0.12196000
   0.16592000  0.83389000  0.18235000
   0.99950000  0.66635000  0.24245000
   0.16868270  0.83061717  0.30384863
   0.49825000  0.83185000  0.06189000
   0.50064000  0.83335000  0.18189000
   0.33424000  0.66627000  0.24239000
   0.66521000  0.66629000  0.00100000
   0.67834155  0.65449830  0.36185384
   0.83382000  0.83268000  0.06128000
   0.83390000  0.83311000  0.18191000
   0.66721000  0.66675000  0.24221000
   0.83453285  0.83211595  0.30289939
Direct configuration=    23
   0.99760000  0.00330000  0.24221000
   0.66561000  0.99834000  0.00060000
   0.65778253  0.99202458  0.36919170
   0.83467000  0.16589000  0.18209000
   0.99866000  0.33404000  0.12198000
   0.33421000  0.33147000  0.00101000
   0.33549653  0.32844565  0.36459823
   0.83220000  0.50025000  0.06275000
   0.83508405  0.49593303  0.30309670
   0.33512000  0.67037000  0.00000000
   0.33145000  0.66488000  0.12292000
   0.49968763  0.83323628  0.30684870
   0.67111000  0.66550000  0.12148000
   0.99950000  0.00032000  0.00103000
   0.00281375  0.99901871  0.36090576
   0.16670000  0.16592000  0.06160000
   0.99930000  0.00013000  0.12183000
   0.16670000  0.16692000  0.18170000
   0.16330552  0.16595268  0.30348252
   0.33368000  0.99986000  0.00108000
   0.32718930  0.01047593  0.36220737
   0.50008000  0.16606000  0.06164000
   0.33365000  0.99945000  0.12194000
   0.50013000  0.16657000  0.18176000
   0.33374000  0.99994000  0.24252000
   0.50074697  0.16805206  0.30311157
   0.83412000  0.16807000  0.06130000
   0.66767000  0.99972000  0.12168000
   0.66792000  0.00032000  0.24233000
   0.83258974  0.16746650  0.30364609
   0.00033000  0.33346000  0.00076000
   0.00523317  0.33192622  0.36209355
   0.16704000  0.50116000  0.06077000
   0.16627000  0.49940000  0.18238000
   0.00000000  0.33319000  0.24260000
   0.16949852  0.50324138  0.30410299
   0.49811000  0.50186000  0.06112000
   0.33328000  0.33434000  0.12148000
   0.50051000  0.50053000  0.18145000
   0.33392000  0.33269000  0.24229000
   0.49955038  0.50330132  0.30322944
   0.66687000  0.33418000  0.00129000
   0.66039320  0.33404335  0.36181635
   0.66670000  0.33332000  0.12177000
   0.83466000  0.49916000  0.18181000
   0.66748000  0.33291000  0.24234000
   0.99949000  0.66581000  0.00112000
   0.99211070  0.66680856  0.36145227
   0.16773000  0.83295000  0.06141000
   0.00149000  0.66672000  0.12196000
   0.16592000  0.83389000  0.18235000
   0.99950000  0.66635000  0.24245000
   0.16868232  0.83061594  0.30385004
   0.49825000  0.83185000  0.06189000
   0.50064000  0.83335000  0.18189000
   0.33424000  0.66627000  0.24239000
   0.66521000  0.66629000  0.00100000
   0.67832882  0.65451365  0.36185731
   0.83382000  0.83268000  0.06128000
   0.83390000  0.83311000  0.18191000
   0.66721000  0.66675000  0.24221000
   0.83453433  0.83211968  0.30289878
Direct configuration=    24
   0.99760000  0.00330000  0.24221000
   0.66561000  0.99834000  0.00060000
   0.65777433  0.99201984  0.36919196
   0.83467000  0.16589000  0.18209000
   0.99866000  0.33404000  0.12198000
   0.33421000  0.33147000  0.00101000
   0.33549383  0.32844488  0.36459839
   0.83220000  0.50025000  0.06275000
   0.83508734  0.49593046  0.30309471
   0.33512000  0.67037000  0.00000000
   0.33145000  0.66488000  0.12292000
   0.49968314  0.83323139  0.30685078
   0.67111000  0.66550000  0.12148000
   0.99950000  0.00032000  0.00103000
   0.00280830  0.99901667  0.36090676
   0.16670000  0.16592000  0.06160000
   0.99930000  0.00013000  0.12183000
   0.16670000  0.16692000  0.18170000
   0.16329688  0.16595577  0.30348086
   0.33368000  0.99986000  0.00108000
   0.32717987  0.01048812  0.36220976
   0.50008000  0.16606000  0.06164000
   0.33365000  0.99945000  0.12194000
   0.50013000  0.16657000  0.18176000
   0.33374000  0.99994000  0.24252000
   0.50074313  0.16805635  0.30311272
   0.83412000  0.16807000  0.06130000
   0.66767000  0.99972000  0.12168000
   0.66792000  0.00032000  0.24233000
   0.83259025  0.16746392  0.30364659
   0.00033000  0.33346000  0.00076000
   0.00523527  0.33192712  0.36209319
   0.16704000  0.50116000  0.06077000
   0.16627000  0.49940000  0.18238000
   0.00000000  0.33319000  0.24260000
   0.16950297  0.50324365  0.30410198
   0.49811000  0.50186000  0.06112000
   0.33328000  0.33434000  0.12148000
   0.50051000  0.50053000  0.18145000
   0.33392000  0.33269000  0.24229000
   0.49955033  0.50330078  0.30322843
   0.66687000  0.33418000  0.00129000
   0.66039087  0.33403759  0.36181703
   0.66670000  0.33332000  0.12177000
   0.83466000  0.49916000  0.18181000
   0.66748000  0.33291000  0.24234000
   0.99949000  0.66581000  0.00112000
   0.99211366  0.66680753  0.36145130
   0.16773000  0.83295000  0.06141000
   0.00149000  0.66672000  0.12196000
   0.16592000  0.83389000  0.18235000
   0.99950000  0.66635000  0.24245000
   0.16868251  0.83061655  0.30384933
   0.49825000  0.83185000  0.06189000
   0.50064000  0.83335000  0.18189000
   0.33424000  0.66627000  0.24239000
   0.66521000  0.66629000  0.00100000
   0.67833519  0.65450598  0.36185557
   0.83382000  0.83268000  0.06128000
   0.83390000  0.83311000  0.18191000
   0.66721000  0.66675000  0.24221000
   0.83453359  0.83211781  0.30289909
Direct configuration=    25
   0.99760000  0.00330000  0.24221000
   0.66561000  0.99834000  0.00060000
   0.65777970  0.99202294  0.36919179
   0.83467000  0.16589000  0.18209000
   0.99866000  0.33404000  0.12198000
   0.33421000  0.33147000  0.00101000
   0.33549559  0.32844538  0.36459828
   0.83220000  0.50025000  0.06275000
   0.83508519  0.49593214  0.30309601
   0.33512000  0.67037000  0.00000000
   0.33145000  0.66488000  0.12292000
   0.49968608  0.83323459  0.30684942
   0.67111000  0.66550000  0.12148000
   0.99950000  0.00032000  0.00103000
   0.00281186  0.99901801  0.36090610
   0.16670000  0.16592000  0.06160000
   0.99930000  0.00013000  0.12183000
   0.16670000  0.16692000  0.18170000
   0.16330253  0.16595375  0.30348195
   0.33368000  0.99986000  0.00108000
   0.32718604  0.01048014  0.36220819
   0.50008000  0.16606000  0.06164000
   0.33365000  0.99945000  0.12194000
   0.50013000  0.16657000  0.18176000
   0.33374000  0.99994000  0.24252000
   0.50074564  0.16805354  0.30311197
   0.83412000  0.16807000  0.06130000
   0.66767000  0.99972000  0.12168000
   0.66792000  0.00032000  0.24233000
   0.83258992  0.16746561  0.30364626
   0.00033000  0.33346000  0.00076000
   0.00523390  0.33192653  0.36209343
   0.16704000  0.50116000  0.06077000
   0.16627000  0.49940000  0.18238000
   0.00000000  0.33319000  0.24260000
   0.16950006  0.50324216  0.30410264
   0.49811000  0.50186000  0.06112000
   0.33328000  0.33434000  0.12148000
   0.50051000  0.50053000  0.18145000
   0.33392000  0.33269000  0.24229000
   0.49955036  0.50330113  0.30322909
   0.66687000  0.33418000  0.00129000
   0.66039240  0.33404136  0.36181659
   0.66670000  0.33332000  0.12177000
   0.83466000  0.49916000  0.18181000
   0.66748000  0.33291000  0.24234000
   0.99949000  0.66581000  0.00112000
   0.99211173  0.66680821  0.36145193
   0.16773000  0.83295000  0.06141000
   0.00149000  0.66672000  0.12196000
   0.16592000  0.83389000  0.18235000
   0.99950000  0.66635000  0.24245000
   0.16868239  0.83061615  0.30384979
   0.49825000  0.83185000  0.06189000
   0.50064000  0.83335000  0.18189000
   0.33424000  0.66627000  0.24239000
   0.66521000  0.66629000  0.00100000
   0.67833102  0.65451100  0.36185671
   0.83382000  0.83268000  0.06128000
   0.83390000  0.83311000  0.18191000
   0.66721000  0.66675000  0.24221000
   0.83453407  0.83211903  0.30289889
Direct configuration=    26
   0.99760000  0.00330000  0.24221000
   0.66561000  0.99834000  0.00060000
   0.65779994  0.99174694  0.36915306
   0.83467000  0.16589000  0.18209000
   0.99866000  0.33404000  0.12198000
   0.33421000  0.33147000  0.00101000
   0.33550451  0.32848639  0.36461742
   0.83220000  0.50025000  0.06275000
   0.83521145  0.49602466  0.30307349
   0.33512000  0.67037000  0.00000000
   0.33145000  0.66488000  0.12292000
   0.49961629  0.83334664  0.30679187
   0.67111000  0.66550000  0.12148000
   0.99950000  0.00032000  0.00103000
   0.00315899  0.99914205  0.36086240
   0.16670000  0.16592000  0.06160000
   0.99930000  0.00013000  0.12183000
   0.16670000  0.16692000  0.18170000
   0.16359565  0.16604138  0.30346002
   0.33368000  0.99986000  0.00108000
   0.32756522  0.01025034  0.36208833
   0.50008000  0.16606000  0.06164000
   0.33365000  0.99945000  0.12194000
   0.50013000  0.16657000  0.18176000
   0.33374000  0.99994000  0.24252000
   0.50065716  0.16830307  0.30317758
   0.83412000  0.16807000  0.06130000
   0.66767000  0.99972000  0.12168000
   0.66792000  0.00032000  0.24233000
   0.83272357  0.16752556  0.30370979
   0.00033000  0.33346000  0.00076000
   0.00521848  0.33193422  0.36210327
   0.16704000  0.50116000  0.06077000
   0.16627000  0.49940000  0.18238000
   0.00000000  0.33319000  0.24260000
   0.16946839  0.50324300  0.30405645
   0.49811000  0.50186000  0.06112000
   0.33328000  0.33434000  0.12148000
   0.50051000  0.50053000  0.18145000
   0.33392000  0.33269000  0.24229000
   0.49943181  0.50325031  0.30315117
   0.66687000  0.33418000  0.00129000
   0.66046366  0.33420482  0.36171515
   0.66670000  0.33332000  0.12177000
   0.83466000  0.49916000  0.18181000
   0.66748000  0.33291000  0.24234000
   0.99949000  0.66581000  0.00112000
   0.99206466  0.66650691  0.36145858
   0.16773000  0.83295000  0.06141000
   0.00149000  0.66672000  0.12196000
   0.16592000  0.83389000  0.18235000
   0.99950000  0.66635000  0.24245000
   0.16845449  0.83046483  0.30381139
   0.49825000  0.83185000  0.06189000
   0.50064000  0.83335000  0.18189000
   0.33424000  0.66627000  0.24239000
   0.66521000  0.66629000  0.00100000
   0.67828619  0.65493756  0.36178136
   0.83382000  0.83268000  0.06128000
   0.83390000  0.83311000  0.18191000
   0.66721000  0.66675000  0.24221000
   0.83457042  0.83215801  0.30292212
