ni3al                                   
           1
     8.497000    0.000000    0.000000
    -0.007999    8.519196    0.000000
     0.000000    0.000000   23.573700
   Cr   Fe
    14    49
Direct configuration=     1
   0.99559000  0.32828000  0.12092000
   0.33262000  0.33166000  0.36196000
   0.33554000  0.33717000  0.12244000
   0.99808000  0.00294000  0.00138000
   0.99802000  0.00240000  0.36334000
   0.33205000  0.99934000  0.12171000
   0.66680000  0.99880000  0.24350000
   0.83452000  0.16613000  0.06120000
   0.67294000  0.00204000  0.12069000
   0.33405000  0.66695000  0.24111000
   0.99910000  0.66743000  0.12138000
   0.33145000  0.66750000  0.36370000
   0.33151000  0.66804000  0.00174000
   0.33268000  0.33220000  0.00000000
   0.83466000  0.83460000  0.06076000
   0.66610000  0.66645000  0.36287000
   0.66616000  0.66699000  0.00091000
   0.83433000  0.83326000  0.30300000
   0.66704000  0.66746000  0.24229000
   0.50180000  0.83456000  0.18079000
   0.33306000  0.66709000  0.12143000
   0.50009000  0.83568000  0.06165000
   0.83330000  0.83486000  0.18207000
   0.66751000  0.66780000  0.12127000
   0.00134000  0.66559000  0.36296000
   0.16644000  0.83420000  0.06149000
   0.16735000  0.83315000  0.30229000
   0.00140000  0.66613000  0.00100000
   0.83479000  0.50089000  0.18130000
   0.00007000  0.66669000  0.24225000
   0.83460000  0.50057000  0.06135000
   0.66585000  0.33313000  0.12140000
   0.16565000  0.83456000  0.18183000
   0.49792000  0.83233000  0.30324000
   0.00179000  0.33550000  0.00090000
   0.00173000  0.33496000  0.36286000
   0.49795000  0.16690000  0.06150000
   0.50074000  0.16494000  0.18144000
   0.83368000  0.16730000  0.30292000
   0.66500000  0.00040000  0.00060000
   0.66494000  0.99985000  0.36256000
   0.83245000  0.16547000  0.18171000
   0.99997000  0.33361000  0.24198000
   0.16855000  0.50163000  0.30274000
   0.33438000  0.99945000  0.24203000
   0.49862000  0.16703000  0.30256000
   0.00050000  0.00053000  0.12178000
   0.16809000  0.16736000  0.18138000
   0.16717000  0.16655000  0.30228000
   0.16764000  0.16833000  0.06179000
   0.99934000  0.00030000  0.24219000
   0.33250000  0.00057000  0.00106000
   0.33244000  0.00003000  0.36302000
   0.16564000  0.49971000  0.18123000
   0.16746000  0.49787000  0.06247000
   0.49787000  0.50161000  0.30243000
   0.33345000  0.33400000  0.24176000
   0.50128000  0.50087000  0.18167000
   0.49793000  0.50025000  0.06116000
   0.83355000  0.50049000  0.30256000
   0.66663000  0.33329000  0.24218000
   0.66540000  0.33416000  0.36277000
   0.66547000  0.33470000  0.00081000
Direct configuration=     2
   0.99559000  0.32828000  0.12092000
   0.33262148  0.33205825  0.36257907
   0.33554000  0.33717000  0.12244000
   0.99808000  0.00294000  0.00138000
   0.99846587  0.00188153  0.36366154
   0.33205000  0.99934000  0.12171000
   0.66680000  0.99880000  0.24350000
   0.83452000  0.16613000  0.06120000
   0.67294000  0.00204000  0.12069000
   0.33405000  0.66695000  0.24111000
   0.99910000  0.66743000  0.12138000
   0.33094421  0.66755759  0.36109947
   0.33151000  0.66804000  0.00174000
   0.33268000  0.33220000  0.00000000
   0.83466000  0.83460000  0.06076000
   0.66557258  0.66632298  0.36201545
   0.66616000  0.66699000  0.00091000
   0.83306805  0.83190691  0.30376571
   0.66704000  0.66746000  0.24229000
   0.50180000  0.83456000  0.18079000
   0.33306000  0.66709000  0.12143000
   0.50009000  0.83568000  0.06165000
   0.83330000  0.83486000  0.18207000
   0.66751000  0.66780000  0.12127000
   0.00229127  0.66599195  0.36206383
   0.16644000  0.83420000  0.06149000
   0.16925007  0.83128387  0.30362142
   0.00140000  0.66613000  0.00100000
   0.83479000  0.50089000  0.18130000
   0.00007000  0.66669000  0.24225000
   0.83460000  0.50057000  0.06135000
   0.66585000  0.33313000  0.12140000
   0.16565000  0.83456000  0.18183000
   0.49740821  0.83226567  0.30414576
   0.00179000  0.33550000  0.00090000
   0.00204060  0.33487647  0.36200253
   0.49795000  0.16690000  0.06150000
   0.50074000  0.16494000  0.18144000
   0.83228743  0.16882251  0.30355939
   0.66500000  0.00040000  0.00060000
   0.66532661  0.00003628  0.36190669
   0.83245000  0.16547000  0.18171000
   0.99997000  0.33361000  0.24198000
   0.16738880  0.50321623  0.30371960
   0.33438000  0.99945000  0.24203000
   0.50009068  0.16559260  0.30315312
   0.00050000  0.00053000  0.12178000
   0.16809000  0.16736000  0.18138000
   0.16716149  0.16649495  0.30247494
   0.16764000  0.16833000  0.06179000
   0.99934000  0.00030000  0.24219000
   0.33250000  0.00057000  0.00106000
   0.33184195  0.00009336  0.36192544
   0.16564000  0.49971000  0.18123000
   0.16746000  0.49787000  0.06247000
   0.49890637  0.50299484  0.30352334
   0.33345000  0.33400000  0.24176000
   0.50128000  0.50087000  0.18167000
   0.49793000  0.50025000  0.06116000
   0.83369908  0.50026565  0.30336627
   0.66663000  0.33329000  0.24218000
   0.66503805  0.33408168  0.36204453
   0.66547000  0.33470000  0.00081000
Direct configuration=     3
   0.99559000  0.32828000  0.12092000
   0.33262249  0.33232909  0.36300008
   0.33554000  0.33717000  0.12244000
   0.99808000  0.00294000  0.00138000
   0.99876909  0.00152895  0.36388021
   0.33205000  0.99934000  0.12171000
   0.66680000  0.99880000  0.24350000
   0.83452000  0.16613000  0.06120000
   0.67294000  0.00204000  0.12069000
   0.33405000  0.66695000  0.24111000
   0.99910000  0.66743000  0.12138000
   0.33060024  0.66759676  0.35933096
   0.33151000  0.66804000  0.00174000
   0.33268000  0.33220000  0.00000000
   0.83466000  0.83460000  0.06076000
   0.66521390  0.66623660  0.36143430
   0.66616000  0.66699000  0.00091000
   0.83220985  0.83098674  0.30428644
   0.66704000  0.66746000  0.24229000
   0.50180000  0.83456000  0.18079000
   0.33306000  0.66709000  0.12143000
   0.50009000  0.83568000  0.06165000
   0.83330000  0.83486000  0.18207000
   0.66751000  0.66780000  0.12127000
   0.00293819  0.66626530  0.36145439
   0.16644000  0.83420000  0.06149000
   0.17054223  0.83001479  0.30452687
   0.00140000  0.66613000  0.00100000
   0.83479000  0.50089000  0.18130000
   0.00007000  0.66669000  0.24225000
   0.83460000  0.50057000  0.06135000
   0.66585000  0.33313000  0.12140000
   0.16565000  0.83456000  0.18183000
   0.49706016  0.83222192  0.30476173
   0.00179000  0.33550000  0.00090000
   0.00225182  0.33481966  0.36141940
   0.49795000  0.16690000  0.06150000
   0.50074000  0.16494000  0.18144000
   0.83134041  0.16985791  0.30399421
   0.66500000  0.00040000  0.00060000
   0.66558953  0.00016296  0.36146241
   0.83245000  0.16547000  0.18171000
   0.99997000  0.33361000  0.24198000
   0.16659911  0.50429495  0.30438578
   0.33438000  0.99945000  0.24203000
   0.50109082  0.16461509  0.30355648
   0.00050000  0.00053000  0.12178000
   0.16809000  0.16736000  0.18138000
   0.16715571  0.16645751  0.30260751
   0.16764000  0.16833000  0.06179000
   0.99934000  0.00030000  0.24219000
   0.33250000  0.00057000  0.00106000
   0.33143525  0.00013645  0.36118107
   0.16564000  0.49971000  0.18123000
   0.16746000  0.49787000  0.06247000
   0.49961115  0.50393660  0.30426687
   0.33345000  0.33400000  0.24176000
   0.50128000  0.50087000  0.18167000
   0.49793000  0.50025000  0.06116000
   0.83380046  0.50011308  0.30391458
   0.66663000  0.33329000  0.24218000
   0.66479190  0.33402841  0.36155117
   0.66547000  0.33470000  0.00081000
Direct configuration=     4
   0.99559000  0.32828000  0.12092000
   0.33274183  0.33230529  0.36342501
   0.33554000  0.33717000  0.12244000
   0.99808000  0.00294000  0.00138000
   0.99892700  0.00109579  0.36400720
   0.33205000  0.99934000  0.12171000
   0.66680000  0.99880000  0.24350000
   0.83452000  0.16613000  0.06120000
   0.67294000  0.00204000  0.12069000
   0.33405000  0.66695000  0.24111000
   0.99910000  0.66743000  0.12138000
   0.33065969  0.66710286  0.35879226
   0.33151000  0.66804000  0.00174000
   0.33268000  0.33220000  0.00000000
   0.83466000  0.83460000  0.06076000
   0.66543243  0.66615816  0.36123735
   0.66616000  0.66699000  0.00091000
   0.83229801  0.83094311  0.30436818
   0.66704000  0.66746000  0.24229000
   0.50180000  0.83456000  0.18079000
   0.33306000  0.66709000  0.12143000
   0.50009000  0.83568000  0.06165000
   0.83330000  0.83486000  0.18207000
   0.66751000  0.66780000  0.12127000
   0.00283171  0.66679852  0.36134337
   0.16644000  0.83420000  0.06149000
   0.17017194  0.83057188  0.30446579
   0.00140000  0.66613000  0.00100000
   0.83479000  0.50089000  0.18130000
   0.00007000  0.66669000  0.24225000
   0.83460000  0.50057000  0.06135000
   0.66585000  0.33313000  0.12140000
   0.16565000  0.83456000  0.18183000
   0.49774519  0.83348038  0.30446844
   0.00179000  0.33550000  0.00090000
   0.00252493  0.33449002  0.36115510
   0.49795000  0.16690000  0.06150000
   0.50074000  0.16494000  0.18144000
   0.83160523  0.16990315  0.30404880
   0.66500000  0.00040000  0.00060000
   0.66621172  0.00037197  0.36143588
   0.83245000  0.16547000  0.18171000
   0.99997000  0.33361000  0.24198000
   0.16573922  0.50332109  0.30404041
   0.33438000  0.99945000  0.24203000
   0.50104309  0.16437198  0.30358482
   0.00050000  0.00053000  0.12178000
   0.16809000  0.16736000  0.18138000
   0.16712923  0.16651384  0.30243501
   0.16764000  0.16833000  0.06179000
   0.99934000  0.00030000  0.24219000
   0.33250000  0.00057000  0.00106000
   0.33091582  0.00067007  0.36083987
   0.16564000  0.49971000  0.18123000
   0.16746000  0.49787000  0.06247000
   0.50001800  0.50343179  0.30413422
   0.33345000  0.33400000  0.24176000
   0.50128000  0.50087000  0.18167000
   0.49793000  0.50025000  0.06116000
   0.83395467  0.49996451  0.30387478
   0.66663000  0.33329000  0.24218000
   0.66430308  0.33376930  0.36151848
   0.66547000  0.33470000  0.00081000
Direct configuration=     5
   0.99559000  0.32828000  0.12092000
   0.33308228  0.33223740  0.36463724
   0.33554000  0.33717000  0.12244000
   0.99808000  0.00294000  0.00138000
   0.99937749 -0.00013992  0.36436946
   0.33205000  0.99934000  0.12171000
   0.66680000  0.99880000  0.24350000
   0.83452000  0.16613000  0.06120000
   0.67294000  0.00204000  0.12069000
   0.33405000  0.66695000  0.24111000
   0.99910000  0.66743000  0.12138000
   0.33082929  0.66569388  0.35725546
   0.33151000  0.66804000  0.00174000
   0.33268000  0.33220000  0.00000000
   0.83466000  0.83460000  0.06076000
   0.66605585  0.66593438  0.36067549
   0.66616000  0.66699000  0.00091000
   0.83254952  0.83081867  0.30460137
   0.66704000  0.66746000  0.24229000
   0.50180000  0.83456000  0.18079000
   0.33306000  0.66709000  0.12143000
   0.50009000  0.83568000  0.06165000
   0.83330000  0.83486000  0.18207000
   0.66751000  0.66780000  0.12127000
   0.00252797  0.66831968  0.36102668
   0.16644000  0.83420000  0.06149000
   0.16911558  0.83216113  0.30429154
   0.00140000  0.66613000  0.00100000
   0.83479000  0.50089000  0.18130000
   0.00007000  0.66669000  0.24225000
   0.83460000  0.50057000  0.06135000
   0.66585000  0.33313000  0.12140000
   0.16565000  0.83456000  0.18183000
   0.49969943  0.83707050  0.30363173
   0.00179000  0.33550000  0.00090000
   0.00330403  0.33354965  0.36040111
   0.49795000  0.16690000  0.06150000
   0.50074000  0.16494000  0.18144000
   0.83236070  0.17003223  0.30420452
   0.66500000  0.00040000  0.00060000
   0.66798671  0.00096822  0.36136022
   0.83245000  0.16547000  0.18171000
   0.99997000  0.33361000  0.24198000
   0.16328613  0.50054288  0.30305515
   0.33438000  0.99945000  0.24203000
   0.50090690  0.16367844  0.30366568
   0.00050000  0.00053000  0.12178000
   0.16809000  0.16736000  0.18138000
   0.16705367  0.16667451  0.30194288
   0.16764000  0.16833000  0.06179000
   0.99934000  0.00030000  0.24219000
   0.33250000  0.00057000  0.00106000
   0.32943399  0.00219234  0.35986648
   0.16564000  0.49971000  0.18123000
   0.16746000  0.49787000  0.06247000
   0.50117864  0.50199167  0.30375581
   0.33345000  0.33400000  0.24176000
   0.50128000  0.50087000  0.18167000
   0.49793000  0.50025000  0.06116000
   0.83439459  0.49954068  0.30376125
   0.66663000  0.33329000  0.24218000
   0.66290857  0.33303013  0.36142524
   0.66547000  0.33470000  0.00081000
Direct configuration=     6
   0.99559000  0.32828000  0.12092000
   0.33300532  0.33225274  0.36436323
   0.33554000  0.33717000  0.12244000
   0.99808000  0.00294000  0.00138000
   0.99927566  0.00013940  0.36428757
   0.33205000  0.99934000  0.12171000
   0.66680000  0.99880000  0.24350000
   0.83452000  0.16613000  0.06120000
   0.67294000  0.00204000  0.12069000
   0.33405000  0.66695000  0.24111000
   0.99910000  0.66743000  0.12138000
   0.33079095  0.66601237  0.35760284
   0.33151000  0.66804000  0.00174000
   0.33268000  0.33220000  0.00000000
   0.83466000  0.83460000  0.06076000
   0.66591493  0.66598496  0.36080250
   0.66616000  0.66699000  0.00091000
   0.83249267  0.83084680  0.30454866
   0.66704000  0.66746000  0.24229000
   0.50180000  0.83456000  0.18079000
   0.33306000  0.66709000  0.12143000
   0.50009000  0.83568000  0.06165000
   0.83330000  0.83486000  0.18207000
   0.66751000  0.66780000  0.12127000
   0.00259663  0.66797583  0.36109826
   0.16644000  0.83420000  0.06149000
   0.16935436  0.83180189  0.30433093
   0.00140000  0.66613000  0.00100000
   0.83479000  0.50089000  0.18130000
   0.00007000  0.66669000  0.24225000
   0.83460000  0.50057000  0.06135000
   0.66585000  0.33313000  0.12140000
   0.16565000  0.83456000  0.18183000
   0.49925769  0.83625898  0.30382086
   0.00179000  0.33550000  0.00090000
   0.00312792  0.33376222  0.36057154
   0.49795000  0.16690000  0.06150000
   0.50074000  0.16494000  0.18144000
   0.83218993  0.17000305  0.30416932
   0.66500000  0.00040000  0.00060000
   0.66758548  0.00083344  0.36137732
   0.83245000  0.16547000  0.18171000
   0.99997000  0.33361000  0.24198000
   0.16384064  0.50117088  0.30327786
   0.33438000  0.99945000  0.24203000
   0.50093768  0.16383521  0.30364740
   0.00050000  0.00053000  0.12178000
   0.16809000  0.16736000  0.18138000
   0.16707075  0.16663819  0.30205412
   0.16764000  0.16833000  0.06179000
   0.99934000  0.00030000  0.24219000
   0.33250000  0.00057000  0.00106000
   0.32976895  0.00184824  0.36008651
   0.16564000  0.49971000  0.18123000
   0.16746000  0.49787000  0.06247000
   0.50091629  0.50231720  0.30384135
   0.33345000  0.33400000  0.24176000
   0.50128000  0.50087000  0.18167000
   0.49793000  0.50025000  0.06116000
   0.83429515  0.49963648  0.30378691
   0.66663000  0.33329000  0.24218000
   0.66322379  0.33319722  0.36144631
   0.66547000  0.33470000  0.00081000
Direct configuration=     7
   0.99559000  0.32828000  0.12092000
   0.33302060  0.33225574  0.36471490
   0.33554000  0.33717000  0.12244000
   0.99808000  0.00294000  0.00138000
   0.99947496 -0.00011846  0.36444370
   0.33205000  0.99934000  0.12171000
   0.66680000  0.99880000  0.24350000
   0.83452000  0.16613000  0.06120000
   0.67294000  0.00204000  0.12069000
   0.33405000  0.66695000  0.24111000
   0.99910000  0.66743000  0.12138000
   0.33094772  0.66554617  0.35629650
   0.33151000  0.66804000  0.00174000
   0.33268000  0.33220000  0.00000000
   0.83466000  0.83460000  0.06076000
   0.66609472  0.66583242  0.36058244
   0.66616000  0.66699000  0.00091000
   0.83277761  0.83102987  0.30441674
   0.66704000  0.66746000  0.24229000
   0.50180000  0.83456000  0.18079000
   0.33306000  0.66709000  0.12143000
   0.50009000  0.83568000  0.06165000
   0.83330000  0.83486000  0.18207000
   0.66751000  0.66780000  0.12127000
   0.00265125  0.66847853  0.36103042
   0.16644000  0.83420000  0.06149000
   0.16913425  0.83176580  0.30411004
   0.00140000  0.66613000  0.00100000
   0.83479000  0.50089000  0.18130000
   0.00007000  0.66669000  0.24225000
   0.83460000  0.50057000  0.06135000
   0.66585000  0.33313000  0.12140000
   0.16565000  0.83456000  0.18183000
   0.49958984  0.83656410  0.30366804
   0.00179000  0.33550000  0.00090000
   0.00336264  0.33321820  0.36052660
   0.49795000  0.16690000  0.06150000
   0.50074000  0.16494000  0.18144000
   0.83241639  0.16967603  0.30406227
   0.66500000  0.00040000  0.00060000
   0.66862077  0.00121931  0.36154802
   0.83245000  0.16547000  0.18171000
   0.99997000  0.33361000  0.24198000
   0.16403796  0.50082209  0.30306949
   0.33438000  0.99945000  0.24203000
   0.50088334  0.16430228  0.30351120
   0.00050000  0.00053000  0.12178000
   0.16809000  0.16736000  0.18138000
   0.16711712  0.16674050  0.30185363
   0.16764000  0.16833000  0.06179000
   0.99934000  0.00030000  0.24219000
   0.33250000  0.00057000  0.00106000
   0.32921919  0.00238182  0.35992125
   0.16564000  0.49971000  0.18123000
   0.16746000  0.49787000  0.06247000
   0.50070104  0.50198860  0.30372046
   0.33345000  0.33400000  0.24176000
   0.50128000  0.50087000  0.18167000
   0.49793000  0.50025000  0.06116000
   0.83412839  0.49952721  0.30368413
   0.66663000  0.33329000  0.24218000
   0.66260567  0.33278594  0.36149645
   0.66547000  0.33470000  0.00081000
Direct configuration=     8
   0.99559000  0.32828000  0.12092000
   0.33301516  0.33225467  0.36458962
   0.33554000  0.33717000  0.12244000
   0.99808000  0.00294000  0.00138000
   0.99940396 -0.00002660  0.36438808
   0.33205000  0.99934000  0.12171000
   0.66680000  0.99880000  0.24350000
   0.83452000  0.16613000  0.06120000
   0.67294000  0.00204000  0.12069000
   0.33405000  0.66695000  0.24111000
   0.99910000  0.66743000  0.12138000
   0.33089188  0.66571225  0.35676187
   0.33151000  0.66804000  0.00174000
   0.33268000  0.33220000  0.00000000
   0.83466000  0.83460000  0.06076000
   0.66603067  0.66588676  0.36066083
   0.66616000  0.66699000  0.00091000
   0.83267611  0.83096465  0.30446374
   0.66704000  0.66746000  0.24229000
   0.50180000  0.83456000  0.18079000
   0.33306000  0.66709000  0.12143000
   0.50009000  0.83568000  0.06165000
   0.83330000  0.83486000  0.18207000
   0.66751000  0.66780000  0.12127000
   0.00263179  0.66829945  0.36105459
   0.16644000  0.83420000  0.06149000
   0.16921266  0.83177866  0.30418873
   0.00140000  0.66613000  0.00100000
   0.83479000  0.50089000  0.18130000
   0.00007000  0.66669000  0.24225000
   0.83460000  0.50057000  0.06135000
   0.66585000  0.33313000  0.12140000
   0.16565000  0.83456000  0.18183000
   0.49947151  0.83645540  0.30372248
   0.00179000  0.33550000  0.00090000
   0.00327902  0.33341200  0.36054261
   0.49795000  0.16690000  0.06150000
   0.50074000  0.16494000  0.18144000
   0.83233572  0.16979253  0.30410041
   0.66500000  0.00040000  0.00060000
   0.66825196  0.00108185  0.36148721
   0.83245000  0.16547000  0.18171000
   0.99997000  0.33361000  0.24198000
   0.16396766  0.50094634  0.30314372
   0.33438000  0.99945000  0.24203000
   0.50090270  0.16413589  0.30355972
   0.00050000  0.00053000  0.12178000
   0.16809000  0.16736000  0.18138000
   0.16710060  0.16670405  0.30192505
   0.16764000  0.16833000  0.06179000
   0.99934000  0.00030000  0.24219000
   0.33250000  0.00057000  0.00106000
   0.32941503  0.00219174  0.35998012
   0.16564000  0.49971000  0.18123000
   0.16746000  0.49787000  0.06247000
   0.50077772  0.50210566  0.30376352
   0.33345000  0.33400000  0.24176000
   0.50128000  0.50087000  0.18167000
   0.49793000  0.50025000  0.06116000
   0.83418780  0.49956614  0.30372075
   0.66663000  0.33329000  0.24218000
   0.66282587  0.33293245  0.36147859
   0.66547000  0.33470000  0.00081000
Direct configuration=     9
   0.99559000  0.32828000  0.12092000
   0.33301352  0.33225435  0.36455193
   0.33554000  0.33717000  0.12244000
   0.99808000  0.00294000  0.00138000
   0.99938260  0.00000103  0.36437135
   0.33205000  0.99934000  0.12171000
   0.66680000  0.99880000  0.24350000
   0.83452000  0.16613000  0.06120000
   0.67294000  0.00204000  0.12069000
   0.33405000  0.66695000  0.24111000
   0.99910000  0.66743000  0.12138000
   0.33087508  0.66576221  0.35690186
   0.33151000  0.66804000  0.00174000
   0.33268000  0.33220000  0.00000000
   0.83466000  0.83460000  0.06076000
   0.66601140  0.66590311  0.36068441
   0.66616000  0.66699000  0.00091000
   0.83264557  0.83094503  0.30447787
   0.66704000  0.66746000  0.24229000
   0.50180000  0.83456000  0.18079000
   0.33306000  0.66709000  0.12143000
   0.50009000  0.83568000  0.06165000
   0.83330000  0.83486000  0.18207000
   0.66751000  0.66780000  0.12127000
   0.00262594  0.66824558  0.36106186
   0.16644000  0.83420000  0.06149000
   0.16923625  0.83178252  0.30421240
   0.00140000  0.66613000  0.00100000
   0.83479000  0.50089000  0.18130000
   0.00007000  0.66669000  0.24225000
   0.83460000  0.50057000  0.06135000
   0.66585000  0.33313000  0.12140000
   0.16565000  0.83456000  0.18183000
   0.49943592  0.83642270  0.30373886
   0.00179000  0.33550000  0.00090000
   0.00325387  0.33347030  0.36054743
   0.49795000  0.16690000  0.06150000
   0.50074000  0.16494000  0.18144000
   0.83231145  0.16982757  0.30411188
   0.66500000  0.00040000  0.00060000
   0.66814102  0.00104050  0.36146892
   0.83245000  0.16547000  0.18171000
   0.99997000  0.33361000  0.24198000
   0.16394652  0.50098372  0.30316605
   0.33438000  0.99945000  0.24203000
   0.50090852  0.16408584  0.30357432
   0.00050000  0.00053000  0.12178000
   0.16809000  0.16736000  0.18138000
   0.16709563  0.16669309  0.30194653
   0.16764000  0.16833000  0.06179000
   0.99934000  0.00030000  0.24219000
   0.33250000  0.00057000  0.00106000
   0.32947395  0.00213456  0.35999783
   0.16564000  0.49971000  0.18123000
   0.16746000  0.49787000  0.06247000
   0.50080079  0.50214087  0.30377648
   0.33345000  0.33400000  0.24176000
   0.50128000  0.50087000  0.18167000
   0.49793000  0.50025000  0.06116000
   0.83420567  0.49957785  0.30373176
   0.66663000  0.33329000  0.24218000
   0.66289211  0.33297652  0.36147322
   0.66547000  0.33470000  0.00081000
Direct configuration=    10
   0.99559000  0.32828000  0.12092000
   0.33295647  0.33242904  0.36474472
   0.33554000  0.33717000  0.12244000
   0.99808000  0.00294000  0.00138000
   0.99957258 -0.00009148  0.36450045
   0.33205000  0.99934000  0.12171000
   0.66680000  0.99880000  0.24350000
   0.83452000  0.16613000  0.06120000
   0.67294000  0.00204000  0.12069000
   0.33405000  0.66695000  0.24111000
   0.99910000  0.66743000  0.12138000
   0.33117166  0.66522477  0.35639735
   0.33151000  0.66804000  0.00174000
   0.33268000  0.33220000  0.00000000
   0.83466000  0.83460000  0.06076000
   0.66609733  0.66577999  0.36047452
   0.66616000  0.66699000  0.00091000
   0.83295519  0.83121089  0.30427360
   0.66704000  0.66746000  0.24229000
   0.50180000  0.83456000  0.18079000
   0.33306000  0.66709000  0.12143000
   0.50009000  0.83568000  0.06165000
   0.83330000  0.83486000  0.18207000
   0.66751000  0.66780000  0.12127000
   0.00273231  0.66856927  0.36101910
   0.16644000  0.83420000  0.06149000
   0.16869618  0.83194655  0.30376558
   0.00140000  0.66613000  0.00100000
   0.83479000  0.50089000  0.18130000
   0.00007000  0.66669000  0.24225000
   0.83460000  0.50057000  0.06135000
   0.66585000  0.33313000  0.12140000
   0.16565000  0.83456000  0.18183000
   0.50000388  0.83668733  0.30346849
   0.00179000  0.33550000  0.00090000
   0.00343649  0.33294966  0.36064142
   0.49795000  0.16690000  0.06150000
   0.50074000  0.16494000  0.18144000
   0.83240162  0.16939298  0.30394473
   0.66500000  0.00040000  0.00060000
   0.66912518  0.00146197  0.36170347
   0.83245000  0.16547000  0.18171000
   0.99997000  0.33361000  0.24198000
   0.16404860  0.50055845  0.30284463
   0.33438000  0.99945000  0.24203000
   0.50088697  0.16475190  0.30340830
   0.00050000  0.00053000  0.12178000
   0.16809000  0.16736000  0.18138000
   0.16717846  0.16680423  0.30179383
   0.16764000  0.16833000  0.06179000
   0.99934000  0.00030000  0.24219000
   0.33250000  0.00057000  0.00106000
   0.32910777  0.00250231  0.35996922
   0.16564000  0.49971000  0.18123000
   0.16746000  0.49787000  0.06247000
   0.50080467  0.50163718  0.30348504
   0.33345000  0.33400000  0.24176000
   0.50128000  0.50087000  0.18167000
   0.49793000  0.50025000  0.06116000
   0.83396132  0.49949804  0.30363793
   0.66663000  0.33329000  0.24218000
   0.66230098  0.33252199  0.36155874
   0.66547000  0.33470000  0.00081000
Direct configuration=    11
   0.99559000  0.32828000  0.12092000
   0.33294018  0.33247893  0.36479978
   0.33554000  0.33717000  0.12244000
   0.99808000  0.00294000  0.00138000
   0.99962684 -0.00011790  0.36453731
   0.33205000  0.99934000  0.12171000
   0.66680000  0.99880000  0.24350000
   0.83452000  0.16613000  0.06120000
   0.67294000  0.00204000  0.12069000
   0.33405000  0.66695000  0.24111000
   0.99910000  0.66743000  0.12138000
   0.33125636  0.66507128  0.35625327
   0.33151000  0.66804000  0.00174000
   0.33268000  0.33220000  0.00000000
   0.83466000  0.83460000  0.06076000
   0.66612187  0.66574482  0.36041458
   0.66616000  0.66699000  0.00091000
   0.83304362  0.83128682  0.30421526
   0.66704000  0.66746000  0.24229000
   0.50180000  0.83456000  0.18079000
   0.33306000  0.66709000  0.12143000
   0.50009000  0.83568000  0.06165000
   0.83330000  0.83486000  0.18207000
   0.66751000  0.66780000  0.12127000
   0.00276269  0.66866171  0.36100689
   0.16644000  0.83420000  0.06149000
   0.16854195  0.83199339  0.30363798
   0.00140000  0.66613000  0.00100000
   0.83479000  0.50089000  0.18130000
   0.00007000  0.66669000  0.24225000
   0.83460000  0.50057000  0.06135000
   0.66585000  0.33313000  0.12140000
   0.16565000  0.83456000  0.18183000
   0.50016607  0.83676290  0.30339128
   0.00179000  0.33550000  0.00090000
   0.00348864  0.33280097  0.36066826
   0.49795000  0.16690000  0.06150000
   0.50074000  0.16494000  0.18144000
   0.83242737  0.16926887  0.30389700
   0.66500000  0.00040000  0.00060000
   0.66940624  0.00158233  0.36177046
   0.83245000  0.16547000  0.18171000
   0.99997000  0.33361000  0.24198000
   0.16407775  0.50043700  0.30275284
   0.33438000  0.99945000  0.24203000
   0.50088082  0.16494211  0.30336089
   0.00050000  0.00053000  0.12178000
   0.16809000  0.16736000  0.18138000
   0.16720212  0.16683597  0.30175022
   0.16764000  0.16833000  0.06179000
   0.99934000  0.00030000  0.24219000
   0.33250000  0.00057000  0.00106000
   0.32900319  0.00260733  0.35996104
   0.16564000  0.49971000  0.18123000
   0.16746000  0.49787000  0.06247000
   0.50080578  0.50149333  0.30340181
   0.33345000  0.33400000  0.24176000
   0.50128000  0.50087000  0.18167000
   0.49793000  0.50025000  0.06116000
   0.83389154  0.49947525  0.30361114
   0.66663000  0.33329000  0.24218000
   0.66213216  0.33239218  0.36158316
   0.66547000  0.33470000  0.00081000
Direct configuration=    12
   0.99559000  0.32828000  0.12092000
   0.33284327  0.33269824  0.36471640
   0.33554000  0.33717000  0.12244000
   0.99808000  0.00294000  0.00138000
   0.99971032 -0.00000209  0.36453095
   0.33205000  0.99934000  0.12171000
   0.66680000  0.99880000  0.24350000
   0.83452000  0.16613000  0.06120000
   0.67294000  0.00204000  0.12069000
   0.33405000  0.66695000  0.24111000
   0.99910000  0.66743000  0.12138000
   0.33141925  0.66496083  0.35673144
   0.33151000  0.66804000  0.00174000
   0.33268000  0.33220000  0.00000000
   0.83466000  0.83460000  0.06076000
   0.66605189  0.66577034  0.36034736
   0.66616000  0.66699000  0.00091000
   0.83305076  0.83137503  0.30418378
   0.66704000  0.66746000  0.24229000
   0.50180000  0.83456000  0.18079000
   0.33306000  0.66709000  0.12143000
   0.50009000  0.83568000  0.06165000
   0.83330000  0.83486000  0.18207000
   0.66751000  0.66780000  0.12127000
   0.00285654  0.66855479  0.36095893
   0.16644000  0.83420000  0.06149000
   0.16826740  0.83227046  0.30343429
   0.00140000  0.66613000  0.00100000
   0.83479000  0.50089000  0.18130000
   0.00007000  0.66669000  0.24225000
   0.83460000  0.50057000  0.06135000
   0.66585000  0.33313000  0.12140000
   0.16565000  0.83456000  0.18183000
   0.50046603  0.83700340  0.30329390
   0.00179000  0.33550000  0.00090000
   0.00346278  0.33273395  0.36072922
   0.49795000  0.16690000  0.06150000
   0.50074000  0.16494000  0.18144000
   0.83232512  0.16921623  0.30387395
   0.66500000  0.00040000  0.00060000
   0.66958030  0.00172683  0.36180583
   0.83245000  0.16547000  0.18171000
   0.99997000  0.33361000  0.24198000
   0.16378872  0.50022284  0.30263566
   0.33438000  0.99945000  0.24203000
   0.50090543  0.16497077  0.30336239
   0.00050000  0.00053000  0.12178000
   0.16809000  0.16736000  0.18138000
   0.16722488  0.16684934  0.30179282
   0.16764000  0.16833000  0.06179000
   0.99934000  0.00030000  0.24219000
   0.33250000  0.00057000  0.00106000
   0.32911951  0.00247722  0.35997882
   0.16564000  0.49971000  0.18123000
   0.16746000  0.49787000  0.06247000
   0.50112786  0.50121310  0.30322335
   0.33345000  0.33400000  0.24176000
   0.50128000  0.50087000  0.18167000
   0.49793000  0.50025000  0.06116000
   0.83392548  0.49939918  0.30365045
   0.66663000  0.33329000  0.24218000
   0.66202312  0.33223605  0.36160375
   0.66547000  0.33470000  0.00081000
Direct configuration=    13
   0.99559000  0.32828000  0.12092000
   0.33255253  0.33335618  0.36446625
   0.33554000  0.33717000  0.12244000
   0.99808000  0.00294000  0.00138000
   0.99996078  0.00034534  0.36451185
   0.33205000  0.99934000  0.12171000
   0.66680000  0.99880000  0.24350000
   0.83452000  0.16613000  0.06120000
   0.67294000  0.00204000  0.12069000
   0.33405000  0.66695000  0.24111000
   0.99910000  0.66743000  0.12138000
   0.33190791  0.66462947  0.35816595
   0.33151000  0.66804000  0.00174000
   0.33268000  0.33220000  0.00000000
   0.83466000  0.83460000  0.06076000
   0.66584193  0.66584690  0.36014571
   0.66616000  0.66699000  0.00091000
   0.83307218  0.83163968  0.30408932
   0.66704000  0.66746000  0.24229000
   0.50180000  0.83456000  0.18079000
   0.33306000  0.66709000  0.12143000
   0.50009000  0.83568000  0.06165000
   0.83330000  0.83486000  0.18207000
   0.66751000  0.66780000  0.12127000
   0.00313810  0.66823404  0.36081507
   0.16644000  0.83420000  0.06149000
   0.16744377  0.83310165  0.30282320
   0.00140000  0.66613000  0.00100000
   0.83479000  0.50089000  0.18130000
   0.00007000  0.66669000  0.24225000
   0.83460000  0.50057000  0.06135000
   0.66585000  0.33313000  0.12140000
   0.16565000  0.83456000  0.18183000
   0.50136591  0.83772491  0.30300175
   0.00179000  0.33550000  0.00090000
   0.00338519  0.33253288  0.36091211
   0.49795000  0.16690000  0.06150000
   0.50074000  0.16494000  0.18144000
   0.83201838  0.16905833  0.30380483
   0.66500000  0.00040000  0.00060000
   0.67010248  0.00216031  0.36191193
   0.83245000  0.16547000  0.18171000
   0.99997000  0.33361000  0.24198000
   0.16292163  0.49958035  0.30228413
   0.33438000  0.99945000  0.24203000
   0.50097929  0.16505673  0.30336690
   0.00050000  0.00053000  0.12178000
   0.16809000  0.16736000  0.18138000
   0.16729315  0.16688946  0.30192061
   0.16764000  0.16833000  0.06179000
   0.99934000  0.00030000  0.24219000
   0.33250000  0.00057000  0.00106000
   0.32946848  0.00208688  0.36003214
   0.16564000  0.49971000  0.18123000
   0.16746000  0.49787000  0.06247000
   0.50209410  0.50037242  0.30268799
   0.33345000  0.33400000  0.24176000
   0.50128000  0.50087000  0.18167000
   0.49793000  0.50025000  0.06116000
   0.83402730  0.49917099  0.30376839
   0.66663000  0.33329000  0.24218000
   0.66169602  0.33176768  0.36166552
   0.66547000  0.33470000  0.00081000
Direct configuration=    14
   0.99559000  0.32828000  0.12092000
   0.33197105  0.33467206  0.36396595
   0.33554000  0.33717000  0.12244000
   0.99808000  0.00294000  0.00138000
   0.00046170  0.00104021  0.36447367
   0.33205000  0.99934000  0.12171000
   0.66680000  0.99880000  0.24350000
   0.83452000  0.16613000  0.06120000
   0.67294000  0.00204000  0.12069000
   0.33405000  0.66695000  0.24111000
   0.99910000  0.66743000  0.12138000
   0.33288522  0.66396675  0.36103499
   0.33151000  0.66804000  0.00174000
   0.33268000  0.33220000  0.00000000
   0.83466000  0.83460000  0.06076000
   0.66542201  0.66600002  0.35974240
   0.66616000  0.66699000  0.00091000
   0.83311502  0.83216898  0.30390039
   0.66704000  0.66746000  0.24229000
   0.50180000  0.83456000  0.18079000
   0.33306000  0.66709000  0.12143000
   0.50009000  0.83568000  0.06165000
   0.83330000  0.83486000  0.18207000
   0.66751000  0.66780000  0.12127000
   0.00370122  0.66759253  0.36052735
   0.16644000  0.83420000  0.06149000
   0.16579649  0.83476402  0.30160103
   0.00140000  0.66613000  0.00100000
   0.83479000  0.50089000  0.18130000
   0.00007000  0.66669000  0.24225000
   0.83460000  0.50057000  0.06135000
   0.66585000  0.33313000  0.12140000
   0.16565000  0.83456000  0.18183000
   0.50316567  0.83916792  0.30241746
   0.00179000  0.33550000  0.00090000
   0.00323000  0.33213076  0.36127789
   0.49795000  0.16690000  0.06150000
   0.50074000  0.16494000  0.18144000
   0.83140490  0.16874253  0.30366659
   0.66500000  0.00040000  0.00060000
   0.67114685  0.00302727  0.36212414
   0.83245000  0.16547000  0.18171000
   0.99997000  0.33361000  0.24198000
   0.16118744  0.49829536  0.30158105
   0.33438000  0.99945000  0.24203000
   0.50112700  0.16522867  0.30337590
   0.00050000  0.00053000  0.12178000
   0.16809000  0.16736000  0.18138000
   0.16742971  0.16696968  0.30217619
   0.16764000  0.16833000  0.06179000
   0.99934000  0.00030000  0.24219000
   0.33250000  0.00057000  0.00106000
   0.33016641  0.00130620  0.36013879
   0.16564000  0.49971000  0.18123000
   0.16746000  0.49787000  0.06247000
   0.50402658  0.49869104  0.30161728
   0.33345000  0.33400000  0.24176000
   0.50128000  0.50087000  0.18167000
   0.49793000  0.50025000  0.06116000
   0.83423093  0.49871460  0.30400427
   0.66663000  0.33329000  0.24218000
   0.66104181  0.33083092  0.36178908
   0.66547000  0.33470000  0.00081000
Direct configuration=    15
   0.99559000  0.32828000  0.12092000
   0.33080810  0.33730381  0.36296535
   0.33554000  0.33717000  0.12244000
   0.99808000  0.00294000  0.00138000
   0.00146353  0.00242994  0.36439729
   0.33205000  0.99934000  0.12171000
   0.66680000  0.99880000  0.24350000
   0.83452000  0.16613000  0.06120000
   0.67294000  0.00204000  0.12069000
   0.33405000  0.66695000  0.24111000
   0.99910000  0.66743000  0.12138000
   0.33483986  0.66264130  0.36677305
   0.33151000  0.66804000  0.00174000
   0.33268000  0.33220000  0.00000000
   0.83466000  0.83460000  0.06076000
   0.66458219  0.66630626  0.35893578
   0.66616000  0.66699000  0.00091000
   0.83320069  0.83322757  0.30352254
   0.66704000  0.66746000  0.24229000
   0.50180000  0.83456000  0.18079000
   0.33306000  0.66709000  0.12143000
   0.50009000  0.83568000  0.06165000
   0.83330000  0.83486000  0.18207000
   0.66751000  0.66780000  0.12127000
   0.00482745  0.66630952  0.35995191
   0.16644000  0.83420000  0.06149000
   0.16250194  0.83808878  0.29915670
   0.00140000  0.66613000  0.00100000
   0.83479000  0.50089000  0.18130000
   0.00007000  0.66669000  0.24225000
   0.83460000  0.50057000  0.06135000
   0.66585000  0.33313000  0.12140000
   0.16565000  0.83456000  0.18183000
   0.50676518  0.84205394  0.30124887
   0.00179000  0.33550000  0.00090000
   0.00291964  0.33132650  0.36200944
   0.49795000  0.16690000  0.06150000
   0.50074000  0.16494000  0.18144000
   0.83017793  0.16811092  0.30339010
   0.66500000  0.00040000  0.00060000
   0.67323559  0.00476118  0.36254855
   0.83245000  0.16547000  0.18171000
   0.99997000  0.33361000  0.24198000
   0.15771906  0.49572539  0.30017490
   0.33438000  0.99945000  0.24203000
   0.50142242  0.16557253  0.30339392
   0.00050000  0.00053000  0.12178000
   0.16809000  0.16736000  0.18138000
   0.16770283  0.16713013  0.30268736
   0.16764000  0.16833000  0.06179000
   0.99934000  0.00030000  0.24219000
   0.33250000  0.00057000  0.00106000
   0.33156226 -0.00025516  0.36035208
   0.16564000  0.49971000  0.18123000
   0.16746000  0.49787000  0.06247000
   0.50789155  0.49532829  0.29947584
   0.33345000  0.33400000  0.24176000
   0.50128000  0.50087000  0.18167000
   0.49793000  0.50025000  0.06116000
   0.83463821  0.49780183  0.30447604
   0.66663000  0.33329000  0.24218000
   0.65973338  0.32895741  0.36203618
   0.66547000  0.33470000  0.00081000
Direct configuration=    16
   0.99559000  0.32828000  0.12092000
   0.33155084  0.33562299  0.36360440
   0.33554000  0.33717000  0.12244000
   0.99808000  0.00294000  0.00138000
   0.00082369  0.00154236  0.36444607
   0.33205000  0.99934000  0.12171000
   0.66680000  0.99880000  0.24350000
   0.83452000  0.16613000  0.06120000
   0.67294000  0.00204000  0.12069000
   0.33405000  0.66695000  0.24111000
   0.99910000  0.66743000  0.12138000
   0.33359150  0.66348782  0.36310834
   0.33151000  0.66804000  0.00174000
   0.33268000  0.33220000  0.00000000
   0.83466000  0.83460000  0.06076000
   0.66511856  0.66611067  0.35945094
   0.66616000  0.66699000  0.00091000
   0.83314597  0.83255148  0.30376386
   0.66704000  0.66746000  0.24229000
   0.50180000  0.83456000  0.18079000
   0.33306000  0.66709000  0.12143000
   0.50009000  0.83568000  0.06165000
   0.83330000  0.83486000  0.18207000
   0.66751000  0.66780000  0.12127000
   0.00410816  0.66712894  0.36031943
   0.16644000  0.83420000  0.06149000
   0.16460606  0.83596537  0.30071782
   0.00140000  0.66613000  0.00100000
   0.83479000  0.50089000  0.18130000
   0.00007000  0.66669000  0.24225000
   0.83460000  0.50057000  0.06135000
   0.66585000  0.33313000  0.12140000
   0.16565000  0.83456000  0.18183000
   0.50446629  0.84021073  0.30199521
   0.00179000  0.33550000  0.00090000
   0.00311786  0.33184015  0.36154222
   0.49795000  0.16690000  0.06150000
   0.50074000  0.16494000  0.18144000
   0.83096155  0.16851431  0.30356668
   0.66500000  0.00040000  0.00060000
   0.67190158  0.00365379  0.36227749
   0.83245000  0.16547000  0.18171000
   0.99997000  0.33361000  0.24198000
   0.15993420  0.49736674  0.30107296
   0.33438000  0.99945000  0.24203000
   0.50123375  0.16535292  0.30338241
   0.00050000  0.00053000  0.12178000
   0.16809000  0.16736000  0.18138000
   0.16752840  0.16702766  0.30236089
   0.16764000  0.16833000  0.06179000
   0.99934000  0.00030000  0.24219000
   0.33250000  0.00057000  0.00106000
   0.33067077  0.00074203  0.36021585
   0.16564000  0.49971000  0.18123000
   0.16746000  0.49787000  0.06247000
   0.50542312  0.49747597  0.30084350
   0.33345000  0.33400000  0.24176000
   0.50128000  0.50087000  0.18167000
   0.49793000  0.50025000  0.06116000
   0.83437809  0.49838479  0.30417474
   0.66663000  0.33329000  0.24218000
   0.66056903  0.33015396  0.36187836
   0.66547000  0.33470000  0.00081000
Direct configuration=    17
   0.99559000  0.32828000  0.12092000
   0.33150407  0.33592277  0.36353405
   0.33554000  0.33717000  0.12244000
   0.99808000  0.00294000  0.00138000
   0.00088100  0.00158765  0.36445485
   0.33205000  0.99934000  0.12171000
   0.66680000  0.99880000  0.24350000
   0.83452000  0.16613000  0.06120000
   0.67294000  0.00204000  0.12069000
   0.33405000  0.66695000  0.24111000
   0.99910000  0.66743000  0.12138000
   0.33367781  0.66342395  0.36359312
   0.33151000  0.66804000  0.00174000
   0.33268000  0.33220000  0.00000000
   0.83466000  0.83460000  0.06076000
   0.66511492  0.66612872  0.35940680
   0.66616000  0.66699000  0.00091000
   0.83317682  0.83258135  0.30376329
   0.66704000  0.66746000  0.24229000
   0.50180000  0.83456000  0.18079000
   0.33306000  0.66709000  0.12143000
   0.50009000  0.83568000  0.06165000
   0.83330000  0.83486000  0.18207000
   0.66751000  0.66780000  0.12127000
   0.00411597  0.66704354  0.36026953
   0.16644000  0.83420000  0.06149000
   0.16459636  0.83604803  0.30065567
   0.00140000  0.66613000  0.00100000
   0.83479000  0.50089000  0.18130000
   0.00007000  0.66669000  0.24225000
   0.83460000  0.50057000  0.06135000
   0.66585000  0.33313000  0.12140000
   0.16565000  0.83456000  0.18183000
   0.50450140  0.84024726  0.30194249
   0.00179000  0.33550000  0.00090000
   0.00310635  0.33178545  0.36156739
   0.49795000  0.16690000  0.06150000
   0.50074000  0.16494000  0.18144000
   0.83097543  0.16851213  0.30355955
   0.66500000  0.00040000  0.00060000
   0.67201940  0.00372592  0.36232158
   0.83245000  0.16547000  0.18171000
   0.99997000  0.33361000  0.24198000
   0.15982697  0.49731499  0.30101177
   0.33438000  0.99945000  0.24203000
   0.50118241  0.16533349  0.30338310
   0.00050000  0.00053000  0.12178000
   0.16809000  0.16736000  0.18138000
   0.16757621  0.16703220  0.30237189
   0.16764000  0.16833000  0.06179000
   0.99934000  0.00030000  0.24219000
   0.33250000  0.00057000  0.00106000
   0.33073093  0.00065221  0.36018043
   0.16564000  0.49971000  0.18123000
   0.16746000  0.49787000  0.06247000
   0.50560254  0.49735739  0.30075580
   0.33345000  0.33400000  0.24176000
   0.50128000  0.50087000  0.18167000
   0.49793000  0.50025000  0.06116000
   0.83436643  0.49835098  0.30418514
   0.66663000  0.33329000  0.24218000
   0.66047628  0.33009748  0.36189674
   0.66547000  0.33470000  0.00081000
Direct configuration=    18
   0.99559000  0.32828000  0.12092000
   0.33136376  0.33682210  0.36332298
   0.33554000  0.33717000  0.12244000
   0.99808000  0.00294000  0.00138000
   0.00105291  0.00172350  0.36448118
   0.33205000  0.99934000  0.12171000
   0.66680000  0.99880000  0.24350000
   0.83452000  0.16613000  0.06120000
   0.67294000  0.00204000  0.12069000
   0.33405000  0.66695000  0.24111000
   0.99910000  0.66743000  0.12138000
   0.33393676  0.66323232  0.36504749
   0.33151000  0.66804000  0.00174000
   0.33268000  0.33220000  0.00000000
   0.83466000  0.83460000  0.06076000
   0.66510401  0.66618285  0.35927439
   0.66616000  0.66699000  0.00091000
   0.83326936  0.83267094  0.30376158
   0.66704000  0.66746000  0.24229000
   0.50180000  0.83456000  0.18079000
   0.33306000  0.66709000  0.12143000
   0.50009000  0.83568000  0.06165000
   0.83330000  0.83486000  0.18207000
   0.66751000  0.66780000  0.12127000
   0.00413939  0.66678735  0.36011983
   0.16644000  0.83420000  0.06149000
   0.16456726  0.83629604  0.30046921
   0.00140000  0.66613000  0.00100000
   0.83479000  0.50089000  0.18130000
   0.00007000  0.66669000  0.24225000
   0.83460000  0.50057000  0.06135000
   0.66585000  0.33313000  0.12140000
   0.16565000  0.83456000  0.18183000
   0.50460676  0.84035683  0.30178433
   0.00179000  0.33550000  0.00090000
   0.00307184  0.33162135  0.36164290
   0.49795000  0.16690000  0.06150000
   0.50074000  0.16494000  0.18144000
   0.83101705  0.16850559  0.30353813
   0.66500000  0.00040000  0.00060000
   0.67237285  0.00394230  0.36245384
   0.83245000  0.16547000  0.18171000
   0.99997000  0.33361000  0.24198000
   0.15950528  0.49715971  0.30082818
   0.33438000  0.99945000  0.24203000
   0.50102840  0.16527519  0.30338517
   0.00050000  0.00053000  0.12178000
   0.16809000  0.16736000  0.18138000
   0.16771963  0.16704583  0.30240489
   0.16764000  0.16833000  0.06179000
   0.99934000  0.00030000  0.24219000
   0.33250000  0.00057000  0.00106000
   0.33091139  0.00038274  0.36007415
   0.16564000  0.49971000  0.18123000
   0.16746000  0.49787000  0.06247000
   0.50614080  0.49700163  0.30049270
   0.33345000  0.33400000  0.24176000
   0.50128000  0.50087000  0.18167000
   0.49793000  0.50025000  0.06116000
   0.83433142  0.49824956  0.30421635
   0.66663000  0.33329000  0.24218000
   0.66019804  0.32992803  0.36195186
   0.66547000  0.33470000  0.00081000
Direct configuration=    19
   0.99559000  0.32828000  0.12092000
   0.33108314  0.33862076  0.36290086
   0.33554000  0.33717000  0.12244000
   0.99808000  0.00294000  0.00138000
   0.00139674  0.00199520  0.36453386
   0.33205000  0.99934000  0.12171000
   0.66680000  0.99880000  0.24350000
   0.83452000  0.16613000  0.06120000
   0.67294000  0.00204000  0.12069000
   0.33405000  0.66695000  0.24111000
   0.99910000  0.66743000  0.12138000
   0.33445465  0.66284908  0.36795621
   0.33151000  0.66804000  0.00174000
   0.33268000  0.33220000  0.00000000
   0.83466000  0.83460000  0.06076000
   0.66508220  0.66629112  0.35900956
   0.66616000  0.66699000  0.00091000
   0.83345445  0.83285013  0.30375815
   0.66704000  0.66746000  0.24229000
   0.50180000  0.83456000  0.18079000
   0.33306000  0.66709000  0.12143000
   0.50009000  0.83568000  0.06165000
   0.83330000  0.83486000  0.18207000
   0.66751000  0.66780000  0.12127000
   0.00418622  0.66627497  0.35982044
   0.16644000  0.83420000  0.06149000
   0.16450907  0.83679204  0.30009631
   0.00140000  0.66613000  0.00100000
   0.83479000  0.50089000  0.18130000
   0.00007000  0.66669000  0.24225000
   0.83460000  0.50057000  0.06135000
   0.66585000  0.33313000  0.12140000
   0.16565000  0.83456000  0.18183000
   0.50481746  0.84057598  0.30146802
   0.00179000  0.33550000  0.00090000
   0.00300282  0.33129314  0.36179393
   0.49795000  0.16690000  0.06150000
   0.50074000  0.16494000  0.18144000
   0.83110031  0.16849252  0.30349530
   0.66500000  0.00040000  0.00060000
   0.67307975  0.00437508  0.36271837
   0.83245000  0.16547000  0.18171000
   0.99997000  0.33361000  0.24198000
   0.15886190  0.49684917  0.30046100
   0.33438000  0.99945000  0.24203000
   0.50072039  0.16515861  0.30338930
   0.00050000  0.00053000  0.12178000
   0.16809000  0.16736000  0.18138000
   0.16800648  0.16707308  0.30247089
   0.16764000  0.16833000  0.06179000
   0.99934000  0.00030000  0.24219000
   0.33250000  0.00057000  0.00106000
   0.33127231 -0.00015620  0.35986159
   0.16564000  0.49971000  0.18123000
   0.16746000  0.49787000  0.06247000
   0.50721731  0.49629013  0.29996649
   0.33345000  0.33400000  0.24176000
   0.50128000  0.50087000  0.18167000
   0.49793000  0.50025000  0.06116000
   0.83426141  0.49804671  0.30427877
   0.66663000  0.33329000  0.24218000
   0.65964156  0.32958914  0.36206211
   0.66547000  0.33470000  0.00081000
Direct configuration=    20
   0.99559000  0.32828000  0.12092000
   0.33127140  0.33741410  0.36318405
   0.33554000  0.33717000  0.12244000
   0.99808000  0.00294000  0.00138000
   0.00116607  0.00181292  0.36449852
   0.33205000  0.99934000  0.12171000
   0.66680000  0.99880000  0.24350000
   0.83452000  0.16613000  0.06120000
   0.67294000  0.00204000  0.12069000
   0.33405000  0.66695000  0.24111000
   0.99910000  0.66743000  0.12138000
   0.33410721  0.66310618  0.36600484
   0.33151000  0.66804000  0.00174000
   0.33268000  0.33220000  0.00000000
   0.83466000  0.83460000  0.06076000
   0.66509683  0.66621848  0.35918723
   0.66616000  0.66699000  0.00091000
   0.83333028  0.83272992  0.30376045
   0.66704000  0.66746000  0.24229000
   0.50180000  0.83456000  0.18079000
   0.33306000  0.66709000  0.12143000
   0.50009000  0.83568000  0.06165000
   0.83330000  0.83486000  0.18207000
   0.66751000  0.66780000  0.12127000
   0.00415480  0.66661871  0.36002129
   0.16644000  0.83420000  0.06149000
   0.16454811  0.83645929  0.30034648
   0.00140000  0.66613000  0.00100000
   0.83479000  0.50089000  0.18130000
   0.00007000  0.66669000  0.24225000
   0.83460000  0.50057000  0.06135000
   0.66585000  0.33313000  0.12140000
   0.16565000  0.83456000  0.18183000
   0.50467611  0.84042896  0.30168023
   0.00179000  0.33550000  0.00090000
   0.00304913  0.33151333  0.36169261
   0.49795000  0.16690000  0.06150000
   0.50074000  0.16494000  0.18144000
   0.83104445  0.16850129  0.30352403
   0.66500000  0.00040000  0.00060000
   0.67260551  0.00408474  0.36254091
   0.83245000  0.16547000  0.18171000
   0.99997000  0.33361000  0.24198000
   0.15929352  0.49705750  0.30070733
   0.33438000  0.99945000  0.24203000
   0.50092702  0.16523682  0.30338653
   0.00050000  0.00053000  0.12178000
   0.16809000  0.16736000  0.18138000
   0.16781404  0.16705479  0.30242662
   0.16764000  0.16833000  0.06179000
   0.99934000  0.00030000  0.24219000
   0.33250000  0.00057000  0.00106000
   0.33103018  0.00020536  0.36000419
   0.16564000  0.49971000  0.18123000
   0.16746000  0.49787000  0.06247000
   0.50649511  0.49676745  0.30031951
   0.33345000  0.33400000  0.24176000
   0.50128000  0.50087000  0.18167000
   0.49793000  0.50025000  0.06116000
   0.83430838  0.49818279  0.30423690
   0.66663000  0.33329000  0.24218000
   0.66001488  0.32981649  0.36198815
   0.66547000  0.33470000  0.00081000
Direct configuration=    21
   0.99559000  0.32828000  0.12092000
   0.33129463  0.33791657  0.36311918
   0.33554000  0.33717000  0.12244000
   0.99808000  0.00294000  0.00138000
   0.00120559  0.00174975  0.36453240
   0.33205000  0.99934000  0.12171000
   0.66680000  0.99880000  0.24350000
   0.83452000  0.16613000  0.06120000
   0.67294000  0.00204000  0.12069000
   0.33405000  0.66695000  0.24111000
   0.99910000  0.66743000  0.12138000
   0.33409657  0.66302384  0.36652294
   0.33151000  0.66804000  0.00174000
   0.33268000  0.33220000  0.00000000
   0.83466000  0.83460000  0.06076000
   0.66521632  0.66623456  0.35917144
   0.66616000  0.66699000  0.00091000
   0.83338910  0.83269087  0.30380562
   0.66704000  0.66746000  0.24229000
   0.50180000  0.83456000  0.18079000
   0.33306000  0.66709000  0.12143000
   0.50009000  0.83568000  0.06165000
   0.83330000  0.83486000  0.18207000
   0.66751000  0.66780000  0.12127000
   0.00401716  0.66655259  0.35996408
   0.16644000  0.83420000  0.06149000
   0.16502587  0.83613731  0.30052240
   0.00140000  0.66613000  0.00100000
   0.83479000  0.50089000  0.18130000
   0.00007000  0.66669000  0.24225000
   0.83460000  0.50057000  0.06135000
   0.66585000  0.33313000  0.12140000
   0.16565000  0.83456000  0.18183000
   0.50425419  0.84005431  0.30173912
   0.00179000  0.33550000  0.00090000
   0.00306297  0.33146514  0.36166748
   0.49795000  0.16690000  0.06150000
   0.50074000  0.16494000  0.18144000
   0.83120626  0.16856720  0.30354784
   0.66500000  0.00040000  0.00060000
   0.67267567  0.00407595  0.36259661
   0.83245000  0.16547000  0.18171000
   0.99997000  0.33361000  0.24198000
   0.15960067  0.49739460  0.30077899
   0.33438000  0.99945000  0.24203000
   0.50078922  0.16515275  0.30338888
   0.00050000  0.00053000  0.12178000
   0.16809000  0.16736000  0.18138000
   0.16789343  0.16704714  0.30239276
   0.16764000  0.16833000  0.06179000
   0.99934000  0.00030000  0.24219000
   0.33250000  0.00057000  0.00106000
   0.33102225  0.00015873  0.35989328
   0.16564000  0.49971000  0.18123000
   0.16746000  0.49787000  0.06247000
   0.50632219  0.49702540  0.30041512
   0.33345000  0.33400000  0.24176000
   0.50128000  0.50087000  0.18167000
   0.49793000  0.50025000  0.06116000
   0.83423511  0.49819204  0.30420222
   0.66663000  0.33329000  0.24218000
   0.65991637  0.32988245  0.36200261
   0.66547000  0.33470000  0.00081000
Direct configuration=    22
   0.99559000  0.32828000  0.12092000
   0.33136433  0.33942398  0.36292459
   0.33554000  0.33717000  0.12244000
   0.99808000  0.00294000  0.00138000
   0.00132415  0.00156025  0.36463404
   0.33205000  0.99934000  0.12171000
   0.66680000  0.99880000  0.24350000
   0.83452000  0.16613000  0.06120000
   0.67294000  0.00204000  0.12069000
   0.33405000  0.66695000  0.24111000
   0.99910000  0.66743000  0.12138000
   0.33406463  0.66277682  0.36807722
   0.33151000  0.66804000  0.00174000
   0.33268000  0.33220000  0.00000000
   0.83466000  0.83460000  0.06076000
   0.66557478  0.66628277  0.35912406
   0.66616000  0.66699000  0.00091000
   0.83356558  0.83257371  0.30394114
   0.66704000  0.66746000  0.24229000
   0.50180000  0.83456000  0.18079000
   0.33306000  0.66709000  0.12143000
   0.50009000  0.83568000  0.06165000
   0.83330000  0.83486000  0.18207000
   0.66751000  0.66780000  0.12127000
   0.00360422  0.66635424  0.35979244
   0.16644000  0.83420000  0.06149000
   0.16645915  0.83517138  0.30105019
   0.00140000  0.66613000  0.00100000
   0.83479000  0.50089000  0.18130000
   0.00007000  0.66669000  0.24225000
   0.83460000  0.50057000  0.06135000
   0.66585000  0.33313000  0.12140000
   0.16565000  0.83456000  0.18183000
   0.50298844  0.83893037  0.30191580
   0.00179000  0.33550000  0.00090000
   0.00310450  0.33132060  0.36159207
   0.49795000  0.16690000  0.06150000
   0.50074000  0.16494000  0.18144000
   0.83169167  0.16876492  0.30361927
   0.66500000  0.00040000  0.00060000
   0.67288614  0.00404958  0.36276372
   0.83245000  0.16547000  0.18171000
   0.99997000  0.33361000  0.24198000
   0.16052212  0.49840591  0.30099396
   0.33438000  0.99945000  0.24203000
   0.50037581  0.16490056  0.30339593
   0.00050000  0.00053000  0.12178000
   0.16809000  0.16736000  0.18138000
   0.16813160  0.16702418  0.30229117
   0.16764000  0.16833000  0.06179000
   0.99934000  0.00030000  0.24219000
   0.33250000  0.00057000  0.00106000
   0.33099846  0.00001883  0.35956057
   0.16564000  0.49971000  0.18123000
   0.16746000  0.49787000  0.06247000
   0.50580341  0.49779925  0.30070194
   0.33345000  0.33400000  0.24176000
   0.50128000  0.50087000  0.18167000
   0.49793000  0.50025000  0.06116000
   0.83401531  0.49821978  0.30409818
   0.66663000  0.33329000  0.24218000
   0.65962083  0.33008034  0.36204598
   0.66547000  0.33470000  0.00081000
Direct configuration=    23
   0.99559000  0.32828000  0.12092000
   0.33150373  0.34243881  0.36253540
   0.33554000  0.33717000  0.12244000
   0.99808000  0.00294000  0.00138000
   0.00156127  0.00118125  0.36483732
   0.33205000  0.99934000  0.12171000
   0.66680000  0.99880000  0.24350000
   0.83452000  0.16613000  0.06120000
   0.67294000  0.00204000  0.12069000
   0.33405000  0.66695000  0.24111000
   0.99910000  0.66743000  0.12138000
   0.33400077  0.66228276  0.37118580
   0.33151000  0.66804000  0.00174000
   0.33268000  0.33220000  0.00000000
   0.83466000  0.83460000  0.06076000
   0.66629171  0.66637921  0.35902932
   0.66616000  0.66699000  0.00091000
   0.83391852  0.83233940  0.30421217
   0.66704000  0.66746000  0.24229000
   0.50180000  0.83456000  0.18079000
   0.33306000  0.66709000  0.12143000
   0.50009000  0.83568000  0.06165000
   0.83330000  0.83486000  0.18207000
   0.66751000  0.66780000  0.12127000
   0.00277836  0.66595753  0.35944917
   0.16644000  0.83420000  0.06149000
   0.16932571  0.83323951  0.30210575
   0.00140000  0.66613000  0.00100000
   0.83479000  0.50089000  0.18130000
   0.00007000  0.66669000  0.24225000
   0.83460000  0.50057000  0.06135000
   0.66585000  0.33313000  0.12140000
   0.16565000  0.83456000  0.18183000
   0.50045694  0.83668247  0.30226916
   0.00179000  0.33550000  0.00090000
   0.00318756  0.33103151  0.36144127
   0.49795000  0.16690000  0.06150000
   0.50074000  0.16494000  0.18144000
   0.83266250  0.16916035  0.30376212
   0.66500000  0.00040000  0.00060000
   0.67330707  0.00399682  0.36309793
   0.83245000  0.16547000  0.18171000
   0.99997000  0.33361000  0.24198000
   0.16236502  0.50042853  0.30142390
   0.33438000  0.99945000  0.24203000
   0.49954899  0.16439616  0.30341004
   0.00050000  0.00053000  0.12178000
   0.16809000  0.16736000  0.18138000
   0.16860793  0.16697826  0.30208800
   0.16764000  0.16833000  0.06179000
   0.99934000  0.00030000  0.24219000
   0.33250000  0.00057000  0.00106000
   0.33095088 -0.00026096  0.35889515
   0.16564000  0.49971000  0.18123000
   0.16746000  0.49787000  0.06247000
   0.50476586  0.49934695  0.30127559
   0.33345000  0.33400000  0.24176000
   0.50128000  0.50087000  0.18167000
   0.49793000  0.50025000  0.06116000
   0.83357570  0.49827526  0.30389010
   0.66663000  0.33329000  0.24218000
   0.65902975  0.33047610  0.36213274
   0.66547000  0.33470000  0.00081000
Direct configuration=    24
   0.99559000  0.32828000  0.12092000
   0.33151853  0.34275883  0.36249409
   0.33554000  0.33717000  0.12244000
   0.99808000  0.00294000  0.00138000
   0.00158644  0.00114102  0.36485889
   0.33205000  0.99934000  0.12171000
   0.66680000  0.99880000  0.24350000
   0.83452000  0.16613000  0.06120000
   0.67294000  0.00204000  0.12069000
   0.33405000  0.66695000  0.24111000
   0.99910000  0.66743000  0.12138000
   0.33399399  0.66223032  0.37151577
   0.33151000  0.66804000  0.00174000
   0.33268000  0.33220000  0.00000000
   0.83466000  0.83460000  0.06076000
   0.66636781  0.66638944  0.35901926
   0.66616000  0.66699000  0.00091000
   0.83395599  0.83231453  0.30424094
   0.66704000  0.66746000  0.24229000
   0.50180000  0.83456000  0.18079000
   0.33306000  0.66709000  0.12143000
   0.50009000  0.83568000  0.06165000
   0.83330000  0.83486000  0.18207000
   0.66751000  0.66780000  0.12127000
   0.00269069  0.66591542  0.35941273
   0.16644000  0.83420000  0.06149000
   0.16962999  0.83303444  0.30221780
   0.00140000  0.66613000  0.00100000
   0.83479000  0.50089000  0.18130000
   0.00007000  0.66669000  0.24225000
   0.83460000  0.50057000  0.06135000
   0.66585000  0.33313000  0.12140000
   0.16565000  0.83456000  0.18183000
   0.50018822  0.83644386  0.30230667
   0.00179000  0.33550000  0.00090000
   0.00319637  0.33100082  0.36142526
   0.49795000  0.16690000  0.06150000
   0.50074000  0.16494000  0.18144000
   0.83276555  0.16920233  0.30377729
   0.66500000  0.00040000  0.00060000
   0.67335176  0.00399122  0.36313341
   0.83245000  0.16547000  0.18171000
   0.99997000  0.33361000  0.24198000
   0.16256065  0.50064323  0.30146954
   0.33438000  0.99945000  0.24203000
   0.49946122  0.16434261  0.30341153
   0.00050000  0.00053000  0.12178000
   0.16809000  0.16736000  0.18138000
   0.16865850  0.16697338  0.30206644
   0.16764000  0.16833000  0.06179000
   0.99934000  0.00030000  0.24219000
   0.33250000  0.00057000  0.00106000
   0.33094583 -0.00029066  0.35882451
   0.16564000  0.49971000  0.18123000
   0.16746000  0.49787000  0.06247000
   0.50465572  0.49951124  0.30133649
   0.33345000  0.33400000  0.24176000
   0.50128000  0.50087000  0.18167000
   0.49793000  0.50025000  0.06116000
   0.83352903  0.49828115  0.30386801
   0.66663000  0.33329000  0.24218000
   0.65896701  0.33051811  0.36214194
   0.66547000  0.33470000  0.00081000
Direct configuration=    25
   0.99559000  0.32828000  0.12092000
   0.33158684  0.34278419  0.36259919
   0.33554000  0.33717000  0.12244000
   0.99808000  0.00294000  0.00138000
   0.00171385  0.00091180  0.36485000
   0.33205000  0.99934000  0.12171000
   0.66680000  0.99880000  0.24350000
   0.83452000  0.16613000  0.06120000
   0.67294000  0.00204000  0.12069000
   0.33405000  0.66695000  0.24111000
   0.99910000  0.66743000  0.12138000
   0.33388051  0.66198339  0.37170385
   0.33151000  0.66804000  0.00174000
   0.33268000  0.33220000  0.00000000
   0.83466000  0.83460000  0.06076000
   0.66641924  0.66640834  0.35923680
   0.66616000  0.66699000  0.00091000
   0.83374246  0.83257629  0.30415815
   0.66704000  0.66746000  0.24229000
   0.50180000  0.83456000  0.18079000
   0.33306000  0.66709000  0.12143000
   0.50009000  0.83568000  0.06165000
   0.83330000  0.83486000  0.18207000
   0.66751000  0.66780000  0.12127000
   0.00258820  0.66586164  0.35963089
   0.16644000  0.83420000  0.06149000
   0.16954720  0.83264406  0.30228666
   0.00140000  0.66613000  0.00100000
   0.83479000  0.50089000  0.18130000
   0.00007000  0.66669000  0.24225000
   0.83460000  0.50057000  0.06135000
   0.66585000  0.33313000  0.12140000
   0.16565000  0.83456000  0.18183000
   0.50023591  0.83594258  0.30251562
   0.00179000  0.33550000  0.00090000
   0.00351046  0.33123963  0.36130616
   0.49795000  0.16690000  0.06150000
   0.50074000  0.16494000  0.18144000
   0.83244705  0.16910074  0.30384095
   0.66500000  0.00040000  0.00060000
   0.67309338  0.00386012  0.36296695
   0.83245000  0.16547000  0.18171000
   0.99997000  0.33361000  0.24198000
   0.16285005  0.50107749  0.30159796
   0.33438000  0.99945000  0.24203000
   0.49996044  0.16452367  0.30341789
   0.00050000  0.00053000  0.12178000
   0.16809000  0.16736000  0.18138000
   0.16844767  0.16715036  0.30203601
   0.16764000  0.16833000  0.06179000
   0.99934000  0.00030000  0.24219000
   0.33250000  0.00057000  0.00106000
   0.33087742 -0.00023843  0.35907110
   0.16564000  0.49971000  0.18123000
   0.16746000  0.49787000  0.06247000
   0.50423852  0.50015349  0.30155696
   0.33345000  0.33400000  0.24176000
   0.50128000  0.50087000  0.18167000
   0.49793000  0.50025000  0.06116000
   0.83362109  0.49811565  0.30376371
   0.66663000  0.33329000  0.24218000
   0.65889848  0.33062518  0.36205657
   0.66547000  0.33470000  0.00081000
Direct configuration=    26
   0.99559000  0.32828000  0.12092000
   0.33175935  0.34284822  0.36286463
   0.33554000  0.33717000  0.12244000
   0.99808000  0.00294000  0.00138000
   0.00203561  0.00033293  0.36482754
   0.33205000  0.99934000  0.12171000
   0.66680000  0.99880000  0.24350000
   0.83452000  0.16613000  0.06120000
   0.67294000  0.00204000  0.12069000
   0.33405000  0.66695000  0.24111000
   0.99910000  0.66743000  0.12138000
   0.33359393  0.66135980  0.37217883
   0.33151000  0.66804000  0.00174000
   0.33268000  0.33220000  0.00000000
   0.83466000  0.83460000  0.06076000
   0.66654912  0.66645607  0.35978618
   0.66616000  0.66699000  0.00091000
   0.83320320  0.83323736  0.30394907
   0.66704000  0.66746000  0.24229000
   0.50180000  0.83456000  0.18079000
   0.33306000  0.66709000  0.12143000
   0.50009000  0.83568000  0.06165000
   0.83330000  0.83486000  0.18207000
   0.66751000  0.66780000  0.12127000
   0.00232937  0.66572583  0.36018185
   0.16644000  0.83420000  0.06149000
   0.16933809  0.83165816  0.30246055
   0.00140000  0.66613000  0.00100000
   0.83479000  0.50089000  0.18130000
   0.00007000  0.66669000  0.24225000
   0.83460000  0.50057000  0.06135000
   0.66585000  0.33313000  0.12140000
   0.16565000  0.83456000  0.18183000
   0.50035635  0.83467661  0.30304331
   0.00179000  0.33550000  0.00090000
   0.00430369  0.33184271  0.36100539
   0.49795000  0.16690000  0.06150000
   0.50074000  0.16494000  0.18144000
   0.83164268  0.16884421  0.30400173
   0.66500000  0.00040000  0.00060000
   0.67244086  0.00352902  0.36254657
   0.83245000  0.16547000  0.18171000
   0.99997000  0.33361000  0.24198000
   0.16358091  0.50217419  0.30192227
   0.33438000  0.99945000  0.24203000
   0.50122119  0.16498092  0.30343393
   0.00050000  0.00053000  0.12178000
   0.16809000  0.16736000  0.18138000
   0.16791523  0.16759730  0.30195916
   0.16764000  0.16833000  0.06179000
   0.99934000  0.00030000  0.24219000
   0.33250000  0.00057000  0.00106000
   0.33070465 -0.00010652  0.35969384
   0.16564000  0.49971000  0.18123000
   0.16746000  0.49787000  0.06247000
   0.50318490  0.50177543  0.30211375
   0.33345000  0.33400000  0.24176000
   0.50128000  0.50087000  0.18167000
   0.49793000  0.50025000  0.06116000
   0.83385359  0.49769768  0.30350029
   0.66663000  0.33329000  0.24218000
   0.65872541  0.33089557  0.36184095
   0.66547000  0.33470000  0.00081000
Direct configuration=    27
   0.99559000  0.32828000  0.12092000
   0.33172856  0.34283679  0.36281725
   0.33554000  0.33717000  0.12244000
   0.99808000  0.00294000  0.00138000
   0.00197819  0.00043624  0.36483155
   0.33205000  0.99934000  0.12171000
   0.66680000  0.99880000  0.24350000
   0.83452000  0.16613000  0.06120000
   0.67294000  0.00204000  0.12069000
   0.33405000  0.66695000  0.24111000
   0.99910000  0.66743000  0.12138000
   0.33364508  0.66147109  0.37209407
   0.33151000  0.66804000  0.00174000
   0.33268000  0.33220000  0.00000000
   0.83466000  0.83460000  0.06076000
   0.66652594  0.66644755  0.35968814
   0.66616000  0.66699000  0.00091000
   0.83329944  0.83311938  0.30398639
   0.66704000  0.66746000  0.24229000
   0.50180000  0.83456000  0.18079000
   0.33306000  0.66709000  0.12143000
   0.50009000  0.83568000  0.06165000
   0.83330000  0.83486000  0.18207000
   0.66751000  0.66780000  0.12127000
   0.00237556  0.66575006  0.36008352
   0.16644000  0.83420000  0.06149000
   0.16937541  0.83183411  0.30242952
   0.00140000  0.66613000  0.00100000
   0.83479000  0.50089000  0.18130000
   0.00007000  0.66669000  0.24225000
   0.83460000  0.50057000  0.06135000
   0.66585000  0.33313000  0.12140000
   0.16565000  0.83456000  0.18183000
   0.50033486  0.83490254  0.30294913
   0.00179000  0.33550000  0.00090000
   0.00416212  0.33173508  0.36105907
   0.49795000  0.16690000  0.06150000
   0.50074000  0.16494000  0.18144000
   0.83178623  0.16888999  0.30397304
   0.66500000  0.00040000  0.00060000
   0.67255731  0.00358811  0.36262159
   0.83245000  0.16547000  0.18171000
   0.99997000  0.33361000  0.24198000
   0.16345047  0.50197847  0.30186439
   0.33438000  0.99945000  0.24203000
   0.50099618  0.16489932  0.30343106
   0.00050000  0.00053000  0.12178000
   0.16809000  0.16736000  0.18138000
   0.16801025  0.16751754  0.30197287
   0.16764000  0.16833000  0.06179000
   0.99934000  0.00030000  0.24219000
   0.33250000  0.00057000  0.00106000
   0.33073549 -0.00013006  0.35958270
   0.16564000  0.49971000  0.18123000
   0.16746000  0.49787000  0.06247000
   0.50337294  0.50148597  0.30201438
   0.33345000  0.33400000  0.24176000
   0.50128000  0.50087000  0.18167000
   0.49793000  0.50025000  0.06116000
   0.83381209  0.49777227  0.30354730
   0.66663000  0.33329000  0.24218000
   0.65875630  0.33084732  0.36187943
   0.66547000  0.33470000  0.00081000
Direct configuration=    28
   0.99559000  0.32828000  0.12092000
   0.33182807  0.34240895  0.36297340
   0.33554000  0.33717000  0.12244000
   0.99808000  0.00294000  0.00138000
   0.00212327  0.00019362  0.36480425
   0.33205000  0.99934000  0.12171000
   0.66680000  0.99880000  0.24350000
   0.83452000  0.16613000  0.06120000
   0.67294000  0.00204000  0.12069000
   0.33405000  0.66695000  0.24111000
   0.99910000  0.66743000  0.12138000
   0.33334978  0.66140518  0.37234694
   0.33151000  0.66804000  0.00174000
   0.33268000  0.33220000  0.00000000
   0.83466000  0.83460000  0.06076000
   0.66678272  0.66636555  0.35992170
   0.66616000  0.66699000  0.00091000
   0.83325866  0.83283998  0.30396975
   0.66704000  0.66746000  0.24229000
   0.50180000  0.83456000  0.18079000
   0.33306000  0.66709000  0.12143000
   0.50009000  0.83568000  0.06165000
   0.83330000  0.83486000  0.18207000
   0.66751000  0.66780000  0.12127000
   0.00209235  0.66579022  0.36024316
   0.16644000  0.83420000  0.06149000
   0.16925425  0.83193971  0.30249215
   0.00140000  0.66613000  0.00100000
   0.83479000  0.50089000  0.18130000
   0.00007000  0.66669000  0.24225000
   0.83460000  0.50057000  0.06135000
   0.66585000  0.33313000  0.12140000
   0.16565000  0.83456000  0.18183000
   0.50015561  0.83502331  0.30309242
   0.00179000  0.33550000  0.00090000
   0.00451982  0.33214323  0.36095630
   0.49795000  0.16690000  0.06150000
   0.50074000  0.16494000  0.18144000
   0.83189319  0.16887810  0.30395554
   0.66500000  0.00040000  0.00060000
   0.67211862  0.00324008  0.36251957
   0.83245000  0.16547000  0.18171000
   0.99997000  0.33361000  0.24198000
   0.16331456  0.50204676  0.30186486
   0.33438000  0.99945000  0.24203000
   0.50071897  0.16485081  0.30344047
   0.00050000  0.00053000  0.12178000
   0.16809000  0.16736000  0.18138000
   0.16819454  0.16748164  0.30201353
   0.16764000  0.16833000  0.06179000
   0.99934000  0.00030000  0.24219000
   0.33250000  0.00057000  0.00106000
   0.33059168 -0.00000944  0.35970354
   0.16564000  0.49971000  0.18123000
   0.16746000  0.49787000  0.06247000
   0.50345457  0.50170339  0.30203761
   0.33345000  0.33400000  0.24176000
   0.50128000  0.50087000  0.18167000
   0.49793000  0.50025000  0.06116000
   0.83380642  0.49806684  0.30356886
   0.66663000  0.33329000  0.24218000
   0.65878281  0.33125769  0.36184333
   0.66547000  0.33470000  0.00081000
Direct configuration=    29
   0.99559000  0.32828000  0.12092000
   0.33209831  0.34124706  0.36339745
   0.33554000  0.33717000  0.12244000
   0.99808000  0.00294000  0.00138000
   0.00251728 -0.00046525  0.36473012
   0.33205000  0.99934000  0.12171000
   0.66680000  0.99880000  0.24350000
   0.83452000  0.16613000  0.06120000
   0.67294000  0.00204000  0.12069000
   0.33405000  0.66695000  0.24111000
   0.99910000  0.66743000  0.12138000
   0.33254785  0.66122618  0.37303367
   0.33151000  0.66804000  0.00174000
   0.33268000  0.33220000  0.00000000
   0.83466000  0.83460000  0.06076000
   0.66748005  0.66614288  0.36055600
   0.66616000  0.66699000  0.00091000
   0.83314792  0.83208120  0.30392455
   0.66704000  0.66746000  0.24229000
   0.50180000  0.83456000  0.18079000
   0.33306000  0.66709000  0.12143000
   0.50009000  0.83568000  0.06165000
   0.83330000  0.83486000  0.18207000
   0.66751000  0.66780000  0.12127000
   0.00132323  0.66589928  0.36067667
   0.16644000  0.83420000  0.06149000
   0.16892520  0.83222647  0.30266226
   0.00140000  0.66613000  0.00100000
   0.83479000  0.50089000  0.18130000
   0.00007000  0.66669000  0.24225000
   0.83460000  0.50057000  0.06135000
   0.66585000  0.33313000  0.12140000
   0.16565000  0.83456000  0.18183000
   0.49966883  0.83535128  0.30348155
   0.00179000  0.33550000  0.00090000
   0.00549123  0.33325164  0.36067722
   0.49795000  0.16690000  0.06150000
   0.50074000  0.16494000  0.18144000
   0.83218365  0.16884582  0.30390804
   0.66500000  0.00040000  0.00060000
   0.67092725  0.00229495  0.36224252
   0.83245000  0.16547000  0.18171000
   0.99997000  0.33361000  0.24198000
   0.16294546  0.50223221  0.30186614
   0.33438000  0.99945000  0.24203000
   0.49996613  0.16471910  0.30346602
   0.00050000  0.00053000  0.12178000
   0.16809000  0.16736000  0.18138000
   0.16869503  0.16738416  0.30212395
   0.16764000  0.16833000  0.06179000
   0.99934000  0.00030000  0.24219000
   0.33250000  0.00057000  0.00106000
   0.33020113  0.00031813  0.36003170
   0.16564000  0.49971000  0.18123000
   0.16746000  0.49787000  0.06247000
   0.50367624  0.50229385  0.30210070
   0.33345000  0.33400000  0.24176000
   0.50128000  0.50087000  0.18167000
   0.49793000  0.50025000  0.06116000
   0.83379100  0.49886679  0.30362739
   0.66663000  0.33329000  0.24218000
   0.65885481  0.33237213  0.36174531
   0.66547000  0.33470000  0.00081000
Direct configuration=    30
   0.99559000  0.32828000  0.12092000
   0.33205142  0.34144866  0.36332387
   0.33554000  0.33717000  0.12244000
   0.99808000  0.00294000  0.00138000
   0.00244891 -0.00035092  0.36474298
   0.33205000  0.99934000  0.12171000
   0.66680000  0.99880000  0.24350000
   0.83452000  0.16613000  0.06120000
   0.67294000  0.00204000  0.12069000
   0.33405000  0.66695000  0.24111000
   0.99910000  0.66743000  0.12138000
   0.33268700  0.66125724  0.37291451
   0.33151000  0.66804000  0.00174000
   0.33268000  0.33220000  0.00000000
   0.83466000  0.83460000  0.06076000
   0.66735905  0.66618152  0.36044594
   0.66616000  0.66699000  0.00091000
   0.83316714  0.83221286  0.30393239
   0.66704000  0.66746000  0.24229000
   0.50180000  0.83456000  0.18079000
   0.33306000  0.66709000  0.12143000
   0.50009000  0.83568000  0.06165000
   0.83330000  0.83486000  0.18207000
   0.66751000  0.66780000  0.12127000
   0.00145668  0.66588036  0.36060145
   0.16644000  0.83420000  0.06149000
   0.16898229  0.83217671  0.30263274
   0.00140000  0.66613000  0.00100000
   0.83479000  0.50089000  0.18130000
   0.00007000  0.66669000  0.24225000
   0.83460000  0.50057000  0.06135000
   0.66585000  0.33313000  0.12140000
   0.16565000  0.83456000  0.18183000
   0.49975330  0.83529438  0.30341403
   0.00179000  0.33550000  0.00090000
   0.00532267  0.33305931  0.36072564
   0.49795000  0.16690000  0.06150000
   0.50074000  0.16494000  0.18144000
   0.83213325  0.16885142  0.30391628
   0.66500000  0.00040000  0.00060000
   0.67113398  0.00245894  0.36229059
   0.83245000  0.16547000  0.18171000
   0.99997000  0.33361000  0.24198000
   0.16300951  0.50220003  0.30186592
   0.33438000  0.99945000  0.24203000
   0.50009676  0.16474195  0.30346159
   0.00050000  0.00053000  0.12178000
   0.16809000  0.16736000  0.18138000
   0.16860818  0.16740107  0.30210479
   0.16764000  0.16833000  0.06179000
   0.99934000  0.00030000  0.24219000
   0.33250000  0.00057000  0.00106000
   0.33026890  0.00026129  0.35997476
   0.16564000  0.49971000  0.18123000
   0.16746000  0.49787000  0.06247000
   0.50363778  0.50219140  0.30208975
   0.33345000  0.33400000  0.24176000
   0.50128000  0.50087000  0.18167000
   0.49793000  0.50025000  0.06116000
   0.83379368  0.49872798  0.30361723
   0.66663000  0.33329000  0.24218000
   0.65884231  0.33217876  0.36176232
   0.66547000  0.33470000  0.00081000
Direct configuration=    31
   0.99559000  0.32828000  0.12092000
   0.33203734  0.34150918  0.36330178
   0.33554000  0.33717000  0.12244000
   0.99808000  0.00294000  0.00138000
   0.00242839 -0.00031661  0.36474684
   0.33205000  0.99934000  0.12171000
   0.66680000  0.99880000  0.24350000
   0.83452000  0.16613000  0.06120000
   0.67294000  0.00204000  0.12069000
   0.33405000  0.66695000  0.24111000
   0.99910000  0.66743000  0.12138000
   0.33272876  0.66126656  0.37287874
   0.33151000  0.66804000  0.00174000
   0.33268000  0.33220000  0.00000000
   0.83466000  0.83460000  0.06076000
   0.66732273  0.66619311  0.36041290
   0.66616000  0.66699000  0.00091000
   0.83317290  0.83225237  0.30393475
   0.66704000  0.66746000  0.24229000
   0.50180000  0.83456000  0.18079000
   0.33306000  0.66709000  0.12143000
   0.50009000  0.83568000  0.06165000
   0.83330000  0.83486000  0.18207000
   0.66751000  0.66780000  0.12127000
   0.00149674  0.66587468  0.36057887
   0.16644000  0.83420000  0.06149000
   0.16899943  0.83216177  0.30262388
   0.00140000  0.66613000  0.00100000
   0.83479000  0.50089000  0.18130000
   0.00007000  0.66669000  0.24225000
   0.83460000  0.50057000  0.06135000
   0.66585000  0.33313000  0.12140000
   0.16565000  0.83456000  0.18183000
   0.49977865  0.83527729  0.30339377
   0.00179000  0.33550000  0.00090000
   0.00527208  0.33300159  0.36074018
   0.49795000  0.16690000  0.06150000
   0.50074000  0.16494000  0.18144000
   0.83211812  0.16885310  0.30391876
   0.66500000  0.00040000  0.00060000
   0.67119602  0.00250816  0.36230502
   0.83245000  0.16547000  0.18171000
   0.99997000  0.33361000  0.24198000
   0.16302873  0.50219037  0.30186585
   0.33438000  0.99945000  0.24203000
   0.50013597  0.16474881  0.30346026
   0.00050000  0.00053000  0.12178000
   0.16809000  0.16736000  0.18138000
   0.16858212  0.16740615  0.30209904
   0.16764000  0.16833000  0.06179000
   0.99934000  0.00030000  0.24219000
   0.33250000  0.00057000  0.00106000
   0.33028923  0.00024423  0.35995767
   0.16564000  0.49971000  0.18123000
   0.16746000  0.49787000  0.06247000
   0.50362624  0.50216065  0.30208647
   0.33345000  0.33400000  0.24176000
   0.50128000  0.50087000  0.18167000
   0.49793000  0.50025000  0.06116000
   0.83379448  0.49868632  0.30361419
   0.66663000  0.33329000  0.24218000
   0.65883856  0.33212072  0.36176742
   0.66547000  0.33470000  0.00081000
Direct configuration=    32
   0.99559000  0.32828000  0.12092000
   0.33204895  0.34145928  0.36332000
   0.33554000  0.33717000  0.12244000
   0.99808000  0.00294000  0.00138000
   0.00244531 -0.00034491  0.36474366
   0.33205000  0.99934000  0.12171000
   0.66680000  0.99880000  0.24350000
   0.83452000  0.16613000  0.06120000
   0.67294000  0.00204000  0.12069000
   0.33405000  0.66695000  0.24111000
   0.99910000  0.66743000  0.12138000
   0.33269432  0.66125887  0.37290824
   0.33151000  0.66804000  0.00174000
   0.33268000  0.33220000  0.00000000
   0.83466000  0.83460000  0.06076000
   0.66735268  0.66618355  0.36044014
   0.66616000  0.66699000  0.00091000
   0.83316815  0.83221979  0.30393281
   0.66704000  0.66746000  0.24229000
   0.50180000  0.83456000  0.18079000
   0.33306000  0.66709000  0.12143000
   0.50009000  0.83568000  0.06165000
   0.83330000  0.83486000  0.18207000
   0.66751000  0.66780000  0.12127000
   0.00146371  0.66587936  0.36059749
   0.16644000  0.83420000  0.06149000
   0.16898530  0.83217409  0.30263119
   0.00140000  0.66613000  0.00100000
   0.83479000  0.50089000  0.18130000
   0.00007000  0.66669000  0.24225000
   0.83460000  0.50057000  0.06135000
   0.66585000  0.33313000  0.12140000
   0.16565000  0.83456000  0.18183000
   0.49975774  0.83529138  0.30341048
   0.00179000  0.33550000  0.00090000
   0.00531380  0.33304919  0.36072819
   0.49795000  0.16690000  0.06150000
   0.50074000  0.16494000  0.18144000
   0.83213060  0.16885172  0.30391672
   0.66500000  0.00040000  0.00060000
   0.67114486  0.00246757  0.36229312
   0.83245000  0.16547000  0.18171000
   0.99997000  0.33361000  0.24198000
   0.16301288  0.50219834  0.30186591
   0.33438000  0.99945000  0.24203000
   0.50010363  0.16474315  0.30346135
   0.00050000  0.00053000  0.12178000
   0.16809000  0.16736000  0.18138000
   0.16860361  0.16740196  0.30210378
   0.16764000  0.16833000  0.06179000
   0.99934000  0.00030000  0.24219000
   0.33250000  0.00057000  0.00106000
   0.33027246  0.00025830  0.35997176
   0.16564000  0.49971000  0.18123000
   0.16746000  0.49787000  0.06247000
   0.50363576  0.50218600  0.30208918
   0.33345000  0.33400000  0.24176000
   0.50128000  0.50087000  0.18167000
   0.49793000  0.50025000  0.06116000
   0.83379382  0.49872068  0.30361670
   0.66663000  0.33329000  0.24218000
   0.65884166  0.33216858  0.36176321
   0.66547000  0.33470000  0.00081000
Direct configuration=    33
   0.99559000  0.32828000  0.12092000
   0.33214026  0.34130435  0.36336976
   0.33554000  0.33717000  0.12244000
   0.99808000  0.00294000  0.00138000
   0.00223336 -0.00028579  0.36476668
   0.33205000  0.99934000  0.12171000
   0.66680000  0.99880000  0.24350000
   0.83452000  0.16613000  0.06120000
   0.67294000  0.00204000  0.12069000
   0.33405000  0.66695000  0.24111000
   0.99910000  0.66743000  0.12138000
   0.33249785  0.66122613  0.37303776
   0.33151000  0.66804000  0.00174000
   0.33268000  0.33220000  0.00000000
   0.83466000  0.83460000  0.06076000
   0.66743801  0.66615531  0.36045608
   0.66616000  0.66699000  0.00091000
   0.83317755  0.83208119  0.30402838
   0.66704000  0.66746000  0.24229000
   0.50180000  0.83456000  0.18079000
   0.33306000  0.66709000  0.12143000
   0.50009000  0.83568000  0.06165000
   0.83330000  0.83486000  0.18207000
   0.66751000  0.66780000  0.12127000
   0.00130359  0.66604937  0.36057162
   0.16644000  0.83420000  0.06149000
   0.16909253  0.83214066  0.30265357
   0.00140000  0.66613000  0.00100000
   0.83479000  0.50089000  0.18130000
   0.00007000  0.66669000  0.24225000
   0.83460000  0.50057000  0.06135000
   0.66585000  0.33313000  0.12140000
   0.16565000  0.83456000  0.18183000
   0.49963581  0.83513440  0.30338140
   0.00179000  0.33550000  0.00090000
   0.00540847  0.33321647  0.36080788
   0.49795000  0.16690000  0.06150000
   0.50074000  0.16494000  0.18144000
   0.83220800  0.16894216  0.30396189
   0.66500000  0.00040000  0.00060000
   0.67084583  0.00223634  0.36228745
   0.83245000  0.16547000  0.18171000
   0.99997000  0.33361000  0.24198000
   0.16327034  0.50215294  0.30186750
   0.33438000  0.99945000  0.24203000
   0.50011497  0.16490830  0.30351046
   0.00050000  0.00053000  0.12178000
   0.16809000  0.16736000  0.18138000
   0.16864053  0.16734198  0.30205812
   0.16764000  0.16833000  0.06179000
   0.99934000  0.00030000  0.24219000
   0.33250000  0.00057000  0.00106000
   0.33006127  0.00035630  0.35997553
   0.16564000  0.49971000  0.18123000
   0.16746000  0.49787000  0.06247000
   0.50349396  0.50202945  0.30211120
   0.33345000  0.33400000  0.24176000
   0.50128000  0.50087000  0.18167000
   0.49793000  0.50025000  0.06116000
   0.83369730  0.49872874  0.30366062
   0.66663000  0.33329000  0.24218000
   0.65897197  0.33236606  0.36171314
   0.66547000  0.33470000  0.00081000
Direct configuration=    34
   0.99559000  0.32828000  0.12092000
   0.33226317  0.34109580  0.36343675
   0.33554000  0.33717000  0.12244000
   0.99808000  0.00294000  0.00138000
   0.00194805 -0.00020621  0.36479768
   0.33205000  0.99934000  0.12171000
   0.66680000  0.99880000  0.24350000
   0.83452000  0.16613000  0.06120000
   0.67294000  0.00204000  0.12069000
   0.33405000  0.66695000  0.24111000
   0.99910000  0.66743000  0.12138000
   0.33223338  0.66118204  0.37321212
   0.33151000  0.66804000  0.00174000
   0.33268000  0.33220000  0.00000000
   0.83466000  0.83460000  0.06076000
   0.66755288  0.66611729  0.36047754
   0.66616000  0.66699000  0.00091000
   0.83319020  0.83189461  0.30415703
   0.66704000  0.66746000  0.24229000
   0.50180000  0.83456000  0.18079000
   0.33306000  0.66709000  0.12143000
   0.50009000  0.83568000  0.06165000
   0.83330000  0.83486000  0.18207000
   0.66751000  0.66780000  0.12127000
   0.00108806  0.66627822  0.36053679
   0.16644000  0.83420000  0.06149000
   0.16923688  0.83209566  0.30268369
   0.00140000  0.66613000  0.00100000
   0.83479000  0.50089000  0.18130000
   0.00007000  0.66669000  0.24225000
   0.83460000  0.50057000  0.06135000
   0.66585000  0.33313000  0.12140000
   0.16565000  0.83456000  0.18183000
   0.49947168  0.83492309  0.30334227
   0.00179000  0.33550000  0.00090000
   0.00553591  0.33344165  0.36091515
   0.49795000  0.16690000  0.06150000
   0.50074000  0.16494000  0.18144000
   0.83231220  0.16906390  0.30402270
   0.66500000  0.00040000  0.00060000
   0.67044330  0.00192506  0.36227982
   0.83245000  0.16547000  0.18171000
   0.99997000  0.33361000  0.24198000
   0.16361692  0.50209182  0.30186963
   0.33438000  0.99945000  0.24203000
   0.50013024  0.16513062  0.30357657
   0.00050000  0.00053000  0.12178000
   0.16809000  0.16736000  0.18138000
   0.16869023  0.16726124  0.30199665
   0.16764000  0.16833000  0.06179000
   0.99934000  0.00030000  0.24219000
   0.33250000  0.00057000  0.00106000
   0.32977698  0.00048823  0.35998060
   0.16564000  0.49971000  0.18123000
   0.16746000  0.49787000  0.06247000
   0.50330308  0.50181870  0.30214085
   0.33345000  0.33400000  0.24176000
   0.50128000  0.50087000  0.18167000
   0.49793000  0.50025000  0.06116000
   0.83356739  0.49873958  0.30371975
   0.66663000  0.33329000  0.24218000
   0.65914739  0.33263190  0.36164574
   0.66547000  0.33470000  0.00081000
Direct configuration=    35
   0.99559000  0.32828000  0.12092000
   0.33229539  0.34088079  0.36350813
   0.33554000  0.33717000  0.12244000
   0.99808000  0.00294000  0.00138000
   0.00163915 -0.00005112  0.36483321
   0.33205000  0.99934000  0.12171000
   0.66680000  0.99880000  0.24350000
   0.83452000  0.16613000  0.06120000
   0.67294000  0.00204000  0.12069000
   0.33405000  0.66695000  0.24111000
   0.99910000  0.66743000  0.12138000
   0.33211822  0.66112914  0.37336477
   0.33151000  0.66804000  0.00174000
   0.33268000  0.33220000  0.00000000
   0.83466000  0.83460000  0.06076000
   0.66737202  0.66603719  0.36047924
   0.66616000  0.66699000  0.00091000
   0.83312728  0.83202009  0.30415163
   0.66704000  0.66746000  0.24229000
   0.50180000  0.83456000  0.18079000
   0.33306000  0.66709000  0.12143000
   0.50009000  0.83568000  0.06165000
   0.83330000  0.83486000  0.18207000
   0.66751000  0.66780000  0.12127000
   0.00114726  0.66637388  0.36051025
   0.16644000  0.83420000  0.06149000
   0.16922895  0.83208719  0.30268560
   0.00140000  0.66613000  0.00100000
   0.83479000  0.50089000  0.18130000
   0.00007000  0.66669000  0.24225000
   0.83460000  0.50057000  0.06135000
   0.66585000  0.33313000  0.12140000
   0.16565000  0.83456000  0.18183000
   0.49929164  0.83472364  0.30333607
   0.00179000  0.33550000  0.00090000
   0.00578974  0.33362104  0.36098949
   0.49795000  0.16690000  0.06150000
   0.50074000  0.16494000  0.18144000
   0.83232035  0.16910629  0.30411558
   0.66500000  0.00040000  0.00060000
   0.66988924  0.00164611  0.36224966
   0.83245000  0.16547000  0.18171000
   0.99997000  0.33361000  0.24198000
   0.16363967  0.50208237  0.30189921
   0.33438000  0.99945000  0.24203000
   0.50019088  0.16508887  0.30360554
   0.00050000  0.00053000  0.12178000
   0.16809000  0.16736000  0.18138000
   0.16851128  0.16731559  0.30200401
   0.16764000  0.16833000  0.06179000
   0.99934000  0.00030000  0.24219000
   0.33250000  0.00057000  0.00106000
   0.32952290  0.00058479  0.35995716
   0.16564000  0.49971000  0.18123000
   0.16746000  0.49787000  0.06247000
   0.50313093  0.50186953  0.30217464
   0.33345000  0.33400000  0.24176000
   0.50128000  0.50087000  0.18167000
   0.49793000  0.50025000  0.06116000
   0.83374815  0.49868413  0.30370106
   0.66663000  0.33329000  0.24218000
   0.65943741  0.33280973  0.36166929
   0.66547000  0.33470000  0.00081000
Direct configuration=    36
   0.99559000  0.32828000  0.12092000
   0.33230177  0.34083823  0.36352226
   0.33554000  0.33717000  0.12244000
   0.99808000  0.00294000  0.00138000
   0.00157799 -0.00002042  0.36484025
   0.33205000  0.99934000  0.12171000
   0.66680000  0.99880000  0.24350000
   0.83452000  0.16613000  0.06120000
   0.67294000  0.00204000  0.12069000
   0.33405000  0.66695000  0.24111000
   0.99910000  0.66743000  0.12138000
   0.33209543  0.66111867  0.37339499
   0.33151000  0.66804000  0.00174000
   0.33268000  0.33220000  0.00000000
   0.83466000  0.83460000  0.06076000
   0.66733622  0.66602133  0.36047958
   0.66616000  0.66699000  0.00091000
   0.83311482  0.83204493  0.30415056
   0.66704000  0.66746000  0.24229000
   0.50180000  0.83456000  0.18079000
   0.33306000  0.66709000  0.12143000
   0.50009000  0.83568000  0.06165000
   0.83330000  0.83486000  0.18207000
   0.66751000  0.66780000  0.12127000
   0.00115898  0.66639282  0.36050499
   0.16644000  0.83420000  0.06149000
   0.16922738  0.83208551  0.30268598
   0.00140000  0.66613000  0.00100000
   0.83479000  0.50089000  0.18130000
   0.00007000  0.66669000  0.24225000
   0.83460000  0.50057000  0.06135000
   0.66585000  0.33313000  0.12140000
   0.16565000  0.83456000  0.18183000
   0.49925599  0.83468415  0.30333484
   0.00179000  0.33550000  0.00090000
   0.00583998  0.33365655  0.36100420
   0.49795000  0.16690000  0.06150000
   0.50074000  0.16494000  0.18144000
   0.83232196  0.16911468  0.30413397
   0.66500000  0.00040000  0.00060000
   0.66977955  0.00159088  0.36224370
   0.83245000  0.16547000  0.18171000
   0.99997000  0.33361000  0.24198000
   0.16364417  0.50208050  0.30190507
   0.33438000  0.99945000  0.24203000
   0.50020289  0.16508060  0.30361127
   0.00050000  0.00053000  0.12178000
   0.16809000  0.16736000  0.18138000
   0.16847585  0.16732635  0.30200547
   0.16764000  0.16833000  0.06179000
   0.99934000  0.00030000  0.24219000
   0.33250000  0.00057000  0.00106000
   0.32947260  0.00060390  0.35995252
   0.16564000  0.49971000  0.18123000
   0.16746000  0.49787000  0.06247000
   0.50309686  0.50187960  0.30218133
   0.33345000  0.33400000  0.24176000
   0.50128000  0.50087000  0.18167000
   0.49793000  0.50025000  0.06116000
   0.83378393  0.49867315  0.30369736
   0.66663000  0.33329000  0.24218000
   0.65949482  0.33284494  0.36167395
   0.66547000  0.33470000  0.00081000
Direct configuration=    37
   0.99559000  0.32828000  0.12092000
   0.33230012  0.34084927  0.36351859
   0.33554000  0.33717000  0.12244000
   0.99808000  0.00294000  0.00138000
   0.00159386 -0.00002838  0.36483842
   0.33205000  0.99934000  0.12171000
   0.66680000  0.99880000  0.24350000
   0.83452000  0.16613000  0.06120000
   0.67294000  0.00204000  0.12069000
   0.33405000  0.66695000  0.24111000
   0.99910000  0.66743000  0.12138000
   0.33210134  0.66112138  0.37338716
   0.33151000  0.66804000  0.00174000
   0.33268000  0.33220000  0.00000000
   0.83466000  0.83460000  0.06076000
   0.66734550  0.66602544  0.36047949
   0.66616000  0.66699000  0.00091000
   0.83311805  0.83203848  0.30415083
   0.66704000  0.66746000  0.24229000
   0.50180000  0.83456000  0.18079000
   0.33306000  0.66709000  0.12143000
   0.50009000  0.83568000  0.06165000
   0.83330000  0.83486000  0.18207000
   0.66751000  0.66780000  0.12127000
   0.00115594  0.66638791  0.36050636
   0.16644000  0.83420000  0.06149000
   0.16922779  0.83208594  0.30268588
   0.00140000  0.66613000  0.00100000
   0.83479000  0.50089000  0.18130000
   0.00007000  0.66669000  0.24225000
   0.83460000  0.50057000  0.06135000
   0.66585000  0.33313000  0.12140000
   0.16565000  0.83456000  0.18183000
   0.49926524  0.83469439  0.30333516
   0.00179000  0.33550000  0.00090000
   0.00582695  0.33364734  0.36100039
   0.49795000  0.16690000  0.06150000
   0.50074000  0.16494000  0.18144000
   0.83232154  0.16911250  0.30412920
   0.66500000  0.00040000  0.00060000
   0.66980800  0.00160521  0.36224524
   0.83245000  0.16547000  0.18171000
   0.99997000  0.33361000  0.24198000
   0.16364301  0.50208099  0.30190355
   0.33438000  0.99945000  0.24203000
   0.50019978  0.16508275  0.30360978
   0.00050000  0.00053000  0.12178000
   0.16809000  0.16736000  0.18138000
   0.16848504  0.16732356  0.30200509
   0.16764000  0.16833000  0.06179000
   0.99934000  0.00030000  0.24219000
   0.33250000  0.00057000  0.00106000
   0.32948565  0.00059894  0.35995372
   0.16564000  0.49971000  0.18123000
   0.16746000  0.49787000  0.06247000
   0.50310570  0.50187699  0.30217959
   0.33345000  0.33400000  0.24176000
   0.50128000  0.50087000  0.18167000
   0.49793000  0.50025000  0.06116000
   0.83377465  0.49867600  0.30369832
   0.66663000  0.33329000  0.24218000
   0.65947993  0.33283581  0.36167274
   0.66547000  0.33470000  0.00081000
Direct configuration=    38
   0.99559000  0.32828000  0.12092000
   0.33230127  0.34084156  0.36352115
   0.33554000  0.33717000  0.12244000
   0.99808000  0.00294000  0.00138000
   0.00158278 -0.00002282  0.36483970
   0.33205000  0.99934000  0.12171000
   0.66680000  0.99880000  0.24350000
   0.83452000  0.16613000  0.06120000
   0.67294000  0.00204000  0.12069000
   0.33405000  0.66695000  0.24111000
   0.99910000  0.66743000  0.12138000
   0.33209721  0.66111949  0.37339263
   0.33151000  0.66804000  0.00174000
   0.33268000  0.33220000  0.00000000
   0.83466000  0.83460000  0.06076000
   0.66733902  0.66602257  0.36047955
   0.66616000  0.66699000  0.00091000
   0.83311580  0.83204298  0.30415064
   0.66704000  0.66746000  0.24229000
   0.50180000  0.83456000  0.18079000
   0.33306000  0.66709000  0.12143000
   0.50009000  0.83568000  0.06165000
   0.83330000  0.83486000  0.18207000
   0.66751000  0.66780000  0.12127000
   0.00115806  0.66639134  0.36050540
   0.16644000  0.83420000  0.06149000
   0.16922751  0.83208564  0.30268595
   0.00140000  0.66613000  0.00100000
   0.83479000  0.50089000  0.18130000
   0.00007000  0.66669000  0.24225000
   0.83460000  0.50057000  0.06135000
   0.66585000  0.33313000  0.12140000
   0.16565000  0.83456000  0.18183000
   0.49925878  0.83468724  0.30333494
   0.00179000  0.33550000  0.00090000
   0.00583605  0.33365377  0.36100305
   0.49795000  0.16690000  0.06150000
   0.50074000  0.16494000  0.18144000
   0.83232183  0.16911402  0.30413253
   0.66500000  0.00040000  0.00060000
   0.66978813  0.00159520  0.36224416
   0.83245000  0.16547000  0.18171000
   0.99997000  0.33361000  0.24198000
   0.16364382  0.50208065  0.30190461
   0.33438000  0.99945000  0.24203000
   0.50020195  0.16508125  0.30361082
   0.00050000  0.00053000  0.12178000
   0.16809000  0.16736000  0.18138000
   0.16847862  0.16732551  0.30200535
   0.16764000  0.16833000  0.06179000
   0.99934000  0.00030000  0.24219000
   0.33250000  0.00057000  0.00106000
   0.32947654  0.00060241  0.35995288
   0.16564000  0.49971000  0.18123000
   0.16746000  0.49787000  0.06247000
   0.50309952  0.50187881  0.30218080
   0.33345000  0.33400000  0.24176000
   0.50128000  0.50087000  0.18167000
   0.49793000  0.50025000  0.06116000
   0.83378113  0.49867401  0.30369765
   0.66663000  0.33329000  0.24218000
   0.65949033  0.33284218  0.36167359
   0.66547000  0.33470000  0.00081000
Direct configuration=    39
   0.99559000  0.32828000  0.12092000
   0.33225060  0.34081649  0.36352890
   0.33554000  0.33717000  0.12244000
   0.99808000  0.00294000  0.00138000
   0.00162352 -0.00001123  0.36485805
   0.33205000  0.99934000  0.12171000
   0.66680000  0.99880000  0.24350000
   0.83452000  0.16613000  0.06120000
   0.67294000  0.00204000  0.12069000
   0.33405000  0.66695000  0.24111000
   0.99910000  0.66743000  0.12138000
   0.33218339  0.66113092  0.37337216
   0.33151000  0.66804000  0.00174000
   0.33268000  0.33220000  0.00000000
   0.83466000  0.83460000  0.06076000
   0.66723111  0.66600105  0.36044705
   0.66616000  0.66699000  0.00091000
   0.83302992  0.83213520  0.30404415
   0.66704000  0.66746000  0.24229000
   0.50180000  0.83456000  0.18079000
   0.33306000  0.66709000  0.12143000
   0.50009000  0.83568000  0.06165000
   0.83330000  0.83486000  0.18207000
   0.66751000  0.66780000  0.12127000
   0.00129330  0.66629868  0.36053606
   0.16644000  0.83420000  0.06149000
   0.16906462  0.83213516  0.30266130
   0.00140000  0.66613000  0.00100000
   0.83479000  0.50089000  0.18130000
   0.00007000  0.66669000  0.24225000
   0.83460000  0.50057000  0.06135000
   0.66585000  0.33313000  0.12140000
   0.16565000  0.83456000  0.18183000
   0.49917538  0.83473585  0.30335939
   0.00179000  0.33550000  0.00090000
   0.00588484  0.33359156  0.36099033
   0.49795000  0.16690000  0.06150000
   0.50074000  0.16494000  0.18144000
   0.83220685  0.16907674  0.30412696
   0.66500000  0.00040000  0.00060000
   0.66969439  0.00161449  0.36224483
   0.83245000  0.16547000  0.18171000
   0.99997000  0.33361000  0.24198000
   0.16348999  0.50215588  0.30191396
   0.33438000  0.99945000  0.24203000
   0.50014553  0.16497343  0.30356647
   0.00050000  0.00053000  0.12178000
   0.16809000  0.16736000  0.18138000
   0.16838122  0.16743762  0.30204350
   0.16764000  0.16833000  0.06179000
   0.99934000  0.00030000  0.24219000
   0.33250000  0.00057000  0.00106000
   0.32950880  0.00054144  0.35996129
   0.16564000  0.49971000  0.18123000
   0.16746000  0.49787000  0.06247000
   0.50316832  0.50201862  0.30218184
   0.33345000  0.33400000  0.24176000
   0.50128000  0.50087000  0.18167000
   0.49793000  0.50025000  0.06116000
   0.83385459  0.49873978  0.30365218
   0.66663000  0.33329000  0.24218000
   0.65956044  0.33276046  0.36172758
   0.66547000  0.33470000  0.00081000
