Generated by VASPKIT code
 1.000000
    8.5326995849999996    0.0000000000000000    0.0000000000000000
   -0.0005193328000000    8.4969997247000002    0.0000000000000000
    0.0000000000000000    0.0000000000000000   23.5949993133999989
   Fe   Cr   Pb
    49    14     1
Selective Dynamics
Direct
    0.0008600000000000    0.9999300000000000    0.2427100000000000    F  F  F    Fe001
    0.1658995720000000    0.1647107860000000    0.3032310100000000    T  T  T    Fe002
    0.5054403470000000    0.1697042930000000    0.3060454240000000    T  T  T    Fe003
    0.6682200000000000    0.0010700000000000    0.2427200000000000    F  F  F    Fe004
    0.8341724310000000    0.1674343180000000    0.3039479700000000    T  T  T    Fe005
    0.0004400000000000    0.3349700000000000    0.2424000000000000    F  F  F    Fe006
    0.1668521430000000    0.5020638400000000    0.3040093380000000    T  T  T    Fe007
    0.3346900000000000    0.3330500000000000    0.2426700000000000    F  F  F    Fe008
    0.4998086860000000    0.4974280200000000    0.3037217810000000    T  T  T    Fe009
    0.8350264790000000    0.5042077030000000    0.3021799010000000    T  T  T    Fe010
    0.1686384710000000    0.8345781350000000    0.3050155260000000    T  T  T    Fe011
    0.3334200000000000    0.6655500000000000    0.2426100000000000    F  F  F    Fe012
    0.8364867410000000    0.8331147770000000    0.3036358990000000    T  T  T    Fe013
    0.0006400000000000    0.0011900000000000    0.0019900000000000    F  F  F    Fe014
    0.9963783720000000    0.0045956320000000    0.3616029720000000    T  T  T    Fe015
    0.1684300000000000    0.1696200000000000    0.0626900000000000    F  F  F    Fe016
    0.3346000000000000    0.0029700000000000    0.0025400000000000    F  F  F    Fe017
    0.3370871980000000    0.0065367540000000    0.3619576770000000    T  T  T    Fe018
    0.5046300000000000    0.1685000000000000    0.0612000000000000    F  F  F    Fe019
    0.8327200000000000    0.1667000000000000    0.0619300000000000    F  F  F    Fe020
    0.0000400000000000    0.3346700000000000    0.0021300000000000    F  F  F    Fe021
    0.9985773850000000    0.3318637290000000    0.3600657450000000    T  T  T    Fe022
    0.1675700000000000    0.4989500000000000    0.0626800000000000    F  F  F    Fe023
    0.5009900000000000    0.4989600000000000    0.0620600000000000    F  F  F    Fe024
    0.8339299999999999    0.5023400000000000    0.0623500000000000    F  F  F    Fe025
    0.0012100000000000    0.6678500000000001    0.0018800000000000    F  F  F    Fe026
    0.9978662450000000    0.6660965120000000    0.3604431320000000    T  T  T    Fe027
    0.1679200000000000    0.8346200000000000    0.0622800000000000    F  F  F    Fe028
    0.3343700000000000    0.6666400000000000    0.0022500000000000    F  F  F    Fe029
    0.3400574540000000    0.6631586840000000    0.3617519340000000    T  T  T    Fe030
    0.5015200000000000    0.8356300000000000    0.0621700000000000    F  F  F    Fe031
    0.6675300000000000    0.6670500000000000    0.0017500000000000    F  F  F    Fe032
    0.6633930980000000    0.6645961040000000    0.3603430320000000    T  T  T    Fe033
    0.8329299999999999    0.8358400000000000    0.0623500000000000    F  F  F    Fe034
    0.0012100000000000    0.0009800000000000    0.1222500000000000    F  F  F    Fe035
    0.1670000000000000    0.1681100000000000    0.1823900000000000    F  F  F    Fe036
    0.3347000000000000    0.0022700000000000    0.1219200000000000    F  F  F    Fe037
    0.5017400000000000    0.1671600000000000    0.1826300000000000    F  F  F    Fe038
    0.8342100000000000    0.1663900000000000    0.1828300000000000    F  F  F    Fe039
    0.1696400000000000    0.4986800000000000    0.1820900000000000    F  F  F    Fe040
    0.5021900000000000    0.5008100000000000    0.1831700000000000    F  F  F    Fe041
    0.6674099999999999    0.3339500000000000    0.1223300000000000    F  F  F    Fe042
    0.8313400000000000    0.5025300000000000    0.1828300000000000    F  F  F    Fe043
    0.0013200000000000    0.6679500000000000    0.1225300000000000    F  F  F    Fe044
    0.1689800000000000    0.8350900000000000    0.1824300000000000    F  F  F    Fe045
    0.3344600000000000    0.6670300000000000    0.1222300000000000    F  F  F    Fe046
    0.4997100000000000    0.8353800000000000    0.1827800000000000    F  F  F    Fe047
    0.6669800000000000    0.6684000000000000    0.1225900000000000    F  F  F    Fe048
    0.8348800000000000    0.8340300000000000    0.1829400000000000    F  F  F    Fe049
    0.3355800000000000    0.9986300000000000    0.2435300000000000    F  F  F    Cr001
    0.6680100000000000    0.3326200000000000    0.2422900000000000    F  F  F    Cr002
    0.0044800000000000    0.6673900000000000    0.2421700000000000    F  F  F    Cr003
    0.4966147540000000    0.8334371120000000    0.3011645470000000    T  T  T    Cr004
    0.6652100000000000    0.6735100000000001    0.2432700000000000    F  F  F    Cr005
    0.6662000000000000    0.9968000000000000    0.0000000000000000    F  F  F    Cr006
    0.6673743240000000    0.9876141090000000    0.3640010290000000    T  T  T    Cr007
    0.3321300000000000    0.3338600000000000    0.0013500000000000    F  F  F    Cr008
    0.3227670960000000    0.3324376430000000    0.3651536730000000    T  T  T    Cr009
    0.6704000000000000    0.3367300000000000    0.0032100000000000    F  F  F    Cr010
    0.6773000810000001    0.3433515450000000    0.3669326720000000    T  T  T    Cr011
    0.6672800000000000    0.9999800000000000    0.1224600000000000    F  F  F    Cr012
    0.9980599999999999    0.3349500000000000    0.1223500000000000    F  F  F    Cr013
    0.3367500000000000    0.3323800000000000    0.1226100000000000    F  F  F    Cr014
    0.1686400000000000    0.8345800000000000    0.4200000000000000    T  T  T    Pb001
