<?xml version="1.0" encoding="ISO-8859-1"?>
<modeling>
 <generator>
  <i name="program" type="string">vasp </i>
  <i name="version" type="string">6.5.1  </i>
  <i name="subversion" type="string">10Mar25 (build Oct 09 2025 23:55:08) complex                          parallel </i>
  <i name="platform" type="string">LinuxIFC </i>
  <i name="date" type="string">2025 10 12 </i>
  <i name="time" type="string">13:44:31 </i>
 </generator>
 <incar>
  <i type="string" name="SYSTEM">INCAR-For-OPT</i>
  <i type="int" name="ISTART">     1</i>
  <i type="string" name="PREC">Accurate</i>
  <i type="string" name="ALGO">Normal</i>
  <i type="int" name="ISPIN">     2</i>
  <i type="int" name="IMIX">     4</i>
  <i name="AMIX">      0.05000000</i>
  <i name="BMIX">      0.00010000</i>
  <i name="AMIN">      0.01000000</i>
  <i type="int" name="ICHARG">     1</i>
  <i type="int" name="NELM">   150</i>
  <i type="int" name="IBRION">     2</i>
  <i name="EDIFF">      0.00001000</i>
  <i name="EDIFFG">     -0.02000000</i>
  <i type="int" name="NSW">   300</i>
  <i type="int" name="ISIF">     2</i>
  <i name="ENCUT">    450.00000000</i>
  <i type="string" name="LREAL">Auto</i>
  <i type="int" name="ISMEAR">     1</i>
  <i name="SIGMA">      0.15000000</i>
  <i type="int" name="LMAXMIX">     4</i>
  <i type="logical" name="LWAVE"> F  </i>
  <i type="logical" name="LCHARG"> F  </i>
  <i type="logical" name="LDIPOL"> T  </i>
  <i type="int" name="IDIPOL">     3</i>
 </incar>
 <primitive_cell>
  <structure name="primitive_cell" >
   <crystal>
    <varray name="basis" >
     <v>       8.50970000       0.00000000       0.00000000 </v>
     <v>      -0.00372597       8.53929919       0.00000000 </v>
     <v>       0.00000000       0.00000000      23.57140000 </v>
    </varray>
    <i name="volume">   1712.85996128 </i>
    <varray name="rec_basis" >
     <v>       0.11751296       0.00005127       0.00000000 </v>
     <v>       0.00000000       0.11710563       0.00000000 </v>
     <v>       0.00000000       0.00000000       0.04242429 </v>
    </varray>
   </crystal>
   <varray name="positions" >
    <v>       0.83310000       0.49871000       0.06001000 </v>
    <v>       0.83472000       0.83192000       0.06027000 </v>
    <v>       0.66620395       0.65876600       0.35942343 </v>
    <v>       0.00081000       0.66425000       0.00034000 </v>
    <v>       0.15628782       0.82798810       0.29990847 </v>
    <v>       0.66016234       0.33627221       0.36029807 </v>
    <v>       0.66559000       0.33138000       0.00044000 </v>
    <v>       0.49968000       0.83322000       0.06046000 </v>
    <v>       0.66721000       0.33321000       0.24067000 </v>
    <v>       0.50058000       0.49950000       0.18024000 </v>
    <v>       0.33595000       0.33196000       0.11912000 </v>
    <v>       0.33462000       0.33376000       0.24059000 </v>
    <v>       0.49782991       0.50068227       0.30048299 </v>
    <v>       0.00055000       0.33190000       0.12006000 </v>
    <v>       0.16752000       0.49945000       0.18065000 </v>
    <v>       0.00021000       0.33145000       0.00038000 </v>
    <v>       0.33510000       0.33170000       0.00029000 </v>
    <v>       0.00882490       0.33318537       0.35982138 </v>
    <v>       0.00077000       0.99959000       0.12036000 </v>
    <v>       0.16814000       0.16634000       0.18048000 </v>
    <v>       0.33405000       0.66593000       0.12095000 </v>
    <v>       0.50078000       0.83242000       0.18121000 </v>
    <v>       0.99049149       0.66794346       0.35973695 </v>
    <v>       0.99982000       0.33359000       0.24030000 </v>
    <v>       0.00025000       0.66569000       0.12051000 </v>
    <v>       0.16581000       0.83217000       0.18114000 </v>
    <v>       0.66566000       0.33123000       0.11970000 </v>
    <v>       0.83235029       0.83723940       0.30196942 </v>
    <v>       0.16605191       0.49959756       0.30118640 </v>
    <v>       0.16620413       0.16866449       0.30173044 </v>
    <v>       0.00161000       0.99891000       0.00024000 </v>
    <v>       0.00562797       0.99845956       0.35990800 </v>
    <v>       0.16807000       0.16539000       0.06004000 </v>
    <v>       0.50689529       0.83264870       0.30220297 </v>
    <v>       0.83476000       0.83303000       0.18132000 </v>
    <v>       0.66715000       0.66559000       0.00000000 </v>
    <v>       0.66719000       0.66640000       0.12032000 </v>
    <v>       0.83302000       0.49937000       0.17995000 </v>
    <v>       0.16769000       0.83389000       0.06029000 </v>
    <v>       0.50137484       0.16683201       0.30237821 </v>
    <v>       0.33289000       0.99824000       0.24130000 </v>
    <v>       0.66679000       0.99914000       0.24097000 </v>
    <v>       0.33466000       0.00023000       0.12082000 </v>
    <v>       0.66746000       0.99815000       0.00001000 </v>
    <v>       0.83551716       0.16915522       0.30176196 </v>
    <v>       0.83358000       0.16456000       0.06013000 </v>
    <v>       0.67168130       0.00574619       0.36075125 </v>
    <v>       0.83364000       0.16593000       0.18062000 </v>
    <v>       0.66653000       0.99972000       0.12044000 </v>
    <v>       0.33555017       0.33182018       0.35957377 </v>
    <v>       0.33487000       0.00167000       0.00066000 </v>
    <v>       0.32828446       0.99577128       0.36126952 </v>
    <v>       0.00122000       0.00217000       0.24080000 </v>
    <v>       0.16722000       0.50179000       0.05903000 </v>
    <v>       0.50000000       0.50344000       0.05949000 </v>
    <v>       0.49861000       0.16115000       0.05868000 </v>
    <v>       0.49968000       0.16444000       0.18182000 </v>
    <v>       0.83463874       0.50475449       0.29945606 </v>
    <v>       0.99722000       0.66135000       0.24151000 </v>
    <v>       0.33419000       0.66573000       0.24040000 </v>
    <v>       0.33414000       0.65855000       0.00278000 </v>
    <v>       0.32981356       0.67067363       0.36802640 </v>
    <v>       0.66923000       0.66337000       0.24097000 </v>
    <v>       0.52679372       0.82997607       0.44396218 </v>
   </varray>
  </structure>
  <varray name="primitive_index" >
   <v type="int" >        1 </v>
   <v type="int" >        2 </v>
   <v type="int" >        3 </v>
   <v type="int" >        4 </v>
   <v type="int" >        5 </v>
   <v type="int" >        6 </v>
   <v type="int" >        7 </v>
   <v type="int" >        8 </v>
   <v type="int" >        9 </v>
   <v type="int" >       10 </v>
   <v type="int" >       11 </v>
   <v type="int" >       12 </v>
   <v type="int" >       13 </v>
   <v type="int" >       14 </v>
   <v type="int" >       15 </v>
   <v type="int" >       16 </v>
   <v type="int" >       17 </v>
   <v type="int" >       18 </v>
   <v type="int" >       19 </v>
   <v type="int" >       20 </v>
   <v type="int" >       21 </v>
   <v type="int" >       22 </v>
   <v type="int" >       23 </v>
   <v type="int" >       24 </v>
   <v type="int" >       25 </v>
   <v type="int" >       26 </v>
   <v type="int" >       27 </v>
   <v type="int" >       28 </v>
   <v type="int" >       29 </v>
   <v type="int" >       30 </v>
   <v type="int" >       31 </v>
   <v type="int" >       32 </v>
   <v type="int" >       33 </v>
   <v type="int" >       34 </v>
   <v type="int" >       35 </v>
   <v type="int" >       36 </v>
   <v type="int" >       37 </v>
   <v type="int" >       38 </v>
   <v type="int" >       39 </v>
   <v type="int" >       40 </v>
   <v type="int" >       41 </v>
   <v type="int" >       42 </v>
   <v type="int" >       43 </v>
   <v type="int" >       44 </v>
   <v type="int" >       45 </v>
   <v type="int" >       46 </v>
   <v type="int" >       47 </v>
   <v type="int" >       48 </v>
   <v type="int" >       49 </v>
   <v type="int" >       50 </v>
   <v type="int" >       51 </v>
   <v type="int" >       52 </v>
   <v type="int" >       53 </v>
   <v type="int" >       54 </v>
   <v type="int" >       55 </v>
   <v type="int" >       56 </v>
   <v type="int" >       57 </v>
   <v type="int" >       58 </v>
   <v type="int" >       59 </v>
   <v type="int" >       60 </v>
   <v type="int" >       61 </v>
   <v type="int" >       62 </v>
   <v type="int" >       63 </v>
   <v type="int" >       64 </v>
  </varray>
 </primitive_cell>
 <kpoints>
  <generation param="Gamma">
   <v type="int" name="divisions">       4        4        1 </v>
   <v name="usershift">      0.00000000       0.00000000       0.00000000 </v>
   <v name="genvec1">      0.25000000       0.00000000       0.00000000 </v>
   <v name="genvec2">      0.00000000       0.25000000       0.00000000 </v>
   <v name="genvec3">      0.00000000       0.00000000       1.00000000 </v>
   <v name="shift">      0.00000000       0.00000000       0.00000000 </v>
  </generation>
  <varray name="kpointlist" >
   <v>       0.00000000       0.00000000       0.00000000 </v>
   <v>       0.25000000       0.00000000       0.00000000 </v>
   <v>       0.50000000       0.00000000       0.00000000 </v>
   <v>       0.00000000       0.25000000       0.00000000 </v>
   <v>       0.25000000       0.25000000       0.00000000 </v>
   <v>       0.50000000       0.25000000       0.00000000 </v>
   <v>      -0.25000000       0.25000000       0.00000000 </v>
   <v>       0.00000000       0.50000000       0.00000000 </v>
   <v>       0.25000000       0.50000000       0.00000000 </v>
   <v>       0.50000000       0.50000000       0.00000000 </v>
  </varray>
  <varray name="weights" >
   <v>       0.06250000 </v>
   <v>       0.12500000 </v>
   <v>       0.06250000 </v>
   <v>       0.12500000 </v>
   <v>       0.12500000 </v>
   <v>       0.12500000 </v>
   <v>       0.12500000 </v>
   <v>       0.06250000 </v>
   <v>       0.12500000 </v>
   <v>       0.06250000 </v>
  </varray>
 </kpoints>
 <parameters>
  <separator name="general" >
   <i type="string" name="SYSTEM">INCAR-For-OPT</i>
   <i type="logical" name="LCOMPAT"> F  </i>
  </separator>
  <separator name="electronic" >
   <i type="string" name="PREC">accura</i>
   <i name="ENMAX">    450.00000000</i>
   <i name="ENAUG">    519.42400000</i>
   <i name="EDIFF">      0.00001000</i>
   <i type="int" name="IALGO">    38</i>
   <i type="int" name="IWAVPR">    11</i>
   <i type="int" name="NBANDS">   375</i>
   <i type="int" name="NBANDSLOW">    -1</i>
   <i type="int" name="NBANDSHIGH">    -1</i>
   <i name="NELECT">    570.00000000</i>
   <i type="int" name="TURBO">     0</i>
   <i type="int" name="IRESTART">     0</i>
   <i type="int" name="NREBOOT">     0</i>
   <i type="int" name="NMIN">     0</i>
   <i name="EREF">      0.00000000</i>
   <separator name="electronic smearing" >
    <i type="int" name="ISMEAR">     1</i>
    <i name="SIGMA">      0.15000000</i>
    <i name="KSPACING">      0.50000000</i>
    <i type="logical" name="KGAMMA"> T  </i>
    <i type="logical" name="KBLOWUP"> T  </i>
   </separator>
   <separator name="electronic projectors" >
    <i type="logical" name="LREAL"> T  </i>
    <v name="ROPT">     -0.00025000     -0.00025000     -0.00025000</v>
    <i type="int" name="LMAXPAW">  -100</i>
    <i type="int" name="LMAXMIX">     4</i>
    <i type="logical" name="NLSPLINE"> F  </i>
   </separator>
   <separator name="electronic startup" >
    <i type="int" name="ISTART">     0</i>
    <i type="int" name="ICHARG">     1</i>
    <i type="int" name="INIWAV">     1</i>
   </separator>
   <separator name="electronic spin" >
    <i type="int" name="ISPIN">     2</i>
    <i type="logical" name="LNONCOLLINEAR"> F  </i>
    <v name="MAGMOM">      1.00000000      1.00000000      1.00000000      1.00000000      1.00000000      1.00000000      1.00000000      1.00000000      1.00000000      1.00000000      1.00000000      1.00000000      1.00000000      1.00000000      1.00000000      1.00000000      1.00000000      1.00000000      1.00000000      1.00000000
      1.00000000      1.00000000      1.00000000      1.00000000      1.00000000      1.00000000      1.00000000      1.00000000      1.00000000      1.00000000      1.00000000      1.00000000      1.00000000      1.00000000      1.00000000      1.00000000      1.00000000      1.00000000      1.00000000      1.00000000
      1.00000000      1.00000000      1.00000000      1.00000000      1.00000000      1.00000000      1.00000000      1.00000000      1.00000000      1.00000000      1.00000000      1.00000000      1.00000000      1.00000000      1.00000000      1.00000000      1.00000000      1.00000000      1.00000000      1.00000000
      1.00000000      1.00000000      1.00000000      1.00000000</v>
    <i name="NUPDOWN">     -1.00000000</i>
    <i type="logical" name="LSORBIT"> F  </i>
    <v name="SAXIS">      0.00000000      0.00000000      1.00000000</v>
    <i type="logical" name="LSPIRAL"> F  </i>
    <v name="QSPIRAL">      0.00000000      0.00000000      0.00000000</v>
    <i type="logical" name="LZEROZ"> F  </i>
   </separator>
   <separator name="electronic exchange-correlation" >
    <i type="logical" name="LASPH"> F  </i>
   </separator>
   <separator name="electronic convergence" >
    <i type="int" name="NELM">   150</i>
    <i type="int" name="NELMDL">     0</i>
    <i type="int" name="NELMIN">     2</i>
    <i name="ENINI">    450.00000000</i>
    <separator name="electronic convergence detail" >
     <i type="logical" name="LDIAG"> T  </i>
     <i type="logical" name="LSUBROT"> F  </i>
     <i type="logical" name="LROBUST"> F  </i>
     <i type="int" name="ISEARCH">     0</i>
     <i name="WEIMIN">      0.00100000</i>
     <i name="EBREAK">      0.00000001</i>
     <i name="DEPER">      0.30000000</i>
     <i type="int" name="NRMM">     4</i>
     <i name="TIME">      0.40000000</i>
    </separator>
   </separator>
   <separator name="electronic mixer" >
    <i name="AMIX">      0.05000000</i>
    <i name="BMIX">      0.00010000</i>
    <i name="AMIN">      0.01000000</i>
    <i name="AMIX_MAG">      0.20000000</i>
    <i name="BMIX_MAG">      0.00010000</i>
    <separator name="electronic mixer details" >
     <i type="int" name="IMIX">     4</i>
     <i type="logical" name="MIXFIRST"> F  </i>
     <i type="int" name="MAXMIX">   -45</i>
     <i name="WC">    100.00000000</i>
     <i type="int" name="INIMIX">     1</i>
     <i type="int" name="MIXPRE">     1</i>
     <i type="int" name="MREMOVE">     5</i>
    </separator>
   </separator>
   <separator name="electronic dipolcorrection" >
    <i type="logical" name="LDIPOL"> T  </i>
    <i type="logical" name="LMONO"> F  </i>
    <i type="int" name="IDIPOL">     3</i>
    <i name="EPSILON">      1.00000000</i>
    <v name="DIPOL">   -100.00000000   -100.00000000   -100.00000000</v>
    <i name="EFIELD">      0.00000000</i>
    <i type="logical" name="LVACPOTAV"> F  </i>
   </separator>
  </separator>
  <separator name="grids" >
   <i type="int" name="NGX">    60</i>
   <i type="int" name="NGY">    60</i>
   <i type="int" name="NGZ">   168</i>
   <i type="int" name="NGXF">   120</i>
   <i type="int" name="NGYF">   120</i>
   <i type="int" name="NGZF">   336</i>
   <i type="logical" name="ADDGRID"> F  </i>
  </separator>
  <separator name="ionic" >
   <i type="int" name="NSW">   300</i>
   <i type="int" name="IBRION">     2</i>
   <i type="int" name="MDALGO">     0</i>
   <i type="int" name="ISIF">     2</i>
   <i name="PSTRESS">      0.00000000</i>
   <i name="EDIFFG">     -0.02000000</i>
   <i type="int" name="NFREE">     1</i>
   <i name="POTIM">      0.50000000</i>
   <i name="SMASS">     -3.00000000</i>
   <i name="SCALEE">      1.00000000</i>
  </separator>
  <separator name="ionic md" >
   <i name="TEBEG">      0.00010000</i>
   <i name="TEEND">      0.00010000</i>
   <i type="int" name="NBLOCK">     1</i>
   <i type="int" name="KBLOCK">   300</i>
   <i type="int" name="NPACO">   256</i>
   <i name="APACO">     10.00000000</i>
  </separator>
  <separator name="symmetry" >
   <i type="int" name="ISYM">     2</i>
   <i name="SYMPREC">      0.00001000</i>
  </separator>
  <separator name="dos" >
   <i type="int" name="LORBIT">     0</i>
   <v name="RWIGS">     -1.00000000     -1.00000000     -1.00000000</v>
   <i type="int" name="NEDOS">   301</i>
   <i name="EMIN">     10.00000000</i>
   <i name="EMAX">    -10.00000000</i>
   <i name="EFERMI">      0.00000000</i>
  </separator>
  <separator name="writing" >
   <i type="int" name="NWRITE">     2</i>
   <i type="logical" name="LWAVE"> F  </i>
   <i type="logical" name="LDOWNSAMPLE"> F  </i>
   <i type="logical" name="LCHARG"> F  </i>
   <i type="logical" name="LPARD"> F  </i>
   <i type="logical" name="LVTOT"> F  </i>
   <i type="logical" name="LVHAR"> F  </i>
   <i type="logical" name="LELF"> F  </i>
   <i type="logical" name="LOPTICS"> F  </i>
   <v name="STM">      0.00000000      0.00000000      0.00000000      0.00000000      0.00000000      0.00000000      0.00000000</v>
  </separator>
  <separator name="performance" >
   <i type="int" name="NPAR">     3</i>
   <i type="int" name="NSIM">     4</i>
   <i type="int" name="NBLK">    -1</i>
   <i type="logical" name="LPLANE"> T  </i>
   <i type="logical" name="LSCALAPACK"> T  </i>
   <i type="logical" name="LSCAAWARE"> F  </i>
   <i type="logical" name="LSCALU"> F  </i>
   <i type="logical" name="LASYNC"> F  </i>
   <i type="logical" name="LORBITALREAL"> F  </i>
  </separator>
  <separator name="miscellaneous" >
   <i type="int" name="IDIOT">     3</i>
   <i type="int" name="PHON_NSTRUCT">    -1</i>
   <i type="logical" name="LMUSIC"> F  </i>
   <v name="POMASS">     55.84700000     51.99600000    207.20000000</v>
   <v name="DARWINR">      0.00000000      0.00000000      0.00000000</v>
   <v name="DARWINV">      1.00000000      1.00000000      1.00000000</v>
   <i type="logical" name="LCORR"> T  </i>
  </separator>
  <i type="logical" name="GGA_COMPAT"> T  </i>
  <i type="logical" name="LBERRY"> F  </i>
  <i type="int" name="ICORELEVEL">     0</i>
  <i type="logical" name="LDAU"> F  </i>
  <i type="int" name="I_CONSTRAINED_M">     0</i>
  <separator name="electronic exchange-correlation" >
   <i type="string" name="GGA    ">PE</i>
   <i type="string" name="XC_C">1</i>
   <i type="int" name="VOSKOWN">     0</i>
   <i type="logical" name="LHFCALC"> F  </i>
   <i type="string" name="PRECFOCK"></i>
   <i type="logical" name="LSYMGRAD"> F  </i>
   <i type="logical" name="LHFONE"> F  </i>
   <i type="logical" name="LRHFCALC"> F  </i>
   <i type="logical" name="LTHOMAS"> F  </i>
   <i type="logical" name="LMODELHF"> F  </i>
   <i type="logical" name="LFOCKACE"> F  </i>
   <i name="ENCUT4O">     -1.00000000</i>
   <i type="int" name="EXXOEP">     0</i>
   <i type="int" name="FOURORBIT">     0</i>
   <i name="AEXX">      0.00000000</i>
   <i name="HFALPHA">      0.00000000</i>
   <i name="MCALPHA">      0.00000000</i>
   <i name="ALDAX">      1.00000000</i>
   <i name="AGGAX">      1.00000000</i>
   <i name="AMGGAX">      1.00000000</i>
   <i name="ALDAC">      1.00000000</i>
   <i name="AGGAC">      1.00000000</i>
   <i name="AMGGAC">      1.00000000</i>
   <i type="int" name="NKREDX">     1</i>
   <i type="int" name="NKREDY">     1</i>
   <i type="int" name="NKREDZ">     1</i>
   <i type="logical" name="SHIFTRED"> F  </i>
   <i type="logical" name="ODDONLY"> F  </i>
   <i type="logical" name="EVENONLY"> F  </i>
   <i type="int" name="LMAXFOCK">     0</i>
   <i type="int" name="NMAXFOCKAE">     0</i>
   <i type="logical" name="LFOCKAEDFT"> F  </i>
   <i name="HFSCREEN">      0.00000000</i>
   <i name="HFSCREENC">      0.00000000</i>
   <i type="int" name="NBANDSGWLOW">     0</i>
  </separator>
  <separator name="vdW DFT" >
   <i type="logical" name="LUSE_VDW"> F  </i>
   <i type="int" name="IVDW_NL">    -1</i>
   <i type="logical" name="LSPIN_VDW"> F  </i>
   <i name="ZAB_VDW">     -0.84910000</i>
   <i name="GAMMA_VDW">      1.39626340</i>
   <i name="ALPHA_VDW">      0.00000000</i>
   <i name="PARAM1">      0.12340000</i>
   <i name="PARAM2">      1.00000000</i>
   <i name="BPARAM">      6.30000000</i>
   <i name="CPARAM">      0.00930000</i>
  </separator>
  <separator name="model GW" >
   <i type="int" name="MODEL_GW">     0</i>
   <i name="MODEL_EPS0">     16.05806214</i>
   <i name="MODEL_ALPHA">      1.00000000</i>
  </separator>
  <separator name="linear response parameters" >
   <i type="logical" name="LEPSILON"> F  </i>
   <i type="logical" name="LRPA"> F  </i>
   <i type="logical" name="LNABLA"> F  </i>
   <i type="logical" name="LVEL"> F  </i>
   <i name="CSHIFT">      0.10000000</i>
   <i name="OMEGAMAX">     -1.00000000</i>
   <i name="DEG_THRESHOLD">      0.00200000</i>
   <i name="RTIME">     -0.10000000</i>
   <i name="WPLASMAI">      0.00000000</i>
   <v name="DFIELD">      0.00000000      0.00000000      0.00000000</v>
   <v name="WPLASMA">      0.00000000      0.00000000      0.00000000      0.00000000      0.00000000      0.00000000      0.00000000      0.00000000      0.00000000</v>
  </separator>
  <separator name="orbital magnetization" >
   <i type="logical" name="NUCIND"> F  </i>
   <v name="MAGPOS">      0.00000000      0.00000000      0.00000000</v>
   <i type="logical" name="LNICSALL"> T  </i>
   <i type="logical" name="ORBITALMAG"> F  </i>
   <i type="logical" name="LMAGBLOCH"> F  </i>
   <i type="logical" name="LCHIMAG"> F  </i>
   <i type="logical" name="LGAUGE"> T  </i>
   <i type="int" name="MAGATOM">     0</i>
   <v name="MAGDIPOL">      0.00000000      0.00000000      0.00000000</v>
   <v name="AVECCONST">      0.00000000      0.00000000      0.00000000</v>
  </separator>
  <separator name="response functions" >
   <i type="logical" name="LALL_IN_ONE"> F  </i>
   <i type="int" name="IALL_IN_ONE">    -1</i>
   <i type="int" name="NBANDS_WAVE">    -1</i>
   <i type="logical" name="LFINITE_TEMPERATURE"> F  </i>
   <i type="logical" name="LADDER"> F  </i>
   <i type="logical" name="LRPAFORCE"> F  </i>
   <i type="logical" name="LFXC"> F  </i>
   <i type="logical" name="LHARTREE"> T  </i>
   <i type="int" name="IBSE">     2</i>
   <v type="int" name="KPOINT">    -1     0     0     0</v>
   <i type="logical" name="LTCTC"> F  </i>
   <i type="logical" name="LTCTE"> F  </i>
   <i type="logical" name="LTETE"> F  </i>
   <i type="logical" name="LTRIPLET"> F  </i>
   <i type="logical" name="LFXCEPS"> F  </i>
   <i type="logical" name="LFXHEG"> F  </i>
   <i type="int" name="NATURALO">     2</i>
   <i type="logical" name="LHOLEGF"> F  </i>
   <i type="logical" name="L2ORDER"> F  </i>
   <i type="logical" name="LDMP1"> F  </i>
   <i type="logical" name="LMP2LT"> F  </i>
   <i type="logical" name="LSMP2LT"> F  </i>
   <i type="logical" name="LGWLF"> F  </i>
   <i name="ENCUTGW">     -1.60000002</i>
   <i name="ENCUTGWSOFT">     -1.60000002</i>
   <i name="ENCUTLF">     -1.00000000</i>
   <i type="logical" name="ESF_SPLINES"> F  </i>
   <i name="ESF_CONV">      0.01000000</i>
   <i type="int" name="ESF_NINTER">    15</i>
   <i type="int" name="LMAXMP2">    -1</i>
   <i name="SCISSOR">      0.00000000</i>
   <i type="int" name="NOMEGA">     0</i>
   <i type="int" name="NOMEGAR">     0</i>
   <i type="int" name="NBANDSGW">    -1</i>
   <i type="int" name="NBANDSO">    -1</i>
   <i type="int" name="NBANDSV">    -1</i>
   <i type="int" name="NELMGW">     1</i>
   <i type="int" name="NELMHF">     1</i>
   <i type="int" name="DIM">     3</i>
   <i type="int" name="IESPILON">     4</i>
   <i type="int" name="ANTIRES">     0</i>
   <i name="OMEGAMAX">    -30.00000000</i>
   <i name="OMEGAMIN">    -30.00000000</i>
   <i name="OMEGATL">   -200.00000000</i>
   <i type="int" name="OMEGAGRID">     0</i>
   <i name="CSHIFT">     -0.10000000</i>
   <i type="logical" name="LSELFENERGY"> F  </i>
   <i type="logical" name="LSPECTRAL"> F  </i>
   <i type="logical" name="LSPECTRALGW"> F  </i>
   <i type="logical" name="LSINGLES"> F  </i>
   <i type="logical" name="LFERMIGW"> F  </i>
   <i type="logical" name="ODDONLYGW"> F  </i>
   <i type="logical" name="EVENONLYGW"> F  </i>
   <i type="int" name="NKREDLFX">     1</i>
   <i type="int" name="NKREDLFY">     1</i>
   <i type="int" name="NKREDLFZ">     1</i>
   <i type="int" name="MAXMEM">  2800</i>
   <i type="int" name="TELESCOPE">     0</i>
   <i type="int" name="NTAUPAR">    -1</i>
   <i type="int" name="NOMEGAPAR">    -1</i>
   <i name="DAMP_NEWTON">      0.80000001</i>
   <i name="LAMBDA">      1.00000000</i>
  </separator>
  <separator name="External order field" >
   <i name="OFIELD_KAPPA">      0.00000000</i>
   <v name="OFIELD_K">      0.00000000      0.00000000      0.00000000</v>
   <i name="OFIELD_Q6_NEAR">      0.00000000</i>
   <i name="OFIELD_Q6_FAR">      0.00000000</i>
   <i name="OFIELD_A">      0.00000000</i>
  </separator>
  <separator name="optional k-points parameters" >
   <i type="int" name="KPOINTS_OPT_MODE">     1</i>
   <i type="logical" name="LKPOINTS_OPT"> F  </i>
  </separator>
 </parameters>
 <atominfo>
  <atoms>      64 </atoms>
  <types>       3 </types>
  <array name="atoms" >
   <dimension dim="1">ion</dimension>
   <field type="string">element</field>
   <field type="int">atomtype</field>
   <set>
    <rc><c>Fe</c><c>   1</c></rc>
    <rc><c>Fe</c><c>   1</c></rc>
    <rc><c>Fe</c><c>   1</c></rc>
    <rc><c>Fe</c><c>   1</c></rc>
    <rc><c>Fe</c><c>   1</c></rc>
    <rc><c>Fe</c><c>   1</c></rc>
    <rc><c>Fe</c><c>   1</c></rc>
    <rc><c>Fe</c><c>   1</c></rc>
    <rc><c>Fe</c><c>   1</c></rc>
    <rc><c>Fe</c><c>   1</c></rc>
    <rc><c>Fe</c><c>   1</c></rc>
    <rc><c>Fe</c><c>   1</c></rc>
    <rc><c>Fe</c><c>   1</c></rc>
    <rc><c>Fe</c><c>   1</c></rc>
    <rc><c>Fe</c><c>   1</c></rc>
    <rc><c>Fe</c><c>   1</c></rc>
    <rc><c>Fe</c><c>   1</c></rc>
    <rc><c>Fe</c><c>   1</c></rc>
    <rc><c>Fe</c><c>   1</c></rc>
    <rc><c>Fe</c><c>   1</c></rc>
    <rc><c>Fe</c><c>   1</c></rc>
    <rc><c>Fe</c><c>   1</c></rc>
    <rc><c>Fe</c><c>   1</c></rc>
    <rc><c>Fe</c><c>   1</c></rc>
    <rc><c>Fe</c><c>   1</c></rc>
    <rc><c>Fe</c><c>   1</c></rc>
    <rc><c>Fe</c><c>   1</c></rc>
    <rc><c>Fe</c><c>   1</c></rc>
    <rc><c>Fe</c><c>   1</c></rc>
    <rc><c>Fe</c><c>   1</c></rc>
    <rc><c>Fe</c><c>   1</c></rc>
    <rc><c>Fe</c><c>   1</c></rc>
    <rc><c>Fe</c><c>   1</c></rc>
    <rc><c>Fe</c><c>   1</c></rc>
    <rc><c>Fe</c><c>   1</c></rc>
    <rc><c>Fe</c><c>   1</c></rc>
    <rc><c>Fe</c><c>   1</c></rc>
    <rc><c>Fe</c><c>   1</c></rc>
    <rc><c>Fe</c><c>   1</c></rc>
    <rc><c>Fe</c><c>   1</c></rc>
    <rc><c>Fe</c><c>   1</c></rc>
    <rc><c>Fe</c><c>   1</c></rc>
    <rc><c>Fe</c><c>   1</c></rc>
    <rc><c>Fe</c><c>   1</c></rc>
    <rc><c>Fe</c><c>   1</c></rc>
    <rc><c>Fe</c><c>   1</c></rc>
    <rc><c>Fe</c><c>   1</c></rc>
    <rc><c>Fe</c><c>   1</c></rc>
    <rc><c>Fe</c><c>   1</c></rc>
    <rc><c>Fe</c><c>   1</c></rc>
    <rc><c>Cr</c><c>   2</c></rc>
    <rc><c>Cr</c><c>   2</c></rc>
    <rc><c>Cr</c><c>   2</c></rc>
    <rc><c>Cr</c><c>   2</c></rc>
    <rc><c>Cr</c><c>   2</c></rc>
    <rc><c>Cr</c><c>   2</c></rc>
    <rc><c>Cr</c><c>   2</c></rc>
    <rc><c>Cr</c><c>   2</c></rc>
    <rc><c>Cr</c><c>   2</c></rc>
    <rc><c>Cr</c><c>   2</c></rc>
    <rc><c>Cr</c><c>   2</c></rc>
    <rc><c>Cr</c><c>   2</c></rc>
    <rc><c>Cr</c><c>   2</c></rc>
    <rc><c>Pb</c><c>   3</c></rc>
   </set>
  </array>
  <array name="atomtypes" >
   <dimension dim="1">type</dimension>
   <field type="int">atomspertype</field>
   <field type="string">element</field>
   <field>mass</field>
   <field>valence</field>
   <field type="string">pseudopotential</field>
   <set>
    <rc><c>  50</c><c>Fe</c><c>     55.84700000</c><c>      8.00000000</c><c>  PAW_PBE Fe 06Sep2000                  </c></rc>
    <rc><c>  13</c><c>Cr</c><c>     51.99600000</c><c>     12.00000000</c><c>  PAW_PBE Cr_pv 02Aug2007               </c></rc>
    <rc><c>   1</c><c>Pb</c><c>    207.20000000</c><c>     14.00000000</c><c>  PAW_PBE Pb_d 06Sep2000                </c></rc>
   </set>
  </array>
 </atominfo>
 <structure name="initialpos" >
  <crystal>
   <varray name="basis" >
    <v>       8.50970000       0.00000000       0.00000000 </v>
    <v>      -0.00372597       8.53929919       0.00000000 </v>
    <v>       0.00000000       0.00000000      23.57140000 </v>
   </varray>
   <i name="volume">   1712.85996128 </i>
   <varray name="rec_basis" >
    <v>       0.11751296       0.00005127       0.00000000 </v>
    <v>       0.00000000       0.11710563       0.00000000 </v>
    <v>       0.00000000       0.00000000       0.04242429 </v>
   </varray>
  </crystal>
  <varray name="positions" >
   <v>       0.83310000       0.49871000       0.06001000 </v>
   <v>       0.83472000       0.83192000       0.06027000 </v>
   <v>       0.66620395       0.65876600       0.35942343 </v>
   <v>       0.00081000       0.66425000       0.00034000 </v>
   <v>       0.15628782       0.82798810       0.29990847 </v>
   <v>       0.66016234       0.33627221       0.36029807 </v>
   <v>       0.66559000       0.33138000       0.00044000 </v>
   <v>       0.49968000       0.83322000       0.06046000 </v>
   <v>       0.66721000       0.33321000       0.24067000 </v>
   <v>       0.50058000       0.49950000       0.18024000 </v>
   <v>       0.33595000       0.33196000       0.11912000 </v>
   <v>       0.33462000       0.33376000       0.24059000 </v>
   <v>       0.49782991       0.50068227       0.30048299 </v>
   <v>       0.00055000       0.33190000       0.12006000 </v>
   <v>       0.16752000       0.49945000       0.18065000 </v>
   <v>       0.00021000       0.33145000       0.00038000 </v>
   <v>       0.33510000       0.33170000       0.00029000 </v>
   <v>       0.00882490       0.33318537       0.35982138 </v>
   <v>       0.00077000       0.99959000       0.12036000 </v>
   <v>       0.16814000       0.16634000       0.18048000 </v>
   <v>       0.33405000       0.66593000       0.12095000 </v>
   <v>       0.50078000       0.83242000       0.18121000 </v>
   <v>       0.99049149       0.66794346       0.35973695 </v>
   <v>       0.99982000       0.33359000       0.24030000 </v>
   <v>       0.00025000       0.66569000       0.12051000 </v>
   <v>       0.16581000       0.83217000       0.18114000 </v>
   <v>       0.66566000       0.33123000       0.11970000 </v>
   <v>       0.83235029       0.83723940       0.30196942 </v>
   <v>       0.16605191       0.49959756       0.30118640 </v>
   <v>       0.16620413       0.16866449       0.30173044 </v>
   <v>       0.00161000       0.99891000       0.00024000 </v>
   <v>       0.00562797       0.99845956       0.35990800 </v>
   <v>       0.16807000       0.16539000       0.06004000 </v>
   <v>       0.50689529       0.83264870       0.30220297 </v>
   <v>       0.83476000       0.83303000       0.18132000 </v>
   <v>       0.66715000       0.66559000       0.00000000 </v>
   <v>       0.66719000       0.66640000       0.12032000 </v>
   <v>       0.83302000       0.49937000       0.17995000 </v>
   <v>       0.16769000       0.83389000       0.06029000 </v>
   <v>       0.50137484       0.16683201       0.30237821 </v>
   <v>       0.33289000       0.99824000       0.24130000 </v>
   <v>       0.66679000       0.99914000       0.24097000 </v>
   <v>       0.33466000       0.00023000       0.12082000 </v>
   <v>       0.66746000       0.99815000       0.00001000 </v>
   <v>       0.83551716       0.16915522       0.30176196 </v>
   <v>       0.83358000       0.16456000       0.06013000 </v>
   <v>       0.67168130       0.00574619       0.36075125 </v>
   <v>       0.83364000       0.16593000       0.18062000 </v>
   <v>       0.66653000       0.99972000       0.12044000 </v>
   <v>       0.33555017       0.33182018       0.35957377 </v>
   <v>       0.33487000       0.00167000       0.00066000 </v>
   <v>       0.32828446       0.99577128       0.36126952 </v>
   <v>       0.00122000       0.00217000       0.24080000 </v>
   <v>       0.16722000       0.50179000       0.05903000 </v>
   <v>       0.50000000       0.50344000       0.05949000 </v>
   <v>       0.49861000       0.16115000       0.05868000 </v>
   <v>       0.49968000       0.16444000       0.18182000 </v>
   <v>       0.83463874       0.50475449       0.29945606 </v>
   <v>       0.99722000       0.66135000       0.24151000 </v>
   <v>       0.33419000       0.66573000       0.24040000 </v>
   <v>       0.33414000       0.65855000       0.00278000 </v>
   <v>       0.32981356       0.67067363       0.36802640 </v>
   <v>       0.66923000       0.66337000       0.24097000 </v>
   <v>       0.52679372       0.82997607       0.44396218 </v>
  </varray>
  <varray name="selective"  type="logical" >
   <v type="logical" >  F  F  F </v>
   <v type="logical" >  F  F  F </v>
   <v type="logical" >  T  T  T </v>
   <v type="logical" >  F  F  F </v>
   <v type="logical" >  T  T  T </v>
   <v type="logical" >  T  T  T </v>
   <v type="logical" >  F  F  F </v>
   <v type="logical" >  F  F  F </v>
   <v type="logical" >  F  F  F </v>
   <v type="logical" >  F  F  F </v>
   <v type="logical" >  F  F  F </v>
   <v type="logical" >  F  F  F </v>
   <v type="logical" >  T  T  T </v>
   <v type="logical" >  F  F  F </v>
   <v type="logical" >  F  F  F </v>
   <v type="logical" >  F  F  F </v>
   <v type="logical" >  F  F  F </v>
   <v type="logical" >  T  T  T </v>
   <v type="logical" >  F  F  F </v>
   <v type="logical" >  F  F  F </v>
   <v type="logical" >  F  F  F </v>
   <v type="logical" >  F  F  F </v>
   <v type="logical" >  T  T  T </v>
   <v type="logical" >  F  F  F </v>
   <v type="logical" >  F  F  F </v>
   <v type="logical" >  F  F  F </v>
   <v type="logical" >  F  F  F </v>
   <v type="logical" >  T  T  T </v>
   <v type="logical" >  T  T  T </v>
   <v type="logical" >  T  T  T </v>
   <v type="logical" >  F  F  F </v>
   <v type="logical" >  T  T  T </v>
   <v type="logical" >  F  F  F </v>
   <v type="logical" >  T  T  T </v>
   <v type="logical" >  F  F  F </v>
   <v type="logical" >  F  F  F </v>
   <v type="logical" >  F  F  F </v>
   <v type="logical" >  F  F  F </v>
   <v type="logical" >  F  F  F </v>
   <v type="logical" >  T  T  T </v>
   <v type="logical" >  F  F  F </v>
   <v type="logical" >  F  F  F </v>
   <v type="logical" >  F  F  F </v>
   <v type="logical" >  F  F  F </v>
   <v type="logical" >  T  T  T </v>
   <v type="logical" >  F  F  F </v>
   <v type="logical" >  T  T  T </v>
   <v type="logical" >  F  F  F </v>
   <v type="logical" >  F  F  F </v>
   <v type="logical" >  T  T  T </v>
   <v type="logical" >  F  F  F </v>
   <v type="logical" >  T  T  T </v>
   <v type="logical" >  F  F  F </v>
   <v type="logical" >  F  F  F </v>
   <v type="logical" >  F  F  F </v>
   <v type="logical" >  F  F  F </v>
   <v type="logical" >  F  F  F </v>
   <v type="logical" >  T  T  T </v>
   <v type="logical" >  F  F  F </v>
   <v type="logical" >  F  F  F </v>
   <v type="logical" >  F  F  F </v>
   <v type="logical" >  T  T  T </v>
   <v type="logical" >  F  F  F </v>
   <v type="logical" >  T  T  T </v>
  </varray>
  <nose>
   <v>      -3.00000000       0.00000000       0.00010000       0.00010000 </v>
  </nose>
 </structure>
 <calculation>
  <scstep>
   <time name="dav">   16.10   16.25</time>
   <time name="total">   16.53   16.69</time>
   <dipole>
    <v name="dipole">      0.00000000       0.00000000      -0.00025986 </v>
    <i name="Tr[quadrupol]">  -7363.11864677 </i>
    <i name="Echarged">      0.00000000 </i>
    <i name="Edipol_quadrupol">      0.00000000 </i>
    <i name="Eion">      0.00000000 </i>
   </dipole>
   <energy>
    <i name="alphaZ">   1853.31411145 </i>
    <i name="ewald"> 207358.10689431 </i>
    <i name="hartreedc">-258367.60941805 </i>
    <i name="XCdc">    947.22987222 </i>
    <i name="pawpsdc">  46167.24968855 </i>
    <i name="pawaedc"> -47164.99183211 </i>
    <i name="eentropy">     -0.00132405 </i>
    <i name="bandstr">   2023.71281040 </i>
    <i name="atom">  52799.98958613 </i>
    <i name="e_fr_energy">   5617.00038885 </i>
    <i name="e_wo_entrp">   5617.00171290 </i>
    <i name="e_0_energy">   5617.00083020 </i>
   </energy>
  </scstep>
  <scstep>
   <time name="dav">   15.38   15.48</time>
   <time name="total">   15.38   15.48</time>
   <dipole>
    <v name="dipole">      0.00000000       0.00000000      -0.00025986 </v>
    <i name="Tr[quadrupol]">  -7363.11864677 </i>
    <i name="Echarged">      0.00000000 </i>
    <i name="Edipol_quadrupol">      0.00000000 </i>
    <i name="Eion">      0.00000000 </i>
   </dipole>
   <energy>
    <i name="e_fr_energy">    -60.95261835 </i>
    <i name="e_wo_entrp">    -60.95683742 </i>
    <i name="e_0_energy">    -60.95402471 </i>
   </energy>
  </scstep>
  <scstep>
   <time name="dav">   15.74   15.84</time>
   <time name="total">   15.75   15.84</time>
   <dipole>
    <v name="dipole">      0.00000000       0.00000000      -0.00025986 </v>
    <i name="Tr[quadrupol]">  -7363.11864677 </i>
    <i name="Echarged">      0.00000000 </i>
    <i name="Edipol_quadrupol">      0.00000000 </i>
    <i name="Eion">      0.00000000 </i>
   </dipole>
   <energy>
    <i name="e_fr_energy">   -525.32872886 </i>
    <i name="e_wo_entrp">   -525.32726817 </i>
    <i name="e_0_energy">   -525.32824196 </i>
   </energy>
  </scstep>
  <scstep>
   <time name="dav">   24.42   24.56</time>
   <time name="total">   24.43   24.57</time>
   <dipole>
    <v name="dipole">      0.00000000       0.00000000      -0.00025986 </v>
    <i name="Tr[quadrupol]">  -7363.11864677 </i>
    <i name="Echarged">      0.00000000 </i>
    <i name="Edipol_quadrupol">      0.00000000 </i>
    <i name="Eion">      0.00000000 </i>
   </dipole>
   <energy>
    <i name="e_fr_energy">   -586.37392642 </i>
    <i name="e_wo_entrp">   -586.40319383 </i>
    <i name="e_0_energy">   -586.38368223 </i>
   </energy>
  </scstep>
  <scstep>
   <time name="dav">   22.92   23.07</time>
   <time name="total">   23.47   23.62</time>
   <dipole>
    <v name="dipole">      0.00000000       0.00000000      -0.00025986 </v>
    <i name="Tr[quadrupol]">  -7363.11864677 </i>
    <i name="Echarged">      0.00000000 </i>
    <i name="Edipol_quadrupol">      0.00000000 </i>
    <i name="Eion">      0.00000000 </i>
   </dipole>
   <energy>
    <i name="e_fr_energy">   -589.88558983 </i>
    <i name="e_wo_entrp">   -589.91424735 </i>
    <i name="e_0_energy">   -589.89514234 </i>
   </energy>
  </scstep>
  <scstep>
   <time name="dav">   24.88   25.05</time>
   <time name="total">   25.85   26.03</time>
   <dipole>
    <v name="dipole">      0.00000000       0.00000000       0.41050740 </v>
    <i name="Tr[quadrupol]">  -7384.71254269 </i>
    <i name="Echarged">      0.00000000 </i>
    <i name="Edipol_quadrupol">      0.00000000 </i>
    <i name="Eion">      0.00000000 </i>
   </dipole>
   <energy>
    <i name="e_fr_energy">   -666.23977564 </i>
    <i name="e_wo_entrp">   -666.22844940 </i>
    <i name="e_0_energy">   -666.23600023 </i>
   </energy>
  </scstep>
  <scstep>
   <time name="dav">   25.59   25.76</time>
   <time name="total">   26.58   26.75</time>
   <dipole>
    <v name="dipole">      0.00000000       0.00000000      -0.41466196 </v>
    <i name="Tr[quadrupol]">  -7370.50935932 </i>
    <i name="Echarged">      0.00000000 </i>
    <i name="Edipol_quadrupol">      0.00000000 </i>
    <i name="Eion">      0.00000000 </i>
   </dipole>
   <energy>
    <i name="e_fr_energy">   -563.10989926 </i>
    <i name="e_wo_entrp">   -563.09683644 </i>
    <i name="e_0_energy">   -563.10554499 </i>
   </energy>
  </scstep>
  <scstep>
   <time name="dav">   25.25   25.42</time>
   <time name="total">   26.24   26.42</time>
   <dipole>
    <v name="dipole">      0.00000000       0.00000000       1.37179896 </v>
    <i name="Tr[quadrupol]">  -7370.23230837 </i>
    <i name="Echarged">      0.00000000 </i>
    <i name="Edipol_quadrupol">      0.00000000 </i>
    <i name="Eion">      0.00000000 </i>
   </dipole>
   <energy>
    <i name="e_fr_energy">   -635.37121057 </i>
    <i name="e_wo_entrp">   -635.38383278 </i>
    <i name="e_0_energy">   -635.37541798 </i>
   </energy>
  </scstep>
  <scstep>
   <time name="dav">   24.65   24.80</time>
   <time name="total">   25.62   25.79</time>
   <dipole>
    <v name="dipole">      0.00000000       0.00000000      -0.35125244 </v>
    <i name="Tr[quadrupol]">  -7372.89003126 </i>
    <i name="Echarged">      0.00000000 </i>
    <i name="Edipol_quadrupol">      0.00000000 </i>
    <i name="Eion">      0.00000000 </i>
   </dipole>
   <energy>
    <i name="e_fr_energy">   -537.82729822 </i>
    <i name="e_wo_entrp">   -537.85565520 </i>
    <i name="e_0_energy">   -537.83675054 </i>
   </energy>
  </scstep>
  <scstep>
   <time name="dav">   21.88   22.02</time>
   <time name="total">   22.88   23.02</time>
   <dipole>
    <v name="dipole">      0.00000000       0.00000000      -0.14839417 </v>
    <i name="Tr[quadrupol]">  -7376.28464268 </i>
    <i name="Echarged">      0.00000000 </i>
    <i name="Edipol_quadrupol">      0.00000000 </i>
    <i name="Eion">      0.00000000 </i>
   </dipole>
   <energy>
    <i name="e_fr_energy">   -509.59829192 </i>
    <i name="e_wo_entrp">   -509.61968474 </i>
    <i name="e_0_energy">   -509.60542286 </i>
   </energy>
  </scstep>
  <scstep>
   <time name="dav">   20.00   20.13</time>
   <time name="total">   20.97   21.10</time>
   <dipole>
    <v name="dipole">      0.00000000       0.00000000      -0.13801062 </v>
    <i name="Tr[quadrupol]">  -7381.88821020 </i>
    <i name="Echarged">      0.00000000 </i>
    <i name="Edipol_quadrupol">      0.00000000 </i>
    <i name="Eion">      0.00000000 </i>
   </dipole>
   <energy>
    <i name="e_fr_energy">   -501.28660170 </i>
    <i name="e_wo_entrp">   -501.30197459 </i>
    <i name="e_0_energy">   -501.29172600 </i>
   </energy>
  </scstep>
  <scstep>
   <time name="dav">   20.98   21.11</time>
   <time name="total">   21.96   22.11</time>
   <dipole>
    <v name="dipole">      0.00000000       0.00000000      -0.17364244 </v>
    <i name="Tr[quadrupol]">  -7383.65811038 </i>
    <i name="Echarged">      0.00000000 </i>
    <i name="Edipol_quadrupol">      0.00000000 </i>
    <i name="Eion">      0.00000000 </i>
   </dipole>
   <energy>
    <i name="e_fr_energy">   -500.03185510 </i>
    <i name="e_wo_entrp">   -500.06265240 </i>
    <i name="e_0_energy">   -500.04212087 </i>
   </energy>
  </scstep>
  <scstep>
   <time name="dav">   21.49   21.63</time>
   <time name="total">   22.47   22.63</time>
   <dipole>
    <v name="dipole">      0.00000000       0.00000000      -0.17342508 </v>
    <i name="Tr[quadrupol]">  -7384.17312854 </i>
    <i name="Echarged">      0.00000000 </i>
    <i name="Edipol_quadrupol">      0.00000000 </i>
    <i name="Eion">      0.00000000 </i>
   </dipole>
   <energy>
    <i name="e_fr_energy">   -500.33525778 </i>
    <i name="e_wo_entrp">   -500.36388041 </i>
    <i name="e_0_energy">   -500.34479866 </i>
   </energy>
  </scstep>
  <scstep>
   <time name="dav">   22.82   22.97</time>
   <time name="total">   23.78   23.94</time>
   <dipole>
    <v name="dipole">      0.00000000       0.00000000      -0.18043830 </v>
    <i name="Tr[quadrupol]">  -7384.32386458 </i>
    <i name="Echarged">      0.00000000 </i>
    <i name="Edipol_quadrupol">      0.00000000 </i>
    <i name="Eion">      0.00000000 </i>
   </dipole>
   <energy>
    <i name="e_fr_energy">   -500.75248524 </i>
    <i name="e_wo_entrp">   -500.77486949 </i>
    <i name="e_0_energy">   -500.75994666 </i>
   </energy>
  </scstep>
  <scstep>
   <time name="dav">   25.01   25.17</time>
   <time name="total">   25.99   26.17</time>
   <dipole>
    <v name="dipole">      0.00000000       0.00000000      -0.18007187 </v>
    <i name="Tr[quadrupol]">  -7385.63641683 </i>
    <i name="Echarged">      0.00000000 </i>
    <i name="Edipol_quadrupol">      0.00000000 </i>
    <i name="Eion">      0.00000000 </i>
   </dipole>
   <energy>
    <i name="e_fr_energy">   -502.66480031 </i>
    <i name="e_wo_entrp">   -502.66709395 </i>
    <i name="e_0_energy">   -502.66556486 </i>
   </energy>
  </scstep>
  <scstep>
   <time name="dav">   23.71   23.87</time>
   <time name="total">   24.66   24.82</time>
   <dipole>
    <v name="dipole">      0.00000000       0.00000000      -0.14921553 </v>
    <i name="Tr[quadrupol]">  -7388.49816058 </i>
    <i name="Echarged">      0.00000000 </i>
    <i name="Edipol_quadrupol">      0.00000000 </i>
    <i name="Eion">      0.00000000 </i>
   </dipole>
   <energy>
    <i name="e_fr_energy">   -505.28786348 </i>
    <i name="e_wo_entrp">   -505.25081300 </i>
    <i name="e_0_energy">   -505.27551332 </i>
   </energy>
  </scstep>
  <scstep>
   <time name="dav">   23.72   23.87</time>
   <time name="total">   24.70   24.86</time>
   <dipole>
    <v name="dipole">      0.00000000       0.00000000      -0.02544398 </v>
    <i name="Tr[quadrupol]">  -7390.94093814 </i>
    <i name="Echarged">      0.00000000 </i>
    <i name="Edipol_quadrupol">      0.00000000 </i>
    <i name="Eion">      0.00000000 </i>
   </dipole>
   <energy>
    <i name="e_fr_energy">   -507.69846593 </i>
    <i name="e_wo_entrp">   -507.65980781 </i>
    <i name="e_0_energy">   -507.68557989 </i>
   </energy>
  </scstep>
  <scstep>
   <time name="dav">   23.76   23.91</time>
   <time name="total">   24.72   24.89</time>
   <dipole>
    <v name="dipole">      0.00000000       0.00000000      -0.07670982 </v>
    <i name="Tr[quadrupol]">  -7391.10916105 </i>
    <i name="Echarged">      0.00000000 </i>
    <i name="Edipol_quadrupol">      0.00000000 </i>
    <i name="Eion">      0.00000000 </i>
   </dipole>
   <energy>
    <i name="e_fr_energy">   -509.53158754 </i>
    <i name="e_wo_entrp">   -509.52039182 </i>
    <i name="e_0_energy">   -509.52785563 </i>
   </energy>
  </scstep>
  <scstep>
   <time name="dav">   24.29   24.45</time>
   <time name="total">   25.26   25.43</time>
   <dipole>
    <v name="dipole">      0.00000000       0.00000000       0.02740843 </v>
    <i name="Tr[quadrupol]">  -7391.18086262 </i>
    <i name="Echarged">      0.00000000 </i>
    <i name="Edipol_quadrupol">      0.00000000 </i>
    <i name="Eion">      0.00000000 </i>
   </dipole>
   <energy>
    <i name="e_fr_energy">   -509.37827727 </i>
    <i name="e_wo_entrp">   -509.36751403 </i>
    <i name="e_0_energy">   -509.37468952 </i>
   </energy>
  </scstep>
  <scstep>
   <time name="dav">   24.50   24.66</time>
   <time name="total">   25.44   25.61</time>
   <dipole>
    <v name="dipole">      0.00000000       0.00000000       0.03320451 </v>
    <i name="Tr[quadrupol]">  -7391.37711558 </i>
    <i name="Echarged">      0.00000000 </i>
    <i name="Edipol_quadrupol">      0.00000000 </i>
    <i name="Eion">      0.00000000 </i>
   </dipole>
   <energy>
    <i name="e_fr_energy">   -511.05214475 </i>
    <i name="e_wo_entrp">   -511.07511988 </i>
    <i name="e_0_energy">   -511.05980312 </i>
   </energy>
  </scstep>
  <scstep>
   <time name="dav">   23.98   24.13</time>
   <time name="total">   24.95   25.11</time>
   <dipole>
    <v name="dipole">      0.00000000       0.00000000       0.07937859 </v>
    <i name="Tr[quadrupol]">  -7392.16760186 </i>
    <i name="Echarged">      0.00000000 </i>
    <i name="Edipol_quadrupol">      0.00000000 </i>
    <i name="Eion">      0.00000000 </i>
   </dipole>
   <energy>
    <i name="e_fr_energy">   -511.34697301 </i>
    <i name="e_wo_entrp">   -511.37267573 </i>
    <i name="e_0_energy">   -511.35554058 </i>
   </energy>
  </scstep>
  <scstep>
   <time name="dav">   23.27   23.41</time>
   <time name="total">   24.24   24.39</time>
   <dipole>
    <v name="dipole">      0.00000000       0.00000000       0.08189806 </v>
    <i name="Tr[quadrupol]">  -7393.16065620 </i>
    <i name="Echarged">      0.00000000 </i>
    <i name="Edipol_quadrupol">      0.00000000 </i>
    <i name="Eion">      0.00000000 </i>
   </dipole>
   <energy>
    <i name="e_fr_energy">   -511.26262173 </i>
    <i name="e_wo_entrp">   -511.28031021 </i>
    <i name="e_0_energy">   -511.26851789 </i>
   </energy>
  </scstep>
  <scstep>
   <time name="dav">   23.74   23.87</time>
   <time name="total">   24.69   24.83</time>
   <dipole>
    <v name="dipole">      0.00000000       0.00000000       0.10152414 </v>
    <i name="Tr[quadrupol]">  -7393.74137065 </i>
    <i name="Echarged">      0.00000000 </i>
    <i name="Edipol_quadrupol">      0.00000000 </i>
    <i name="Eion">      0.00000000 </i>
   </dipole>
   <energy>
    <i name="e_fr_energy">   -511.44368057 </i>
    <i name="e_wo_entrp">   -511.45275291 </i>
    <i name="e_0_energy">   -511.44670468 </i>
   </energy>
  </scstep>
  <scstep>
   <time name="dav">   23.45   23.61</time>
   <time name="total">   24.43   24.60</time>
   <dipole>
    <v name="dipole">      0.00000000       0.00000000       0.10041138 </v>
    <i name="Tr[quadrupol]">  -7393.91662008 </i>
    <i name="Echarged">      0.00000000 </i>
    <i name="Edipol_quadrupol">      0.00000000 </i>
    <i name="Eion">      0.00000000 </i>
   </dipole>
   <energy>
    <i name="e_fr_energy">   -511.77527018 </i>
    <i name="e_wo_entrp">   -511.78391331 </i>
    <i name="e_0_energy">   -511.77815122 </i>
   </energy>
  </scstep>
  <scstep>
   <time name="dav">   24.74   24.90</time>
   <time name="total">   25.71   25.88</time>
   <dipole>
    <v name="dipole">      0.00000000       0.00000000       0.12327371 </v>
    <i name="Tr[quadrupol]">  -7393.48246229 </i>
    <i name="Echarged">      0.00000000 </i>
    <i name="Edipol_quadrupol">      0.00000000 </i>
    <i name="Eion">      0.00000000 </i>
   </dipole>
   <energy>
    <i name="e_fr_energy">   -512.01138490 </i>
    <i name="e_wo_entrp">   -512.01203997 </i>
    <i name="e_0_energy">   -512.01160326 </i>
   </energy>
  </scstep>
  <scstep>
   <time name="dav">   24.05   24.21</time>
   <time name="total">   25.05   25.21</time>
   <dipole>
    <v name="dipole">      0.00000000       0.00000000       0.09242308 </v>
    <i name="Tr[quadrupol]">  -7392.88371571 </i>
    <i name="Echarged">      0.00000000 </i>
    <i name="Edipol_quadrupol">      0.00000000 </i>
    <i name="Eion">      0.00000000 </i>
   </dipole>
   <energy>
    <i name="e_fr_energy">   -512.03217079 </i>
    <i name="e_wo_entrp">   -512.04202270 </i>
    <i name="e_0_energy">   -512.03545476 </i>
   </energy>
  </scstep>
  <scstep>
   <time name="dav">   24.02   24.17</time>
   <time name="total">   24.99   25.16</time>
   <dipole>
    <v name="dipole">      0.00000000       0.00000000       0.09035950 </v>
    <i name="Tr[quadrupol]">  -7392.88296278 </i>
    <i name="Echarged">      0.00000000 </i>
    <i name="Edipol_quadrupol">      0.00000000 </i>
    <i name="Eion">      0.00000000 </i>
   </dipole>
   <energy>
    <i name="e_fr_energy">   -512.17868112 </i>
    <i name="e_wo_entrp">   -512.18568284 </i>
    <i name="e_0_energy">   -512.18101503 </i>
   </energy>
  </scstep>
  <scstep>
   <time name="dav">   23.76   23.91</time>
   <time name="total">   24.73   24.89</time>
   <dipole>
    <v name="dipole">      0.00000000       0.00000000       0.07993760 </v>
    <i name="Tr[quadrupol]">  -7392.96555274 </i>
    <i name="Echarged">      0.00000000 </i>
    <i name="Edipol_quadrupol">      0.00000000 </i>
    <i name="Eion">      0.00000000 </i>
   </dipole>
   <energy>
    <i name="e_fr_energy">   -512.22934638 </i>
    <i name="e_wo_entrp">   -512.23695055 </i>
    <i name="e_0_energy">   -512.23188110 </i>
   </energy>
  </scstep>
  <scstep>
   <time name="dav">   24.03   24.19</time>
   <time name="total">   25.01   25.17</time>
   <dipole>
    <v name="dipole">      0.00000000       0.00000000       0.07033890 </v>
    <i name="Tr[quadrupol]">  -7393.04618489 </i>
    <i name="Echarged">      0.00000000 </i>
    <i name="Edipol_quadrupol">      0.00000000 </i>
    <i name="Eion">      0.00000000 </i>
   </dipole>
   <energy>
    <i name="e_fr_energy">   -512.29782852 </i>
    <i name="e_wo_entrp">   -512.30710350 </i>
    <i name="e_0_energy">   -512.30092018 </i>
   </energy>
  </scstep>
  <scstep>
   <time name="dav">   24.77   24.91</time>
   <time name="total">   25.74   25.90</time>
   <dipole>
    <v name="dipole">      0.00000000       0.00000000       0.08174900 </v>
    <i name="Tr[quadrupol]">  -7393.10816352 </i>
    <i name="Echarged">      0.00000000 </i>
    <i name="Edipol_quadrupol">      0.00000000 </i>
    <i name="Eion">      0.00000000 </i>
   </dipole>
   <energy>
    <i name="e_fr_energy">   -512.37997569 </i>
    <i name="e_wo_entrp">   -512.38418667 </i>
    <i name="e_0_energy">   -512.38137935 </i>
   </energy>
  </scstep>
  <scstep>
   <time name="dav">   23.85   24.00</time>
   <time name="total">   24.82   24.98</time>
   <dipole>
    <v name="dipole">      0.00000000       0.00000000       0.08266765 </v>
    <i name="Tr[quadrupol]">  -7392.93493496 </i>
    <i name="Echarged">      0.00000000 </i>
    <i name="Edipol_quadrupol">      0.00000000 </i>
    <i name="Eion">      0.00000000 </i>
   </dipole>
   <energy>
    <i name="e_fr_energy">   -512.46788499 </i>
    <i name="e_wo_entrp">   -512.47570509 </i>
    <i name="e_0_energy">   -512.47049169 </i>
   </energy>
  </scstep>
  <scstep>
   <time name="dav">   24.41   24.57</time>
   <time name="total">   25.39   25.56</time>
   <dipole>
    <v name="dipole">      0.00000000       0.00000000       0.08252539 </v>
    <i name="Tr[quadrupol]">  -7392.93557822 </i>
    <i name="Echarged">      0.00000000 </i>
    <i name="Edipol_quadrupol">      0.00000000 </i>
    <i name="Eion">      0.00000000 </i>
   </dipole>
   <energy>
    <i name="e_fr_energy">   -512.50687161 </i>
    <i name="e_wo_entrp">   -512.51314045 </i>
    <i name="e_0_energy">   -512.50896123 </i>
   </energy>
  </scstep>
  <scstep>
   <time name="dav">   24.22   24.37</time>
   <time name="total">   25.20   25.36</time>
   <dipole>
    <v name="dipole">      0.00000000       0.00000000       0.07813808 </v>
    <i name="Tr[quadrupol]">  -7392.90649693 </i>
    <i name="Echarged">      0.00000000 </i>
    <i name="Edipol_quadrupol">      0.00000000 </i>
    <i name="Eion">      0.00000000 </i>
   </dipole>
   <energy>
    <i name="e_fr_energy">   -512.54832434 </i>
    <i name="e_wo_entrp">   -512.55345421 </i>
    <i name="e_0_energy">   -512.55003430 </i>
   </energy>
  </scstep>
  <scstep>
   <time name="dav">   23.69   23.85</time>
   <time name="total">   24.65   24.82</time>
   <dipole>
    <v name="dipole">      0.00000000       0.00000000       0.07038247 </v>
    <i name="Tr[quadrupol]">  -7392.86827625 </i>
    <i name="Echarged">      0.00000000 </i>
    <i name="Edipol_quadrupol">      0.00000000 </i>
    <i name="Eion">      0.00000000 </i>
   </dipole>
   <energy>
    <i name="e_fr_energy">   -512.57610851 </i>
    <i name="e_wo_entrp">   -512.58183064 </i>
    <i name="e_0_energy">   -512.57801588 </i>
   </energy>
  </scstep>
  <scstep>
   <time name="dav">   24.39   24.54</time>
   <time name="total">   25.38   25.53</time>
   <dipole>
    <v name="dipole">      0.00000000       0.00000000       0.07154545 </v>
    <i name="Tr[quadrupol]">  -7392.89321094 </i>
    <i name="Echarged">      0.00000000 </i>
    <i name="Edipol_quadrupol">      0.00000000 </i>
    <i name="Eion">      0.00000000 </i>
   </dipole>
   <energy>
    <i name="e_fr_energy">   -512.60615159 </i>
    <i name="e_wo_entrp">   -512.60871588 </i>
    <i name="e_0_energy">   -512.60700635 </i>
   </energy>
  </scstep>
  <scstep>
   <time name="dav">   23.55   23.70</time>
   <time name="total">   24.52   24.69</time>
   <dipole>
    <v name="dipole">      0.00000000       0.00000000       0.06985173 </v>
    <i name="Tr[quadrupol]">  -7392.89636014 </i>
    <i name="Echarged">      0.00000000 </i>
    <i name="Edipol_quadrupol">      0.00000000 </i>
    <i name="Eion">      0.00000000 </i>
   </dipole>
   <energy>
    <i name="e_fr_energy">   -512.61616361 </i>
    <i name="e_wo_entrp">   -512.61988433 </i>
    <i name="e_0_energy">   -512.61740385 </i>
   </energy>
  </scstep>
  <scstep>
   <time name="dav">   23.94   24.10</time>
   <time name="total">   24.92   25.09</time>
   <dipole>
    <v name="dipole">      0.00000000       0.00000000       0.07038140 </v>
    <i name="Tr[quadrupol]">  -7392.85994694 </i>
    <i name="Echarged">      0.00000000 </i>
    <i name="Edipol_quadrupol">      0.00000000 </i>
    <i name="Eion">      0.00000000 </i>
   </dipole>
   <energy>
    <i name="e_fr_energy">   -512.63252384 </i>
    <i name="e_wo_entrp">   -512.63681492 </i>
    <i name="e_0_energy">   -512.63395420 </i>
   </energy>
  </scstep>
  <scstep>
   <time name="dav">   24.39   24.55</time>
   <time name="total">   25.38   25.55</time>
   <dipole>
    <v name="dipole">      0.00000000       0.00000000       0.06459557 </v>
    <i name="Tr[quadrupol]">  -7392.86788177 </i>
    <i name="Echarged">      0.00000000 </i>
    <i name="Edipol_quadrupol">      0.00000000 </i>
    <i name="Eion">      0.00000000 </i>
   </dipole>
   <energy>
    <i name="e_fr_energy">   -512.64238915 </i>
    <i name="e_wo_entrp">   -512.64924801 </i>
    <i name="e_0_energy">   -512.64467543 </i>
   </energy>
  </scstep>
  <scstep>
   <time name="dav">   22.90   23.05</time>
   <time name="total">   23.90   24.06</time>
   <dipole>
    <v name="dipole">      0.00000000       0.00000000       0.06843759 </v>
    <i name="Tr[quadrupol]">  -7392.89464007 </i>
    <i name="Echarged">      0.00000000 </i>
    <i name="Edipol_quadrupol">      0.00000000 </i>
    <i name="Eion">      0.00000000 </i>
   </dipole>
   <energy>
    <i name="e_fr_energy">   -512.64186251 </i>
    <i name="e_wo_entrp">   -512.64765097 </i>
    <i name="e_0_energy">   -512.64379200 </i>
   </energy>
  </scstep>
  <scstep>
   <time name="dav">   23.89   24.04</time>
   <time name="total">   24.87   25.03</time>
   <dipole>
    <v name="dipole">      0.00000000       0.00000000       0.06908495 </v>
    <i name="Tr[quadrupol]">  -7392.85274821 </i>
    <i name="Echarged">      0.00000000 </i>
    <i name="Edipol_quadrupol">      0.00000000 </i>
    <i name="Eion">      0.00000000 </i>
   </dipole>
   <energy>
    <i name="e_fr_energy">   -512.64495580 </i>
    <i name="e_wo_entrp">   -512.65081006 </i>
    <i name="e_0_energy">   -512.64690722 </i>
   </energy>
  </scstep>
  <scstep>
   <time name="dav">   22.27   22.42</time>
   <time name="total">   23.26   23.42</time>
   <dipole>
    <v name="dipole">      0.00000000       0.00000000       0.07005774 </v>
    <i name="Tr[quadrupol]">  -7392.84942124 </i>
    <i name="Echarged">      0.00000000 </i>
    <i name="Edipol_quadrupol">      0.00000000 </i>
    <i name="Eion">      0.00000000 </i>
   </dipole>
   <energy>
    <i name="e_fr_energy">   -512.64605810 </i>
    <i name="e_wo_entrp">   -512.65138242 </i>
    <i name="e_0_energy">   -512.64783287 </i>
   </energy>
  </scstep>
  <scstep>
   <time name="dav">   23.59   23.74</time>
   <time name="total">   24.59   24.76</time>
   <dipole>
    <v name="dipole">      0.00000000       0.00000000       0.07212582 </v>
    <i name="Tr[quadrupol]">  -7392.85504620 </i>
    <i name="Echarged">      0.00000000 </i>
    <i name="Edipol_quadrupol">      0.00000000 </i>
    <i name="Eion">      0.00000000 </i>
   </dipole>
   <energy>
    <i name="e_fr_energy">   -512.64716541 </i>
    <i name="e_wo_entrp">   -512.65144070 </i>
    <i name="e_0_energy">   -512.64859051 </i>
   </energy>
  </scstep>
  <scstep>
   <time name="dav">   23.65   23.81</time>
   <time name="total">   24.64   24.81</time>
   <dipole>
    <v name="dipole">      0.00000000       0.00000000       0.07177102 </v>
    <i name="Tr[quadrupol]">  -7392.83868603 </i>
    <i name="Echarged">      0.00000000 </i>
    <i name="Edipol_quadrupol">      0.00000000 </i>
    <i name="Eion">      0.00000000 </i>
   </dipole>
   <energy>
    <i name="e_fr_energy">   -512.64795884 </i>
    <i name="e_wo_entrp">   -512.65272448 </i>
    <i name="e_0_energy">   -512.64954739 </i>
   </energy>
  </scstep>
  <scstep>
   <time name="dav">   21.85   21.99</time>
   <time name="total">   22.84   22.99</time>
   <dipole>
    <v name="dipole">      0.00000000       0.00000000       0.07073651 </v>
    <i name="Tr[quadrupol]">  -7392.85592373 </i>
    <i name="Echarged">      0.00000000 </i>
    <i name="Edipol_quadrupol">      0.00000000 </i>
    <i name="Eion">      0.00000000 </i>
   </dipole>
   <energy>
    <i name="e_fr_energy">   -512.64794838 </i>
    <i name="e_wo_entrp">   -512.65305001 </i>
    <i name="e_0_energy">   -512.64964893 </i>
   </energy>
  </scstep>
  <scstep>
   <time name="dav">   24.23   24.40</time>
   <time name="total">   25.23   25.41</time>
   <dipole>
    <v name="dipole">      0.00000000       0.00000000       0.06973986 </v>
    <i name="Tr[quadrupol]">  -7392.87305678 </i>
    <i name="Echarged">      0.00000000 </i>
    <i name="Edipol_quadrupol">      0.00000000 </i>
    <i name="Eion">      0.00000000 </i>
   </dipole>
   <energy>
    <i name="e_fr_energy">   -512.64784769 </i>
    <i name="e_wo_entrp">   -512.65351575 </i>
    <i name="e_0_energy">   -512.64973704 </i>
   </energy>
  </scstep>
  <scstep>
   <time name="dav">   23.24   23.39</time>
   <time name="total">   24.23   24.39</time>
   <dipole>
    <v name="dipole">      0.00000000       0.00000000       0.07017253 </v>
    <i name="Tr[quadrupol]">  -7392.89613774 </i>
    <i name="Echarged">      0.00000000 </i>
    <i name="Edipol_quadrupol">      0.00000000 </i>
    <i name="Eion">      0.00000000 </i>
   </dipole>
   <energy>
    <i name="e_fr_energy">   -512.64795049 </i>
    <i name="e_wo_entrp">   -512.65376610 </i>
    <i name="e_0_energy">   -512.64988903 </i>
   </energy>
  </scstep>
  <scstep>
   <time name="dav">   23.01   23.15</time>
   <time name="total">   24.01   24.16</time>
   <dipole>
    <v name="dipole">      0.00000000       0.00000000       0.06971290 </v>
    <i name="Tr[quadrupol]">  -7392.88892349 </i>
    <i name="Echarged">      0.00000000 </i>
    <i name="Edipol_quadrupol">      0.00000000 </i>
    <i name="Eion">      0.00000000 </i>
   </dipole>
   <energy>
    <i name="e_fr_energy">   -512.64794431 </i>
    <i name="e_wo_entrp">   -512.65398172 </i>
    <i name="e_0_energy">   -512.64995678 </i>
   </energy>
  </scstep>
  <scstep>
   <time name="dav">   23.19   23.34</time>
   <time name="total">   24.19   24.35</time>
   <dipole>
    <v name="dipole">      0.00000000       0.00000000       0.06946808 </v>
    <i name="Tr[quadrupol]">  -7392.90855745 </i>
    <i name="Echarged">      0.00000000 </i>
    <i name="Edipol_quadrupol">      0.00000000 </i>
    <i name="Eion">      0.00000000 </i>
   </dipole>
   <energy>
    <i name="e_fr_energy">   -512.64805143 </i>
    <i name="e_wo_entrp">   -512.65413953 </i>
    <i name="e_0_energy">   -512.65008080 </i>
   </energy>
  </scstep>
  <scstep>
   <time name="dav">   20.65   20.79</time>
   <time name="total">   21.64   21.77</time>
   <dipole>
    <v name="dipole">      0.00000000       0.00000000       0.06928773 </v>
    <i name="Tr[quadrupol]">  -7392.91399301 </i>
    <i name="Echarged">      0.00000000 </i>
    <i name="Edipol_quadrupol">      0.00000000 </i>
    <i name="Eion">      0.00000000 </i>
   </dipole>
   <energy>
    <i name="e_fr_energy">   -512.64807262 </i>
    <i name="e_wo_entrp">   -512.65413272 </i>
    <i name="e_0_energy">   -512.65009266 </i>
   </energy>
  </scstep>
  <scstep>
   <time name="dav">   14.19   14.29</time>
   <time name="total">   14.62   14.72</time>
   <dipole>
    <v name="dipole">      0.00000000       0.00000000       0.06938820 </v>
    <i name="Tr[quadrupol]">  -7392.91325119 </i>
    <i name="Echarged">      0.00000000 </i>
    <i name="Edipol_quadrupol">      0.00000000 </i>
    <i name="Eion">      0.00000000 </i>
   </dipole>
   <energy>
    <i name="alphaZ">   1854.23140834 </i>
    <i name="ewald"> 207358.10689431 </i>
    <i name="hartreedc">-258238.35278142 </i>
    <i name="XCdc">    955.00694591 </i>
    <i name="pawpsdc">  55348.20935725 </i>
    <i name="pawaedc"> -56439.17761943 </i>
    <i name="eentropy">      0.00598116 </i>
    <i name="bandstr">  -4150.66784578 </i>
    <i name="atom">  52799.98958613 </i>
    <i name="e_fr_energy">   -512.64807353 </i>
    <i name="e_wo_entrp">   -512.65405469 </i>
    <i name="e_0_energy">   -512.65006725 </i>
   </energy>
  </scstep>
  <structure>
   <crystal>
    <varray name="basis" >
     <v>       8.50970000       0.00000000       0.00000000 </v>
     <v>      -0.00372597       8.53929919       0.00000000 </v>
     <v>       0.00000000       0.00000000      23.57140000 </v>
    </varray>
    <i name="volume">   1712.85996128 </i>
    <varray name="rec_basis" >
     <v>       0.11751296       0.00005127       0.00000000 </v>
     <v>       0.00000000       0.11710563       0.00000000 </v>
     <v>       0.00000000       0.00000000       0.04242429 </v>
    </varray>
   </crystal>
   <varray name="positions" >
    <v>       0.83310000       0.49871000       0.06001000 </v>
    <v>       0.83472000       0.83192000       0.06027000 </v>
    <v>       0.66620395       0.65876600       0.35942343 </v>
    <v>       0.00081000       0.66425000       0.00034000 </v>
    <v>       0.15628782       0.82798810       0.29990847 </v>
    <v>       0.66016234       0.33627221       0.36029807 </v>
    <v>       0.66559000       0.33138000       0.00044000 </v>
    <v>       0.49968000       0.83322000       0.06046000 </v>
    <v>       0.66721000       0.33321000       0.24067000 </v>
    <v>       0.50058000       0.49950000       0.18024000 </v>
    <v>       0.33595000       0.33196000       0.11912000 </v>
    <v>       0.33462000       0.33376000       0.24059000 </v>
    <v>       0.49782991       0.50068227       0.30048299 </v>
    <v>       0.00055000       0.33190000       0.12006000 </v>
    <v>       0.16752000       0.49945000       0.18065000 </v>
    <v>       0.00021000       0.33145000       0.00038000 </v>
    <v>       0.33510000       0.33170000       0.00029000 </v>
    <v>       0.00882490       0.33318537       0.35982138 </v>
    <v>       0.00077000       0.99959000       0.12036000 </v>
    <v>       0.16814000       0.16634000       0.18048000 </v>
    <v>       0.33405000       0.66593000       0.12095000 </v>
    <v>       0.50078000       0.83242000       0.18121000 </v>
    <v>       0.99049149       0.66794346       0.35973695 </v>
    <v>       0.99982000       0.33359000       0.24030000 </v>
    <v>       0.00025000       0.66569000       0.12051000 </v>
    <v>       0.16581000       0.83217000       0.18114000 </v>
    <v>       0.66566000       0.33123000       0.11970000 </v>
    <v>       0.83235029       0.83723940       0.30196942 </v>
    <v>       0.16605191       0.49959756       0.30118640 </v>
    <v>       0.16620413       0.16866449       0.30173044 </v>
    <v>       0.00161000       0.99891000       0.00024000 </v>
    <v>       0.00562797       0.99845956       0.35990800 </v>
    <v>       0.16807000       0.16539000       0.06004000 </v>
    <v>       0.50689529       0.83264870       0.30220297 </v>
    <v>       0.83476000       0.83303000       0.18132000 </v>
    <v>       0.66715000       0.66559000       0.00000000 </v>
    <v>       0.66719000       0.66640000       0.12032000 </v>
    <v>       0.83302000       0.49937000       0.17995000 </v>
    <v>       0.16769000       0.83389000       0.06029000 </v>
    <v>       0.50137484       0.16683201       0.30237821 </v>
    <v>       0.33289000       0.99824000       0.24130000 </v>
    <v>       0.66679000       0.99914000       0.24097000 </v>
    <v>       0.33466000       0.00023000       0.12082000 </v>
    <v>       0.66746000       0.99815000       0.00001000 </v>
    <v>       0.83551716       0.16915522       0.30176196 </v>
    <v>       0.83358000       0.16456000       0.06013000 </v>
    <v>       0.67168130       0.00574619       0.36075125 </v>
    <v>       0.83364000       0.16593000       0.18062000 </v>
    <v>       0.66653000       0.99972000       0.12044000 </v>
    <v>       0.33555017       0.33182018       0.35957377 </v>
    <v>       0.33487000       0.00167000       0.00066000 </v>
    <v>       0.32828446       0.99577128       0.36126952 </v>
    <v>       0.00122000       0.00217000       0.24080000 </v>
    <v>       0.16722000       0.50179000       0.05903000 </v>
    <v>       0.50000000       0.50344000       0.05949000 </v>
    <v>       0.49861000       0.16115000       0.05868000 </v>
    <v>       0.49968000       0.16444000       0.18182000 </v>
    <v>       0.83463874       0.50475449       0.29945606 </v>
    <v>       0.99722000       0.66135000       0.24151000 </v>
    <v>       0.33419000       0.66573000       0.24040000 </v>
    <v>       0.33414000       0.65855000       0.00278000 </v>
    <v>       0.32981356       0.67067363       0.36802640 </v>
    <v>       0.66923000       0.66337000       0.24097000 </v>
    <v>       0.52679372       0.82997607       0.44396218 </v>
   </varray>
  </structure>
  <varray name="forces" >
   <v>       0.01648686       0.01155527      -0.42934458 </v>
   <v>      -0.03739545       0.02721989      -0.39109220 </v>
   <v>       0.23911222      -0.25952031       0.06799826 </v>
   <v>      -0.18331488       0.12969816       0.30967130 </v>
   <v>       0.35503726       0.13260678      -0.15898424 </v>
   <v>       0.02884855      -0.01357727       0.08931843 </v>
   <v>      -0.02605012      -0.09385340       0.24118649 </v>
   <v>       0.41074250       0.17473852      -0.12242487 </v>
   <v>      -0.12194990       0.01817902       0.01520954 </v>
   <v>      -0.02309050       0.00230455       0.02518624 </v>
   <v>      -0.08265419      -0.03401942       0.16840259 </v>
   <v>      -0.06450138      -0.06093559      -0.11285449 </v>
   <v>       0.03964182       0.03169984       0.05200749 </v>
   <v>      -0.02416732       0.04101042       0.20228382 </v>
   <v>       0.02203988      -0.00715918       0.03322202 </v>
   <v>      -0.08973254      -0.10847580       0.17752521 </v>
   <v>       0.04953545      -0.38426170       0.30661592 </v>
   <v>      -0.01064072       0.07296624       0.10215066 </v>
   <v>       0.09086659      -0.01694218       0.03937130 </v>
   <v>       0.04720214      -0.01487170      -0.01710262 </v>
   <v>       0.00412906       0.15478884       0.10996726 </v>
   <v>       0.00700430       0.02863935      -0.03123217 </v>
   <v>      -0.14213842      -0.07229905       0.12822577 </v>
   <v>       0.07793031       0.02885659      -0.07300593 </v>
   <v>      -0.03439719       0.02157874       0.24327713 </v>
   <v>      -0.05213415       0.07492531      -0.05603723 </v>
   <v>       0.06760016      -0.00868606       0.13608654 </v>
   <v>       0.04495398      -0.05401921      -0.05531604 </v>
   <v>       0.00288035      -0.00680626       0.07149895 </v>
   <v>      -0.03207100      -0.07047867      -0.20551985 </v>
   <v>       0.22453282       0.05265450       0.29388868 </v>
   <v>      -0.23049081       0.00715760       0.07103184 </v>
   <v>      -0.13322866       0.19322288      -0.46024013 </v>
   <v>      -0.23342391      -0.08875503      -0.14888746 </v>
   <v>      -0.01128976      -0.01155258       0.08416828 </v>
   <v>       0.14584722       0.14565945       0.36366483 </v>
   <v>       0.02222830       0.03791370       0.22950842 </v>
   <v>      -0.04880221      -0.01106520      -0.14020088 </v>
   <v>      -0.39901174       0.04654324      -0.06435409 </v>
   <v>      -0.04395879      -0.04758687      -0.27989533 </v>
   <v>       0.07430048      -0.06223011       0.17232950 </v>
   <v>       0.02931421       0.07305396       0.05146990 </v>
   <v>      -0.01491774      -0.05807020       0.12961348 </v>
   <v>      -0.22459981      -0.00832664       0.25257674 </v>
   <v>       0.00267194       0.04903049       0.07999429 </v>
   <v>      -0.02586687       0.01770262      -0.47405712 </v>
   <v>       0.17488840       0.23779219       0.00355717 </v>
   <v>      -0.02406477      -0.00653854       0.04815990 </v>
   <v>      -0.04312269      -0.06529395       0.04149749 </v>
   <v>       0.00506025       0.06585782       0.06299564 </v>
   <v>      -0.10664827      -0.04669521      -0.15246379 </v>
   <v>       0.11589144       0.01976586       0.42513378 </v>
   <v>      -0.07023266       0.00944585      -0.09854278 </v>
   <v>       0.05653393      -0.08366464      -0.18753275 </v>
   <v>       0.00960791      -0.14227044      -0.21177037 </v>
   <v>       0.40079938       0.45504931      -0.17514197 </v>
   <v>       0.00728292       0.03850893      -0.04350583 </v>
   <v>       0.03626482      -0.02086662      -0.10732190 </v>
   <v>      -0.12794226      -0.09447063      -0.22045877 </v>
   <v>       0.03929467       0.06310092       0.24134923 </v>
   <v>      -0.03380265      -0.43154063      -0.27220680 </v>
   <v>      -0.15293469      -0.23282292      -0.24374592 </v>
   <v>       0.05714313       0.02324664      -0.00895143 </v>
   <v>      -0.05709718       0.13118254      -0.12795255 </v>
  </varray>
  <varray name="stress" >
   <v>     -18.18532308       0.23311818       0.22817396 </v>
   <v>       0.23311769     -20.11844009       0.89247141 </v>
   <v>       0.22817440       0.89247191      -3.00129973 </v>
  </varray>
  <energy>
   <i name="e_fr_energy">   -512.64807353 </i>
   <i name="e_wo_entrp">   -512.65405469 </i>
   <i name="e_0_energy">   -512.65006725 </i>
  </energy>
  <time name="totalsc"> 1207.44 1215.38</time>
 </calculation>
 <calculation>
  <scstep>
   <time name="dav">   16.33   16.43</time>
   <time name="total">   17.31   17.41</time>
   <dipole>
    <v name="dipole">      0.00000000       0.00000000       0.06947668 </v>
    <i name="Tr[quadrupol]">  -7394.84025251 </i>
    <i name="Echarged">      0.00000000 </i>
    <i name="Edipol_quadrupol">      0.00000000 </i>
    <i name="Eion">      0.00000000 </i>
   </dipole>
   <energy>
    <i name="alphaZ">   1854.23323099 </i>
    <i name="ewald"> 207350.58140203 </i>
    <i name="hartreedc">-258231.32841965 </i>
    <i name="XCdc">    954.95392095 </i>
    <i name="pawpsdc">  55347.93061449 </i>
    <i name="pawaedc"> -56438.86612184 </i>
    <i name="eentropy">      0.00733088 </i>
    <i name="bandstr">  -4150.00581999 </i>
    <i name="atom">  52799.98958613 </i>
    <i name="e_fr_energy">   -512.50427602 </i>
    <i name="e_wo_entrp">   -512.51160690 </i>
    <i name="e_0_energy">   -512.50671965 </i>
   </energy>
  </scstep>
  <scstep>
   <time name="dav">   16.05   16.15</time>
   <time name="total">   17.00   17.11</time>
   <dipole>
    <v name="dipole">      0.00000000       0.00000000       0.05393646 </v>
    <i name="Tr[quadrupol]">  -7394.87120736 </i>
    <i name="Echarged">      0.00000000 </i>
    <i name="Edipol_quadrupol">      0.00000000 </i>
    <i name="Eion">      0.00000000 </i>
   </dipole>
   <energy>
    <i name="e_fr_energy">   -512.66994269 </i>
    <i name="e_wo_entrp">   -512.68358269 </i>
    <i name="e_0_energy">   -512.67448935 </i>
   </energy>
  </scstep>
  <scstep>
   <time name="dav">   23.83   23.99</time>
   <time name="total">   24.81   24.98</time>
   <dipole>
    <v name="dipole">      0.00000000       0.00000000       0.13456842 </v>
    <i name="Tr[quadrupol]">  -7394.93634947 </i>
    <i name="Echarged">      0.00000000 </i>
    <i name="Edipol_quadrupol">      0.00000000 </i>
    <i name="Eion">      0.00000000 </i>
   </dipole>
   <energy>
    <i name="e_fr_energy">   -512.82510309 </i>
    <i name="e_wo_entrp">   -512.81114186 </i>
    <i name="e_0_energy">   -512.82044935 </i>
   </energy>
  </scstep>
  <scstep>
   <time name="dav">   25.42   25.58</time>
   <time name="total">   26.40   26.58</time>
   <dipole>
    <v name="dipole">      0.00000000       0.00000000       0.06204146 </v>
    <i name="Tr[quadrupol]">  -7394.79867018 </i>
    <i name="Echarged">      0.00000000 </i>
    <i name="Edipol_quadrupol">      0.00000000 </i>
    <i name="Eion">      0.00000000 </i>
   </dipole>
   <energy>
    <i name="e_fr_energy">   -512.67312990 </i>
    <i name="e_wo_entrp">   -512.68456040 </i>
    <i name="e_0_energy">   -512.67694007 </i>
   </energy>
  </scstep>
  <scstep>
   <time name="dav">   24.75   24.91</time>
   <time name="total">   25.73   25.90</time>
   <dipole>
    <v name="dipole">      0.00000000       0.00000000       0.06893401 </v>
    <i name="Tr[quadrupol]">  -7394.95511600 </i>
    <i name="Echarged">      0.00000000 </i>
    <i name="Edipol_quadrupol">      0.00000000 </i>
    <i name="Eion">      0.00000000 </i>
   </dipole>
   <energy>
    <i name="e_fr_energy">   -512.68613730 </i>
    <i name="e_wo_entrp">   -512.69308084 </i>
    <i name="e_0_energy">   -512.68845182 </i>
   </energy>
  </scstep>
  <scstep>
   <time name="dav">   23.64   23.79</time>
   <time name="total">   24.62   24.78</time>
   <dipole>
    <v name="dipole">      0.00000000       0.00000000       0.07913931 </v>
    <i name="Tr[quadrupol]">  -7394.85167798 </i>
    <i name="Echarged">      0.00000000 </i>
    <i name="Edipol_quadrupol">      0.00000000 </i>
    <i name="Eion">      0.00000000 </i>
   </dipole>
   <energy>
    <i name="e_fr_energy">   -512.69458587 </i>
    <i name="e_wo_entrp">   -512.69931060 </i>
    <i name="e_0_energy">   -512.69616078 </i>
   </energy>
  </scstep>
  <scstep>
   <time name="dav">   23.20   23.35</time>
   <time name="total">   24.16   24.32</time>
   <dipole>
    <v name="dipole">      0.00000000       0.00000000       0.07074222 </v>
    <i name="Tr[quadrupol]">  -7394.87068729 </i>
    <i name="Echarged">      0.00000000 </i>
    <i name="Edipol_quadrupol">      0.00000000 </i>
    <i name="Eion">      0.00000000 </i>
   </dipole>
   <energy>
    <i name="e_fr_energy">   -512.69418690 </i>
    <i name="e_wo_entrp">   -512.70261839 </i>
    <i name="e_0_energy">   -512.69699739 </i>
   </energy>
  </scstep>
  <scstep>
   <time name="dav">   19.47   19.59</time>
   <time name="total">   20.43   20.56</time>
   <dipole>
    <v name="dipole">      0.00000000       0.00000000       0.07030083 </v>
    <i name="Tr[quadrupol]">  -7394.87330681 </i>
    <i name="Echarged">      0.00000000 </i>
    <i name="Edipol_quadrupol">      0.00000000 </i>
    <i name="Eion">      0.00000000 </i>
   </dipole>
   <energy>
    <i name="e_fr_energy">   -512.69430567 </i>
    <i name="e_wo_entrp">   -512.70271856 </i>
    <i name="e_0_energy">   -512.69710997 </i>
   </energy>
  </scstep>
  <scstep>
   <time name="dav">   21.43   21.57</time>
   <time name="total">   22.40   22.55</time>
   <dipole>
    <v name="dipole">      0.00000000       0.00000000       0.07008721 </v>
    <i name="Tr[quadrupol]">  -7394.87019935 </i>
    <i name="Echarged">      0.00000000 </i>
    <i name="Edipol_quadrupol">      0.00000000 </i>
    <i name="Eion">      0.00000000 </i>
   </dipole>
   <energy>
    <i name="e_fr_energy">   -512.69422217 </i>
    <i name="e_wo_entrp">   -512.70278756 </i>
    <i name="e_0_energy">   -512.69707730 </i>
   </energy>
  </scstep>
  <scstep>
   <time name="dav">   23.09   23.24</time>
   <time name="total">   24.06   24.22</time>
   <dipole>
    <v name="dipole">      0.00000000       0.00000000       0.06982064 </v>
    <i name="Tr[quadrupol]">  -7394.86865773 </i>
    <i name="Echarged">      0.00000000 </i>
    <i name="Edipol_quadrupol">      0.00000000 </i>
    <i name="Eion">      0.00000000 </i>
   </dipole>
   <energy>
    <i name="e_fr_energy">   -512.69402704 </i>
    <i name="e_wo_entrp">   -512.70243070 </i>
    <i name="e_0_energy">   -512.69682826 </i>
   </energy>
  </scstep>
  <scstep>
   <time name="dav">   22.86   23.01</time>
   <time name="total">   23.83   23.99</time>
   <dipole>
    <v name="dipole">      0.00000000       0.00000000       0.07048821 </v>
    <i name="Tr[quadrupol]">  -7394.84865180 </i>
    <i name="Echarged">      0.00000000 </i>
    <i name="Edipol_quadrupol">      0.00000000 </i>
    <i name="Eion">      0.00000000 </i>
   </dipole>
   <energy>
    <i name="e_fr_energy">   -512.69392046 </i>
    <i name="e_wo_entrp">   -512.70216257 </i>
    <i name="e_0_energy">   -512.69666783 </i>
   </energy>
  </scstep>
  <scstep>
   <time name="dav">   20.53   20.66</time>
   <time name="total">   21.47   21.62</time>
   <dipole>
    <v name="dipole">      0.00000000       0.00000000       0.07046162 </v>
    <i name="Tr[quadrupol]">  -7394.84135203 </i>
    <i name="Echarged">      0.00000000 </i>
    <i name="Edipol_quadrupol">      0.00000000 </i>
    <i name="Eion">      0.00000000 </i>
   </dipole>
   <energy>
    <i name="e_fr_energy">   -512.69391052 </i>
    <i name="e_wo_entrp">   -512.70204961 </i>
    <i name="e_0_energy">   -512.69662355 </i>
   </energy>
  </scstep>
  <scstep>
   <time name="dav">   16.02   16.12</time>
   <time name="total">   16.45   16.56</time>
   <dipole>
    <v name="dipole">      0.00000000       0.00000000       0.07076344 </v>
    <i name="Tr[quadrupol]">  -7394.84008486 </i>
    <i name="Echarged">      0.00000000 </i>
    <i name="Edipol_quadrupol">      0.00000000 </i>
    <i name="Eion">      0.00000000 </i>
   </dipole>
   <energy>
    <i name="alphaZ">   1854.54910016 </i>
    <i name="ewald"> 207350.58140203 </i>
    <i name="hartreedc">-258231.39530600 </i>
    <i name="XCdc">    955.02472887 </i>
    <i name="pawpsdc">  55339.11272324 </i>
    <i name="pawaedc"> -56429.99602824 </i>
    <i name="eentropy">      0.00815990 </i>
    <i name="bandstr">  -4150.56827921 </i>
    <i name="atom">  52799.98958613 </i>
    <i name="e_fr_energy">   -512.69391311 </i>
    <i name="e_wo_entrp">   -512.70207301 </i>
    <i name="e_0_energy">   -512.69663308 </i>
   </energy>
  </scstep>
  <structure>
   <crystal>
    <varray name="basis" >
     <v>       8.50970000       0.00000000       0.00000000 </v>
     <v>      -0.00372597       8.53929919       0.00000000 </v>
     <v>       0.00000000       0.00000000      23.57140000 </v>
    </varray>
    <i name="volume">   1712.85996128 </i>
    <varray name="rec_basis" >
     <v>       0.11751296       0.00005127       0.00000000 </v>
     <v>       0.00000000       0.11710563       0.00000000 </v>
     <v>       0.00000000       0.00000000       0.04242429 </v>
    </varray>
   </crystal>
   <varray name="positions" >
    <v>       0.83310000       0.49871000       0.06001000 </v>
    <v>       0.83472000       0.83192000       0.06027000 </v>
    <v>       0.66755886       0.65729984       0.35956260 </v>
    <v>       0.00081000       0.66425000       0.00034000 </v>
    <v>       0.15830091       0.82873726       0.29958308 </v>
    <v>       0.66032585       0.33619550       0.36048087 </v>
    <v>       0.66559000       0.33138000       0.00044000 </v>
    <v>       0.49968000       0.83322000       0.06046000 </v>
    <v>       0.66721000       0.33321000       0.24067000 </v>
    <v>       0.50058000       0.49950000       0.18024000 </v>
    <v>       0.33595000       0.33196000       0.11912000 </v>
    <v>       0.33462000       0.33376000       0.24059000 </v>
    <v>       0.49805472       0.50086136       0.30058943 </v>
    <v>       0.00055000       0.33190000       0.12006000 </v>
    <v>       0.16752000       0.49945000       0.18065000 </v>
    <v>       0.00021000       0.33145000       0.00038000 </v>
    <v>       0.33510000       0.33170000       0.00029000 </v>
    <v>       0.00876476       0.33359760       0.36003045 </v>
    <v>       0.00077000       0.99959000       0.12036000 </v>
    <v>       0.16814000       0.16634000       0.18048000 </v>
    <v>       0.33405000       0.66593000       0.12095000 </v>
    <v>       0.50078000       0.83242000       0.18121000 </v>
    <v>       0.98968551       0.66753500       0.35999938 </v>
    <v>       0.99982000       0.33359000       0.24030000 </v>
    <v>       0.00025000       0.66569000       0.12051000 </v>
    <v>       0.16581000       0.83217000       0.18114000 </v>
    <v>       0.66566000       0.33123000       0.11970000 </v>
    <v>       0.83260501       0.83693422       0.30185621 </v>
    <v>       0.16606823       0.49955910       0.30133273 </v>
    <v>       0.16602214       0.16826632       0.30130981 </v>
    <v>       0.00161000       0.99891000       0.00024000 </v>
    <v>       0.00432130       0.99849999       0.36005337 </v>
    <v>       0.16807000       0.16539000       0.06004000 </v>
    <v>       0.50557176       0.83214728       0.30189825 </v>
    <v>       0.83476000       0.83303000       0.18132000 </v>
    <v>       0.66715000       0.66559000       0.00000000 </v>
    <v>       0.66719000       0.66640000       0.12032000 </v>
    <v>       0.83302000       0.49937000       0.17995000 </v>
    <v>       0.16769000       0.83389000       0.06029000 </v>
    <v>       0.50112551       0.16656317       0.30180536 </v>
    <v>       0.33289000       0.99824000       0.24130000 </v>
    <v>       0.66679000       0.99914000       0.24097000 </v>
    <v>       0.33466000       0.00023000       0.12082000 </v>
    <v>       0.66746000       0.99815000       0.00001000 </v>
    <v>       0.83553243       0.16943222       0.30192568 </v>
    <v>       0.83358000       0.16456000       0.06013000 </v>
    <v>       0.67267336       0.00708959       0.36075854 </v>
    <v>       0.83364000       0.16593000       0.18062000 </v>
    <v>       0.66653000       0.99972000       0.12044000 </v>
    <v>       0.33557902       0.33219224       0.35970270 </v>
    <v>       0.33487000       0.00167000       0.00066000 </v>
    <v>       0.32894151       0.99588295       0.36213963 </v>
    <v>       0.00122000       0.00217000       0.24080000 </v>
    <v>       0.16722000       0.50179000       0.05903000 </v>
    <v>       0.50000000       0.50344000       0.05949000 </v>
    <v>       0.49861000       0.16115000       0.05868000 </v>
    <v>       0.49968000       0.16444000       0.18182000 </v>
    <v>       0.83484428       0.50463660       0.29923641 </v>
    <v>       0.99722000       0.66135000       0.24151000 </v>
    <v>       0.33419000       0.66573000       0.24040000 </v>
    <v>       0.33414000       0.65855000       0.00278000 </v>
    <v>       0.32894598       0.66935830       0.36752753 </v>
    <v>       0.66923000       0.66337000       0.24097000 </v>
    <v>       0.52647035       0.83071718       0.44370030 </v>
   </varray>
  </structure>
  <varray name="forces" >
   <v>       0.01747614       0.01072633      -0.43497134 </v>
   <v>      -0.03771149       0.02453205      -0.39586795 </v>
   <v>       0.18650608      -0.19405267       0.05873157 </v>
   <v>      -0.18609429       0.13130754       0.31222800 </v>
   <v>       0.18372933       0.08761614      -0.08682126 </v>
   <v>       0.00232782      -0.03458070       0.07531497 </v>
   <v>      -0.02614820      -0.09281727       0.24460487 </v>
   <v>       0.41139236       0.17414815      -0.12615102 </v>
   <v>      -0.12300900       0.02464502       0.01110513 </v>
   <v>      -0.02128841       0.00056010       0.02082290 </v>
   <v>      -0.08606263      -0.03565985       0.17288649 </v>
   <v>      -0.07490441      -0.03888636      -0.11421612 </v>
   <v>       0.03961108      -0.01086104       0.02027997 </v>
   <v>      -0.02353999       0.04507635       0.20611220 </v>
   <v>       0.02154786      -0.01282894       0.02813416 </v>
   <v>      -0.08696634      -0.10508211       0.18259486 </v>
   <v>       0.04850740      -0.38618941       0.30670060 </v>
   <v>       0.03197296       0.05474123       0.06994464 </v>
   <v>       0.09261112      -0.01769043       0.04226046 </v>
   <v>       0.04513601      -0.01094221      -0.04090976 </v>
   <v>       0.00338316       0.15688402       0.11699894 </v>
   <v>       0.00945511       0.02272790      -0.05603114 </v>
   <v>      -0.10479602      -0.03522864       0.07759526 </v>
   <v>       0.08391310       0.03135685      -0.07993377 </v>
   <v>      -0.03491738       0.02398119       0.24830986 </v>
   <v>      -0.05939291       0.07114291      -0.07953726 </v>
   <v>       0.06722762      -0.00668627       0.14157568 </v>
   <v>       0.02351048      -0.03766976      -0.03280759 </v>
   <v>      -0.02529050      -0.02889810       0.02620663 </v>
   <v>      -0.03495569      -0.03218925      -0.08255667 </v>
   <v>       0.22736257       0.05113406       0.29577180 </v>
   <v>      -0.18186948      -0.01615205       0.03044388 </v>
   <v>      -0.13395741       0.19448018      -0.46418743 </v>
   <v>      -0.10656562      -0.07030716      -0.07300962 </v>
   <v>      -0.01347778      -0.01606715       0.07588039 </v>
   <v>       0.14711833       0.14848993       0.36675288 </v>
   <v>       0.02367638       0.03916372       0.23434721 </v>
   <v>      -0.04671407      -0.01634649      -0.15651709 </v>
   <v>      -0.40038172       0.04488727      -0.06762301 </v>
   <v>      -0.01822575      -0.00822492      -0.15049977 </v>
   <v>       0.08715862      -0.05648307       0.15660460 </v>
   <v>       0.02905802       0.05350765       0.05827348 </v>
   <v>      -0.01500252      -0.05621114       0.13844686 </v>
   <v>      -0.22670333      -0.00954194       0.25421995 </v>
   <v>       0.01566744       0.05580427       0.02978302 </v>
   <v>      -0.02630766       0.01618141      -0.47459867 </v>
   <v>       0.11027904       0.19086926      -0.01431150 </v>
   <v>      -0.02347521      -0.00861534       0.05359669 </v>
   <v>      -0.04504683      -0.06631205       0.04418252 </v>
   <v>       0.00936834       0.03356204       0.01509258 </v>
   <v>      -0.10572717      -0.04628466      -0.14926840 </v>
   <v>       0.08577307       0.03949924       0.35715028 </v>
   <v>      -0.06795850       0.00482622      -0.09412310 </v>
   <v>       0.05573196      -0.08494496      -0.19140743 </v>
   <v>       0.01138664      -0.14148042      -0.21236868 </v>
   <v>       0.40037683       0.45369274      -0.18099484 </v>
   <v>       0.01056171       0.03902243      -0.06863526 </v>
   <v>       0.03899272      -0.03619492      -0.08378060 </v>
   <v>      -0.09513584      -0.07962212      -0.19410299 </v>
   <v>       0.03508986       0.05271375       0.24286412 </v>
   <v>      -0.03438247      -0.42881279      -0.27161436 </v>
   <v>      -0.09533517      -0.16695245      -0.18049755 </v>
   <v>       0.04587038       0.02715426      -0.00242909 </v>
   <v>      -0.04043577       0.08438243      -0.15604415 </v>
  </varray>
  <varray name="stress" >
   <v>     -18.71830295       0.19766764       0.27093134 </v>
   <v>       0.19766805     -20.47669793       0.80666579 </v>
   <v>       0.27093155       0.80666563      -3.26382313 </v>
  </varray>
  <energy>
   <i name="e_fr_energy">   -512.69391311 </i>
   <i name="e_wo_entrp">   -512.70207301 </i>
   <i name="e_0_energy">   -512.69663308 </i>
  </energy>
  <time name="totalsc">  305.67  307.66</time>
 </calculation>
 <calculation>
  <scstep>
   <time name="dav">   16.40   16.50</time>
   <time name="total">   17.35   17.46</time>
   <dipole>
    <v name="dipole">      0.00000000       0.00000000       0.07065410 </v>
    <i name="Tr[quadrupol]">  -7398.92596560 </i>
    <i name="Echarged">      0.00000000 </i>
    <i name="Edipol_quadrupol">      0.00000000 </i>
    <i name="Eion">      0.00000000 </i>
   </dipole>
   <energy>
    <i name="alphaZ">   1854.54859131 </i>
    <i name="ewald"> 207336.38717320 </i>
    <i name="hartreedc">-258218.12500582 </i>
    <i name="XCdc">    955.00076323 </i>
    <i name="pawpsdc">  55338.04071022 </i>
    <i name="pawaedc"> -56428.92143364 </i>
    <i name="eentropy">      0.00940376 </i>
    <i name="bandstr">  -4148.82891871 </i>
    <i name="atom">  52799.98958613 </i>
    <i name="e_fr_energy">   -511.89913032 </i>
    <i name="e_wo_entrp">   -511.90853407 </i>
    <i name="e_0_energy">   -511.90226490 </i>
   </energy>
  </scstep>
  <scstep>
   <time name="dav">   16.02   16.13</time>
   <time name="total">   17.00   17.12</time>
   <dipole>
    <v name="dipole">      0.00000000       0.00000000       0.03712716 </v>
    <i name="Tr[quadrupol]">  -7398.98493162 </i>
    <i name="Echarged">      0.00000000 </i>
    <i name="Edipol_quadrupol">      0.00000000 </i>
    <i name="Eion">      0.00000000 </i>
   </dipole>
   <energy>
    <i name="e_fr_energy">   -512.62615793 </i>
    <i name="e_wo_entrp">   -512.65003557 </i>
    <i name="e_0_energy">   -512.63411714 </i>
   </energy>
  </scstep>
  <scstep>
   <time name="dav">   25.09   25.25</time>
   <time name="total">   26.07   26.24</time>
   <dipole>
    <v name="dipole">      0.00000000       0.00000000       0.22474323 </v>
    <i name="Tr[quadrupol]">  -7399.20874035 </i>
    <i name="Echarged">      0.00000000 </i>
    <i name="Edipol_quadrupol">      0.00000000 </i>
    <i name="Eion">      0.00000000 </i>
   </dipole>
   <energy>
    <i name="e_fr_energy">   -513.48127288 </i>
    <i name="e_wo_entrp">   -513.46682651 </i>
    <i name="e_0_energy">   -513.47645743 </i>
   </energy>
  </scstep>
  <scstep>
   <time name="dav">   25.78   25.95</time>
   <time name="total">   26.75   26.92</time>
   <dipole>
    <v name="dipole">      0.00000000       0.00000000       0.05468429 </v>
    <i name="Tr[quadrupol]">  -7398.76262181 </i>
    <i name="Echarged">      0.00000000 </i>
    <i name="Edipol_quadrupol">      0.00000000 </i>
    <i name="Eion">      0.00000000 </i>
   </dipole>
   <energy>
    <i name="e_fr_energy">   -512.64185411 </i>
    <i name="e_wo_entrp">   -512.66191068 </i>
    <i name="e_0_energy">   -512.64853963 </i>
   </energy>
  </scstep>
  <scstep>
   <time name="dav">   24.91   25.07</time>
   <time name="total">   25.86   26.03</time>
   <dipole>
    <v name="dipole">      0.00000000       0.00000000       0.06320146 </v>
    <i name="Tr[quadrupol]">  -7399.11753731 </i>
    <i name="Echarged">      0.00000000 </i>
    <i name="Edipol_quadrupol">      0.00000000 </i>
    <i name="Eion">      0.00000000 </i>
   </dipole>
   <energy>
    <i name="e_fr_energy">   -512.68699979 </i>
    <i name="e_wo_entrp">   -512.69862984 </i>
    <i name="e_0_energy">   -512.69087647 </i>
   </energy>
  </scstep>
  <scstep>
   <time name="dav">   23.25   23.41</time>
   <time name="total">   24.22   24.39</time>
   <dipole>
    <v name="dipole">      0.00000000       0.00000000       0.08372931 </v>
    <i name="Tr[quadrupol]">  -7398.95041151 </i>
    <i name="Echarged">      0.00000000 </i>
    <i name="Edipol_quadrupol">      0.00000000 </i>
    <i name="Eion">      0.00000000 </i>
   </dipole>
   <energy>
    <i name="e_fr_energy">   -512.71451254 </i>
    <i name="e_wo_entrp">   -512.72019423 </i>
    <i name="e_0_energy">   -512.71640644 </i>
   </energy>
  </scstep>
  <scstep>
   <time name="dav">   22.53   22.68</time>
   <time name="total">   23.49   23.65</time>
   <dipole>
    <v name="dipole">      0.00000000       0.00000000       0.07564942 </v>
    <i name="Tr[quadrupol]">  -7399.01412962 </i>
    <i name="Echarged">      0.00000000 </i>
    <i name="Edipol_quadrupol">      0.00000000 </i>
    <i name="Eion">      0.00000000 </i>
   </dipole>
   <energy>
    <i name="e_fr_energy">   -512.73057508 </i>
    <i name="e_wo_entrp">   -512.74075353 </i>
    <i name="e_0_energy">   -512.73396789 </i>
   </energy>
  </scstep>
  <scstep>
   <time name="dav">   22.22   22.36</time>
   <time name="total">   23.20   23.34</time>
   <dipole>
    <v name="dipole">      0.00000000       0.00000000       0.07518929 </v>
    <i name="Tr[quadrupol]">  -7399.01169495 </i>
    <i name="Echarged">      0.00000000 </i>
    <i name="Edipol_quadrupol">      0.00000000 </i>
    <i name="Eion">      0.00000000 </i>
   </dipole>
   <energy>
    <i name="e_fr_energy">   -512.73062737 </i>
    <i name="e_wo_entrp">   -512.74070042 </i>
    <i name="e_0_energy">   -512.73398505 </i>
   </energy>
  </scstep>
  <scstep>
   <time name="dav">   21.76   21.90</time>
   <time name="total">   22.73   22.88</time>
   <dipole>
    <v name="dipole">      0.00000000       0.00000000       0.07286945 </v>
    <i name="Tr[quadrupol]">  -7398.99613030 </i>
    <i name="Echarged">      0.00000000 </i>
    <i name="Edipol_quadrupol">      0.00000000 </i>
    <i name="Eion">      0.00000000 </i>
   </dipole>
   <energy>
    <i name="e_fr_energy">   -512.73040176 </i>
    <i name="e_wo_entrp">   -512.74179739 </i>
    <i name="e_0_energy">   -512.73420030 </i>
   </energy>
  </scstep>
  <scstep>
   <time name="dav">   23.05   23.19</time>
   <time name="total">   24.02   24.16</time>
   <dipole>
    <v name="dipole">      0.00000000       0.00000000       0.07143515 </v>
    <i name="Tr[quadrupol]">  -7398.98895974 </i>
    <i name="Echarged">      0.00000000 </i>
    <i name="Edipol_quadrupol">      0.00000000 </i>
    <i name="Eion">      0.00000000 </i>
   </dipole>
   <energy>
    <i name="e_fr_energy">   -512.73011352 </i>
    <i name="e_wo_entrp">   -512.74189391 </i>
    <i name="e_0_energy">   -512.73404031 </i>
   </energy>
  </scstep>
  <scstep>
   <time name="dav">   23.10   23.24</time>
   <time name="total">   24.07   24.23</time>
   <dipole>
    <v name="dipole">      0.00000000       0.00000000       0.07246739 </v>
    <i name="Tr[quadrupol]">  -7398.95494881 </i>
    <i name="Echarged">      0.00000000 </i>
    <i name="Edipol_quadrupol">      0.00000000 </i>
    <i name="Eion">      0.00000000 </i>
   </dipole>
   <energy>
    <i name="e_fr_energy">   -512.72926195 </i>
    <i name="e_wo_entrp">   -512.74075346 </i>
    <i name="e_0_energy">   -512.73309245 </i>
   </energy>
  </scstep>
  <scstep>
   <time name="dav">   23.22   23.37</time>
   <time name="total">   24.20   24.36</time>
   <dipole>
    <v name="dipole">      0.00000000       0.00000000       0.07343548 </v>
    <i name="Tr[quadrupol]">  -7398.94013754 </i>
    <i name="Echarged">      0.00000000 </i>
    <i name="Edipol_quadrupol">      0.00000000 </i>
    <i name="Eion">      0.00000000 </i>
   </dipole>
   <energy>
    <i name="e_fr_energy">   -512.72888122 </i>
    <i name="e_wo_entrp">   -512.73944899 </i>
    <i name="e_0_energy">   -512.73240381 </i>
   </energy>
  </scstep>
  <scstep>
   <time name="dav">   20.83   20.97</time>
   <time name="total">   21.80   21.95</time>
   <dipole>
    <v name="dipole">      0.00000000       0.00000000       0.07372969 </v>
    <i name="Tr[quadrupol]">  -7398.93843662 </i>
    <i name="Echarged">      0.00000000 </i>
    <i name="Edipol_quadrupol">      0.00000000 </i>
    <i name="Eion">      0.00000000 </i>
   </dipole>
   <energy>
    <i name="e_fr_energy">   -512.72886809 </i>
    <i name="e_wo_entrp">   -512.73952564 </i>
    <i name="e_0_energy">   -512.73242061 </i>
   </energy>
  </scstep>
  <scstep>
   <time name="dav">   21.89   22.03</time>
   <time name="total">   22.85   23.00</time>
   <dipole>
    <v name="dipole">      0.00000000       0.00000000       0.07365559 </v>
    <i name="Tr[quadrupol]">  -7398.91891287 </i>
    <i name="Echarged">      0.00000000 </i>
    <i name="Edipol_quadrupol">      0.00000000 </i>
    <i name="Eion">      0.00000000 </i>
   </dipole>
   <energy>
    <i name="e_fr_energy">   -512.72891180 </i>
    <i name="e_wo_entrp">   -512.73988628 </i>
    <i name="e_0_energy">   -512.73256996 </i>
   </energy>
  </scstep>
  <scstep>
   <time name="dav">   18.47   18.59</time>
   <time name="total">   19.45   19.58</time>
   <dipole>
    <v name="dipole">      0.00000000       0.00000000       0.07405296 </v>
    <i name="Tr[quadrupol]">  -7398.91488156 </i>
    <i name="Echarged">      0.00000000 </i>
    <i name="Edipol_quadrupol">      0.00000000 </i>
    <i name="Eion">      0.00000000 </i>
   </dipole>
   <energy>
    <i name="e_fr_energy">   -512.72894573 </i>
    <i name="e_wo_entrp">   -512.73974565 </i>
    <i name="e_0_energy">   -512.73254571 </i>
   </energy>
  </scstep>
  <scstep>
   <time name="dav">   11.64   11.72</time>
   <time name="total">   12.61   12.69</time>
   <dipole>
    <v name="dipole">      0.00000000       0.00000000       0.07345478 </v>
    <i name="Tr[quadrupol]">  -7398.90364504 </i>
    <i name="Echarged">      0.00000000 </i>
    <i name="Edipol_quadrupol">      0.00000000 </i>
    <i name="Eion">      0.00000000 </i>
   </dipole>
   <energy>
    <i name="e_fr_energy">   -512.72895694 </i>
    <i name="e_wo_entrp">   -512.74001164 </i>
    <i name="e_0_energy">   -512.73264184 </i>
   </energy>
  </scstep>
  <scstep>
   <time name="dav">   20.19   20.31</time>
   <time name="total">   21.17   21.30</time>
   <dipole>
    <v name="dipole">      0.00000000       0.00000000       0.07314594 </v>
    <i name="Tr[quadrupol]">  -7398.90085664 </i>
    <i name="Echarged">      0.00000000 </i>
    <i name="Edipol_quadrupol">      0.00000000 </i>
    <i name="Eion">      0.00000000 </i>
   </dipole>
   <energy>
    <i name="e_fr_energy">   -512.72896564 </i>
    <i name="e_wo_entrp">   -512.73980231 </i>
    <i name="e_0_energy">   -512.73257786 </i>
   </energy>
  </scstep>
  <scstep>
   <time name="dav">   14.12   14.22</time>
   <time name="total">   14.56   14.65</time>
   <dipole>
    <v name="dipole">      0.00000000       0.00000000       0.07348805 </v>
    <i name="Tr[quadrupol]">  -7398.90159160 </i>
    <i name="Echarged">      0.00000000 </i>
    <i name="Edipol_quadrupol">      0.00000000 </i>
    <i name="Eion">      0.00000000 </i>
   </dipole>
   <energy>
    <i name="alphaZ">   1854.59791438 </i>
    <i name="ewald"> 207336.38717320 </i>
    <i name="hartreedc">-258217.67661372 </i>
    <i name="XCdc">    954.96312512 </i>
    <i name="pawpsdc">  55317.80955067 </i>
    <i name="pawaedc"> -56408.48561207 </i>
    <i name="eentropy">      0.01057877 </i>
    <i name="bandstr">  -4150.32467515 </i>
    <i name="atom">  52799.98958613 </i>
    <i name="e_fr_energy">   -512.72897267 </i>
    <i name="e_wo_entrp">   -512.73955144 </i>
    <i name="e_0_energy">   -512.73249893 </i>
   </energy>
  </scstep>
  <structure>
   <crystal>
    <varray name="basis" >
     <v>       8.50970000       0.00000000       0.00000000 </v>
     <v>      -0.00372597       8.53929919       0.00000000 </v>
     <v>       0.00000000       0.00000000      23.57140000 </v>
    </varray>
    <i name="volume">   1712.85996128 </i>
    <varray name="rec_basis" >
     <v>       0.11751296       0.00005127       0.00000000 </v>
     <v>       0.00000000       0.11710563       0.00000000 </v>
     <v>       0.00000000       0.00000000       0.04242429 </v>
    </varray>
   </crystal>
   <varray name="positions" >
    <v>       0.83310000       0.49871000       0.06001000 </v>
    <v>       0.83472000       0.83192000       0.06027000 </v>
    <v>       0.67037316       0.65425449       0.35985166 </v>
    <v>       0.00081000       0.66425000       0.00034000 </v>
    <v>       0.16248228       0.83029334       0.29890722 </v>
    <v>       0.66066548       0.33603618       0.36086058 </v>
    <v>       0.66559000       0.33138000       0.00044000 </v>
    <v>       0.49968000       0.83322000       0.06046000 </v>
    <v>       0.66721000       0.33321000       0.24067000 </v>
    <v>       0.50058000       0.49950000       0.18024000 </v>
    <v>       0.33595000       0.33196000       0.11912000 </v>
    <v>       0.33462000       0.33376000       0.24059000 </v>
    <v>       0.49852168       0.50123334       0.30081052 </v>
    <v>       0.00055000       0.33190000       0.12006000 </v>
    <v>       0.16752000       0.49945000       0.18065000 </v>
    <v>       0.00021000       0.33145000       0.00038000 </v>
    <v>       0.33510000       0.33170000       0.00029000 </v>
    <v>       0.00863983       0.33445382       0.36046470 </v>
    <v>       0.00077000       0.99959000       0.12036000 </v>
    <v>       0.16814000       0.16634000       0.18048000 </v>
    <v>       0.33405000       0.66593000       0.12095000 </v>
    <v>       0.50078000       0.83242000       0.18121000 </v>
    <v>       0.98801141       0.66668661       0.36054449 </v>
    <v>       0.99982000       0.33359000       0.24030000 </v>
    <v>       0.00025000       0.66569000       0.12051000 </v>
    <v>       0.16581000       0.83217000       0.18114000 </v>
    <v>       0.66566000       0.33123000       0.11970000 </v>
    <v>       0.83313408       0.83630033       0.30162105 </v>
    <v>       0.16610211       0.49947924       0.30163668 </v>
    <v>       0.16564413       0.16743929       0.30043612 </v>
    <v>       0.00161000       0.99891000       0.00024000 </v>
    <v>       0.00160722       0.99858399       0.36035534 </v>
    <v>       0.16807000       0.16539000       0.06004000 </v>
    <v>       0.50282265       0.83110578       0.30126531 </v>
    <v>       0.83476000       0.83303000       0.18132000 </v>
    <v>       0.66715000       0.66559000       0.00000000 </v>
    <v>       0.66719000       0.66640000       0.12032000 </v>
    <v>       0.83302000       0.49937000       0.17995000 </v>
    <v>       0.16769000       0.83389000       0.06029000 </v>
    <v>       0.50060764       0.16600476       0.30061549 </v>
    <v>       0.33289000       0.99824000       0.24130000 </v>
    <v>       0.66679000       0.99914000       0.24097000 </v>
    <v>       0.33466000       0.00023000       0.12082000 </v>
    <v>       0.66746000       0.99815000       0.00001000 </v>
    <v>       0.83556415       0.17000757       0.30226574 </v>
    <v>       0.83358000       0.16456000       0.06013000 </v>
    <v>       0.67473395       0.00987998       0.36077366 </v>
    <v>       0.83364000       0.16593000       0.18062000 </v>
    <v>       0.66653000       0.99972000       0.12044000 </v>
    <v>       0.33563895       0.33296506       0.35997050 </v>
    <v>       0.33487000       0.00167000       0.00066000 </v>
    <v>       0.33030628       0.99611489       0.36394692 </v>
    <v>       0.00122000       0.00217000       0.24080000 </v>
    <v>       0.16722000       0.50179000       0.05903000 </v>
    <v>       0.50000000       0.50344000       0.05949000 </v>
    <v>       0.49861000       0.16115000       0.05868000 </v>
    <v>       0.49968000       0.16444000       0.18182000 </v>
    <v>       0.83527120       0.50439174       0.29878017 </v>
    <v>       0.99722000       0.66135000       0.24151000 </v>
    <v>       0.33419000       0.66573000       0.24040000 </v>
    <v>       0.33414000       0.65855000       0.00278000 </v>
    <v>       0.32714392       0.66662623       0.36649134 </v>
    <v>       0.66923000       0.66337000       0.24097000 </v>
    <v>       0.52579868       0.83225655       0.44315636 </v>
   </varray>
  </structure>
  <varray name="forces" >
   <v>       0.01813474       0.00602172      -0.44247956 </v>
   <v>      -0.03799549       0.02025684      -0.40089315 </v>
   <v>       0.08489399      -0.05920817       0.04534917 </v>
   <v>      -0.18981847       0.13391713       0.31447261 </v>
   <v>      -0.17606733      -0.00783878       0.07132566 </v>
   <v>      -0.03436317      -0.07240193       0.04484154 </v>
   <v>      -0.02492793      -0.08999396       0.25099092 </v>
   <v>       0.41408724       0.17419557      -0.12953539 </v>
   <v>      -0.12289301       0.03755529      -0.00157982 </v>
   <v>      -0.01538257      -0.00371219       0.01192774 </v>
   <v>      -0.09020461      -0.04171240       0.18082127 </v>
   <v>      -0.09660606       0.00618231      -0.12190499 </v>
   <v>       0.03516086      -0.09912729      -0.04541831 </v>
   <v>      -0.02344842       0.05168154       0.21316379 </v>
   <v>       0.01992955      -0.02533015       0.01929052 </v>
   <v>      -0.08288206      -0.09977584       0.18907161 </v>
   <v>       0.04909886      -0.39250023       0.30885827 </v>
   <v>       0.09917946       0.01803576       0.00789611 </v>
   <v>       0.09650464      -0.01933919       0.04719108 </v>
   <v>       0.04137803      -0.00178166      -0.09098799 </v>
   <v>       0.00320523       0.16024432       0.13025441 </v>
   <v>       0.01661665       0.01159926      -0.10421653 </v>
   <v>      -0.03727832       0.03054149      -0.01408660 </v>
   <v>       0.09408152       0.03591588      -0.09912286 </v>
   <v>      -0.03637694       0.02907473       0.25845398 </v>
   <v>      -0.07598099       0.06241149      -0.12368891 </v>
   <v>       0.06446203      -0.00702504       0.14917462 </v>
   <v>      -0.01743401       0.00372321       0.01787308 </v>
   <v>      -0.08246405      -0.07672000      -0.07865639 </v>
   <v>      -0.02247114       0.03881097       0.18715914 </v>
   <v>       0.23284477       0.04951403       0.29730053 </v>
   <v>      -0.06476125      -0.06328082      -0.05386773 </v>
   <v>      -0.13561113       0.19696273      -0.46984238 </v>
   <v>       0.14012948      -0.01548677       0.08660330 </v>
   <v>      -0.01939779      -0.02491518       0.05761379 </v>
   <v>       0.14821153       0.15168947       0.37022932 </v>
   <v>       0.02748776       0.04247237       0.24413659 </v>
   <v>      -0.04107561      -0.02550847      -0.18823808 </v>
   <v>      -0.40287898       0.04304833      -0.07037469 </v>
   <v>       0.02725516       0.06379062       0.14842442 </v>
   <v>       0.11757451      -0.04071994       0.10744291 </v>
   <v>       0.03231752       0.01101947       0.06849736 </v>
   <v>      -0.01274835      -0.04918721       0.15678107 </v>
   <v>      -0.23214901      -0.00955091       0.25807514 </v>
   <v>       0.04398444       0.07101914      -0.08595345 </v>
   <v>      -0.02718928       0.01502867      -0.47348280 </v>
   <v>      -0.03838291       0.07974714      -0.04042543 </v>
   <v>      -0.02267422      -0.01368524       0.06425472 </v>
   <v>      -0.04875559      -0.06796418       0.04946712 </v>
   <v>       0.01830836      -0.03893311      -0.08577692 </v>
   <v>      -0.10998597      -0.05003999      -0.14867125 </v>
   <v>       0.00243462       0.09238018       0.14670485 </v>
   <v>      -0.06588190      -0.00538260      -0.08468204 </v>
   <v>       0.05119004      -0.08995434      -0.19829744 </v>
   <v>       0.01832653      -0.14205922      -0.21246133 </v>
   <v>       0.40794299       0.45751943      -0.18318466 </v>
   <v>       0.01926638       0.04005037      -0.12349396 </v>
   <v>       0.04132882      -0.06921876      -0.01976548 </v>
   <v>      -0.02569098      -0.05081115      -0.14163036 </v>
   <v>       0.02542166       0.02601220       0.23481186 </v>
   <v>      -0.03509350      -0.42632145      -0.27147131 </v>
   <v>       0.02841496       0.00361150      -0.04868807 </v>
   <v>       0.01972949       0.03536996       0.01168160 </v>
   <v>       0.00996926      -0.01991697      -0.19726221 </v>
  </varray>
  <varray name="stress" >
   <v>     -19.24999388       0.13413197       0.40161945 </v>
   <v>       0.13413181     -20.81102283       0.67869177 </v>
   <v>       0.40161925       0.67869168      -3.36379988 </v>
  </varray>
  <energy>
   <i name="e_fr_energy">   -512.72897267 </i>
   <i name="e_wo_entrp">   -512.73955144 </i>
   <i name="e_0_energy">   -512.73249893 </i>
  </energy>
  <time name="totalsc">  408.38  411.03</time>
 </calculation>
 <calculation>
  <scstep>
   <time name="dav">   16.42   16.53</time>
   <time name="total">   17.41   17.52</time>
   <dipole>
    <v name="dipole">      0.00000000       0.00000000       0.07352591 </v>
    <i name="Tr[quadrupol]">  -7399.50182428 </i>
    <i name="Echarged">      0.00000000 </i>
    <i name="Edipol_quadrupol">      0.00000000 </i>
    <i name="Eion">      0.00000000 </i>
   </dipole>
   <energy>
    <i name="alphaZ">   1854.59899682 </i>
    <i name="ewald"> 207350.28132071 </i>
    <i name="hartreedc">-258231.57481724 </i>
    <i name="XCdc">    954.97531573 </i>
    <i name="pawpsdc">  55317.70394306 </i>
    <i name="pawaedc"> -56408.37993461 </i>
    <i name="eentropy">      0.01085835 </i>
    <i name="bandstr">  -4150.21009186 </i>
    <i name="atom">  52799.98958613 </i>
    <i name="e_fr_energy">   -512.60482290 </i>
    <i name="e_wo_entrp">   -512.61568125 </i>
    <i name="e_0_energy">   -512.60844235 </i>
   </energy>
  </scstep>
  <scstep>
   <time name="dav">   16.17   16.27</time>
   <time name="total">   17.10   17.21</time>
   <dipole>
    <v name="dipole">      0.00000000       0.00000000       0.08875253 </v>
    <i name="Tr[quadrupol]">  -7399.47886533 </i>
    <i name="Echarged">      0.00000000 </i>
    <i name="Edipol_quadrupol">      0.00000000 </i>
    <i name="Eion">      0.00000000 </i>
   </dipole>
   <energy>
    <i name="e_fr_energy">   -512.72920832 </i>
    <i name="e_wo_entrp">   -512.73472210 </i>
    <i name="e_0_energy">   -512.73104625 </i>
   </energy>
  </scstep>
  <scstep>
   <time name="dav">   23.59   23.74</time>
   <time name="total">   24.55   24.71</time>
   <dipole>
    <v name="dipole">      0.00000000       0.00000000       0.02093760 </v>
    <i name="Tr[quadrupol]">  -7399.43622397 </i>
    <i name="Echarged">      0.00000000 </i>
    <i name="Edipol_quadrupol">      0.00000000 </i>
    <i name="Eion">      0.00000000 </i>
   </dipole>
   <energy>
    <i name="e_fr_energy">   -512.83617776 </i>
    <i name="e_wo_entrp">   -512.87165899 </i>
    <i name="e_0_energy">   -512.84800484 </i>
   </energy>
  </scstep>
  <scstep>
   <time name="dav">   25.54   25.71</time>
   <time name="total">   26.51   26.69</time>
   <dipole>
    <v name="dipole">      0.00000000       0.00000000       0.08135239 </v>
    <i name="Tr[quadrupol]">  -7399.49469182 </i>
    <i name="Echarged">      0.00000000 </i>
    <i name="Edipol_quadrupol">      0.00000000 </i>
    <i name="Eion">      0.00000000 </i>
   </dipole>
   <energy>
    <i name="e_fr_energy">   -512.73166309 </i>
    <i name="e_wo_entrp">   -512.73999559 </i>
    <i name="e_0_energy">   -512.73444059 </i>
   </energy>
  </scstep>
  <scstep>
   <time name="dav">   24.48   24.63</time>
   <time name="total">   25.42   25.58</time>
   <dipole>
    <v name="dipole">      0.00000000       0.00000000       0.07285561 </v>
    <i name="Tr[quadrupol]">  -7399.42255017 </i>
    <i name="Echarged">      0.00000000 </i>
    <i name="Edipol_quadrupol">      0.00000000 </i>
    <i name="Eion">      0.00000000 </i>
   </dipole>
   <energy>
    <i name="e_fr_energy">   -512.74115336 </i>
    <i name="e_wo_entrp">   -512.75434307 </i>
    <i name="e_0_energy">   -512.74554993 </i>
   </energy>
  </scstep>
  <scstep>
   <time name="dav">   23.52   23.68</time>
   <time name="total">   24.50   24.67</time>
   <dipole>
    <v name="dipole">      0.00000000       0.00000000       0.06639821 </v>
    <i name="Tr[quadrupol]">  -7399.54107128 </i>
    <i name="Echarged">      0.00000000 </i>
    <i name="Edipol_quadrupol">      0.00000000 </i>
    <i name="Eion">      0.00000000 </i>
   </dipole>
   <energy>
    <i name="e_fr_energy">   -512.74717903 </i>
    <i name="e_wo_entrp">   -512.76149046 </i>
    <i name="e_0_energy">   -512.75194951 </i>
   </energy>
  </scstep>
  <scstep>
   <time name="dav">   22.73   22.88</time>
   <time name="total">   23.70   23.86</time>
   <dipole>
    <v name="dipole">      0.00000000       0.00000000       0.07267584 </v>
    <i name="Tr[quadrupol]">  -7399.51390075 </i>
    <i name="Echarged">      0.00000000 </i>
    <i name="Edipol_quadrupol">      0.00000000 </i>
    <i name="Eion">      0.00000000 </i>
   </dipole>
   <energy>
    <i name="e_fr_energy">   -512.74584309 </i>
    <i name="e_wo_entrp">   -512.75736574 </i>
    <i name="e_0_energy">   -512.74968397 </i>
   </energy>
  </scstep>
  <scstep>
   <time name="dav">   22.79   22.94</time>
   <time name="total">   23.73   23.89</time>
   <dipole>
    <v name="dipole">      0.00000000       0.00000000       0.07537620 </v>
    <i name="Tr[quadrupol]">  -7399.51626143 </i>
    <i name="Echarged">      0.00000000 </i>
    <i name="Edipol_quadrupol">      0.00000000 </i>
    <i name="Eion">      0.00000000 </i>
   </dipole>
   <energy>
    <i name="e_fr_energy">   -512.74587672 </i>
    <i name="e_wo_entrp">   -512.75630100 </i>
    <i name="e_0_energy">   -512.74935148 </i>
   </energy>
  </scstep>
  <scstep>
   <time name="dav">   18.05   18.16</time>
   <time name="total">   19.01   19.13</time>
   <dipole>
    <v name="dipole">      0.00000000       0.00000000       0.07473100 </v>
    <i name="Tr[quadrupol]">  -7399.51237988 </i>
    <i name="Echarged">      0.00000000 </i>
    <i name="Edipol_quadrupol">      0.00000000 </i>
    <i name="Eion">      0.00000000 </i>
   </dipole>
   <energy>
    <i name="e_fr_energy">   -512.74581843 </i>
    <i name="e_wo_entrp">   -512.75670866 </i>
    <i name="e_0_energy">   -512.74944851 </i>
   </energy>
  </scstep>
  <scstep>
   <time name="dav">   22.64   22.78</time>
   <time name="total">   23.60   23.76</time>
   <dipole>
    <v name="dipole">      0.00000000       0.00000000       0.07463678 </v>
    <i name="Tr[quadrupol]">  -7399.51157949 </i>
    <i name="Echarged">      0.00000000 </i>
    <i name="Edipol_quadrupol">      0.00000000 </i>
    <i name="Eion">      0.00000000 </i>
   </dipole>
   <energy>
    <i name="e_fr_energy">   -512.74568869 </i>
    <i name="e_wo_entrp">   -512.75697233 </i>
    <i name="e_0_energy">   -512.74944990 </i>
   </energy>
  </scstep>
  <scstep>
   <time name="dav">   21.87   22.01</time>
   <time name="total">   22.83   22.98</time>
   <dipole>
    <v name="dipole">      0.00000000       0.00000000       0.07416729 </v>
    <i name="Tr[quadrupol]">  -7399.51447089 </i>
    <i name="Echarged">      0.00000000 </i>
    <i name="Edipol_quadrupol">      0.00000000 </i>
    <i name="Eion">      0.00000000 </i>
   </dipole>
   <energy>
    <i name="e_fr_energy">   -512.74564250 </i>
    <i name="e_wo_entrp">   -512.75709076 </i>
    <i name="e_0_energy">   -512.74945859 </i>
   </energy>
  </scstep>
  <scstep>
   <time name="dav">   18.64   18.76</time>
   <time name="total">   19.63   19.76</time>
   <dipole>
    <v name="dipole">      0.00000000       0.00000000       0.07446963 </v>
    <i name="Tr[quadrupol]">  -7399.50470277 </i>
    <i name="Echarged">      0.00000000 </i>
    <i name="Edipol_quadrupol">      0.00000000 </i>
    <i name="Eion">      0.00000000 </i>
   </dipole>
   <energy>
    <i name="e_fr_energy">   -512.74560234 </i>
    <i name="e_wo_entrp">   -512.75694933 </i>
    <i name="e_0_energy">   -512.74938467 </i>
   </energy>
  </scstep>
  <scstep>
   <time name="dav">   12.14   12.22</time>
   <time name="total">   13.12   13.21</time>
   <dipole>
    <v name="dipole">      0.00000000       0.00000000       0.07503807 </v>
    <i name="Tr[quadrupol]">  -7399.49584847 </i>
    <i name="Echarged">      0.00000000 </i>
    <i name="Edipol_quadrupol">      0.00000000 </i>
    <i name="Eion">      0.00000000 </i>
   </dipole>
   <energy>
    <i name="e_fr_energy">   -512.74557982 </i>
    <i name="e_wo_entrp">   -512.75648043 </i>
    <i name="e_0_energy">   -512.74921335 </i>
   </energy>
  </scstep>
  <scstep>
   <time name="dav">   20.54   20.67</time>
   <time name="total">   21.51   21.64</time>
   <dipole>
    <v name="dipole">      0.00000000       0.00000000       0.07495397 </v>
    <i name="Tr[quadrupol]">  -7399.48257856 </i>
    <i name="Echarged">      0.00000000 </i>
    <i name="Edipol_quadrupol">      0.00000000 </i>
    <i name="Eion">      0.00000000 </i>
   </dipole>
   <energy>
    <i name="e_fr_energy">   -512.74560612 </i>
    <i name="e_wo_entrp">   -512.75644335 </i>
    <i name="e_0_energy">   -512.74921853 </i>
   </energy>
  </scstep>
  <scstep>
   <time name="dav">   11.09   11.17</time>
   <time name="total">   11.53   11.61</time>
   <dipole>
    <v name="dipole">      0.00000000       0.00000000       0.07497947 </v>
    <i name="Tr[quadrupol]">  -7399.48167574 </i>
    <i name="Echarged">      0.00000000 </i>
    <i name="Edipol_quadrupol">      0.00000000 </i>
    <i name="Eion">      0.00000000 </i>
   </dipole>
   <energy>
    <i name="alphaZ">   1854.30755797 </i>
    <i name="ewald"> 207350.28132071 </i>
    <i name="hartreedc">-258231.58590701 </i>
    <i name="XCdc">    955.01330493 </i>
    <i name="pawpsdc">  55318.12557998 </i>
    <i name="pawaedc"> -56408.84046033 </i>
    <i name="eentropy">      0.01079902 </i>
    <i name="bandstr">  -4150.04739098 </i>
    <i name="atom">  52799.98958613 </i>
    <i name="e_fr_energy">   -512.74560959 </i>
    <i name="e_wo_entrp">   -512.75640860 </i>
    <i name="e_0_energy">   -512.74920926 </i>
   </energy>
  </scstep>
  <structure>
   <crystal>
    <varray name="basis" >
     <v>       8.50970000       0.00000000       0.00000000 </v>
     <v>      -0.00372597       8.53929919       0.00000000 </v>
     <v>       0.00000000       0.00000000      23.57140000 </v>
    </varray>
    <i name="volume">   1712.85996128 </i>
    <varray name="rec_basis" >
     <v>       0.11751296       0.00005127       0.00000000 </v>
     <v>       0.00000000       0.11710563       0.00000000 </v>
     <v>       0.00000000       0.00000000       0.04242429 </v>
    </varray>
   </crystal>
   <varray name="positions" >
    <v>       0.83310000       0.49871000       0.06001000 </v>
    <v>       0.83472000       0.83192000       0.06027000 </v>
    <v>       0.67169105       0.65309186       0.36004845 </v>
    <v>       0.00081000       0.66425000       0.00034000 </v>
    <v>       0.16201572       0.83058281       0.29896089 </v>
    <v>       0.66046635       0.33542117       0.36107641 </v>
    <v>       0.66559000       0.33138000       0.00044000 </v>
    <v>       0.49968000       0.83322000       0.06046000 </v>
    <v>       0.66721000       0.33321000       0.24067000 </v>
    <v>       0.50058000       0.49950000       0.18024000 </v>
    <v>       0.33595000       0.33196000       0.11912000 </v>
    <v>       0.33462000       0.33376000       0.24059000 </v>
    <v>       0.49890915       0.50052486       0.30072898 </v>
    <v>       0.00055000       0.33190000       0.12006000 </v>
    <v>       0.16752000       0.49945000       0.18065000 </v>
    <v>       0.00021000       0.33145000       0.00038000 </v>
    <v>       0.33510000       0.33170000       0.00029000 </v>
    <v>       0.00940746       0.33479181       0.36058585 </v>
    <v>       0.00077000       0.99959000       0.12036000 </v>
    <v>       0.16814000       0.16634000       0.18048000 </v>
    <v>       0.33405000       0.66593000       0.12095000 </v>
    <v>       0.50078000       0.83242000       0.18121000 </v>
    <v>       0.98733353       0.66673883       0.36062704 </v>
    <v>       0.99982000       0.33359000       0.24030000 </v>
    <v>       0.00025000       0.66569000       0.12051000 </v>
    <v>       0.16581000       0.83217000       0.18114000 </v>
    <v>       0.66566000       0.33123000       0.11970000 </v>
    <v>       0.83311393       0.83618665       0.30161961 </v>
    <v>       0.16544780       0.49884768       0.30147761 </v>
    <v>       0.16537841       0.16756247       0.30078058 </v>
    <v>       0.00161000       0.99891000       0.00024000 </v>
    <v>       0.00047313       0.99809697       0.36026763 </v>
    <v>       0.16807000       0.16539000       0.06004000 </v>
    <v>       0.50332489       0.83074625       0.30137295 </v>
    <v>       0.83476000       0.83303000       0.18132000 </v>
    <v>       0.66715000       0.66559000       0.00000000 </v>
    <v>       0.66719000       0.66640000       0.12032000 </v>
    <v>       0.83302000       0.49937000       0.17995000 </v>
    <v>       0.16769000       0.83389000       0.06029000 </v>
    <v>       0.50070937       0.16638849       0.30077619 </v>
    <v>       0.33289000       0.99824000       0.24130000 </v>
    <v>       0.66679000       0.99914000       0.24097000 </v>
    <v>       0.33466000       0.00023000       0.12082000 </v>
    <v>       0.66746000       0.99815000       0.00001000 </v>
    <v>       0.83592452       0.17070567       0.30209371 </v>
    <v>       0.83358000       0.16456000       0.06013000 </v>
    <v>       0.67489257       0.01114915       0.36065997 </v>
    <v>       0.83364000       0.16593000       0.18062000 </v>
    <v>       0.66653000       0.99972000       0.12044000 </v>
    <v>       0.33579928       0.33282862       0.35978262 </v>
    <v>       0.33487000       0.00167000       0.00066000 </v>
    <v>       0.33063499       0.99690609       0.36478091 </v>
    <v>       0.00122000       0.00217000       0.24080000 </v>
    <v>       0.16722000       0.50179000       0.05903000 </v>
    <v>       0.50000000       0.50344000       0.05949000 </v>
    <v>       0.49861000       0.16115000       0.05868000 </v>
    <v>       0.49968000       0.16444000       0.18182000 </v>
    <v>       0.83569921       0.50378283       0.29861966 </v>
    <v>       0.99722000       0.66135000       0.24151000 </v>
    <v>       0.33419000       0.66573000       0.24040000 </v>
    <v>       0.33414000       0.65855000       0.00278000 </v>
    <v>       0.32696413       0.66603682       0.36611580 </v>
    <v>       0.66923000       0.66337000       0.24097000 </v>
    <v>       0.52572661       0.83244566       0.44246182 </v>
   </varray>
  </structure>
  <varray name="forces" >
   <v>       0.01771558       0.00577305      -0.44321734 </v>
   <v>      -0.03822217       0.02050363      -0.40046745 </v>
   <v>       0.06934926      -0.05816645       0.01100959 </v>
   <v>      -0.19044686       0.13424851       0.31369972 </v>
   <v>      -0.13330223      -0.01120209       0.07153840 </v>
   <v>      -0.01235395      -0.05335467       0.04079010 </v>
   <v>      -0.02285305      -0.08897562       0.25201365 </v>
   <v>       0.41377847       0.17493743      -0.12863053 </v>
   <v>      -0.12132396       0.03084043      -0.01451843 </v>
   <v>      -0.01822470      -0.00119906       0.00757957 </v>
   <v>      -0.09086747      -0.04049364       0.18049660 </v>
   <v>      -0.10682961      -0.01075250      -0.11997224 </v>
   <v>       0.02810870      -0.04668771      -0.03466135 </v>
   <v>      -0.02376726       0.05253039       0.21402177 </v>
   <v>       0.02501770      -0.02578529       0.01187611 </v>
   <v>      -0.08339790      -0.09911262       0.18995205 </v>
   <v>       0.04927429      -0.39340109       0.30963714 </v>
   <v>       0.06656352       0.02313135       0.02271657 </v>
   <v>       0.09688763      -0.01917988       0.04465923 </v>
   <v>       0.04249337      -0.00602536      -0.08171632 </v>
   <v>       0.00405848       0.16005921       0.12926266 </v>
   <v>       0.01325258       0.01130445      -0.09995904 </v>
   <v>      -0.02219118       0.01591144      -0.01353192 </v>
   <v>       0.10822552       0.02142649      -0.12602767 </v>
   <v>      -0.03652967       0.02876667       0.25945459 </v>
   <v>      -0.07226532       0.06331992      -0.12075794 </v>
   <v>       0.06463232      -0.00792881       0.15067099 </v>
   <v>      -0.04630455       0.00326124       0.00087820 </v>
   <v>      -0.02901222      -0.02404186      -0.07102068 </v>
   <v>       0.00227547       0.01104882       0.11293697 </v>
   <v>       0.23372856       0.04958636       0.29743833 </v>
   <v>      -0.03870436      -0.04920342      -0.02870032 </v>
   <v>      -0.13600351       0.19802527      -0.47008561 </v>
   <v>       0.10667171       0.01904110       0.09229626 </v>
   <v>      -0.02154357      -0.02260942       0.05805676 </v>
   <v>       0.14939307       0.15129005       0.37005677 </v>
   <v>       0.02829664       0.04164023       0.24463879 </v>
   <v>      -0.04115069      -0.02817094      -0.20299921 </v>
   <v>      -0.40332683       0.04316639      -0.06959223 </v>
   <v>       0.01068784       0.02181327       0.09631967 </v>
   <v>       0.11953165      -0.03854236       0.14958735 </v>
   <v>       0.02788735       0.01787705       0.07956180 </v>
   <v>      -0.01189921      -0.04862455       0.15494775 </v>
   <v>      -0.23313688      -0.00908821       0.25823241 </v>
   <v>       0.01806340       0.03104223      -0.05753071 </v>
   <v>      -0.02780934       0.01515945      -0.47340247 </v>
   <v>      -0.03742202       0.05865647      -0.03509515 </v>
   <v>      -0.02394472      -0.01459731       0.05653597 </v>
   <v>      -0.04833555      -0.06776553       0.04865141 </v>
   <v>       0.01577234      -0.02243200      -0.04463413 </v>
   <v>      -0.11172751      -0.05154845      -0.14952562 </v>
   <v>      -0.03061444       0.07105155       0.05749491 </v>
   <v>      -0.06110058       0.00285634      -0.08144152 </v>
   <v>       0.04986306      -0.09072471      -0.19841165 </v>
   <v>       0.01858824      -0.14127104      -0.21119403 </v>
   <v>       0.41022004       0.45913333      -0.18126491 </v>
   <v>       0.01859197       0.03591918      -0.11648468 </v>
   <v>       0.01559861      -0.04133859       0.00293990 </v>
   <v>      -0.02198544      -0.04399824      -0.13502799 </v>
   <v>       0.02606494       0.02336092       0.25656407 </v>
   <v>      -0.03513285      -0.42657514      -0.27198280 </v>
   <v>       0.02617165       0.00283106      -0.04322098 </v>
   <v>       0.01714187       0.02841848       0.02266968 </v>
   <v>       0.03782376      -0.04513522      -0.14411081 </v>
  </varray>
  <varray name="stress" >
   <v>     -19.26787636       0.09433791       0.44569206 </v>
   <v>       0.09433786     -20.83119144       0.65521080 </v>
   <v>       0.44569215       0.65521076      -3.39049071 </v>
  </varray>
  <energy>
   <i name="e_fr_energy">   -512.74560959 </i>
   <i name="e_wo_entrp">   -512.75640860 </i>
   <i name="e_0_energy">   -512.74920926 </i>
  </energy>
  <time name="totalsc">  331.18  333.36</time>
 </calculation>
 <calculation>
  <scstep>
   <time name="dav">   16.41   16.51</time>
   <time name="total">   17.37   17.47</time>
   <dipole>
    <v name="dipole">      0.00000000       0.00000000       0.07492245 </v>
    <i name="Tr[quadrupol]">  -7399.83523090 </i>
    <i name="Echarged">      0.00000000 </i>
    <i name="Edipol_quadrupol">      0.00000000 </i>
    <i name="Eion">      0.00000000 </i>
   </dipole>
   <energy>
    <i name="alphaZ">   1854.30733649 </i>
    <i name="ewald"> 207367.74230753 </i>
    <i name="hartreedc">-258248.93458585 </i>
    <i name="XCdc">    955.03441606 </i>
    <i name="pawpsdc">  55318.14891927 </i>
    <i name="pawaedc"> -56408.86411950 </i>
    <i name="eentropy">      0.01111709 </i>
    <i name="bandstr">  -4149.97765499 </i>
    <i name="atom">  52799.98958613 </i>
    <i name="e_fr_energy">   -512.54267775 </i>
    <i name="e_wo_entrp">   -512.55379485 </i>
    <i name="e_0_energy">   -512.54638345 </i>
   </energy>
  </scstep>
  <scstep>
   <time name="dav">   16.17   16.27</time>
   <time name="total">   17.12   17.22</time>
   <dipole>
    <v name="dipole">      0.00000000       0.00000000       0.09815896 </v>
    <i name="Tr[quadrupol]">  -7399.82155945 </i>
    <i name="Echarged">      0.00000000 </i>
    <i name="Edipol_quadrupol">      0.00000000 </i>
    <i name="Eion">      0.00000000 </i>
   </dipole>
   <energy>
    <i name="e_fr_energy">   -512.73437844 </i>
    <i name="e_wo_entrp">   -512.73667116 </i>
    <i name="e_0_energy">   -512.73514268 </i>
   </energy>
  </scstep>
  <scstep>
   <time name="dav">   23.02   23.16</time>
   <time name="total">   23.99   24.15</time>
   <dipole>
    <v name="dipole">      0.00000000       0.00000000       0.01322794 </v>
    <i name="Tr[quadrupol]">  -7399.75607026 </i>
    <i name="Echarged">      0.00000000 </i>
    <i name="Edipol_quadrupol">      0.00000000 </i>
    <i name="Eion">      0.00000000 </i>
   </dipole>
   <energy>
    <i name="e_fr_energy">   -512.87720339 </i>
    <i name="e_wo_entrp">   -512.91664821 </i>
    <i name="e_0_energy">   -512.89035166 </i>
   </energy>
  </scstep>
  <scstep>
   <time name="dav">   25.29   25.46</time>
   <time name="total">   26.26   26.44</time>
   <dipole>
    <v name="dipole">      0.00000000       0.00000000       0.08431519 </v>
    <i name="Tr[quadrupol]">  -7399.83555174 </i>
    <i name="Echarged">      0.00000000 </i>
    <i name="Edipol_quadrupol">      0.00000000 </i>
    <i name="Eion">      0.00000000 </i>
   </dipole>
   <energy>
    <i name="e_fr_energy">   -512.73494427 </i>
    <i name="e_wo_entrp">   -512.74295483 </i>
    <i name="e_0_energy">   -512.73761446 </i>
   </energy>
  </scstep>
  <scstep>
   <time name="dav">   23.86   24.01</time>
   <time name="total">   24.83   24.99</time>
   <dipole>
    <v name="dipole">      0.00000000       0.00000000       0.07340815 </v>
    <i name="Tr[quadrupol]">  -7399.75063170 </i>
    <i name="Echarged">      0.00000000 </i>
    <i name="Edipol_quadrupol">      0.00000000 </i>
    <i name="Eion">      0.00000000 </i>
   </dipole>
   <energy>
    <i name="e_fr_energy">   -512.74887076 </i>
    <i name="e_wo_entrp">   -512.76295554 </i>
    <i name="e_0_energy">   -512.75356569 </i>
   </energy>
  </scstep>
  <scstep>
   <time name="dav">   23.34   23.50</time>
   <time name="total">   24.29   24.45</time>
   <dipole>
    <v name="dipole">      0.00000000       0.00000000       0.06580651 </v>
    <i name="Tr[quadrupol]">  -7399.89424993 </i>
    <i name="Echarged">      0.00000000 </i>
    <i name="Edipol_quadrupol">      0.00000000 </i>
    <i name="Eion">      0.00000000 </i>
   </dipole>
   <energy>
    <i name="e_fr_energy">   -512.75802372 </i>
    <i name="e_wo_entrp">   -512.77325113 </i>
    <i name="e_0_energy">   -512.76309953 </i>
   </energy>
  </scstep>
  <scstep>
   <time name="dav">   23.04   23.19</time>
   <time name="total">   24.01   24.17</time>
   <dipole>
    <v name="dipole">      0.00000000       0.00000000       0.07444144 </v>
    <i name="Tr[quadrupol]">  -7399.85734250 </i>
    <i name="Echarged">      0.00000000 </i>
    <i name="Edipol_quadrupol">      0.00000000 </i>
    <i name="Eion">      0.00000000 </i>
   </dipole>
   <energy>
    <i name="e_fr_energy">   -512.75563085 </i>
    <i name="e_wo_entrp">   -512.76700054 </i>
    <i name="e_0_energy">   -512.75942075 </i>
   </energy>
  </scstep>
  <scstep>
   <time name="dav">   22.28   22.42</time>
   <time name="total">   23.25   23.40</time>
   <dipole>
    <v name="dipole">      0.00000000       0.00000000       0.07743613 </v>
    <i name="Tr[quadrupol]">  -7399.85983948 </i>
    <i name="Echarged">      0.00000000 </i>
    <i name="Edipol_quadrupol">      0.00000000 </i>
    <i name="Eion">      0.00000000 </i>
   </dipole>
   <energy>
    <i name="e_fr_energy">   -512.75580947 </i>
    <i name="e_wo_entrp">   -512.76597257 </i>
    <i name="e_0_energy">   -512.75919717 </i>
   </energy>
  </scstep>
  <scstep>
   <time name="dav">   17.96   18.07</time>
   <time name="total">   18.94   19.05</time>
   <dipole>
    <v name="dipole">      0.00000000       0.00000000       0.07670839 </v>
    <i name="Tr[quadrupol]">  -7399.85479930 </i>
    <i name="Echarged">      0.00000000 </i>
    <i name="Edipol_quadrupol">      0.00000000 </i>
    <i name="Eion">      0.00000000 </i>
   </dipole>
   <energy>
    <i name="e_fr_energy">   -512.75571124 </i>
    <i name="e_wo_entrp">   -512.76640599 </i>
    <i name="e_0_energy">   -512.75927616 </i>
   </energy>
  </scstep>
  <scstep>
   <time name="dav">   22.93   23.08</time>
   <time name="total">   23.90   24.07</time>
   <dipole>
    <v name="dipole">      0.00000000       0.00000000       0.07660861 </v>
    <i name="Tr[quadrupol]">  -7399.85305120 </i>
    <i name="Echarged">      0.00000000 </i>
    <i name="Edipol_quadrupol">      0.00000000 </i>
    <i name="Eion">      0.00000000 </i>
   </dipole>
   <energy>
    <i name="e_fr_energy">   -512.75552606 </i>
    <i name="e_wo_entrp">   -512.76671176 </i>
    <i name="e_0_energy">   -512.75925463 </i>
   </energy>
  </scstep>
  <scstep>
   <time name="dav">   22.32   22.46</time>
   <time name="total">   23.29   23.43</time>
   <dipole>
    <v name="dipole">      0.00000000       0.00000000       0.07603696 </v>
    <i name="Tr[quadrupol]">  -7399.85641178 </i>
    <i name="Echarged">      0.00000000 </i>
    <i name="Edipol_quadrupol">      0.00000000 </i>
    <i name="Eion">      0.00000000 </i>
   </dipole>
   <energy>
    <i name="e_fr_energy">   -512.75544361 </i>
    <i name="e_wo_entrp">   -512.76687939 </i>
    <i name="e_0_energy">   -512.75925554 </i>
   </energy>
  </scstep>
  <scstep>
   <time name="dav">   20.61   20.74</time>
   <time name="total">   21.58   21.72</time>
   <dipole>
    <v name="dipole">      0.00000000       0.00000000       0.07636409 </v>
    <i name="Tr[quadrupol]">  -7399.85709933 </i>
    <i name="Echarged">      0.00000000 </i>
    <i name="Edipol_quadrupol">      0.00000000 </i>
    <i name="Eion">      0.00000000 </i>
   </dipole>
   <energy>
    <i name="e_fr_energy">   -512.75538117 </i>
    <i name="e_wo_entrp">   -512.76676190 </i>
    <i name="e_0_energy">   -512.75917475 </i>
   </energy>
  </scstep>
  <scstep>
   <time name="dav">   13.11   13.20</time>
   <time name="total">   14.09   14.19</time>
   <dipole>
    <v name="dipole">      0.00000000       0.00000000       0.07705624 </v>
    <i name="Tr[quadrupol]">  -7399.83715401 </i>
    <i name="Echarged">      0.00000000 </i>
    <i name="Edipol_quadrupol">      0.00000000 </i>
    <i name="Eion">      0.00000000 </i>
   </dipole>
   <energy>
    <i name="e_fr_energy">   -512.75534012 </i>
    <i name="e_wo_entrp">   -512.76618487 </i>
    <i name="e_0_energy">   -512.75895503 </i>
   </energy>
  </scstep>
  <scstep>
   <time name="dav">   20.96   21.10</time>
   <time name="total">   21.93   22.08</time>
   <dipole>
    <v name="dipole">      0.00000000       0.00000000       0.07685437 </v>
    <i name="Tr[quadrupol]">  -7399.82271791 </i>
    <i name="Echarged">      0.00000000 </i>
    <i name="Edipol_quadrupol">      0.00000000 </i>
    <i name="Eion">      0.00000000 </i>
   </dipole>
   <energy>
    <i name="e_fr_energy">   -512.75537764 </i>
    <i name="e_wo_entrp">   -512.76613838 </i>
    <i name="e_0_energy">   -512.75896455 </i>
   </energy>
  </scstep>
  <scstep>
   <time name="dav">   11.99   12.07</time>
   <time name="total">   12.43   12.51</time>
   <dipole>
    <v name="dipole">      0.00000000       0.00000000       0.07697986 </v>
    <i name="Tr[quadrupol]">  -7399.82210940 </i>
    <i name="Echarged">      0.00000000 </i>
    <i name="Edipol_quadrupol">      0.00000000 </i>
    <i name="Eion">      0.00000000 </i>
   </dipole>
   <energy>
    <i name="alphaZ">   1854.33447865 </i>
    <i name="ewald"> 207367.74230753 </i>
    <i name="hartreedc">-258248.88048359 </i>
    <i name="XCdc">    955.06288007 </i>
    <i name="pawpsdc">  55320.46896658 </i>
    <i name="pawaedc"> -56411.22492605 </i>
    <i name="eentropy">      0.01064643 </i>
    <i name="bandstr">  -4150.25884257 </i>
    <i name="atom">  52799.98958613 </i>
    <i name="e_fr_energy">   -512.75538681 </i>
    <i name="e_wo_entrp">   -512.76603324 </i>
    <i name="e_0_energy">   -512.75893562 </i>
   </energy>
  </scstep>
  <structure>
   <crystal>
    <varray name="basis" >
     <v>       8.50970000       0.00000000       0.00000000 </v>
     <v>      -0.00372597       8.53929919       0.00000000 </v>
     <v>       0.00000000       0.00000000      23.57140000 </v>
    </varray>
    <i name="volume">   1712.85996128 </i>
    <varray name="rec_basis" >
     <v>       0.11751296       0.00005127       0.00000000 </v>
     <v>       0.00000000       0.11710563       0.00000000 </v>
     <v>       0.00000000       0.00000000       0.04242429 </v>
    </varray>
   </crystal>
   <varray name="positions" >
    <v>       0.83310000       0.49871000       0.06001000 </v>
    <v>       0.83472000       0.83192000       0.06027000 </v>
    <v>       0.67331091       0.65166284       0.36029033 </v>
    <v>       0.00081000       0.66425000       0.00034000 </v>
    <v>       0.16144226       0.83093860       0.29902686 </v>
    <v>       0.66022160       0.33466525       0.36134169 </v>
    <v>       0.66559000       0.33138000       0.00044000 </v>
    <v>       0.49968000       0.83322000       0.06046000 </v>
    <v>       0.66721000       0.33321000       0.24067000 </v>
    <v>       0.50058000       0.49950000       0.18024000 </v>
    <v>       0.33595000       0.33196000       0.11912000 </v>
    <v>       0.33462000       0.33376000       0.24059000 </v>
    <v>       0.49938539       0.49965406       0.30062876 </v>
    <v>       0.00055000       0.33190000       0.12006000 </v>
    <v>       0.16752000       0.49945000       0.18065000 </v>
    <v>       0.00021000       0.33145000       0.00038000 </v>
    <v>       0.33510000       0.33170000       0.00029000 </v>
    <v>       0.01035097       0.33520724       0.36073476 </v>
    <v>       0.00077000       0.99959000       0.12036000 </v>
    <v>       0.16814000       0.16634000       0.18048000 </v>
    <v>       0.33405000       0.66593000       0.12095000 </v>
    <v>       0.50078000       0.83242000       0.18121000 </v>
    <v>       0.98650033       0.66680302       0.36072851 </v>
    <v>       0.99982000       0.33359000       0.24030000 </v>
    <v>       0.00025000       0.66569000       0.12051000 </v>
    <v>       0.16581000       0.83217000       0.18114000 </v>
    <v>       0.66566000       0.33123000       0.11970000 </v>
    <v>       0.83308916       0.83604692       0.30161784 </v>
    <v>       0.16464357       0.49807141       0.30128209 </v>
    <v>       0.16505180       0.16771388       0.30120396 </v>
    <v>       0.00161000       0.99891000       0.00024000 </v>
    <v>       0.99907919       0.99749838       0.36015982 </v>
    <v>       0.16807000       0.16539000       0.06004000 </v>
    <v>       0.50394220       0.83030433       0.30150526 </v>
    <v>       0.83476000       0.83303000       0.18132000 </v>
    <v>       0.66715000       0.66559000       0.00000000 </v>
    <v>       0.66719000       0.66640000       0.12032000 </v>
    <v>       0.83302000       0.49937000       0.17995000 </v>
    <v>       0.16769000       0.83389000       0.06029000 </v>
    <v>       0.50083440       0.16686013       0.30097370 </v>
    <v>       0.33289000       0.99824000       0.24130000 </v>
    <v>       0.66679000       0.99914000       0.24097000 </v>
    <v>       0.33466000       0.00023000       0.12082000 </v>
    <v>       0.66746000       0.99815000       0.00001000 </v>
    <v>       0.83636745       0.17156373       0.30188225 </v>
    <v>       0.83358000       0.16456000       0.06013000 </v>
    <v>       0.67508752       0.01270911       0.36052024 </v>
    <v>       0.83364000       0.16593000       0.18062000 </v>
    <v>       0.66653000       0.99972000       0.12044000 </v>
    <v>       0.33599636       0.33266093       0.35955169 </v>
    <v>       0.33487000       0.00167000       0.00066000 </v>
    <v>       0.33103902       0.99787857       0.36580598 </v>
    <v>       0.00122000       0.00217000       0.24080000 </v>
    <v>       0.16722000       0.50179000       0.05903000 </v>
    <v>       0.50000000       0.50344000       0.05949000 </v>
    <v>       0.49861000       0.16115000       0.05868000 </v>
    <v>       0.49968000       0.16444000       0.18182000 </v>
    <v>       0.83622528       0.50303440       0.29842238 </v>
    <v>       0.99722000       0.66135000       0.24151000 </v>
    <v>       0.33419000       0.66573000       0.24040000 </v>
    <v>       0.33414000       0.65855000       0.00278000 </v>
    <v>       0.32674313       0.66531237       0.36565422 </v>
    <v>       0.66923000       0.66337000       0.24097000 </v>
    <v>       0.52563802       0.83267809       0.44160814 </v>
   </varray>
  </structure>
  <varray name="forces" >
   <v>       0.01729068       0.00541281      -0.44430833 </v>
   <v>      -0.03822988       0.02062999      -0.40020004 </v>
   <v>       0.04599980      -0.05384785      -0.02940743 </v>
   <v>      -0.19113629       0.13453004       0.31239234 </v>
   <v>      -0.08409268      -0.01433847       0.07371927 </v>
   <v>       0.01729109      -0.02838199       0.03587901 </v>
   <v>      -0.02093527      -0.08811141       0.25299812 </v>
   <v>       0.41348877       0.17542156      -0.12745304 </v>
   <v>      -0.11901725       0.02199539      -0.03144800 </v>
   <v>      -0.02186806       0.00184612       0.00254339 </v>
   <v>      -0.09143187      -0.03920244       0.17985572 </v>
   <v>      -0.11910960      -0.03142384      -0.11815589 </v>
   <v>       0.02029303       0.01703804      -0.02213030 </v>
   <v>      -0.02414756       0.05334219       0.21506732 </v>
   <v>       0.03131964      -0.02622740       0.00263814 </v>
   <v>      -0.08359380      -0.09849860       0.19060691 </v>
   <v>       0.04938251      -0.39403366       0.31034554 </v>
   <v>       0.02129544       0.02725347       0.04321894 </v>
   <v>       0.09723180      -0.01904927       0.04163473 </v>
   <v>       0.04409403      -0.01190371      -0.07092704 </v>
   <v>       0.00502770       0.15963073       0.12791328 </v>
   <v>       0.00901316       0.01075130      -0.09404048 </v>
   <v>       0.00144667      -0.00164177      -0.01293370 </v>
   <v>       0.12549194       0.00316150      -0.16134235 </v>
   <v>      -0.03658326       0.02822458       0.26035847 </v>
   <v>      -0.06728306       0.06424244      -0.11686438 </v>
   <v>       0.06463994      -0.00937228       0.15230710 </v>
   <v>      -0.08246002       0.00181598      -0.02093401 </v>
   <v>       0.03836155       0.04314235      -0.06363756 </v>
   <v>       0.03484410      -0.02650596       0.02580180 </v>
   <v>       0.23429467       0.04951014       0.29738577 </v>
   <v>      -0.00379038      -0.02854844       0.00398257 </v>
   <v>      -0.13682528       0.19919680      -0.47060800 </v>
   <v>       0.06654414       0.06083991       0.09946339 </v>
   <v>      -0.02418420      -0.01993114       0.05859905 </v>
   <v>       0.15083529       0.15080536       0.36933856 </v>
   <v>       0.02911068       0.04056985       0.24499464 </v>
   <v>      -0.04138379      -0.03141999      -0.22108281 </v>
   <v>      -0.40407510       0.04291644      -0.06870362 </v>
   <v>      -0.01173408      -0.03100034       0.03305424 </v>
   <v>       0.12164129      -0.03591751       0.19899951 </v>
   <v>       0.02205664       0.02625840       0.09293016 </v>
   <v>      -0.01085754      -0.04810986       0.15320573 </v>
   <v>      -0.23390572      -0.00872770       0.25820152 </v>
   <v>      -0.01415203      -0.01936670      -0.02228947 </v>
   <v>      -0.02842206       0.01509162      -0.47359607 </v>
   <v>      -0.03514602       0.02771635      -0.02784036 </v>
   <v>      -0.02560496      -0.01594525       0.04656847 </v>
   <v>      -0.04793999      -0.06760918       0.04757784 </v>
   <v>       0.01254358      -0.00229503       0.00638535 </v>
   <v>      -0.11335185      -0.05313286      -0.15037391 </v>
   <v>      -0.07806267       0.05311555      -0.05685937 </v>
   <v>      -0.05474129       0.01276640      -0.07765088 </v>
   <v>       0.04859069      -0.09151548      -0.19912633 </v>
   <v>       0.01820681      -0.14034091      -0.21033912 </v>
   <v>       0.41264986       0.46067228      -0.17938325 </v>
   <v>       0.01762233       0.03042933      -0.10732811 </v>
   <v>      -0.01855094      -0.00658388       0.03569224 </v>
   <v>      -0.01727063      -0.03583844      -0.12764861 </v>
   <v>       0.02725922       0.02169620       0.28367078 </v>
   <v>      -0.03534307      -0.42744786      -0.27252621 </v>
   <v>       0.02465555       0.00576058      -0.03614370 </v>
   <v>       0.01312739       0.02010380       0.03581963 </v>
   <v>       0.07958020      -0.07961828      -0.07786715 </v>
  </varray>
  <varray name="stress" >
   <v>     -19.15184754       0.03209441       0.49905495 </v>
   <v>       0.03209448     -20.72751612       0.61804889 </v>
   <v>       0.49905505       0.61804858      -3.30139975 </v>
  </varray>
  <energy>
   <i name="e_fr_energy">   -512.75538681 </i>
   <i name="e_wo_entrp">   -512.76603324 </i>
   <i name="e_0_energy">   -512.75893562 </i>
  </energy>
  <time name="totalsc">  334.31  336.49</time>
 </calculation>
 <calculation>
  <scstep>
   <time name="dav">   16.31   16.41</time>
   <time name="total">   17.28   17.39</time>
   <dipole>
    <v name="dipole">      0.00000000       0.00000000       0.07694579 </v>
    <i name="Tr[quadrupol]">  -7399.75151877 </i>
    <i name="Echarged">      0.00000000 </i>
    <i name="Edipol_quadrupol">      0.00000000 </i>
    <i name="Eion">      0.00000000 </i>
   </dipole>
   <energy>
    <i name="alphaZ">   1854.33418451 </i>
    <i name="ewald"> 207372.80037206 </i>
    <i name="hartreedc">-258253.85490127 </i>
    <i name="XCdc">    955.06540937 </i>
    <i name="pawpsdc">  55320.50335632 </i>
    <i name="pawaedc"> -56411.25973067 </i>
    <i name="eentropy">      0.01085018 </i>
    <i name="bandstr">  -4150.32779194 </i>
    <i name="atom">  52799.98958613 </i>
    <i name="e_fr_energy">   -512.73866532 </i>
    <i name="e_wo_entrp">   -512.74951550 </i>
    <i name="e_0_energy">   -512.74228204 </i>
   </energy>
  </scstep>
  <scstep>
   <time name="dav">   16.07   16.17</time>
   <time name="total">   17.02   17.13</time>
   <dipole>
    <v name="dipole">      0.00000000       0.00000000       0.08373282 </v>
    <i name="Tr[quadrupol]">  -7399.75954803 </i>
    <i name="Echarged">      0.00000000 </i>
    <i name="Edipol_quadrupol">      0.00000000 </i>
    <i name="Eion">      0.00000000 </i>
   </dipole>
   <energy>
    <i name="e_fr_energy">   -512.75420005 </i>
    <i name="e_wo_entrp">   -512.76250973 </i>
    <i name="e_0_energy">   -512.75696994 </i>
   </energy>
  </scstep>
  <scstep>
   <time name="dav">   22.88   23.03</time>
   <time name="total">   23.84   23.99</time>
   <dipole>
    <v name="dipole">      0.00000000       0.00000000       0.05947114 </v>
    <i name="Tr[quadrupol]">  -7399.73669855 </i>
    <i name="Echarged">      0.00000000 </i>
    <i name="Edipol_quadrupol">      0.00000000 </i>
    <i name="Eion">      0.00000000 </i>
   </dipole>
   <energy>
    <i name="e_fr_energy">   -512.76581748 </i>
    <i name="e_wo_entrp">   -512.78528945 </i>
    <i name="e_0_energy">   -512.77230813 </i>
   </energy>
  </scstep>
  <scstep>
   <time name="dav">   25.17   25.33</time>
   <time name="total">   26.14   26.32</time>
   <dipole>
    <v name="dipole">      0.00000000       0.00000000       0.07950373 </v>
    <i name="Tr[quadrupol]">  -7399.75246045 </i>
    <i name="Echarged">      0.00000000 </i>
    <i name="Edipol_quadrupol">      0.00000000 </i>
    <i name="Eion">      0.00000000 </i>
   </dipole>
   <energy>
    <i name="e_fr_energy">   -512.75410426 </i>
    <i name="e_wo_entrp">   -512.76411620 </i>
    <i name="e_0_energy">   -512.75744157 </i>
   </energy>
  </scstep>
  <scstep>
   <time name="dav">   23.66   23.82</time>
   <time name="total">   24.62   24.78</time>
   <dipole>
    <v name="dipole">      0.00000000       0.00000000       0.07741559 </v>
    <i name="Tr[quadrupol]">  -7399.72966554 </i>
    <i name="Echarged">      0.00000000 </i>
    <i name="Edipol_quadrupol">      0.00000000 </i>
    <i name="Eion">      0.00000000 </i>
   </dipole>
   <energy>
    <i name="e_fr_energy">   -512.75525793 </i>
    <i name="e_wo_entrp">   -512.76661829 </i>
    <i name="e_0_energy">   -512.75904471 </i>
   </energy>
  </scstep>
  <scstep>
   <time name="dav">   23.31   23.44</time>
   <time name="total">   24.28   24.42</time>
   <dipole>
    <v name="dipole">      0.00000000       0.00000000       0.07414166 </v>
    <i name="Tr[quadrupol]">  -7399.75484869 </i>
    <i name="Echarged">      0.00000000 </i>
    <i name="Edipol_quadrupol">      0.00000000 </i>
    <i name="Eion">      0.00000000 </i>
   </dipole>
   <energy>
    <i name="e_fr_energy">   -512.75621845 </i>
    <i name="e_wo_entrp">   -512.76847753 </i>
    <i name="e_0_energy">   -512.76030481 </i>
   </energy>
  </scstep>
  <scstep>
   <time name="dav">   22.55   22.70</time>
   <time name="total">   23.53   23.69</time>
   <dipole>
    <v name="dipole">      0.00000000       0.00000000       0.07663147 </v>
    <i name="Tr[quadrupol]">  -7399.74699842 </i>
    <i name="Echarged">      0.00000000 </i>
    <i name="Edipol_quadrupol">      0.00000000 </i>
    <i name="Eion">      0.00000000 </i>
   </dipole>
   <energy>
    <i name="e_fr_energy">   -512.75593389 </i>
    <i name="e_wo_entrp">   -512.76702155 </i>
    <i name="e_0_energy">   -512.75962978 </i>
   </energy>
  </scstep>
  <scstep>
   <time name="dav">   21.45   21.59</time>
   <time name="total">   22.42   22.57</time>
   <dipole>
    <v name="dipole">      0.00000000       0.00000000       0.07767417 </v>
    <i name="Tr[quadrupol]">  -7399.74733753 </i>
    <i name="Echarged">      0.00000000 </i>
    <i name="Edipol_quadrupol">      0.00000000 </i>
    <i name="Eion">      0.00000000 </i>
   </dipole>
   <energy>
    <i name="e_fr_energy">   -512.75593627 </i>
    <i name="e_wo_entrp">   -512.76659090 </i>
    <i name="e_0_energy">   -512.75948782 </i>
   </energy>
  </scstep>
  <scstep>
   <time name="dav">   16.03   16.12</time>
   <time name="total">   16.46   16.55</time>
   <dipole>
    <v name="dipole">      0.00000000       0.00000000       0.07739158 </v>
    <i name="Tr[quadrupol]">  -7399.74708657 </i>
    <i name="Echarged">      0.00000000 </i>
    <i name="Edipol_quadrupol">      0.00000000 </i>
    <i name="Eion">      0.00000000 </i>
   </dipole>
   <energy>
    <i name="alphaZ">   1854.34006650 </i>
    <i name="ewald"> 207372.80037206 </i>
    <i name="hartreedc">-258253.80772874 </i>
    <i name="XCdc">    955.07035879 </i>
    <i name="pawpsdc">  55321.19273779 </i>
    <i name="pawaedc"> -56411.96400466 </i>
    <i name="eentropy">      0.01079787 </i>
    <i name="bandstr">  -4150.38812640 </i>
    <i name="atom">  52799.98958613 </i>
    <i name="e_fr_energy">   -512.75594066 </i>
    <i name="e_wo_entrp">   -512.76673853 </i>
    <i name="e_0_energy">   -512.75953995 </i>
   </energy>
  </scstep>
  <structure>
   <crystal>
    <varray name="basis" >
     <v>       8.50970000       0.00000000       0.00000000 </v>
     <v>      -0.00372597       8.53929919       0.00000000 </v>
     <v>       0.00000000       0.00000000      23.57140000 </v>
    </varray>
    <i name="volume">   1712.85996128 </i>
    <varray name="rec_basis" >
     <v>       0.11751296       0.00005127       0.00000000 </v>
     <v>       0.00000000       0.11710563       0.00000000 </v>
     <v>       0.00000000       0.00000000       0.04242429 </v>
    </varray>
   </crystal>
   <varray name="positions" >
    <v>       0.83310000       0.49871000       0.06001000 </v>
    <v>       0.83472000       0.83192000       0.06027000 </v>
    <v>       0.67377300       0.65125518       0.36035933 </v>
    <v>       0.00081000       0.66425000       0.00034000 </v>
    <v>       0.16127867       0.83104010       0.29904568 </v>
    <v>       0.66015178       0.33444960       0.36141737 </v>
    <v>       0.66559000       0.33138000       0.00044000 </v>
    <v>       0.49968000       0.83322000       0.06046000 </v>
    <v>       0.66721000       0.33321000       0.24067000 </v>
    <v>       0.50058000       0.49950000       0.18024000 </v>
    <v>       0.33595000       0.33196000       0.11912000 </v>
    <v>       0.33462000       0.33376000       0.24059000 </v>
    <v>       0.49952125       0.49940564       0.30060017 </v>
    <v>       0.00055000       0.33190000       0.12006000 </v>
    <v>       0.16752000       0.49945000       0.18065000 </v>
    <v>       0.00021000       0.33145000       0.00038000 </v>
    <v>       0.33510000       0.33170000       0.00029000 </v>
    <v>       0.01062013       0.33532575       0.36077724 </v>
    <v>       0.00077000       0.99959000       0.12036000 </v>
    <v>       0.16814000       0.16634000       0.18048000 </v>
    <v>       0.33405000       0.66593000       0.12095000 </v>
    <v>       0.50078000       0.83242000       0.18121000 </v>
    <v>       0.98626264       0.66682133       0.36075745 </v>
    <v>       0.99982000       0.33359000       0.24030000 </v>
    <v>       0.00025000       0.66569000       0.12051000 </v>
    <v>       0.16581000       0.83217000       0.18114000 </v>
    <v>       0.66566000       0.33123000       0.11970000 </v>
    <v>       0.83308210       0.83600706       0.30161733 </v>
    <v>       0.16441415       0.49784997       0.30122631 </v>
    <v>       0.16495863       0.16775707       0.30132474 </v>
    <v>       0.00161000       0.99891000       0.00024000 </v>
    <v>       0.99868155       0.99732762       0.36012906 </v>
    <v>       0.16807000       0.16539000       0.06004000 </v>
    <v>       0.50411830       0.83017827       0.30154300 </v>
    <v>       0.83476000       0.83303000       0.18132000 </v>
    <v>       0.66715000       0.66559000       0.00000000 </v>
    <v>       0.66719000       0.66640000       0.12032000 </v>
    <v>       0.83302000       0.49937000       0.17995000 </v>
    <v>       0.16769000       0.83389000       0.06029000 </v>
    <v>       0.50087007       0.16699468       0.30103004 </v>
    <v>       0.33289000       0.99824000       0.24130000 </v>
    <v>       0.66679000       0.99914000       0.24097000 </v>
    <v>       0.33466000       0.00023000       0.12082000 </v>
    <v>       0.66746000       0.99815000       0.00001000 </v>
    <v>       0.83649381       0.17180850       0.30182193 </v>
    <v>       0.83358000       0.16456000       0.06013000 </v>
    <v>       0.67514313       0.01315412       0.36048038 </v>
    <v>       0.83364000       0.16593000       0.18062000 </v>
    <v>       0.66653000       0.99972000       0.12044000 </v>
    <v>       0.33605257       0.33261309       0.35948581 </v>
    <v>       0.33487000       0.00167000       0.00066000 </v>
    <v>       0.33115428       0.99815599       0.36609841 </v>
    <v>       0.00122000       0.00217000       0.24080000 </v>
    <v>       0.16722000       0.50179000       0.05903000 </v>
    <v>       0.50000000       0.50344000       0.05949000 </v>
    <v>       0.49861000       0.16115000       0.05868000 </v>
    <v>       0.49968000       0.16444000       0.18182000 </v>
    <v>       0.83637535       0.50282089       0.29836610 </v>
    <v>       0.99722000       0.66135000       0.24151000 </v>
    <v>       0.33419000       0.66573000       0.24040000 </v>
    <v>       0.33414000       0.65855000       0.00278000 </v>
    <v>       0.32668009       0.66510571       0.36552254 </v>
    <v>       0.66923000       0.66337000       0.24097000 </v>
    <v>       0.52561274       0.83274439       0.44136461 </v>
   </varray>
  </structure>
  <varray name="forces" >
   <v>       0.01684594       0.00514494      -0.44391623 </v>
   <v>      -0.03848690       0.02116329      -0.39919578 </v>
   <v>       0.04299272      -0.05663353      -0.04138778 </v>
   <v>      -0.19058436       0.13505091       0.31113850 </v>
   <v>      -0.07172031      -0.01256972       0.07815717 </v>
   <v>       0.02452413      -0.02260399       0.03499209 </v>
   <v>      -0.02074248      -0.08824745       0.25251232 </v>
   <v>       0.41301256       0.17624036      -0.12696790 </v>
   <v>      -0.11862054       0.01928900      -0.03686965 </v>
   <v>      -0.02293851       0.00291847       0.00170600 </v>
   <v>      -0.09153222      -0.03891515       0.17878263 </v>
   <v>      -0.12243622      -0.03713572      -0.11773265 </v>
   <v>       0.02068607       0.03149971      -0.01766903 </v>
   <v>      -0.02442786       0.05353585       0.21440481 </v>
   <v>       0.03319226      -0.02586254       0.00046644 </v>
   <v>      -0.08340961      -0.09854832       0.18997907 </v>
   <v>       0.04937928      -0.39447667       0.30939088 </v>
   <v>       0.01052444       0.02877874       0.04935336 </v>
   <v>       0.09721523      -0.01864419       0.03973702 </v>
   <v>       0.04473381      -0.01376138      -0.06777102 </v>
   <v>       0.00538376       0.15969533       0.12648659 </v>
   <v>       0.00776604       0.01092048      -0.09135800 </v>
   <v>       0.00551589      -0.00660760      -0.01337983 </v>
   <v>       0.13082475      -0.00259199      -0.17234377 </v>
   <v>      -0.03678130       0.02826056       0.25966590 </v>
   <v>      -0.06569969       0.06497816      -0.11473825 </v>
   <v>       0.06465495      -0.00983989       0.15196879 </v>
   <v>      -0.09318102       0.00083214      -0.02542471 </v>
   <v>       0.05425397       0.05851283      -0.06253192 </v>
   <v>       0.04381073      -0.03734457       0.00941805 </v>
   <v>       0.23438016       0.04977556       0.29608805 </v>
   <v>       0.00228866      -0.02358923       0.01215382 </v>
   <v>      -0.13646083       0.19945822      -0.47053886 </v>
   <v>       0.05604483       0.07216893       0.10494638 </v>
   <v>      -0.02521786      -0.01883267       0.05932597 </v>
   <v>       0.15062854       0.15107609       0.36836336 </v>
   <v>       0.02933576       0.04044797       0.24435126 </v>
   <v>      -0.04173734      -0.03200363      -0.22595214 </v>
   <v>      -0.40375525       0.04350374      -0.06808373 </v>
   <v>      -0.01891315      -0.04493482       0.02015955 </v>
   <v>       0.12244187      -0.03536693       0.21286805 </v>
   <v>       0.02031511       0.02862283       0.09652967 </v>
   <v>      -0.01050916      -0.04750621       0.15200574 </v>
   <v>      -0.23430009      -0.00827091       0.25704051 </v>
   <v>      -0.02200861      -0.03040047      -0.01284700 </v>
   <v>      -0.02888812       0.01524345      -0.47321991 </v>
   <v>      -0.03303793       0.02287373      -0.02853849 </v>
   <v>      -0.02644733      -0.01638533       0.04375927 </v>
   <v>      -0.04781473      -0.06719836       0.04655789 </v>
   <v>       0.01264848       0.00348272       0.01754064 </v>
   <v>      -0.11423879      -0.05329962      -0.15221670 </v>
   <v>      -0.09090919       0.05336611      -0.08342402 </v>
   <v>      -0.05293574       0.01551472      -0.07652060 </v>
   <v>       0.04806192      -0.09200976      -0.19880373 </v>
   <v>       0.01834506      -0.14027356      -0.20953909 </v>
   <v>       0.41345260       0.46152658      -0.17819208 </v>
   <v>       0.01732731       0.02878128      -0.10469030 </v>
   <v>      -0.02427435      -0.00260512       0.04217080 </v>
   <v>      -0.01622309      -0.03297307      -0.12525573 </v>
   <v>       0.02794737       0.02176463       0.29192225 </v>
   <v>      -0.03529721      -0.42749067      -0.27396390 </v>
   <v>       0.02332129       0.00627875      -0.03852013 </v>
   <v>       0.01228971       0.01738005       0.04028115 </v>
   <v>       0.08938457      -0.09116304      -0.06263104 </v>
  </varray>
  <varray name="stress" >
   <v>     -19.12291712       0.01216279       0.50637990 </v>
   <v>       0.01216281     -20.71680105       0.60216232 </v>
   <v>       0.50637988       0.60216262      -3.27844506 </v>
  </varray>
  <energy>
   <i name="e_fr_energy">   -512.75594066 </i>
   <i name="e_wo_entrp">   -512.76673853 </i>
   <i name="e_0_energy">   -512.75953995 </i>
  </energy>
  <time name="totalsc">  212.59  213.95</time>
 </calculation>
 <calculation>
  <scstep>
   <time name="dav">   15.84   15.94</time>
   <time name="total">   16.78   16.89</time>
   <dipole>
    <v name="dipole">      0.00000000       0.00000000       0.07742210 </v>
    <i name="Tr[quadrupol]">  -7399.36749304 </i>
    <i name="Echarged">      0.00000000 </i>
    <i name="Edipol_quadrupol">      0.00000000 </i>
    <i name="Eion">      0.00000000 </i>
   </dipole>
   <energy>
    <i name="alphaZ">   1854.34121402 </i>
    <i name="ewald"> 207409.78142143 </i>
    <i name="hartreedc">-258290.74113536 </i>
    <i name="XCdc">    955.09133874 </i>
    <i name="pawpsdc">  55321.27135512 </i>
    <i name="pawaedc"> -56412.04222362 </i>
    <i name="eentropy">      0.01148061 </i>
    <i name="bandstr">  -4150.41264632 </i>
    <i name="atom">  52799.98958613 </i>
    <i name="e_fr_energy">   -512.70960924 </i>
    <i name="e_wo_entrp">   -512.72108985 </i>
    <i name="e_0_energy">   -512.71343611 </i>
   </energy>
  </scstep>
  <scstep>
   <time name="dav">   16.15   16.26</time>
   <time name="total">   17.12   17.23</time>
   <dipole>
    <v name="dipole">      0.00000000       0.00000000       0.08891456 </v>
    <i name="Tr[quadrupol]">  -7399.39148735 </i>
    <i name="Echarged">      0.00000000 </i>
    <i name="Edipol_quadrupol">      0.00000000 </i>
    <i name="Eion">      0.00000000 </i>
   </dipole>
   <energy>
    <i name="e_fr_energy">   -512.75509920 </i>
    <i name="e_wo_entrp">   -512.76160010 </i>
    <i name="e_0_energy">   -512.75726617 </i>
   </energy>
  </scstep>
  <scstep>
   <time name="dav">   22.67   22.82</time>
   <time name="total">   23.62   23.77</time>
   <dipole>
    <v name="dipole">      0.00000000       0.00000000       0.04641965 </v>
    <i name="Tr[quadrupol]">  -7399.35850201 </i>
    <i name="Echarged">      0.00000000 </i>
    <i name="Edipol_quadrupol">      0.00000000 </i>
    <i name="Eion">      0.00000000 </i>
   </dipole>
   <energy>
    <i name="e_fr_energy">   -512.78978424 </i>
    <i name="e_wo_entrp">   -512.81597547 </i>
    <i name="e_0_energy">   -512.79851465 </i>
   </energy>
  </scstep>
  <scstep>
   <time name="dav">   25.25   25.42</time>
   <time name="total">   26.23   26.41</time>
   <dipole>
    <v name="dipole">      0.00000000       0.00000000       0.08202310 </v>
    <i name="Tr[quadrupol]">  -7399.42681442 </i>
    <i name="Echarged">      0.00000000 </i>
    <i name="Edipol_quadrupol">      0.00000000 </i>
    <i name="Eion">      0.00000000 </i>
   </dipole>
   <energy>
    <i name="e_fr_energy">   -512.75685503 </i>
    <i name="e_wo_entrp">   -512.76600404 </i>
    <i name="e_0_energy">   -512.75990470 </i>
   </energy>
  </scstep>
  <scstep>
   <time name="dav">   24.65   24.81</time>
   <time name="total">   25.61   25.79</time>
   <dipole>
    <v name="dipole">      0.00000000       0.00000000       0.07707944 </v>
    <i name="Tr[quadrupol]">  -7399.34331949 </i>
    <i name="Echarged">      0.00000000 </i>
    <i name="Edipol_quadrupol">      0.00000000 </i>
    <i name="Eion">      0.00000000 </i>
   </dipole>
   <energy>
    <i name="e_fr_energy">   -512.76222334 </i>
    <i name="e_wo_entrp">   -512.77444213 </i>
    <i name="e_0_energy">   -512.76629627 </i>
   </energy>
  </scstep>
  <scstep>
   <time name="dav">   23.83   23.99</time>
   <time name="total">   24.82   24.98</time>
   <dipole>
    <v name="dipole">      0.00000000       0.00000000       0.07175017 </v>
    <i name="Tr[quadrupol]">  -7399.42168014 </i>
    <i name="Echarged">      0.00000000 </i>
    <i name="Edipol_quadrupol">      0.00000000 </i>
    <i name="Eion">      0.00000000 </i>
   </dipole>
   <energy>
    <i name="e_fr_energy">   -512.76426204 </i>
    <i name="e_wo_entrp">   -512.77756617 </i>
    <i name="e_0_energy">   -512.76869675 </i>
   </energy>
  </scstep>
  <scstep>
   <time name="dav">   22.58   22.73</time>
   <time name="total">   23.53   23.69</time>
   <dipole>
    <v name="dipole">      0.00000000       0.00000000       0.07703931 </v>
    <i name="Tr[quadrupol]">  -7399.41240462 </i>
    <i name="Echarged">      0.00000000 </i>
    <i name="Edipol_quadrupol">      0.00000000 </i>
    <i name="Eion">      0.00000000 </i>
   </dipole>
   <energy>
    <i name="e_fr_energy">   -512.76361240 </i>
    <i name="e_wo_entrp">   -512.77447292 </i>
    <i name="e_0_energy">   -512.76723258 </i>
   </energy>
  </scstep>
  <scstep>
   <time name="dav">   20.23   20.37</time>
   <time name="total">   21.20   21.34</time>
   <dipole>
    <v name="dipole">      0.00000000       0.00000000       0.07817967 </v>
    <i name="Tr[quadrupol]">  -7399.40964620 </i>
    <i name="Echarged">      0.00000000 </i>
    <i name="Edipol_quadrupol">      0.00000000 </i>
    <i name="Eion">      0.00000000 </i>
   </dipole>
   <energy>
    <i name="e_fr_energy">   -512.76368790 </i>
    <i name="e_wo_entrp">   -512.77419256 </i>
    <i name="e_0_energy">   -512.76718945 </i>
   </energy>
  </scstep>
  <scstep>
   <time name="dav">   18.62   18.74</time>
   <time name="total">   19.59   19.71</time>
   <dipole>
    <v name="dipole">      0.00000000       0.00000000       0.07791168 </v>
    <i name="Tr[quadrupol]">  -7399.39494141 </i>
    <i name="Echarged">      0.00000000 </i>
    <i name="Edipol_quadrupol">      0.00000000 </i>
    <i name="Eion">      0.00000000 </i>
   </dipole>
   <energy>
    <i name="e_fr_energy">   -512.76358200 </i>
    <i name="e_wo_entrp">   -512.77434080 </i>
    <i name="e_0_energy">   -512.76716827 </i>
   </energy>
  </scstep>
  <scstep>
   <time name="dav">   23.56   23.72</time>
   <time name="total">   24.53   24.70</time>
   <dipole>
    <v name="dipole">      0.00000000       0.00000000       0.07736850 </v>
    <i name="Tr[quadrupol]">  -7399.38809744 </i>
    <i name="Echarged">      0.00000000 </i>
    <i name="Edipol_quadrupol">      0.00000000 </i>
    <i name="Eion">      0.00000000 </i>
   </dipole>
   <energy>
    <i name="e_fr_energy">   -512.76345900 </i>
    <i name="e_wo_entrp">   -512.77508115 </i>
    <i name="e_0_energy">   -512.76733305 </i>
   </energy>
  </scstep>
  <scstep>
   <time name="dav">   18.29   18.40</time>
   <time name="total">   19.26   19.38</time>
   <dipole>
    <v name="dipole">      0.00000000       0.00000000       0.07741195 </v>
    <i name="Tr[quadrupol]">  -7399.38968672 </i>
    <i name="Echarged">      0.00000000 </i>
    <i name="Edipol_quadrupol">      0.00000000 </i>
    <i name="Eion">      0.00000000 </i>
   </dipole>
   <energy>
    <i name="e_fr_energy">   -512.76343762 </i>
    <i name="e_wo_entrp">   -512.77495106 </i>
    <i name="e_0_energy">   -512.76727543 </i>
   </energy>
  </scstep>
  <scstep>
   <time name="dav">   10.68   10.75</time>
   <time name="total">   11.64   11.71</time>
   <dipole>
    <v name="dipole">      0.00000000       0.00000000       0.07748403 </v>
    <i name="Tr[quadrupol]">  -7399.39182017 </i>
    <i name="Echarged">      0.00000000 </i>
    <i name="Edipol_quadrupol">      0.00000000 </i>
    <i name="Eion">      0.00000000 </i>
   </dipole>
   <energy>
    <i name="e_fr_energy">   -512.76342227 </i>
    <i name="e_wo_entrp">   -512.77480760 </i>
    <i name="e_0_energy">   -512.76721738 </i>
   </energy>
  </scstep>
  <scstep>
   <time name="dav">   16.38   16.48</time>
   <time name="total">   16.81   16.92</time>
   <dipole>
    <v name="dipole">      0.00000000       0.00000000       0.07742055 </v>
    <i name="Tr[quadrupol]">  -7399.38550126 </i>
    <i name="Echarged">      0.00000000 </i>
    <i name="Edipol_quadrupol">      0.00000000 </i>
    <i name="Eion">      0.00000000 </i>
   </dipole>
   <energy>
    <i name="alphaZ">   1854.66825086 </i>
    <i name="ewald"> 207409.78142143 </i>
    <i name="hartreedc">-258290.90786824 </i>
    <i name="XCdc">    955.04022549 </i>
    <i name="pawpsdc">  55321.15038126 </i>
    <i name="pawaedc"> -56411.89378579 </i>
    <i name="eentropy">      0.01106844 </i>
    <i name="bandstr">  -4150.60270968 </i>
    <i name="atom">  52799.98958613 </i>
    <i name="e_fr_energy">   -512.76343010 </i>
    <i name="e_wo_entrp">   -512.77449854 </i>
    <i name="e_0_energy">   -512.76711958 </i>
   </energy>
  </scstep>
  <structure>
   <crystal>
    <varray name="basis" >
     <v>       8.50970000       0.00000000       0.00000000 </v>
     <v>      -0.00372597       8.53929919       0.00000000 </v>
     <v>       0.00000000       0.00000000      23.57140000 </v>
    </varray>
    <i name="volume">   1712.85996128 </i>
    <varray name="rec_basis" >
     <v>       0.11751296       0.00005127       0.00000000 </v>
     <v>       0.00000000       0.11710563       0.00000000 </v>
     <v>       0.00000000       0.00000000       0.04242429 </v>
    </varray>
   </crystal>
   <varray name="positions" >
    <v>       0.83310000       0.49871000       0.06001000 </v>
    <v>       0.83472000       0.83192000       0.06027000 </v>
    <v>       0.67461540       0.65031635       0.36025959 </v>
    <v>       0.00081000       0.66425000       0.00034000 </v>
    <v>       0.16038368       0.83099320       0.29935946 </v>
    <v>       0.66035190       0.33403036       0.36161442 </v>
    <v>       0.66559000       0.33138000       0.00044000 </v>
    <v>       0.49968000       0.83322000       0.06046000 </v>
    <v>       0.66721000       0.33321000       0.24067000 </v>
    <v>       0.50058000       0.49950000       0.18024000 </v>
    <v>       0.33595000       0.33196000       0.11912000 </v>
    <v>       0.33462000       0.33376000       0.24059000 </v>
    <v>       0.49985410       0.49952816       0.30050877 </v>
    <v>       0.00055000       0.33190000       0.12006000 </v>
    <v>       0.16752000       0.49945000       0.18065000 </v>
    <v>       0.00021000       0.33145000       0.00038000 </v>
    <v>       0.33510000       0.33170000       0.00029000 </v>
    <v>       0.01095779       0.33572827       0.36100111 </v>
    <v>       0.00077000       0.99959000       0.12036000 </v>
    <v>       0.16814000       0.16634000       0.18048000 </v>
    <v>       0.33405000       0.66593000       0.12095000 </v>
    <v>       0.50078000       0.83242000       0.18121000 </v>
    <v>       0.98612093       0.66676721       0.36073079 </v>
    <v>       0.99982000       0.33359000       0.24030000 </v>
    <v>       0.00025000       0.66569000       0.12051000 </v>
    <v>       0.16581000       0.83217000       0.18114000 </v>
    <v>       0.66566000       0.33123000       0.11970000 </v>
    <v>       0.83209222       0.83598229       0.30151999 </v>
    <v>       0.16479434       0.49827943       0.30094102 </v>
    <v>       0.16534271       0.16740043       0.30146223 </v>
    <v>       0.00161000       0.99891000       0.00024000 </v>
    <v>       0.99837113       0.99693576       0.36014953 </v>
    <v>       0.16807000       0.16539000       0.06004000 </v>
    <v>       0.50485855       0.83083166       0.30197482 </v>
    <v>       0.83476000       0.83303000       0.18132000 </v>
    <v>       0.66715000       0.66559000       0.00000000 </v>
    <v>       0.66719000       0.66640000       0.12032000 </v>
    <v>       0.83302000       0.49937000       0.17995000 </v>
    <v>       0.16769000       0.83389000       0.06029000 </v>
    <v>       0.50070015       0.16663500       0.30115429 </v>
    <v>       0.33289000       0.99824000       0.24130000 </v>
    <v>       0.66679000       0.99914000       0.24097000 </v>
    <v>       0.33466000       0.00023000       0.12082000 </v>
    <v>       0.66746000       0.99815000       0.00001000 </v>
    <v>       0.83636755       0.17169449       0.30172221 </v>
    <v>       0.83358000       0.16456000       0.06013000 </v>
    <v>       0.67484115       0.01376913       0.36033805 </v>
    <v>       0.83364000       0.16593000       0.18062000 </v>
    <v>       0.66653000       0.99972000       0.12044000 </v>
    <v>       0.33623344       0.33260950       0.35949727 </v>
    <v>       0.33487000       0.00167000       0.00066000 </v>
    <v>       0.33029152       0.99895090       0.36602634 </v>
    <v>       0.00122000       0.00217000       0.24080000 </v>
    <v>       0.16722000       0.50179000       0.05903000 </v>
    <v>       0.50000000       0.50344000       0.05949000 </v>
    <v>       0.49861000       0.16115000       0.05868000 </v>
    <v>       0.49968000       0.16444000       0.18182000 </v>
    <v>       0.83624524       0.50261390       0.29847953 </v>
    <v>       0.99722000       0.66135000       0.24151000 </v>
    <v>       0.33419000       0.66573000       0.24040000 </v>
    <v>       0.33414000       0.65855000       0.00278000 </v>
    <v>       0.32687336       0.66499795       0.36526494 </v>
    <v>       0.66923000       0.66337000       0.24097000 </v>
    <v>       0.52653492       0.83184087       0.44092101 </v>
   </varray>
  </structure>
  <varray name="forces" >
   <v>       0.01651811       0.00642920      -0.44357666 </v>
   <v>      -0.03771895       0.02167681      -0.39971372 </v>
   <v>       0.01856244      -0.05344168      -0.02367069 </v>
   <v>      -0.19088835       0.13458567       0.31062005 </v>
   <v>      -0.02533533      -0.00339116       0.01189300 </v>
   <v>       0.02744032      -0.01003508       0.01876406 </v>
   <v>      -0.01916397      -0.08805588       0.25151790 </v>
   <v>       0.41325808       0.17523096      -0.12657702 </v>
   <v>      -0.12255590       0.00703289      -0.03117599 </v>
   <v>      -0.02679610       0.00597114       0.00060011 </v>
   <v>      -0.09073954      -0.03755940       0.17944496 </v>
   <v>      -0.11482716      -0.04947254      -0.11239938 </v>
   <v>       0.00525116       0.01662895      -0.00253986 </v>
   <v>      -0.02248701       0.05270255       0.21420457 </v>
   <v>       0.03576464      -0.02273008      -0.00429034 </v>
   <v>      -0.08414858      -0.09920239       0.18897802 </v>
   <v>       0.04974787      -0.39423791       0.30982210 </v>
   <v>       0.02117988       0.03200700      -0.00517909 </v>
   <v>       0.09692953      -0.01913577       0.04000215 </v>
   <v>       0.04336075      -0.01622432      -0.06050445 </v>
   <v>       0.00661116       0.15863551       0.12548914 </v>
   <v>       0.00503315       0.01045989      -0.07691306 </v>
   <v>       0.00234386      -0.00853559      -0.00581875 </v>
   <v>       0.14071216      -0.01263977      -0.15799535 </v>
   <v>      -0.03679276       0.02844872       0.26004949 </v>
   <v>      -0.06317979       0.06424782      -0.09993887 </v>
   <v>       0.06512519      -0.01152807       0.15105141 </v>
   <v>      -0.02162450      -0.00572799      -0.01041415 </v>
   <v>       0.02617462       0.01404835      -0.00740375 </v>
   <v>      -0.01453761       0.01740815      -0.02448600 </v>
   <v>       0.23469410       0.04969174       0.29693858 </v>
   <v>      -0.01134552      -0.01078639       0.01007570 </v>
   <v>      -0.13665210       0.19930355      -0.46969669 </v>
   <v>      -0.00451905       0.04272934       0.04033152 </v>
   <v>      -0.02403653      -0.01651189       0.05462654 </v>
   <v>       0.15149924       0.15038942       0.36866987 </v>
   <v>       0.02948101       0.03969381       0.24507894 </v>
   <v>      -0.04254484      -0.03036565      -0.21923704 </v>
   <v>      -0.40397436       0.04267035      -0.06826436 </v>
   <v>      -0.01511051       0.00272259      -0.02035610 </v>
   <v>       0.11869726      -0.06406332       0.23583621 </v>
   <v>       0.00623104       0.03637774       0.08466875 </v>
   <v>      -0.01089611      -0.04732500       0.14970633 </v>
   <v>      -0.23429873      -0.00885581       0.25746059 </v>
   <v>       0.00571637      -0.01075159       0.01001542 </v>
   <v>      -0.02841860       0.01509258      -0.47314827 </v>
   <v>      -0.02894843       0.01538804       0.00744279 </v>
   <v>      -0.02534736      -0.01636229       0.04036853 </v>
   <v>      -0.04752592      -0.06682998       0.04751187 </v>
   <v>       0.00630449       0.01603915       0.01126243 </v>
   <v>      -0.11494091      -0.05454058      -0.15315125 </v>
   <v>      -0.05079269      -0.01033498      -0.04897406 </v>
   <v>      -0.05191271       0.01275833      -0.06674279 </v>
   <v>       0.04811939      -0.09237870      -0.19780431 </v>
   <v>       0.01656200      -0.13930669      -0.21000873 </v>
   <v>       0.41412233       0.46055239      -0.17708945 </v>
   <v>       0.01508713       0.02682067      -0.09826462 </v>
   <v>       0.00630207      -0.01926499       0.01266398 </v>
   <v>      -0.02502007      -0.02592143      -0.11973583 </v>
   <v>       0.04023644       0.04697889       0.30314969 </v>
   <v>      -0.03531480      -0.42805918      -0.27396373 </v>
   <v>       0.02336256       0.01823762      -0.02859952 </v>
   <v>       0.00413720       0.01908865       0.03803911 </v>
   <v>       0.06782924      -0.06647241      -0.05864997 </v>
  </varray>
  <varray name="stress" >
   <v>     -19.12046668       0.00228427       0.47423075 </v>
   <v>       0.00228431     -20.78391904       0.66413373 </v>
   <v>       0.47423055       0.66413373      -3.38731651 </v>
  </varray>
  <energy>
   <i name="e_fr_energy">   -512.76343010 </i>
   <i name="e_wo_entrp">   -512.77449854 </i>
   <i name="e_0_energy">   -512.76711958 </i>
  </energy>
  <time name="totalsc">  287.73  289.62</time>
 </calculation>
 <calculation>
  <scstep>
   <time name="dav">   15.97   16.08</time>
   <time name="total">   16.92   17.04</time>
   <dipole>
    <v name="dipole">      0.00000000       0.00000000       0.07752191 </v>
    <i name="Tr[quadrupol]">  -7399.00736535 </i>
    <i name="Echarged">      0.00000000 </i>
    <i name="Edipol_quadrupol">      0.00000000 </i>
    <i name="Eion">      0.00000000 </i>
   </dipole>
   <energy>
    <i name="alphaZ">   1854.34306257 </i>
    <i name="ewald"> 207436.18166160 </i>
    <i name="hartreedc">-258317.21963467 </i>
    <i name="XCdc">    955.05333330 </i>
    <i name="pawpsdc">  55321.08373232 </i>
    <i name="pawaedc"> -56411.82837396 </i>
    <i name="eentropy">      0.01138559 </i>
    <i name="bandstr">  -4150.35258513 </i>
    <i name="atom">  52799.98958613 </i>
    <i name="e_fr_energy">   -512.73783225 </i>
    <i name="e_wo_entrp">   -512.74921784 </i>
    <i name="e_0_energy">   -512.74162744 </i>
   </energy>
  </scstep>
  <scstep>
   <time name="dav">   16.02   16.12</time>
   <time name="total">   16.98   17.09</time>
   <dipole>
    <v name="dipole">      0.00000000       0.00000000       0.07839540 </v>
    <i name="Tr[quadrupol]">  -7399.00190771 </i>
    <i name="Echarged">      0.00000000 </i>
    <i name="Edipol_quadrupol">      0.00000000 </i>
    <i name="Eion">      0.00000000 </i>
   </dipole>
   <energy>
    <i name="e_fr_energy">   -512.75906816 </i>
    <i name="e_wo_entrp">   -512.77043003 </i>
    <i name="e_0_energy">   -512.76285545 </i>
   </energy>
  </scstep>
  <scstep>
   <time name="dav">   22.07   22.22</time>
   <time name="total">   23.03   23.18</time>
   <dipole>
    <v name="dipole">      0.00000000       0.00000000       0.07552309 </v>
    <i name="Tr[quadrupol]">  -7399.03857951 </i>
    <i name="Echarged">      0.00000000 </i>
    <i name="Edipol_quadrupol">      0.00000000 </i>
    <i name="Eion">      0.00000000 </i>
   </dipole>
   <energy>
    <i name="e_fr_energy">   -512.76188738 </i>
    <i name="e_wo_entrp">   -512.77419905 </i>
    <i name="e_0_energy">   -512.76599127 </i>
   </energy>
  </scstep>
  <scstep>
   <time name="dav">   25.63   25.80</time>
   <time name="total">   26.59   26.78</time>
   <dipole>
    <v name="dipole">      0.00000000       0.00000000       0.09580790 </v>
    <i name="Tr[quadrupol]">  -7399.02613915 </i>
    <i name="Echarged">      0.00000000 </i>
    <i name="Edipol_quadrupol">      0.00000000 </i>
    <i name="Eion">      0.00000000 </i>
   </dipole>
   <energy>
    <i name="e_fr_energy">   -512.77388395 </i>
    <i name="e_wo_entrp">   -512.77683927 </i>
    <i name="e_0_energy">   -512.77486905 </i>
   </energy>
  </scstep>
  <scstep>
   <time name="dav">   25.79   25.96</time>
   <time name="total">   26.75   26.93</time>
   <dipole>
    <v name="dipole">      0.00000000       0.00000000       0.07429971 </v>
    <i name="Tr[quadrupol]">  -7398.98108659 </i>
    <i name="Echarged">      0.00000000 </i>
    <i name="Edipol_quadrupol">      0.00000000 </i>
    <i name="Eion">      0.00000000 </i>
   </dipole>
   <energy>
    <i name="e_fr_energy">   -512.76436535 </i>
    <i name="e_wo_entrp">   -512.77801125 </i>
    <i name="e_0_energy">   -512.76891399 </i>
   </energy>
  </scstep>
  <scstep>
   <time name="dav">   25.08   25.24</time>
   <time name="total">   26.05   26.22</time>
   <dipole>
    <v name="dipole">      0.00000000       0.00000000       0.07649454 </v>
    <i name="Tr[quadrupol]">  -7399.04112456 </i>
    <i name="Echarged">      0.00000000 </i>
    <i name="Edipol_quadrupol">      0.00000000 </i>
    <i name="Eion">      0.00000000 </i>
   </dipole>
   <energy>
    <i name="e_fr_energy">   -512.76486409 </i>
    <i name="e_wo_entrp">   -512.77653433 </i>
    <i name="e_0_energy">   -512.76875417 </i>
   </energy>
  </scstep>
  <scstep>
   <time name="dav">   21.79   21.93</time>
   <time name="total">   22.75   22.91</time>
   <dipole>
    <v name="dipole">      0.00000000       0.00000000       0.07770062 </v>
    <i name="Tr[quadrupol]">  -7399.02964385 </i>
    <i name="Echarged">      0.00000000 </i>
    <i name="Edipol_quadrupol">      0.00000000 </i>
    <i name="Eion">      0.00000000 </i>
   </dipole>
   <energy>
    <i name="e_fr_energy">   -512.76491039 </i>
    <i name="e_wo_entrp">   -512.77608216 </i>
    <i name="e_0_energy">   -512.76863431 </i>
   </energy>
  </scstep>
  <scstep>
   <time name="dav">   17.50   17.62</time>
   <time name="total">   18.45   18.57</time>
   <dipole>
    <v name="dipole">      0.00000000       0.00000000       0.07823953 </v>
    <i name="Tr[quadrupol]">  -7399.02783843 </i>
    <i name="Echarged">      0.00000000 </i>
    <i name="Edipol_quadrupol">      0.00000000 </i>
    <i name="Eion">      0.00000000 </i>
   </dipole>
   <energy>
    <i name="e_fr_energy">   -512.76492210 </i>
    <i name="e_wo_entrp">   -512.77596238 </i>
    <i name="e_0_energy">   -512.76860219 </i>
   </energy>
  </scstep>
  <scstep>
   <time name="dav">   14.74   14.83</time>
   <time name="total">   15.68   15.78</time>
   <dipole>
    <v name="dipole">      0.00000000       0.00000000       0.07829650 </v>
    <i name="Tr[quadrupol]">  -7399.02638823 </i>
    <i name="Echarged">      0.00000000 </i>
    <i name="Edipol_quadrupol">      0.00000000 </i>
    <i name="Eion">      0.00000000 </i>
   </dipole>
   <energy>
    <i name="e_fr_energy">   -512.76489510 </i>
    <i name="e_wo_entrp">   -512.77595221 </i>
    <i name="e_0_energy">   -512.76858081 </i>
   </energy>
  </scstep>
  <scstep>
   <time name="dav">   20.05   20.18</time>
   <time name="total">   21.00   21.13</time>
   <dipole>
    <v name="dipole">      0.00000000       0.00000000       0.07767123 </v>
    <i name="Tr[quadrupol]">  -7399.02373043 </i>
    <i name="Echarged">      0.00000000 </i>
    <i name="Edipol_quadrupol">      0.00000000 </i>
    <i name="Eion">      0.00000000 </i>
   </dipole>
   <energy>
    <i name="e_fr_energy">   -512.76483878 </i>
    <i name="e_wo_entrp">   -512.77645401 </i>
    <i name="e_0_energy">   -512.76871052 </i>
   </energy>
  </scstep>
  <scstep>
   <time name="dav">   17.30   17.41</time>
   <time name="total">   17.73   17.86</time>
   <dipole>
    <v name="dipole">      0.00000000       0.00000000       0.07741929 </v>
    <i name="Tr[quadrupol]">  -7399.01258694 </i>
    <i name="Echarged">      0.00000000 </i>
    <i name="Edipol_quadrupol">      0.00000000 </i>
    <i name="Eion">      0.00000000 </i>
   </dipole>
   <energy>
    <i name="alphaZ">   1854.66875869 </i>
    <i name="ewald"> 207436.18166160 </i>
    <i name="hartreedc">-258317.00381240 </i>
    <i name="XCdc">    955.01829551 </i>
    <i name="pawpsdc">  55321.33884179 </i>
    <i name="pawaedc"> -56412.06995636 </i>
    <i name="eentropy">      0.01167669 </i>
    <i name="bandstr">  -4150.89989062 </i>
    <i name="atom">  52799.98958613 </i>
    <i name="e_fr_energy">   -512.76483896 </i>
    <i name="e_wo_entrp">   -512.77651565 </i>
    <i name="e_0_energy">   -512.76873119 </i>
   </energy>
  </scstep>
  <structure>
   <crystal>
    <varray name="basis" >
     <v>       8.50970000       0.00000000       0.00000000 </v>
     <v>      -0.00372597       8.53929919       0.00000000 </v>
     <v>       0.00000000       0.00000000      23.57140000 </v>
    </varray>
    <i name="volume">   1712.85996128 </i>
    <varray name="rec_basis" >
     <v>       0.11751296       0.00005127       0.00000000 </v>
     <v>       0.00000000       0.11710563       0.00000000 </v>
     <v>       0.00000000       0.00000000       0.04242429 </v>
    </varray>
   </crystal>
   <varray name="positions" >
    <v>       0.83310000       0.49871000       0.06001000 </v>
    <v>       0.83472000       0.83192000       0.06027000 </v>
    <v>       0.67521473       0.64964840       0.36018863 </v>
    <v>       0.00081000       0.66425000       0.00034000 </v>
    <v>       0.15974694       0.83095983       0.29958270 </v>
    <v>       0.66049429       0.33373209       0.36175461 </v>
    <v>       0.66559000       0.33138000       0.00044000 </v>
    <v>       0.49968000       0.83322000       0.06046000 </v>
    <v>       0.66721000       0.33321000       0.24067000 </v>
    <v>       0.50058000       0.49950000       0.18024000 </v>
    <v>       0.33595000       0.33196000       0.11912000 </v>
    <v>       0.33462000       0.33376000       0.24059000 </v>
    <v>       0.50009091       0.49961533       0.30044374 </v>
    <v>       0.00055000       0.33190000       0.12006000 </v>
    <v>       0.16752000       0.49945000       0.18065000 </v>
    <v>       0.00021000       0.33145000       0.00038000 </v>
    <v>       0.33510000       0.33170000       0.00029000 </v>
    <v>       0.01119801       0.33601464       0.36116038 </v>
    <v>       0.00077000       0.99959000       0.12036000 </v>
    <v>       0.16814000       0.16634000       0.18048000 </v>
    <v>       0.33405000       0.66593000       0.12095000 </v>
    <v>       0.50078000       0.83242000       0.18121000 </v>
    <v>       0.98602011       0.66672869       0.36071183 </v>
    <v>       0.99982000       0.33359000       0.24030000 </v>
    <v>       0.00025000       0.66569000       0.12051000 </v>
    <v>       0.16581000       0.83217000       0.18114000 </v>
    <v>       0.66566000       0.33123000       0.11970000 </v>
    <v>       0.83138796       0.83596466       0.30145073 </v>
    <v>       0.16506483       0.49858497       0.30073804 </v>
    <v>       0.16561596       0.16714670       0.30156005 </v>
    <v>       0.00161000       0.99891000       0.00024000 </v>
    <v>       0.99815029       0.99665697       0.36016408 </v>
    <v>       0.16807000       0.16539000       0.06004000 </v>
    <v>       0.50538522       0.83129652       0.30228204 </v>
    <v>       0.83476000       0.83303000       0.18132000 </v>
    <v>       0.66715000       0.66559000       0.00000000 </v>
    <v>       0.66719000       0.66640000       0.12032000 </v>
    <v>       0.83302000       0.49937000       0.17995000 </v>
    <v>       0.16769000       0.83389000       0.06029000 </v>
    <v>       0.50057926       0.16637911       0.30124268 </v>
    <v>       0.33289000       0.99824000       0.24130000 </v>
    <v>       0.66679000       0.99914000       0.24097000 </v>
    <v>       0.33466000       0.00023000       0.12082000 </v>
    <v>       0.66746000       0.99815000       0.00001000 </v>
    <v>       0.83627772       0.17161338       0.30165127 </v>
    <v>       0.83358000       0.16456000       0.06013000 </v>
    <v>       0.67462631       0.01420668       0.36023680 </v>
    <v>       0.83364000       0.16593000       0.18062000 </v>
    <v>       0.66653000       0.99972000       0.12044000 </v>
    <v>       0.33636212       0.33260695       0.35950542 </v>
    <v>       0.33487000       0.00167000       0.00066000 </v>
    <v>       0.32967770       0.99951645       0.36597507 </v>
    <v>       0.00122000       0.00217000       0.24080000 </v>
    <v>       0.16722000       0.50179000       0.05903000 </v>
    <v>       0.50000000       0.50344000       0.05949000 </v>
    <v>       0.49861000       0.16115000       0.05868000 </v>
    <v>       0.49968000       0.16444000       0.18182000 </v>
    <v>       0.83615268       0.50246663       0.29856022 </v>
    <v>       0.99722000       0.66135000       0.24151000 </v>
    <v>       0.33419000       0.66573000       0.24040000 </v>
    <v>       0.33414000       0.65855000       0.00278000 </v>
    <v>       0.32701085       0.66492128       0.36508167 </v>
    <v>       0.66923000       0.66337000       0.24097000 </v>
    <v>       0.52719101       0.83119805       0.44060541 </v>
   </varray>
  </structure>
  <varray name="forces" >
   <v>       0.01584670       0.00715804      -0.44229375 </v>
   <v>      -0.03759860       0.02241053      -0.39849668 </v>
   <v>       0.00327879      -0.05273681      -0.01032501 </v>
   <v>      -0.19020052       0.13485858       0.30899459 </v>
   <v>       0.00586529       0.00459363      -0.03168079 </v>
   <v>       0.02811191      -0.00135973       0.00665641 </v>
   <v>      -0.01850805      -0.08849674       0.24968684 </v>
   <v>       0.41278933       0.17515822      -0.12592169 </v>
   <v>      -0.12558075      -0.00146641      -0.02810318 </v>
   <v>      -0.03000427       0.00817593      -0.00014106 </v>
   <v>      -0.09036418      -0.03663816       0.17850816 </v>
   <v>      -0.10927738      -0.05812419      -0.10995939 </v>
   <v>      -0.00384191       0.00280324       0.00943771 </v>
   <v>      -0.02140636       0.05212197       0.21268644 </v>
   <v>       0.03748452      -0.02008162      -0.00749331 </v>
   <v>      -0.08425606      -0.09994454       0.18722302 </v>
   <v>       0.04984133      -0.39453428       0.30827319 </v>
   <v>       0.03014893       0.03469835      -0.04384482 </v>
   <v>       0.09654619      -0.01912997       0.03843404 </v>
   <v>       0.04217855      -0.01770136      -0.05534118 </v>
   <v>       0.00738824       0.15809326       0.12307811 </v>
   <v>       0.00324290       0.01032330      -0.06668095 </v>
   <v>      -0.00218107      -0.01012241       0.00001988 </v>
   <v>       0.14758716      -0.01926979      -0.14903000 </v>
   <v>      -0.03701879       0.02878789       0.25904924 </v>
   <v>      -0.06169333       0.06388156      -0.08886677 </v>
   <v>       0.06551255      -0.01260542       0.14894635 </v>
   <v>       0.02996227      -0.01038774       0.00354842 </v>
   <v>       0.00366082      -0.02020552       0.03233593 </v>
   <v>      -0.05770866       0.05711528      -0.04365847 </v>
   <v>       0.23487990       0.04992224       0.29573480 </v>
   <v>      -0.02546634      -0.00303602       0.00773227 </v>
   <v>      -0.13614934       0.19896325      -0.46840300 </v>
   <v>      -0.04744792       0.02204649      -0.00176772 </v>
   <v>      -0.02297601      -0.01458441       0.05162510 </v>
   <v>       0.15124122       0.15044524       0.36769593 </v>
   <v>       0.02963897       0.03937487       0.24417855 </v>
   <v>      -0.04296787      -0.02900452      -0.21422584 </v>
   <v>      -0.40322319       0.04275934      -0.06769352 </v>
   <v>      -0.01261141       0.03882285      -0.04629712 </v>
   <v>       0.11611757      -0.08427824       0.25164626 </v>
   <v>      -0.00394164       0.04198868       0.07490441 </v>
   <v>      -0.01125821      -0.04687357       0.14662024 </v>
   <v>      -0.23463994      -0.00891939       0.25587744 </v>
   <v>       0.02658788       0.00538332       0.02628639 </v>
   <v>      -0.02846868       0.01521191      -0.47204548 </v>
   <v>      -0.02384953       0.01063480       0.03333283 </v>
   <v>      -0.02436275      -0.01627466       0.03802746 </v>
   <v>      -0.04725873      -0.06634625       0.04654331 </v>
   <v>       0.00246370       0.02570673       0.00396966 </v>
   <v>      -0.11619210      -0.05531001      -0.15543720 </v>
   <v>      -0.01875290      -0.05664048      -0.01903196 </v>
   <v>      -0.05080901       0.00991108      -0.05977204 </v>
   <v>       0.04772807      -0.09271147      -0.19534619 </v>
   <v>       0.01601800      -0.13867162      -0.20873252 </v>
   <v>       0.41502897       0.46040365      -0.17475341 </v>
   <v>       0.01339569       0.02596185      -0.09361586 </v>
   <v>       0.03254581      -0.03596598      -0.00936971 </v>
   <v>      -0.03314602      -0.01994136      -0.11443390 </v>
   <v>       0.04974060       0.06802197       0.31131989 </v>
   <v>      -0.03515341      -0.42791585      -0.27583705 </v>
   <v>       0.02269864       0.02521520      -0.02136611 </v>
   <v>      -0.00143375       0.02031018       0.03698950 </v>
   <v>       0.05221819      -0.05198489      -0.05939666 </v>
  </varray>
  <varray name="stress" >
   <v>     -19.02389224       0.00405646       0.44422913 </v>
   <v>       0.00405657     -20.74911316       0.70435282 </v>
   <v>       0.44422875       0.70435289      -3.31386639 </v>
  </varray>
  <energy>
   <i name="e_fr_energy">   -512.76483896 </i>
   <i name="e_wo_entrp">   -512.77651565 </i>
   <i name="e_0_energy">   -512.76873119 </i>
  </energy>
  <time name="totalsc">  248.94  250.59</time>
 </calculation>
 <calculation>
  <scstep>
   <time name="dav">   16.18   16.29</time>
   <time name="total">   17.13   17.24</time>
   <dipole>
    <v name="dipole">      0.00000000       0.00000000       0.07754226 </v>
    <i name="Tr[quadrupol]">  -7399.20911972 </i>
    <i name="Echarged">      0.00000000 </i>
    <i name="Edipol_quadrupol">      0.00000000 </i>
    <i name="Eion">      0.00000000 </i>
   </dipole>
   <energy>
    <i name="alphaZ">   1854.01767796 </i>
    <i name="ewald"> 207509.66439741 </i>
    <i name="hartreedc">-258390.22602040 </i>
    <i name="XCdc">    955.05375679 </i>
    <i name="pawpsdc">  55321.28628706 </i>
    <i name="pawaedc"> -56412.01713899 </i>
    <i name="eentropy">      0.01227021 </i>
    <i name="bandstr">  -4150.51133928 </i>
    <i name="atom">  52799.98958613 </i>
    <i name="e_fr_energy">   -512.73052310 </i>
    <i name="e_wo_entrp">   -512.74279331 </i>
    <i name="e_0_energy">   -512.73461317 </i>
   </energy>
  </scstep>
  <scstep>
   <time name="dav">   16.08   16.19</time>
   <time name="total">   17.05   17.16</time>
   <dipole>
    <v name="dipole">      0.00000000       0.00000000       0.08758281 </v>
    <i name="Tr[quadrupol]">  -7399.24011530 </i>
    <i name="Echarged">      0.00000000 </i>
    <i name="Edipol_quadrupol">      0.00000000 </i>
    <i name="Eion">      0.00000000 </i>
   </dipole>
   <energy>
    <i name="e_fr_energy">   -512.76427234 </i>
    <i name="e_wo_entrp">   -512.77165911 </i>
    <i name="e_0_energy">   -512.76673460 </i>
   </energy>
  </scstep>
  <scstep>
   <time name="dav">   22.30   22.45</time>
   <time name="total">   23.25   23.41</time>
   <dipole>
    <v name="dipole">      0.00000000       0.00000000       0.05477605 </v>
    <i name="Tr[quadrupol]">  -7399.21765855 </i>
    <i name="Echarged">      0.00000000 </i>
    <i name="Edipol_quadrupol">      0.00000000 </i>
    <i name="Eion">      0.00000000 </i>
   </dipole>
   <energy>
    <i name="e_fr_energy">   -512.78235314 </i>
    <i name="e_wo_entrp">   -512.80574377 </i>
    <i name="e_0_energy">   -512.79015001 </i>
   </energy>
  </scstep>
  <scstep>
   <time name="dav">   25.19   25.36</time>
   <time name="total">   26.15   26.33</time>
   <dipole>
    <v name="dipole">      0.00000000       0.00000000       0.08143883 </v>
    <i name="Tr[quadrupol]">  -7399.23462584 </i>
    <i name="Echarged">      0.00000000 </i>
    <i name="Edipol_quadrupol">      0.00000000 </i>
    <i name="Eion">      0.00000000 </i>
   </dipole>
   <energy>
    <i name="e_fr_energy">   -512.76454490 </i>
    <i name="e_wo_entrp">   -512.77488585 </i>
    <i name="e_0_energy">   -512.76799188 </i>
   </energy>
  </scstep>
  <scstep>
   <time name="dav">   23.97   24.12</time>
   <time name="total">   24.93   25.09</time>
   <dipole>
    <v name="dipole">      0.00000000       0.00000000       0.07609452 </v>
    <i name="Tr[quadrupol]">  -7399.20124536 </i>
    <i name="Echarged">      0.00000000 </i>
    <i name="Edipol_quadrupol">      0.00000000 </i>
    <i name="Eion">      0.00000000 </i>
   </dipole>
   <energy>
    <i name="e_fr_energy">   -512.76782710 </i>
    <i name="e_wo_entrp">   -512.78106615 </i>
    <i name="e_0_energy">   -512.77224012 </i>
   </energy>
  </scstep>
  <scstep>
   <time name="dav">   23.63   23.78</time>
   <time name="total">   24.59   24.76</time>
   <dipole>
    <v name="dipole">      0.00000000       0.00000000       0.07291908 </v>
    <i name="Tr[quadrupol]">  -7399.26131493 </i>
    <i name="Echarged">      0.00000000 </i>
    <i name="Edipol_quadrupol">      0.00000000 </i>
    <i name="Eion">      0.00000000 </i>
   </dipole>
   <energy>
    <i name="e_fr_energy">   -512.76908433 </i>
    <i name="e_wo_entrp">   -512.78291863 </i>
    <i name="e_0_energy">   -512.77369576 </i>
   </energy>
  </scstep>
  <scstep>
   <time name="dav">   22.94   23.09</time>
   <time name="total">   23.89   24.05</time>
   <dipole>
    <v name="dipole">      0.00000000       0.00000000       0.07727763 </v>
    <i name="Tr[quadrupol]">  -7399.24486952 </i>
    <i name="Echarged">      0.00000000 </i>
    <i name="Edipol_quadrupol">      0.00000000 </i>
    <i name="Eion">      0.00000000 </i>
   </dipole>
   <energy>
    <i name="e_fr_energy">   -512.76840815 </i>
    <i name="e_wo_entrp">   -512.78032162 </i>
    <i name="e_0_energy">   -512.77237931 </i>
   </energy>
  </scstep>
  <scstep>
   <time name="dav">   21.25   21.39</time>
   <time name="total">   22.23   22.37</time>
   <dipole>
    <v name="dipole">      0.00000000       0.00000000       0.07818104 </v>
    <i name="Tr[quadrupol]">  -7399.24618610 </i>
    <i name="Echarged">      0.00000000 </i>
    <i name="Edipol_quadrupol">      0.00000000 </i>
    <i name="Eion">      0.00000000 </i>
   </dipole>
   <energy>
    <i name="e_fr_energy">   -512.76845985 </i>
    <i name="e_wo_entrp">   -512.77990870 </i>
    <i name="e_0_energy">   -512.77227614 </i>
   </energy>
  </scstep>
  <scstep>
   <time name="dav">   17.82   17.93</time>
   <time name="total">   18.78   18.91</time>
   <dipole>
    <v name="dipole">      0.00000000       0.00000000       0.07792547 </v>
    <i name="Tr[quadrupol]">  -7399.24420177 </i>
    <i name="Echarged">      0.00000000 </i>
    <i name="Edipol_quadrupol">      0.00000000 </i>
    <i name="Eion">      0.00000000 </i>
   </dipole>
   <energy>
    <i name="e_fr_energy">   -512.76841844 </i>
    <i name="e_wo_entrp">   -512.78021446 </i>
    <i name="e_0_energy">   -512.77235044 </i>
   </energy>
  </scstep>
  <scstep>
   <time name="dav">   22.22   22.36</time>
   <time name="total">   23.19   23.33</time>
   <dipole>
    <v name="dipole">      0.00000000       0.00000000       0.07769822 </v>
    <i name="Tr[quadrupol]">  -7399.23370234 </i>
    <i name="Echarged">      0.00000000 </i>
    <i name="Edipol_quadrupol">      0.00000000 </i>
    <i name="Eion">      0.00000000 </i>
   </dipole>
   <energy>
    <i name="e_fr_energy">   -512.76836673 </i>
    <i name="e_wo_entrp">   -512.78042070 </i>
    <i name="e_0_energy">   -512.77238472 </i>
   </energy>
  </scstep>
  <scstep>
   <time name="dav">   15.61   15.71</time>
   <time name="total">   16.04   16.14</time>
   <dipole>
    <v name="dipole">      0.00000000       0.00000000       0.07774309 </v>
    <i name="Tr[quadrupol]">  -7399.22160298 </i>
    <i name="Echarged">      0.00000000 </i>
    <i name="Edipol_quadrupol">      0.00000000 </i>
    <i name="Eion">      0.00000000 </i>
   </dipole>
   <energy>
    <i name="alphaZ">   1854.34790745 </i>
    <i name="ewald"> 207509.66439741 </i>
    <i name="hartreedc">-258390.28647226 </i>
    <i name="XCdc">    954.99991979 </i>
    <i name="pawpsdc">  55323.89927670 </i>
    <i name="pawaedc"> -56414.64063248 </i>
    <i name="eentropy">      0.01213194 </i>
    <i name="bandstr">  -4150.75447903 </i>
    <i name="atom">  52799.98958613 </i>
    <i name="e_fr_energy">   -512.76836435 </i>
    <i name="e_wo_entrp">   -512.78049628 </i>
    <i name="e_0_energy">   -512.77240832 </i>
   </energy>
  </scstep>
  <structure>
   <crystal>
    <varray name="basis" >
     <v>       8.50970000       0.00000000       0.00000000 </v>
     <v>      -0.00372597       8.53929919       0.00000000 </v>
     <v>       0.00000000       0.00000000      23.57140000 </v>
    </varray>
    <i name="volume">   1712.85996128 </i>
    <varray name="rec_basis" >
     <v>       0.11751296       0.00005127       0.00000000 </v>
     <v>       0.00000000       0.11710563       0.00000000 </v>
     <v>       0.00000000       0.00000000       0.04242429 </v>
    </varray>
   </crystal>
   <varray name="positions" >
    <v>       0.83310000       0.49871000       0.06001000 </v>
    <v>       0.83472000       0.83192000       0.06027000 </v>
    <v>       0.67565103       0.64857202       0.36009666 </v>
    <v>       0.00081000       0.66425000       0.00034000 </v>
    <v>       0.15939590       0.83099294       0.29959262 </v>
    <v>       0.66092769       0.33351816       0.36187646 </v>
    <v>       0.66559000       0.33138000       0.00044000 </v>
    <v>       0.49968000       0.83322000       0.06046000 </v>
    <v>       0.66721000       0.33321000       0.24067000 </v>
    <v>       0.50058000       0.49950000       0.18024000 </v>
    <v>       0.33595000       0.33196000       0.11912000 </v>
    <v>       0.33462000       0.33376000       0.24059000 </v>
    <v>       0.50020146       0.49970677       0.30044175 </v>
    <v>       0.00055000       0.33190000       0.12006000 </v>
    <v>       0.16752000       0.49945000       0.18065000 </v>
    <v>       0.00021000       0.33145000       0.00038000 </v>
    <v>       0.33510000       0.33170000       0.00029000 </v>
    <v>       0.01172099       0.33662143       0.36107497 </v>
    <v>       0.00077000       0.99959000       0.12036000 </v>
    <v>       0.16814000       0.16634000       0.18048000 </v>
    <v>       0.33405000       0.66593000       0.12095000 </v>
    <v>       0.50078000       0.83242000       0.18121000 </v>
    <v>       0.98592696       0.66658151       0.36069935 </v>
    <v>       0.99982000       0.33359000       0.24030000 </v>
    <v>       0.00025000       0.66569000       0.12051000 </v>
    <v>       0.16581000       0.83217000       0.18114000 </v>
    <v>       0.66566000       0.33123000       0.11970000 </v>
    <v>       0.83128277       0.83582813       0.30142030 </v>
    <v>       0.16528807       0.49854451       0.30074439 </v>
    <v>       0.16510120       0.16766514       0.30143474 </v>
    <v>       0.00161000       0.99891000       0.00024000 </v>
    <v>       0.99769680       0.99643579       0.36020740 </v>
    <v>       0.16807000       0.16539000       0.06004000 </v>
    <v>       0.50516190       0.83186946       0.30247786 </v>
    <v>       0.83476000       0.83303000       0.18132000 </v>
    <v>       0.66715000       0.66559000       0.00000000 </v>
    <v>       0.66719000       0.66640000       0.12032000 </v>
    <v>       0.83302000       0.49937000       0.17995000 </v>
    <v>       0.16769000       0.83389000       0.06029000 </v>
    <v>       0.50034726       0.16667625       0.30109963 </v>
    <v>       0.33289000       0.99824000       0.24130000 </v>
    <v>       0.66679000       0.99914000       0.24097000 </v>
    <v>       0.33466000       0.00023000       0.12082000 </v>
    <v>       0.66746000       0.99815000       0.00001000 </v>
    <v>       0.83653894       0.17162435       0.30171874 </v>
    <v>       0.83358000       0.16456000       0.06013000 </v>
    <v>       0.67419637       0.01462437       0.36031487 </v>
    <v>       0.83364000       0.16593000       0.18062000 </v>
    <v>       0.66653000       0.99972000       0.12044000 </v>
    <v>       0.33647721       0.33291426       0.35952811 </v>
    <v>       0.33487000       0.00167000       0.00066000 </v>
    <v>       0.32904458       0.99921026       0.36585823 </v>
    <v>       0.00122000       0.00217000       0.24080000 </v>
    <v>       0.16722000       0.50179000       0.05903000 </v>
    <v>       0.50000000       0.50344000       0.05949000 </v>
    <v>       0.49861000       0.16115000       0.05868000 </v>
    <v>       0.49968000       0.16444000       0.18182000 </v>
    <v>       0.83648373       0.50193675       0.29857288 </v>
    <v>       0.99722000       0.66135000       0.24151000 </v>
    <v>       0.33419000       0.66573000       0.24040000 </v>
    <v>       0.33414000       0.65855000       0.00278000 </v>
    <v>       0.32737586       0.66517359       0.36486722 </v>
    <v>       0.66923000       0.66337000       0.24097000 </v>
    <v>       0.52825522       0.83014734       0.44013770 </v>
   </varray>
  </structure>
  <varray name="forces" >
   <v>       0.01484175       0.00784243      -0.44277329 </v>
   <v>      -0.03693719       0.02212739      -0.39932670 </v>
   <v>       0.00589759      -0.04683258      -0.02073061 </v>
   <v>      -0.19036137       0.13461694       0.30945328 </v>
   <v>       0.02050761       0.00226599      -0.04461607 </v>
   <v>       0.02538674      -0.00235438      -0.00041208 </v>
   <v>      -0.01728513      -0.08828361       0.24961824 </v>
   <v>       0.41312717       0.17443026      -0.12445302 </v>
   <v>      -0.11957076      -0.00366990      -0.02814314 </v>
   <v>      -0.03005286       0.01014216       0.00134091 </v>
   <v>      -0.08937276      -0.03684030       0.17958592 </v>
   <v>      -0.11197495      -0.05105044      -0.12032737 </v>
   <v>      -0.00491289      -0.00267307       0.00221854 </v>
   <v>      -0.02122064       0.05211346       0.21224489 </v>
   <v>       0.03907890      -0.01774768      -0.00590460 </v>
   <v>      -0.08427087      -0.09976831       0.18689525 </v>
   <v>       0.04925405      -0.39432646       0.30889009 </v>
   <v>       0.01284441       0.02673887      -0.01562936 </v>
   <v>       0.09627832      -0.01944629       0.03856109 </v>
   <v>       0.04165116      -0.01886263      -0.05978564 </v>
   <v>       0.00859702       0.15819509       0.12206890 </v>
   <v>       0.00315864       0.00851657      -0.05732714 </v>
   <v>       0.00129502      -0.00797298       0.00802001 </v>
   <v>       0.14628780      -0.01344194      -0.16938362 </v>
   <v>      -0.03719145       0.02947522       0.25993794 </v>
   <v>      -0.06219249       0.06343264      -0.08658392 </v>
   <v>       0.06609007      -0.01366045       0.14910295 </v>
   <v>       0.01997604      -0.00490988       0.01398005 </v>
   <v>       0.00984163       0.00203125       0.01971614 </v>
   <v>      -0.01512346       0.01402209      -0.01981493 </v>
   <v>       0.23465215       0.05030075       0.29667134 </v>
   <v>      -0.02710907       0.00424595       0.00400177 </v>
   <v>      -0.13638937       0.19846417      -0.46773103 </v>
   <v>      -0.02225568      -0.01048961      -0.04266088 </v>
   <v>      -0.02460138      -0.01627151       0.05139157 </v>
   <v>       0.15190088       0.15012397       0.36864287 </v>
   <v>       0.02982200       0.03952708       0.24426960 </v>
   <v>      -0.04491746      -0.02761932      -0.21235817 </v>
   <v>      -0.40375355       0.04227996      -0.06781641 </v>
   <v>      -0.00493350       0.02784119      -0.01196226 </v>
   <v>       0.10581877      -0.08234372       0.25668726 </v>
   <v>      -0.00342967       0.04548790       0.08378053 </v>
   <v>      -0.01131369      -0.04550936       0.14628433 </v>
   <v>      -0.23402589      -0.00897335       0.25565946 </v>
   <v>      -0.00363692      -0.00429575       0.01843215 </v>
   <v>      -0.02786474       0.01487629      -0.47131807 </v>
   <v>      -0.00613699       0.01942623       0.00088998 </v>
   <v>      -0.02486959      -0.01774903       0.03859564 </v>
   <v>      -0.04829552      -0.06585795       0.04620525 </v>
   <v>       0.00443531       0.01548420      -0.00224763 </v>
   <v>      -0.11675671      -0.05669951      -0.15598600 </v>
   <v>      -0.00943562      -0.03297202      -0.00736317 </v>
   <v>      -0.05539805       0.01132509      -0.06124033 </v>
   <v>       0.04654603      -0.09269776      -0.19516708 </v>
   <v>       0.01555034      -0.13759289      -0.20886173 </v>
   <v>       0.41600065       0.45995036      -0.17288992 </v>
   <v>       0.01222901       0.02574129      -0.09829562 </v>
   <v>       0.02540527      -0.01534126      -0.02216209 </v>
   <v>      -0.03247168      -0.02239443      -0.11266234 </v>
   <v>       0.05418739       0.07447849       0.31220184 </v>
   <v>      -0.03537949      -0.42749169      -0.27645766 </v>
   <v>       0.00101683       0.01289676      -0.02412059 </v>
   <v>      -0.00886903       0.02285746       0.04662592 </v>
   <v>       0.03063184      -0.03511740      -0.02546122 </v>
  </varray>
  <varray name="stress" >
   <v>     -18.98323894       0.02306706       0.39211262 </v>
   <v>       0.02306689     -20.71900932       0.74306790 </v>
   <v>       0.39211232       0.74306804      -3.22734417 </v>
  </varray>
  <energy>
   <i name="e_fr_energy">   -512.76836435 </i>
   <i name="e_wo_entrp">   -512.78049628 </i>
   <i name="e_0_energy">   -512.77240832 </i>
  </energy>
  <time name="totalsc">  254.23  255.90</time>
 </calculation>
 <calculation>
  <scstep>
   <time name="dav">   16.14   16.24</time>
   <time name="total">   17.11   17.22</time>
   <dipole>
    <v name="dipole">      0.00000000       0.00000000       0.07766390 </v>
    <i name="Tr[quadrupol]">  -7399.43850453 </i>
    <i name="Echarged">      0.00000000 </i>
    <i name="Edipol_quadrupol">      0.00000000 </i>
    <i name="Eion">      0.00000000 </i>
   </dipole>
   <energy>
    <i name="alphaZ">   1854.34867583 </i>
    <i name="ewald"> 207579.27475725 </i>
    <i name="hartreedc">-258459.63169159 </i>
    <i name="XCdc">    955.03466973 </i>
    <i name="pawpsdc">  55323.93493287 </i>
    <i name="pawaedc"> -56414.67694830 </i>
    <i name="eentropy">      0.01272455 </i>
    <i name="bandstr">  -4151.02224491 </i>
    <i name="atom">  52799.98958613 </i>
    <i name="e_fr_energy">   -512.73553842 </i>
    <i name="e_wo_entrp">   -512.74826298 </i>
    <i name="e_0_energy">   -512.73977994 </i>
   </energy>
  </scstep>
  <scstep>
   <time name="dav">   16.22   16.33</time>
   <time name="total">   17.19   17.31</time>
   <dipole>
    <v name="dipole">      0.00000000       0.00000000       0.08809852 </v>
    <i name="Tr[quadrupol]">  -7399.46024863 </i>
    <i name="Echarged">      0.00000000 </i>
    <i name="Edipol_quadrupol">      0.00000000 </i>
    <i name="Eion">      0.00000000 </i>
   </dipole>
   <energy>
    <i name="e_fr_energy">   -512.76604595 </i>
    <i name="e_wo_entrp">   -512.77364131 </i>
    <i name="e_0_energy">   -512.76857774 </i>
   </energy>
  </scstep>
  <scstep>
   <time name="dav">   22.03   22.17</time>
   <time name="total">   22.99   23.14</time>
   <dipole>
    <v name="dipole">      0.00000000       0.00000000       0.05770183 </v>
    <i name="Tr[quadrupol]">  -7399.43900041 </i>
    <i name="Echarged">      0.00000000 </i>
    <i name="Edipol_quadrupol">      0.00000000 </i>
    <i name="Eion">      0.00000000 </i>
   </dipole>
   <energy>
    <i name="e_fr_energy">   -512.77950818 </i>
    <i name="e_wo_entrp">   -512.80214952 </i>
    <i name="e_0_energy">   -512.78705529 </i>
   </energy>
  </scstep>
  <scstep>
   <time name="dav">   24.60   24.76</time>
   <time name="total">   25.57   25.73</time>
   <dipole>
    <v name="dipole">      0.00000000       0.00000000       0.08130950 </v>
    <i name="Tr[quadrupol]">  -7399.45210011 </i>
    <i name="Echarged">      0.00000000 </i>
    <i name="Edipol_quadrupol">      0.00000000 </i>
    <i name="Eion">      0.00000000 </i>
   </dipole>
   <energy>
    <i name="e_fr_energy">   -512.76591016 </i>
    <i name="e_wo_entrp">   -512.77680411 </i>
    <i name="e_0_energy">   -512.76954148 </i>
   </energy>
  </scstep>
  <scstep>
   <time name="dav">   23.67   23.82</time>
   <time name="total">   24.63   24.80</time>
   <dipole>
    <v name="dipole">      0.00000000       0.00000000       0.07606058 </v>
    <i name="Tr[quadrupol]">  -7399.42352284 </i>
    <i name="Echarged">      0.00000000 </i>
    <i name="Edipol_quadrupol">      0.00000000 </i>
    <i name="Eion">      0.00000000 </i>
   </dipole>
   <energy>
    <i name="e_fr_energy">   -512.76883954 </i>
    <i name="e_wo_entrp">   -512.78255725 </i>
    <i name="e_0_energy">   -512.77341211 </i>
   </energy>
  </scstep>
  <scstep>
   <time name="dav">   23.48   23.63</time>
   <time name="total">   24.45   24.60</time>
   <dipole>
    <v name="dipole">      0.00000000       0.00000000       0.07331075 </v>
    <i name="Tr[quadrupol]">  -7399.47943414 </i>
    <i name="Echarged">      0.00000000 </i>
    <i name="Edipol_quadrupol">      0.00000000 </i>
    <i name="Eion">      0.00000000 </i>
   </dipole>
   <energy>
    <i name="e_fr_energy">   -512.76991210 </i>
    <i name="e_wo_entrp">   -512.78407544 </i>
    <i name="e_0_energy">   -512.77463321 </i>
   </energy>
  </scstep>
  <scstep>
   <time name="dav">   23.02   23.17</time>
   <time name="total">   23.99   24.15</time>
   <dipole>
    <v name="dipole">      0.00000000       0.00000000       0.07739199 </v>
    <i name="Tr[quadrupol]">  -7399.46179318 </i>
    <i name="Echarged">      0.00000000 </i>
    <i name="Edipol_quadrupol">      0.00000000 </i>
    <i name="Eion">      0.00000000 </i>
   </dipole>
   <energy>
    <i name="e_fr_energy">   -512.76928477 </i>
    <i name="e_wo_entrp">   -512.78162643 </i>
    <i name="e_0_energy">   -512.77339865 </i>
   </energy>
  </scstep>
  <scstep>
   <time name="dav">   21.67   21.80</time>
   <time name="total">   22.62   22.77</time>
   <dipole>
    <v name="dipole">      0.00000000       0.00000000       0.07836937 </v>
    <i name="Tr[quadrupol]">  -7399.46315184 </i>
    <i name="Echarged">      0.00000000 </i>
    <i name="Edipol_quadrupol">      0.00000000 </i>
    <i name="Eion">      0.00000000 </i>
   </dipole>
   <energy>
    <i name="e_fr_energy">   -512.76933359 </i>
    <i name="e_wo_entrp">   -512.78119873 </i>
    <i name="e_0_energy">   -512.77328864 </i>
   </energy>
  </scstep>
  <scstep>
   <time name="dav">   17.95   18.07</time>
   <time name="total">   18.92   19.03</time>
   <dipole>
    <v name="dipole">      0.00000000       0.00000000       0.07790913 </v>
    <i name="Tr[quadrupol]">  -7399.46075170 </i>
    <i name="Echarged">      0.00000000 </i>
    <i name="Edipol_quadrupol">      0.00000000 </i>
    <i name="Eion">      0.00000000 </i>
   </dipole>
   <energy>
    <i name="e_fr_energy">   -512.76928367 </i>
    <i name="e_wo_entrp">   -512.78159257 </i>
    <i name="e_0_energy">   -512.77338664 </i>
   </energy>
  </scstep>
  <scstep>
   <time name="dav">   21.90   22.04</time>
   <time name="total">   22.87   23.02</time>
   <dipole>
    <v name="dipole">      0.00000000       0.00000000       0.07804558 </v>
    <i name="Tr[quadrupol]">  -7399.44958496 </i>
    <i name="Echarged">      0.00000000 </i>
    <i name="Edipol_quadrupol">      0.00000000 </i>
    <i name="Eion">      0.00000000 </i>
   </dipole>
   <energy>
    <i name="e_fr_energy">   -512.76924251 </i>
    <i name="e_wo_entrp">   -512.78172679 </i>
    <i name="e_0_energy">   -512.77340393 </i>
   </energy>
  </scstep>
  <scstep>
   <time name="dav">   13.84   13.93</time>
   <time name="total">   14.26   14.37</time>
   <dipole>
    <v name="dipole">      0.00000000       0.00000000       0.07789787 </v>
    <i name="Tr[quadrupol]">  -7399.43745462 </i>
    <i name="Echarged">      0.00000000 </i>
    <i name="Edipol_quadrupol">      0.00000000 </i>
    <i name="Eion">      0.00000000 </i>
   </dipole>
   <energy>
    <i name="alphaZ">   1854.35177796 </i>
    <i name="ewald"> 207579.27475725 </i>
    <i name="hartreedc">-258459.63274491 </i>
    <i name="XCdc">    954.98227645 </i>
    <i name="pawpsdc">  55327.02797917 </i>
    <i name="pawaedc"> -56417.78109301 </i>
    <i name="eentropy">      0.01258291 </i>
    <i name="bandstr">  -4150.99436876 </i>
    <i name="atom">  52799.98958613 </i>
    <i name="e_fr_energy">   -512.76924681 </i>
    <i name="e_wo_entrp">   -512.78182972 </i>
    <i name="e_0_energy">   -512.77344111 </i>
   </energy>
  </scstep>
  <structure>
   <crystal>
    <varray name="basis" >
     <v>       8.50970000       0.00000000       0.00000000 </v>
     <v>      -0.00372597       8.53929919       0.00000000 </v>
     <v>       0.00000000       0.00000000      23.57140000 </v>
    </varray>
    <i name="volume">   1712.85996128 </i>
    <varray name="rec_basis" >
     <v>       0.11751296       0.00005127       0.00000000 </v>
     <v>       0.00000000       0.11710563       0.00000000 </v>
     <v>       0.00000000       0.00000000       0.04242429 </v>
    </varray>
   </crystal>
   <varray name="positions" >
    <v>       0.83310000       0.49871000       0.06001000 </v>
    <v>       0.83472000       0.83192000       0.06027000 </v>
    <v>       0.67606360       0.64755418       0.36000970 </v>
    <v>       0.00081000       0.66425000       0.00034000 </v>
    <v>       0.15906395       0.83102426       0.29960201 </v>
    <v>       0.66133752       0.33331586       0.36199169 </v>
    <v>       0.66559000       0.33138000       0.00044000 </v>
    <v>       0.49968000       0.83322000       0.06046000 </v>
    <v>       0.66721000       0.33321000       0.24067000 </v>
    <v>       0.50058000       0.49950000       0.18024000 </v>
    <v>       0.33595000       0.33196000       0.11912000 </v>
    <v>       0.33462000       0.33376000       0.24059000 </v>
    <v>       0.50030600       0.49979323       0.30043988 </v>
    <v>       0.00055000       0.33190000       0.12006000 </v>
    <v>       0.16752000       0.49945000       0.18065000 </v>
    <v>       0.00021000       0.33145000       0.00038000 </v>
    <v>       0.33510000       0.33170000       0.00029000 </v>
    <v>       0.01221553       0.33719522       0.36099420 </v>
    <v>       0.00077000       0.99959000       0.12036000 </v>
    <v>       0.16814000       0.16634000       0.18048000 </v>
    <v>       0.33405000       0.66593000       0.12095000 </v>
    <v>       0.50078000       0.83242000       0.18121000 </v>
    <v>       0.98583888       0.66644233       0.36068755 </v>
    <v>       0.99982000       0.33359000       0.24030000 </v>
    <v>       0.00025000       0.66569000       0.12051000 </v>
    <v>       0.16581000       0.83217000       0.18114000 </v>
    <v>       0.66566000       0.33123000       0.11970000 </v>
    <v>       0.83118331       0.83569902       0.30139152 </v>
    <v>       0.16549916       0.49850624       0.30075039 </v>
    <v>       0.16461444       0.16815540       0.30131624 </v>
    <v>       0.00161000       0.99891000       0.00024000 </v>
    <v>       0.99726798       0.99622664       0.36024836 </v>
    <v>       0.16807000       0.16539000       0.06004000 </v>
    <v>       0.50495074       0.83241125       0.30266303 </v>
    <v>       0.83476000       0.83303000       0.18132000 </v>
    <v>       0.66715000       0.66559000       0.00000000 </v>
    <v>       0.66719000       0.66640000       0.12032000 </v>
    <v>       0.83302000       0.49937000       0.17995000 </v>
    <v>       0.16769000       0.83389000       0.06029000 </v>
    <v>       0.50012788       0.16695723       0.30096437 </v>
    <v>       0.33289000       0.99824000       0.24130000 </v>
    <v>       0.66679000       0.99914000       0.24097000 </v>
    <v>       0.33466000       0.00023000       0.12082000 </v>
    <v>       0.66746000       0.99815000       0.00001000 </v>
    <v>       0.83678596       0.17163473       0.30178254 </v>
    <v>       0.83358000       0.16456000       0.06013000 </v>
    <v>       0.67378981       0.01501934       0.36038870 </v>
    <v>       0.83364000       0.16593000       0.18062000 </v>
    <v>       0.66653000       0.99972000       0.12044000 </v>
    <v>       0.33658604       0.33320485       0.35954956 </v>
    <v>       0.33487000       0.00167000       0.00066000 </v>
    <v>       0.32844589       0.99892073       0.36574775 </v>
    <v>       0.00122000       0.00217000       0.24080000 </v>
    <v>       0.16722000       0.50179000       0.05903000 </v>
    <v>       0.50000000       0.50344000       0.05949000 </v>
    <v>       0.49861000       0.16115000       0.05868000 </v>
    <v>       0.49968000       0.16444000       0.18182000 </v>
    <v>       0.83679678       0.50143569       0.29858485 </v>
    <v>       0.99722000       0.66135000       0.24151000 </v>
    <v>       0.33419000       0.66573000       0.24040000 </v>
    <v>       0.33414000       0.65855000       0.00278000 </v>
    <v>       0.32772102       0.66541217       0.36466443 </v>
    <v>       0.66923000       0.66337000       0.24097000 </v>
    <v>       0.52926155       0.82915379       0.43969542 </v>
   </varray>
  </structure>
  <varray name="forces" >
   <v>       0.01376604       0.00812593      -0.44324433 </v>
   <v>      -0.03633653       0.02202233      -0.39961297 </v>
   <v>       0.00915308      -0.03773937      -0.03017908 </v>
   <v>      -0.19002500       0.13430282       0.30953488 </v>
   <v>       0.03276713      -0.00073880      -0.05312641 </v>
   <v>       0.02191993      -0.00349944      -0.00743384 </v>
   <v>      -0.01644152      -0.08817684       0.24899468 </v>
   <v>       0.41317146       0.17404320      -0.12303757 </v>
   <v>      -0.11401208      -0.00567781      -0.02845314 </v>
   <v>      -0.03021215       0.01187699       0.00264383 </v>
   <v>      -0.08852699      -0.03699850       0.17993805 </v>
   <v>      -0.11480586      -0.04438355      -0.13050451 </v>
   <v>      -0.00595063      -0.00850921      -0.00501646 </v>
   <v>      -0.02092446       0.05222813       0.21133849 </v>
   <v>       0.04042207      -0.01541065      -0.00420444 </v>
   <v>      -0.08410287      -0.09955712       0.18607467 </v>
   <v>       0.04863262      -0.39420537       0.30876220 </v>
   <v>      -0.00435940       0.01741676       0.01324833 </v>
   <v>       0.09607042      -0.01971101       0.03823269 </v>
   <v>       0.04118076      -0.01994144      -0.06409936 </v>
   <v>       0.00951288       0.15823659       0.12039597 </v>
   <v>       0.00288028       0.00695778      -0.04838128 </v>
   <v>       0.00458540      -0.00597113       0.01488659 </v>
   <v>       0.14509688      -0.00782294      -0.18906382 </v>
   <v>      -0.03728142       0.03009975       0.26033160 </v>
   <v>      -0.06265622       0.06316357      -0.08431679 </v>
   <v>       0.06649841      -0.01452468       0.14874586 </v>
   <v>       0.00829937       0.00093211       0.02377819 </v>
   <v>       0.01641450       0.02504405       0.00525370 </v>
   <v>       0.02934507      -0.03151536       0.00601850 </v>
   <v>       0.23449474       0.05086102       0.29692497 </v>
   <v>      -0.02748365       0.01134821      -0.00045615 </v>
   <v>      -0.13622672       0.19835560      -0.46744260 </v>
   <v>       0.00502447      -0.04168477      -0.08074784 </v>
   <v>      -0.02587226      -0.01776086       0.05130357 </v>
   <v>       0.15205064       0.14967035       0.36909020 </v>
   <v>       0.02994801       0.03962061       0.24387123 </v>
   <v>      -0.04666893      -0.02603186      -0.21078152 </v>
   <v>      -0.40402787       0.04204597      -0.06776507 </v>
   <v>       0.00340086       0.01445917       0.02508697 </v>
   <v>       0.09576556      -0.08073828       0.26129686 </v>
   <v>      -0.00293943       0.04891228       0.09176415 </v>
   <v>      -0.01149107      -0.04408762       0.14547112 </v>
   <v>      -0.23375113      -0.00863380       0.25488170 </v>
   <v>      -0.03374528      -0.01429995       0.00982117 </v>
   <v>      -0.02751166       0.01497720      -0.47057381 </v>
   <v>       0.01191031       0.02899382      -0.03152058 </v>
   <v>      -0.02527951      -0.01907521       0.03930641 </v>
   <v>      -0.04935113      -0.06525163       0.04537614 </v>
   <v>       0.00631395       0.00531549      -0.00832329 </v>
   <v>      -0.11695118      -0.05710292      -0.15656700 </v>
   <v>      -0.00159811      -0.00642155       0.00378882 </v>
   <v>      -0.05964722       0.01213484      -0.06212637 </v>
   <v>       0.04555802      -0.09303888      -0.19471283 </v>
   <v>       0.01495416      -0.13706324      -0.20908159 </v>
   <v>       0.41619063       0.45974650      -0.17210917 </v>
   <v>       0.01112035       0.02566184      -0.10283298 </v>
   <v>       0.01841363       0.00317425      -0.03184151 </v>
   <v>      -0.03217454      -0.02419537      -0.11073494 </v>
   <v>       0.05833263       0.08188351       0.31279850 </v>
   <v>      -0.03563234      -0.42745692      -0.27759691 </v>
   <v>      -0.02152327      -0.00058830      -0.02694100 </v>
   <v>      -0.01608588       0.02555485       0.05594711 </v>
   <v>       0.01040203      -0.01935115       0.00792206 </v>
  </varray>
  <varray name="stress" >
   <v>     -18.91643486       0.04360072       0.33682878 </v>
   <v>       0.04360095     -20.66896419       0.78264971 </v>
   <v>       0.33682911       0.78264938      -3.13814175 </v>
  </varray>
  <energy>
   <i name="e_fr_energy">   -512.76924681 </i>
   <i name="e_wo_entrp">   -512.78182972 </i>
   <i name="e_0_energy">   -512.77344111 </i>
  </energy>
  <time name="totalsc">  251.59  253.23</time>
 </calculation>
 <calculation>
  <scstep>
   <time name="dav">   16.06   16.16</time>
   <time name="total">   17.02   17.12</time>
   <dipole>
    <v name="dipole">      0.00000000       0.00000000       0.07793320 </v>
    <i name="Tr[quadrupol]">  -7399.84925396 </i>
    <i name="Echarged">      0.00000000 </i>
    <i name="Edipol_quadrupol">      0.00000000 </i>
    <i name="Eion">      0.00000000 </i>
   </dipole>
   <energy>
    <i name="alphaZ">   1854.35505507 </i>
    <i name="ewald"> 207673.94634261 </i>
    <i name="hartreedc">-258553.96599847 </i>
    <i name="XCdc">    955.02212652 </i>
    <i name="pawpsdc">  55327.12094539 </i>
    <i name="pawaedc"> -56417.87559460 </i>
    <i name="eentropy">      0.01287870 </i>
    <i name="bandstr">  -4151.34008184 </i>
    <i name="atom">  52799.98958613 </i>
    <i name="e_fr_energy">   -512.73474049 </i>
    <i name="e_wo_entrp">   -512.74761920 </i>
    <i name="e_0_energy">   -512.73903339 </i>
   </energy>
  </scstep>
  <scstep>
   <time name="dav">   15.96   16.05</time>
   <time name="total">   16.94   17.04</time>
   <dipole>
    <v name="dipole">      0.00000000       0.00000000       0.08157248 </v>
    <i name="Tr[quadrupol]">  -7399.88895080 </i>
    <i name="Echarged">      0.00000000 </i>
    <i name="Edipol_quadrupol">      0.00000000 </i>
    <i name="Eion">      0.00000000 </i>
   </dipole>
   <energy>
    <i name="e_fr_energy">   -512.76419670 </i>
    <i name="e_wo_entrp">   -512.77466663 </i>
    <i name="e_0_energy">   -512.76768668 </i>
   </energy>
  </scstep>
  <scstep>
   <time name="dav">   24.76   24.92</time>
   <time name="total">   25.73   25.91</time>
   <dipole>
    <v name="dipole">      0.00000000       0.00000000       0.04921723 </v>
    <i name="Tr[quadrupol]">  -7399.83939808 </i>
    <i name="Echarged">      0.00000000 </i>
    <i name="Edipol_quadrupol">      0.00000000 </i>
    <i name="Eion">      0.00000000 </i>
   </dipole>
   <energy>
    <i name="e_fr_energy">   -512.79434149 </i>
    <i name="e_wo_entrp">   -512.82155965 </i>
    <i name="e_0_energy">   -512.80341421 </i>
   </energy>
  </scstep>
  <scstep>
   <time name="dav">   25.91   26.07</time>
   <time name="total">   26.86   27.04</time>
   <dipole>
    <v name="dipole">      0.00000000       0.00000000       0.08217725 </v>
    <i name="Tr[quadrupol]">  -7399.84743081 </i>
    <i name="Echarged">      0.00000000 </i>
    <i name="Edipol_quadrupol">      0.00000000 </i>
    <i name="Eion">      0.00000000 </i>
   </dipole>
   <energy>
    <i name="e_fr_energy">   -512.76675638 </i>
    <i name="e_wo_entrp">   -512.77761927 </i>
    <i name="e_0_energy">   -512.77037734 </i>
   </energy>
  </scstep>
  <scstep>
   <time name="dav">   24.93   25.09</time>
   <time name="total">   25.90   26.06</time>
   <dipole>
    <v name="dipole">      0.00000000       0.00000000       0.07406180 </v>
    <i name="Tr[quadrupol]">  -7399.92447319 </i>
    <i name="Echarged">      0.00000000 </i>
    <i name="Edipol_quadrupol">      0.00000000 </i>
    <i name="Eion">      0.00000000 </i>
   </dipole>
   <energy>
    <i name="e_fr_energy">   -512.77091753 </i>
    <i name="e_wo_entrp">   -512.78455467 </i>
    <i name="e_0_energy">   -512.77546324 </i>
   </energy>
  </scstep>
  <scstep>
   <time name="dav">   23.49   23.64</time>
   <time name="total">   24.47   24.63</time>
   <dipole>
    <v name="dipole">      0.00000000       0.00000000       0.07519297 </v>
    <i name="Tr[quadrupol]">  -7399.87233054 </i>
    <i name="Echarged">      0.00000000 </i>
    <i name="Edipol_quadrupol">      0.00000000 </i>
    <i name="Eion">      0.00000000 </i>
   </dipole>
   <energy>
    <i name="e_fr_energy">   -512.77127220 </i>
    <i name="e_wo_entrp">   -512.78497627 </i>
    <i name="e_0_energy">   -512.77584022 </i>
   </energy>
  </scstep>
  <scstep>
   <time name="dav">   22.27   22.42</time>
   <time name="total">   23.24   23.39</time>
   <dipole>
    <v name="dipole">      0.00000000       0.00000000       0.07702849 </v>
    <i name="Tr[quadrupol]">  -7399.88689538 </i>
    <i name="Echarged">      0.00000000 </i>
    <i name="Edipol_quadrupol">      0.00000000 </i>
    <i name="Eion">      0.00000000 </i>
   </dipole>
   <energy>
    <i name="e_fr_energy">   -512.77128286 </i>
    <i name="e_wo_entrp">   -512.78417325 </i>
    <i name="e_0_energy">   -512.77557965 </i>
   </energy>
  </scstep>
  <scstep>
   <time name="dav">   21.78   21.92</time>
   <time name="total">   22.74   22.88</time>
   <dipole>
    <v name="dipole">      0.00000000       0.00000000       0.07848816 </v>
    <i name="Tr[quadrupol]">  -7399.88774765 </i>
    <i name="Echarged">      0.00000000 </i>
    <i name="Edipol_quadrupol">      0.00000000 </i>
    <i name="Eion">      0.00000000 </i>
   </dipole>
   <energy>
    <i name="e_fr_energy">   -512.77130903 </i>
    <i name="e_wo_entrp">   -512.78338299 </i>
    <i name="e_0_energy">   -512.77533368 </i>
   </energy>
  </scstep>
  <scstep>
   <time name="dav">   17.47   17.57</time>
   <time name="total">   18.44   18.56</time>
   <dipole>
    <v name="dipole">      0.00000000       0.00000000       0.07858157 </v>
    <i name="Tr[quadrupol]">  -7399.87561546 </i>
    <i name="Echarged">      0.00000000 </i>
    <i name="Edipol_quadrupol">      0.00000000 </i>
    <i name="Eion">      0.00000000 </i>
   </dipole>
   <energy>
    <i name="e_fr_energy">   -512.77127311 </i>
    <i name="e_wo_entrp">   -512.78359437 </i>
    <i name="e_0_energy">   -512.77538019 </i>
   </energy>
  </scstep>
  <scstep>
   <time name="dav">   23.16   23.31</time>
   <time name="total">   24.11   24.27</time>
   <dipole>
    <v name="dipole">      0.00000000       0.00000000       0.07783277 </v>
    <i name="Tr[quadrupol]">  -7399.86203964 </i>
    <i name="Echarged">      0.00000000 </i>
    <i name="Edipol_quadrupol">      0.00000000 </i>
    <i name="Eion">      0.00000000 </i>
   </dipole>
   <energy>
    <i name="e_fr_energy">   -512.77123384 </i>
    <i name="e_wo_entrp">   -512.78427793 </i>
    <i name="e_0_energy">   -512.77558187 </i>
   </energy>
  </scstep>
  <scstep>
   <time name="dav">   18.70   18.82</time>
   <time name="total">   19.67   19.79</time>
   <dipole>
    <v name="dipole">      0.00000000       0.00000000       0.07813657 </v>
    <i name="Tr[quadrupol]">  -7399.86148639 </i>
    <i name="Echarged">      0.00000000 </i>
    <i name="Edipol_quadrupol">      0.00000000 </i>
    <i name="Eion">      0.00000000 </i>
   </dipole>
   <energy>
    <i name="e_fr_energy">   -512.77121667 </i>
    <i name="e_wo_entrp">   -512.78416710 </i>
    <i name="e_0_energy">   -512.77553348 </i>
   </energy>
  </scstep>
  <scstep>
   <time name="dav">   11.35   11.42</time>
   <time name="total">   11.79   11.87</time>
   <dipole>
    <v name="dipole">      0.00000000       0.00000000       0.07792168 </v>
    <i name="Tr[quadrupol]">  -7399.86258991 </i>
    <i name="Echarged">      0.00000000 </i>
    <i name="Edipol_quadrupol">      0.00000000 </i>
    <i name="Eion">      0.00000000 </i>
   </dipole>
   <energy>
    <i name="alphaZ">   1854.68407612 </i>
    <i name="ewald"> 207673.94634261 </i>
    <i name="hartreedc">-258554.11094630 </i>
    <i name="XCdc">    954.96449613 </i>
    <i name="pawpsdc">  55330.99683051 </i>
    <i name="pawaedc"> -56421.74300643 </i>
    <i name="eentropy">      0.01292089 </i>
    <i name="bandstr">  -4151.51150847 </i>
    <i name="atom">  52799.98958613 </i>
    <i name="e_fr_energy">   -512.77120879 </i>
    <i name="e_wo_entrp">   -512.78412969 </i>
    <i name="e_0_energy">   -512.77551576 </i>
   </energy>
  </scstep>
  <structure>
   <crystal>
    <varray name="basis" >
     <v>       8.50970000       0.00000000       0.00000000 </v>
     <v>      -0.00372597       8.53929919       0.00000000 </v>
     <v>       0.00000000       0.00000000      23.57140000 </v>
    </varray>
    <i name="volume">   1712.85996128 </i>
    <varray name="rec_basis" >
     <v>       0.11751296       0.00005127       0.00000000 </v>
     <v>       0.00000000       0.11710563       0.00000000 </v>
     <v>       0.00000000       0.00000000       0.04242429 </v>
    </varray>
   </crystal>
   <varray name="positions" >
    <v>       0.83310000       0.49871000       0.06001000 </v>
    <v>       0.83472000       0.83192000       0.06027000 </v>
    <v>       0.67648948       0.64628738       0.35979128 </v>
    <v>       0.00081000       0.66425000       0.00034000 </v>
    <v>       0.15929671       0.83103607       0.29933362 </v>
    <v>       0.66194477       0.33312127       0.36203554 </v>
    <v>       0.66559000       0.33138000       0.00044000 </v>
    <v>       0.49968000       0.83322000       0.06046000 </v>
    <v>       0.66721000       0.33321000       0.24067000 </v>
    <v>       0.50058000       0.49950000       0.18024000 </v>
    <v>       0.33595000       0.33196000       0.11912000 </v>
    <v>       0.33462000       0.33376000       0.24059000 </v>
    <v>       0.50029530       0.49973340       0.30041256 </v>
    <v>       0.00055000       0.33190000       0.12006000 </v>
    <v>       0.16752000       0.49945000       0.18065000 </v>
    <v>       0.00021000       0.33145000       0.00038000 </v>
    <v>       0.33510000       0.33170000       0.00029000 </v>
    <v>       0.01250651       0.33785421       0.36100508 </v>
    <v>       0.00077000       0.99959000       0.12036000 </v>
    <v>       0.16814000       0.16634000       0.18048000 </v>
    <v>       0.33405000       0.66593000       0.12095000 </v>
    <v>       0.50078000       0.83242000       0.18121000 </v>
    <v>       0.98584167       0.66625752       0.36075620 </v>
    <v>       0.99982000       0.33359000       0.24030000 </v>
    <v>       0.00025000       0.66569000       0.12051000 </v>
    <v>       0.16581000       0.83217000       0.18114000 </v>
    <v>       0.66566000       0.33123000       0.11970000 </v>
    <v>       0.83123127       0.83562007       0.30149409 </v>
    <v>       0.16588561       0.49883686       0.30078189 </v>
    <v>       0.16468728       0.16805528       0.30126272 </v>
    <v>       0.00161000       0.99891000       0.00024000 </v>
    <v>       0.99656739       0.99623938       0.36027527 </v>
    <v>       0.16807000       0.16539000       0.06004000 </v>
    <v>       0.50487164       0.83220260       0.30237723 </v>
    <v>       0.83476000       0.83303000       0.18132000 </v>
    <v>       0.66715000       0.66559000       0.00000000 </v>
    <v>       0.66719000       0.66640000       0.12032000 </v>
    <v>       0.83302000       0.49937000       0.17995000 </v>
    <v>       0.16769000       0.83389000       0.06029000 </v>
    <v>       0.50001998       0.16736470       0.30099760 </v>
    <v>       0.33289000       0.99824000       0.24130000 </v>
    <v>       0.66679000       0.99914000       0.24097000 </v>
    <v>       0.33466000       0.00023000       0.12082000 </v>
    <v>       0.66746000       0.99815000       0.00001000 </v>
    <v>       0.83647838       0.17143775       0.30187899 </v>
    <v>       0.83358000       0.16456000       0.06013000 </v>
    <v>       0.67367029       0.01571602       0.36027824 </v>
    <v>       0.83364000       0.16593000       0.18062000 </v>
    <v>       0.66653000       0.99972000       0.12044000 </v>
    <v>       0.33675442       0.33348849       0.35952179 </v>
    <v>       0.33487000       0.00167000       0.00066000 </v>
    <v>       0.32799510       0.99862203       0.36568841 </v>
    <v>       0.00122000       0.00217000       0.24080000 </v>
    <v>       0.16722000       0.50179000       0.05903000 </v>
    <v>       0.50000000       0.50344000       0.05949000 </v>
    <v>       0.49861000       0.16115000       0.05868000 </v>
    <v>       0.49968000       0.16444000       0.18182000 </v>
    <v>       0.83728463       0.50112300       0.29842852 </v>
    <v>       0.99722000       0.66135000       0.24151000 </v>
    <v>       0.33419000       0.66573000       0.24040000 </v>
    <v>       0.33414000       0.65855000       0.00278000 </v>
    <v>       0.32765896       0.66557426       0.36438001 </v>
    <v>       0.66923000       0.66337000       0.24097000 </v>
    <v>       0.53012977       0.82816717       0.43942037 </v>
   </varray>
  </structure>
  <varray name="forces" >
   <v>       0.01228358       0.00781716      -0.44544796 </v>
   <v>      -0.03633642       0.02174872      -0.39971999 </v>
   <v>       0.00186964      -0.01224310      -0.01528142 </v>
   <v>      -0.19062536       0.13405979       0.30993286 </v>
   <v>       0.00609672      -0.00022953      -0.00929811 </v>
   <v>       0.02736387      -0.00026102       0.00137937 </v>
   <v>      -0.01623260      -0.08799125       0.24990144 </v>
   <v>       0.41381171       0.17448214      -0.12275054 </v>
   <v>      -0.11269562      -0.00890886      -0.03214463 </v>
   <v>      -0.02805427       0.01139546       0.00032149 </v>
   <v>      -0.08894451      -0.03713058       0.17868051 </v>
   <v>      -0.12057619      -0.04319919      -0.13699293 </v>
   <v>      -0.00196927      -0.01021195      -0.01473602 </v>
   <v>      -0.02050588       0.05308047       0.21236674 </v>
   <v>       0.03967732      -0.01767540      -0.00414099 </v>
   <v>      -0.08360475      -0.09864021       0.18685598 </v>
   <v>       0.04826874      -0.39457345       0.30851078 </v>
   <v>      -0.00567974       0.00737643       0.01219212 </v>
   <v>       0.09660662      -0.01967321       0.03803520 </v>
   <v>       0.03928881      -0.01956587      -0.06673238 </v>
   <v>       0.01046166       0.15832851       0.12129015 </v>
   <v>       0.00468237       0.00582959      -0.05720416 </v>
   <v>       0.01115868      -0.00196063       0.01080358 </v>
   <v>       0.15772521      -0.02074398      -0.18833535 </v>
   <v>      -0.03758764       0.03095007       0.26102578 </v>
   <v>      -0.06399365       0.06506014      -0.09549953 </v>
   <v>       0.06726621      -0.01405631       0.14833642 </v>
   <v>      -0.00145981      -0.00054238       0.00453851 </v>
   <v>      -0.00225213       0.00043695      -0.01522084 </v>
   <v>       0.01352892      -0.01411662       0.02131842 </v>
   <v>       0.23451706       0.05091498       0.29720286 </v>
   <v>      -0.00973954       0.00807160      -0.00879805 </v>
   <v>      -0.13593067       0.19876653      -0.46710429 </v>
   <v>       0.00968821      -0.02982270      -0.03637425 </v>
   <v>      -0.02723328      -0.01819589       0.05331283 </v>
   <v>       0.15185411       0.15032003       0.36998377 </v>
   <v>       0.02976068       0.03950581       0.24379955 </v>
   <v>      -0.04605215      -0.02890416      -0.22011604 </v>
   <v>      -0.40396754       0.04252403      -0.06769523 </v>
   <v>       0.00011086      -0.01501405       0.01588555 </v>
   <v>       0.10483157      -0.06796178       0.25333007 </v>
   <v>      -0.00177879       0.05276653       0.09380235 </v>
   <v>      -0.01230053      -0.04321232       0.14670417 </v>
   <v>      -0.23416936      -0.00863749       0.25474656 </v>
   <v>       0.00796948       0.01436241      -0.02560383 </v>
   <v>      -0.02748874       0.01568348      -0.47012235 </v>
   <v>      -0.00881682      -0.00418116      -0.00832883 </v>
   <v>      -0.02498487      -0.01910946       0.04303752 </v>
   <v>      -0.05037857      -0.06577806       0.04514950 </v>
   <v>      -0.00504310      -0.00273375      -0.00540122 </v>
   <v>      -0.11697570      -0.05659270      -0.15631387 </v>
   <v>       0.02175206      -0.01375019       0.00549308 </v>
   <v>      -0.06572974       0.01518276      -0.05933561 </v>
   <v>       0.04480695      -0.09358595      -0.19391328 </v>
   <v>       0.01564380      -0.13674340      -0.20859346 </v>
   <v>       0.41685350       0.45981017      -0.17187714 </v>
   <v>       0.01170423       0.02508244      -0.10208258 </v>
   <v>       0.01051709       0.00535788      -0.01702723 </v>
   <v>      -0.02918153      -0.02014005      -0.11060884 </v>
   <v>       0.06035893       0.07976254       0.29798644 </v>
   <v>      -0.03547099      -0.42722545      -0.27847056 </v>
   <v>      -0.01349017       0.01080563      -0.02079073 </v>
   <v>      -0.01331599       0.02230635       0.05152537 </v>
   <v>       0.00210731      -0.00847649      -0.00538676 </v>
  </varray>
  <varray name="stress" >
   <v>     -18.91813149       0.06091218       0.30434572 </v>
   <v>       0.06091221     -20.67810674       0.79631381 </v>
   <v>       0.30434562       0.79631352      -3.04650283 </v>
  </varray>
  <energy>
   <i name="e_fr_energy">   -512.77120879 </i>
   <i name="e_wo_entrp">   -512.78412969 </i>
   <i name="e_0_energy">   -512.77551576 </i>
  </energy>
  <time name="totalsc">  273.84  275.61</time>
 </calculation>
 <calculation>
  <scstep>
   <time name="dav">   16.04   16.13</time>
   <time name="total">   17.00   17.09</time>
   <dipole>
    <v name="dipole">      0.00000000       0.00000000       0.07795525 </v>
    <i name="Tr[quadrupol]">  -7400.00660269 </i>
    <i name="Echarged">      0.00000000 </i>
    <i name="Edipol_quadrupol">      0.00000000 </i>
    <i name="Eion">      0.00000000 </i>
   </dipole>
   <energy>
    <i name="alphaZ">   1854.35657274 </i>
    <i name="ewald"> 207715.23897383 </i>
    <i name="hartreedc">-258595.36937865 </i>
    <i name="XCdc">    954.97902639 </i>
    <i name="pawpsdc">  55331.19053450 </i>
    <i name="pawaedc"> -56421.93635761 </i>
    <i name="eentropy">      0.01283111 </i>
    <i name="bandstr">  -4151.22628440 </i>
    <i name="atom">  52799.98958613 </i>
    <i name="e_fr_energy">   -512.76449596 </i>
    <i name="e_wo_entrp">   -512.77732707 </i>
    <i name="e_0_energy">   -512.76877299 </i>
   </energy>
  </scstep>
  <scstep>
   <time name="dav">   15.91   16.00</time>
   <time name="total">   16.88   16.98</time>
   <dipole>
    <v name="dipole">      0.00000000       0.00000000       0.07790459 </v>
    <i name="Tr[quadrupol]">  -7400.02190679 </i>
    <i name="Echarged">      0.00000000 </i>
    <i name="Edipol_quadrupol">      0.00000000 </i>
    <i name="Eion">      0.00000000 </i>
   </dipole>
   <energy>
    <i name="e_fr_energy">   -512.76985186 </i>
    <i name="e_wo_entrp">   -512.78250454 </i>
    <i name="e_0_energy">   -512.77406942 </i>
   </energy>
  </scstep>
  <scstep>
   <time name="dav">   23.30   23.45</time>
   <time name="total">   24.27   24.44</time>
   <dipole>
    <v name="dipole">      0.00000000       0.00000000       0.07687608 </v>
    <i name="Tr[quadrupol]">  -7400.01083878 </i>
    <i name="Echarged">      0.00000000 </i>
    <i name="Edipol_quadrupol">      0.00000000 </i>
    <i name="Eion">      0.00000000 </i>
   </dipole>
   <energy>
    <i name="e_fr_energy">   -512.77052092 </i>
    <i name="e_wo_entrp">   -512.78399191 </i>
    <i name="e_0_energy">   -512.77501125 </i>
   </energy>
  </scstep>
  <scstep>
   <time name="dav">   25.80   25.97</time>
   <time name="total">   26.78   26.95</time>
   <dipole>
    <v name="dipole">      0.00000000       0.00000000       0.08731625 </v>
    <i name="Tr[quadrupol]">  -7400.03385804 </i>
    <i name="Echarged">      0.00000000 </i>
    <i name="Edipol_quadrupol">      0.00000000 </i>
    <i name="Eion">      0.00000000 </i>
   </dipole>
   <energy>
    <i name="e_fr_energy">   -512.77378112 </i>
    <i name="e_wo_entrp">   -512.78164700 </i>
    <i name="e_0_energy">   -512.77640308 </i>
   </energy>
  </scstep>
  <scstep>
   <time name="dav">   25.23   25.40</time>
   <time name="total">   26.21   26.38</time>
   <dipole>
    <v name="dipole">      0.00000000       0.00000000       0.07541639 </v>
    <i name="Tr[quadrupol]">  -7400.03818537 </i>
    <i name="Echarged">      0.00000000 </i>
    <i name="Edipol_quadrupol">      0.00000000 </i>
    <i name="Eion">      0.00000000 </i>
   </dipole>
   <energy>
    <i name="e_fr_energy">   -512.77128344 </i>
    <i name="e_wo_entrp">   -512.78503661 </i>
    <i name="e_0_energy">   -512.77586783 </i>
   </energy>
  </scstep>
  <scstep>
   <time name="dav">   24.18   24.32</time>
   <time name="total">   25.13   25.30</time>
   <dipole>
    <v name="dipole">      0.00000000       0.00000000       0.07812739 </v>
    <i name="Tr[quadrupol]">  -7400.00951982 </i>
    <i name="Echarged">      0.00000000 </i>
    <i name="Edipol_quadrupol">      0.00000000 </i>
    <i name="Eion">      0.00000000 </i>
   </dipole>
   <energy>
    <i name="e_fr_energy">   -512.77128369 </i>
    <i name="e_wo_entrp">   -512.78405053 </i>
    <i name="e_0_energy">   -512.77553930 </i>
   </energy>
  </scstep>
  <scstep>
   <time name="dav">   21.31   21.46</time>
   <time name="total">   22.28   22.42</time>
   <dipole>
    <v name="dipole">      0.00000000       0.00000000       0.07801005 </v>
    <i name="Tr[quadrupol]">  -7400.01726985 </i>
    <i name="Echarged">      0.00000000 </i>
    <i name="Edipol_quadrupol">      0.00000000 </i>
    <i name="Eion">      0.00000000 </i>
   </dipole>
   <energy>
    <i name="e_fr_energy">   -512.77129039 </i>
    <i name="e_wo_entrp">   -512.78412990 </i>
    <i name="e_0_energy">   -512.77557023 </i>
   </energy>
  </scstep>
  <scstep>
   <time name="dav">   12.37   12.45</time>
   <time name="total">   12.80   12.88</time>
   <dipole>
    <v name="dipole">      0.00000000       0.00000000       0.07827076 </v>
    <i name="Tr[quadrupol]">  -7400.01774490 </i>
    <i name="Echarged">      0.00000000 </i>
    <i name="Edipol_quadrupol">      0.00000000 </i>
    <i name="Eion">      0.00000000 </i>
   </dipole>
   <energy>
    <i name="alphaZ">   1854.69142126 </i>
    <i name="ewald"> 207715.23897383 </i>
    <i name="hartreedc">-258595.41767934 </i>
    <i name="XCdc">    954.96504099 </i>
    <i name="pawpsdc">  55332.03582302 </i>
    <i name="pawaedc"> -56422.78418694 </i>
    <i name="eentropy">      0.01265898 </i>
    <i name="bandstr">  -4151.50293035 </i>
    <i name="atom">  52799.98958613 </i>
    <i name="e_fr_energy">   -512.77129241 </i>
    <i name="e_wo_entrp">   -512.78395139 </i>
    <i name="e_0_energy">   -512.77551207 </i>
   </energy>
  </scstep>
  <structure>
   <crystal>
    <varray name="basis" >
     <v>       8.50970000       0.00000000       0.00000000 </v>
     <v>      -0.00372597       8.53929919       0.00000000 </v>
     <v>       0.00000000       0.00000000      23.57140000 </v>
    </varray>
    <i name="volume">   1712.85996128 </i>
    <varray name="rec_basis" >
     <v>       0.11751296       0.00005127       0.00000000 </v>
     <v>       0.00000000       0.11710563       0.00000000 </v>
     <v>       0.00000000       0.00000000       0.04242429 </v>
    </varray>
   </crystal>
   <varray name="positions" >
    <v>       0.83310000       0.49871000       0.06001000 </v>
    <v>       0.83472000       0.83192000       0.06027000 </v>
    <v>       0.67667510       0.64573522       0.35969608 </v>
    <v>       0.00081000       0.66425000       0.00034000 </v>
    <v>       0.15939817       0.83104122       0.29921664 </v>
    <v>       0.66220945       0.33303646       0.36205466 </v>
    <v>       0.66559000       0.33138000       0.00044000 </v>
    <v>       0.49968000       0.83322000       0.06046000 </v>
    <v>       0.66721000       0.33321000       0.24067000 </v>
    <v>       0.50058000       0.49950000       0.18024000 </v>
    <v>       0.33595000       0.33196000       0.11912000 </v>
    <v>       0.33462000       0.33376000       0.24059000 </v>
    <v>       0.50029063       0.49970732       0.30040066 </v>
    <v>       0.00055000       0.33190000       0.12006000 </v>
    <v>       0.16752000       0.49945000       0.18065000 </v>
    <v>       0.00021000       0.33145000       0.00038000 </v>
    <v>       0.33510000       0.33170000       0.00029000 </v>
    <v>       0.01263335       0.33814144       0.36100983 </v>
    <v>       0.00077000       0.99959000       0.12036000 </v>
    <v>       0.16814000       0.16634000       0.18048000 </v>
    <v>       0.33405000       0.66593000       0.12095000 </v>
    <v>       0.50078000       0.83242000       0.18121000 </v>
    <v>       0.98584288       0.66617697       0.36078612 </v>
    <v>       0.99982000       0.33359000       0.24030000 </v>
    <v>       0.00025000       0.66569000       0.12051000 </v>
    <v>       0.16581000       0.83217000       0.18114000 </v>
    <v>       0.66566000       0.33123000       0.11970000 </v>
    <v>       0.83125218       0.83558566       0.30153879 </v>
    <v>       0.16605405       0.49898097       0.30079561 </v>
    <v>       0.16471904       0.16801164       0.30123940 </v>
    <v>       0.00161000       0.99891000       0.00024000 </v>
    <v>       0.99626203       0.99624494       0.36028700 </v>
    <v>       0.16807000       0.16539000       0.06004000 </v>
    <v>       0.50483716       0.83211166       0.30225266 </v>
    <v>       0.83476000       0.83303000       0.18132000 </v>
    <v>       0.66715000       0.66559000       0.00000000 </v>
    <v>       0.66719000       0.66640000       0.12032000 </v>
    <v>       0.83302000       0.49937000       0.17995000 </v>
    <v>       0.16769000       0.83389000       0.06029000 </v>
    <v>       0.49997295       0.16754230       0.30101209 </v>
    <v>       0.33289000       0.99824000       0.24130000 </v>
    <v>       0.66679000       0.99914000       0.24097000 </v>
    <v>       0.33466000       0.00023000       0.12082000 </v>
    <v>       0.66746000       0.99815000       0.00001000 </v>
    <v>       0.83634432       0.17135189       0.30192103 </v>
    <v>       0.83358000       0.16456000       0.06013000 </v>
    <v>       0.67361819       0.01601968       0.36023010 </v>
    <v>       0.83364000       0.16593000       0.18062000 </v>
    <v>       0.66653000       0.99972000       0.12044000 </v>
    <v>       0.33682780       0.33361212       0.35950969 </v>
    <v>       0.33487000       0.00167000       0.00066000 </v>
    <v>       0.32779861       0.99849184       0.36566255 </v>
    <v>       0.00122000       0.00217000       0.24080000 </v>
    <v>       0.16722000       0.50179000       0.05903000 </v>
    <v>       0.50000000       0.50344000       0.05949000 </v>
    <v>       0.49861000       0.16115000       0.05868000 </v>
    <v>       0.49968000       0.16444000       0.18182000 </v>
    <v>       0.83749727       0.50098670       0.29836038 </v>
    <v>       0.99722000       0.66135000       0.24151000 </v>
    <v>       0.33419000       0.66573000       0.24040000 </v>
    <v>       0.33414000       0.65855000       0.00278000 </v>
    <v>       0.32763191       0.66564490       0.36425604 </v>
    <v>       0.66923000       0.66337000       0.24097000 </v>
    <v>       0.53050820       0.82773713       0.43930049 </v>
   </varray>
  </structure>
  <varray name="forces" >
   <v>       0.01153815       0.00779342      -0.44699889 </v>
   <v>      -0.03639272       0.02136784      -0.40095286 </v>
   <v>      -0.00173248       0.00075350      -0.00636858 </v>
   <v>      -0.19174404       0.13346487       0.31150728 </v>
   <v>      -0.00737167      -0.00002678       0.00745812 </v>
   <v>       0.02878075       0.00179253       0.00647799 </v>
   <v>      -0.01653224      -0.08760422       0.25180535 </v>
   <v>       0.41459433       0.17430995      -0.12304155 </v>
   <v>      -0.11213565      -0.01015850      -0.03414343 </v>
   <v>      -0.02668249       0.01105934      -0.00157893 </v>
   <v>      -0.08884412      -0.03710642       0.17826698 </v>
   <v>      -0.12318020      -0.04243437      -0.14007148 </v>
   <v>       0.00094987      -0.01102841      -0.02163583 </v>
   <v>      -0.02054799       0.05373215       0.21343399 </v>
   <v>       0.03878732      -0.01891522      -0.00516842 </v>
   <v>      -0.08374282      -0.09779767       0.18850138 </v>
   <v>       0.04837043      -0.39437875       0.31033228 </v>
   <v>      -0.00753006       0.00040019       0.01298977 </v>
   <v>       0.09658293      -0.01967560       0.03870132 </v>
   <v>       0.03836452      -0.01914698      -0.06865295 </v>
   <v>       0.01080094       0.15812306       0.12225566 </v>
   <v>       0.00576870       0.00515979      -0.06183519 </v>
   <v>       0.01451432      -0.00029972       0.00924892 </v>
   <v>       0.16323418      -0.02633180      -0.18895179 </v>
   <v>      -0.03785467       0.03099408       0.26173753 </v>
   <v>      -0.06475468       0.06565087      -0.10128947 </v>
   <v>       0.06739256      -0.01367125       0.14863228 </v>
   <v>      -0.00688823      -0.00219657      -0.00567393 </v>
   <v>      -0.01110527      -0.01027102      -0.02679527 </v>
   <v>       0.00538696      -0.00606338       0.02585848 </v>
   <v>       0.23416704       0.05090655       0.29915764 </v>
   <v>      -0.00081256       0.00745791      -0.00975192 </v>
   <v>      -0.13611450       0.19950967      -0.46761511 </v>
   <v>       0.01309669      -0.02403399      -0.01838699 </v>
   <v>      -0.02811589      -0.01887127       0.05356746 </v>
   <v>       0.15219346       0.15017391       0.37167933 </v>
   <v>       0.02950611       0.03927497       0.24420291 </v>
   <v>      -0.04595699      -0.03032306      -0.22463448 </v>
   <v>      -0.40465735       0.04217632      -0.06819376 </v>
   <v>      -0.00156986      -0.02764532       0.00941600 </v>
   <v>       0.10877094      -0.06238006       0.24910731 </v>
   <v>      -0.00132336       0.05465599       0.09449468 </v>
   <v>      -0.01244707      -0.04285437       0.14744174 </v>
   <v>      -0.23434441      -0.00840802       0.25684820 </v>
   <v>       0.02678490       0.02731535      -0.04298448 </v>
   <v>      -0.02786130       0.01611895      -0.47081176 </v>
   <v>      -0.01875853      -0.02076865       0.00453022 </v>
   <v>      -0.02497405      -0.01846694       0.04383075 </v>
   <v>      -0.05124553      -0.06574327       0.04534630 </v>
   <v>      -0.00888626      -0.00601370      -0.00108423 </v>
   <v>      -0.11529666      -0.05509770      -0.15369160 </v>
   <v>       0.03239635      -0.01554394       0.00693669 </v>
   <v>      -0.06907224       0.01669787      -0.05805334 </v>
   <v>       0.04496023      -0.09367515      -0.19459588 </v>
   <v>       0.01549045      -0.13700816      -0.20959835 </v>
   <v>       0.41631050       0.45939573      -0.17391708 </v>
   <v>       0.01206151       0.02529811      -0.10272656 </v>
   <v>       0.01002290       0.00386322      -0.01531495 </v>
   <v>      -0.02785777      -0.01810796      -0.11184149 </v>
   <v>       0.06146679       0.07856914       0.29108264 </v>
   <v>      -0.03540801      -0.42755714      -0.27684141 </v>
   <v>      -0.00886968       0.01632120      -0.01346922 </v>
   <v>      -0.01204957       0.02053840       0.04858506 </v>
   <v>       0.00036706      -0.00326950      -0.00676308 </v>
  </varray>
  <varray name="stress" >
   <v>     -18.96754259       0.06488524       0.30295914 </v>
   <v>       0.06488567     -20.73125149       0.79234555 </v>
   <v>       0.30295926       0.79234606      -3.07362129 </v>
  </varray>
  <energy>
   <i name="e_fr_energy">   -512.77129241 </i>
   <i name="e_wo_entrp">   -512.78395139 </i>
   <i name="e_0_energy">   -512.77551207 </i>
  </energy>
  <time name="totalsc">  188.38  189.58</time>
 </calculation>
 <calculation>
  <scstep>
   <time name="dav">   16.06   16.16</time>
   <time name="total">   17.02   17.13</time>
   <dipole>
    <v name="dipole">      0.00000000       0.00000000       0.07842549 </v>
    <i name="Tr[quadrupol]">  -7399.60827858 </i>
    <i name="Echarged">      0.00000000 </i>
    <i name="Edipol_quadrupol">      0.00000000 </i>
    <i name="Eion">      0.00000000 </i>
   </dipole>
   <energy>
    <i name="alphaZ">   1854.69623740 </i>
    <i name="ewald"> 207781.74885920 </i>
    <i name="hartreedc">-258661.64714766 </i>
    <i name="XCdc">    954.98828719 </i>
    <i name="pawpsdc">  55332.15972782 </i>
    <i name="pawaedc"> -56422.90677673 </i>
    <i name="eentropy">      0.01280178 </i>
    <i name="bandstr">  -4151.79365928 </i>
    <i name="atom">  52799.98958613 </i>
    <i name="e_fr_energy">   -512.75208414 </i>
    <i name="e_wo_entrp">   -512.76488592 </i>
    <i name="e_0_energy">   -512.75635140 </i>
   </energy>
  </scstep>
  <scstep>
   <time name="dav">   16.15   16.24</time>
   <time name="total">   17.11   17.22</time>
   <dipole>
    <v name="dipole">      0.00000000       0.00000000       0.06986103 </v>
    <i name="Tr[quadrupol]">  -7399.64243936 </i>
    <i name="Echarged">      0.00000000 </i>
    <i name="Edipol_quadrupol">      0.00000000 </i>
    <i name="Eion">      0.00000000 </i>
   </dipole>
   <energy>
    <i name="e_fr_energy">   -512.76991357 </i>
    <i name="e_wo_entrp">   -512.78647383 </i>
    <i name="e_0_energy">   -512.77543365 </i>
   </energy>
  </scstep>
  <scstep>
   <time name="dav">   22.62   22.76</time>
   <time name="total">   23.56   23.71</time>
   <dipole>
    <v name="dipole">      0.00000000       0.00000000       0.09570614 </v>
    <i name="Tr[quadrupol]">  -7399.65924589 </i>
    <i name="Echarged">      0.00000000 </i>
    <i name="Edipol_quadrupol">      0.00000000 </i>
    <i name="Eion">      0.00000000 </i>
   </dipole>
   <energy>
    <i name="e_fr_energy">   -512.78026754 </i>
    <i name="e_wo_entrp">   -512.78373005 </i>
    <i name="e_0_energy">   -512.78142171 </i>
   </energy>
  </scstep>
  <scstep>
   <time name="dav">   24.47   24.63</time>
   <time name="total">   25.41   25.59</time>
   <dipole>
    <v name="dipole">      0.00000000       0.00000000       0.07579360 </v>
    <i name="Tr[quadrupol]">  -7399.59850492 </i>
    <i name="Echarged">      0.00000000 </i>
    <i name="Edipol_quadrupol">      0.00000000 </i>
    <i name="Eion">      0.00000000 </i>
   </dipole>
   <energy>
    <i name="e_fr_energy">   -512.76969402 </i>
    <i name="e_wo_entrp">   -512.78413264 </i>
    <i name="e_0_energy">   -512.77450689 </i>
   </energy>
  </scstep>
  <scstep>
   <time name="dav">   23.61   23.76</time>
   <time name="total">   24.58   24.74</time>
   <dipole>
    <v name="dipole">      0.00000000       0.00000000       0.07629222 </v>
    <i name="Tr[quadrupol]">  -7399.65566240 </i>
    <i name="Echarged">      0.00000000 </i>
    <i name="Edipol_quadrupol">      0.00000000 </i>
    <i name="Eion">      0.00000000 </i>
   </dipole>
   <energy>
    <i name="e_fr_energy">   -512.77095524 </i>
    <i name="e_wo_entrp">   -512.78440166 </i>
    <i name="e_0_energy">   -512.77543738 </i>
   </energy>
  </scstep>
  <scstep>
   <time name="dav">   23.73   23.88</time>
   <time name="total">   24.69   24.86</time>
   <dipole>
    <v name="dipole">      0.00000000       0.00000000       0.08120059 </v>
    <i name="Tr[quadrupol]">  -7399.63822880 </i>
    <i name="Echarged">      0.00000000 </i>
    <i name="Edipol_quadrupol">      0.00000000 </i>
    <i name="Eion">      0.00000000 </i>
   </dipole>
   <energy>
    <i name="e_fr_energy">   -512.77235727 </i>
    <i name="e_wo_entrp">   -512.78350148 </i>
    <i name="e_0_energy">   -512.77607201 </i>
   </energy>
  </scstep>
  <scstep>
   <time name="dav">   22.24   22.37</time>
   <time name="total">   23.20   23.34</time>
   <dipole>
    <v name="dipole">      0.00000000       0.00000000       0.07923567 </v>
    <i name="Tr[quadrupol]">  -7399.62111383 </i>
    <i name="Echarged">      0.00000000 </i>
    <i name="Edipol_quadrupol">      0.00000000 </i>
    <i name="Eion">      0.00000000 </i>
   </dipole>
   <energy>
    <i name="e_fr_energy">   -512.77209228 </i>
    <i name="e_wo_entrp">   -512.78472517 </i>
    <i name="e_0_energy">   -512.77630324 </i>
   </energy>
  </scstep>
  <scstep>
   <time name="dav">   21.68   21.82</time>
   <time name="total">   22.64   22.79</time>
   <dipole>
    <v name="dipole">      0.00000000       0.00000000       0.07765583 </v>
    <i name="Tr[quadrupol]">  -7399.62266261 </i>
    <i name="Echarged">      0.00000000 </i>
    <i name="Edipol_quadrupol">      0.00000000 </i>
    <i name="Eion">      0.00000000 </i>
   </dipole>
   <energy>
    <i name="e_fr_energy">   -512.77205323 </i>
    <i name="e_wo_entrp">   -512.78529414 </i>
    <i name="e_0_energy">   -512.77646687 </i>
   </energy>
  </scstep>
  <scstep>
   <time name="dav">   17.02   17.13</time>
   <time name="total">   17.43   17.55</time>
   <dipole>
    <v name="dipole">      0.00000000       0.00000000       0.07787752 </v>
    <i name="Tr[quadrupol]">  -7399.62260330 </i>
    <i name="Echarged">      0.00000000 </i>
    <i name="Edipol_quadrupol">      0.00000000 </i>
    <i name="Eion">      0.00000000 </i>
   </dipole>
   <energy>
    <i name="alphaZ">   1855.01560188 </i>
    <i name="ewald"> 207781.74885920 </i>
    <i name="hartreedc">-258661.94354715 </i>
    <i name="XCdc">    954.96968261 </i>
    <i name="pawpsdc">  55334.28778215 </i>
    <i name="pawaedc"> -56425.03073020 </i>
    <i name="eentropy">      0.01312143 </i>
    <i name="bandstr">  -4151.82240004 </i>
    <i name="atom">  52799.98958613 </i>
    <i name="e_fr_energy">   -512.77204397 </i>
    <i name="e_wo_entrp">   -512.78516540 </i>
    <i name="e_0_energy">   -512.77641778 </i>
   </energy>
  </scstep>
  <structure>
   <crystal>
    <varray name="basis" >
     <v>       8.50970000       0.00000000       0.00000000 </v>
     <v>      -0.00372597       8.53929919       0.00000000 </v>
     <v>       0.00000000       0.00000000      23.57140000 </v>
    </varray>
    <i name="volume">   1712.85996128 </i>
    <varray name="rec_basis" >
     <v>       0.11751296       0.00005127       0.00000000 </v>
     <v>       0.00000000       0.11710563       0.00000000 </v>
     <v>       0.00000000       0.00000000       0.04242429 </v>
    </varray>
   </crystal>
   <varray name="positions" >
    <v>       0.83310000       0.49871000       0.06001000 </v>
    <v>       0.83472000       0.83192000       0.06027000 </v>
    <v>       0.67683072       0.64520368       0.35956656 </v>
    <v>       0.00081000       0.66425000       0.00034000 </v>
    <v>       0.15938303       0.83104587       0.29914353 </v>
    <v>       0.66291867       0.33298087       0.36210993 </v>
    <v>       0.66559000       0.33138000       0.00044000 </v>
    <v>       0.49968000       0.83322000       0.06046000 </v>
    <v>       0.66721000       0.33321000       0.24067000 </v>
    <v>       0.50058000       0.49950000       0.18024000 </v>
    <v>       0.33595000       0.33196000       0.11912000 </v>
    <v>       0.33462000       0.33376000       0.24059000 </v>
    <v>       0.50030078       0.49951028       0.30026714 </v>
    <v>       0.00055000       0.33190000       0.12006000 </v>
    <v>       0.16752000       0.49945000       0.18065000 </v>
    <v>       0.00021000       0.33145000       0.00038000 </v>
    <v>       0.33510000       0.33170000       0.00029000 </v>
    <v>       0.01264072       0.33843025       0.36108762 </v>
    <v>       0.00077000       0.99959000       0.12036000 </v>
    <v>       0.16814000       0.16634000       0.18048000 </v>
    <v>       0.33405000       0.66593000       0.12095000 </v>
    <v>       0.50078000       0.83242000       0.18121000 </v>
    <v>       0.98607040       0.66609306       0.36086763 </v>
    <v>       0.99982000       0.33359000       0.24030000 </v>
    <v>       0.00025000       0.66569000       0.12051000 </v>
    <v>       0.16581000       0.83217000       0.18114000 </v>
    <v>       0.66566000       0.33123000       0.11970000 </v>
    <v>       0.83116532       0.83551768       0.30155083 </v>
    <v>       0.16604653       0.49896314       0.30065827 </v>
    <v>       0.16483424       0.16787449       0.30136202 </v>
    <v>       0.00161000       0.99891000       0.00024000 </v>
    <v>       0.99594898       0.99636630       0.36024364 </v>
    <v>       0.16807000       0.16539000       0.06004000 </v>
    <v>       0.50500730       0.83164871       0.30202659 </v>
    <v>       0.83476000       0.83303000       0.18132000 </v>
    <v>       0.66715000       0.66559000       0.00000000 </v>
    <v>       0.66719000       0.66640000       0.12032000 </v>
    <v>       0.83302000       0.49937000       0.17995000 </v>
    <v>       0.16769000       0.83389000       0.06029000 </v>
    <v>       0.49990201       0.16728744       0.30107935 </v>
    <v>       0.33289000       0.99824000       0.24130000 </v>
    <v>       0.66679000       0.99914000       0.24097000 </v>
    <v>       0.33466000       0.00023000       0.12082000 </v>
    <v>       0.66746000       0.99815000       0.00001000 </v>
    <v>       0.83663028       0.17169188       0.30172041 </v>
    <v>       0.83358000       0.16456000       0.06013000 </v>
    <v>       0.67327428       0.01599570       0.36020823 </v>
    <v>       0.83364000       0.16593000       0.18062000 </v>
    <v>       0.66653000       0.99972000       0.12044000 </v>
    <v>       0.33676140       0.33364031       0.35949168 </v>
    <v>       0.33487000       0.00167000       0.00066000 </v>
    <v>       0.32811036       0.99812221       0.36567615 </v>
    <v>       0.00122000       0.00217000       0.24080000 </v>
    <v>       0.16722000       0.50179000       0.05903000 </v>
    <v>       0.50000000       0.50344000       0.05949000 </v>
    <v>       0.49861000       0.16115000       0.05868000 </v>
    <v>       0.49968000       0.16444000       0.18182000 </v>
    <v>       0.83786279       0.50091264       0.29820713 </v>
    <v>       0.99722000       0.66135000       0.24151000 </v>
    <v>       0.33419000       0.66573000       0.24040000 </v>
    <v>       0.33414000       0.65855000       0.00278000 </v>
    <v>       0.32746710       0.66596804       0.36405825 </v>
    <v>       0.66923000       0.66337000       0.24097000 </v>
    <v>       0.53088623       0.82726324       0.43914447 </v>
   </varray>
  </structure>
  <varray name="forces" >
   <v>       0.01198619       0.00879543      -0.44739349 </v>
   <v>      -0.03590844       0.02178251      -0.40043161 </v>
   <v>       0.00157017      -0.00424827      -0.00301972 </v>
   <v>      -0.19194347       0.13391041       0.31196589 </v>
   <v>      -0.01539841       0.00573680       0.02051144 </v>
   <v>       0.03141138       0.00123642      -0.00793211 </v>
   <v>      -0.01647272      -0.08754241       0.25266909 </v>
   <v>       0.41415091       0.17414667      -0.12300475 </v>
   <v>      -0.11595043      -0.01713564      -0.03873379 </v>
   <v>      -0.02764802       0.01089306      -0.00746541 </v>
   <v>      -0.08977449      -0.03656660       0.17874121 </v>
   <v>      -0.12579591      -0.05726553      -0.14307476 </v>
   <v>       0.00160318      -0.01279256       0.00381058 </v>
   <v>      -0.02027134       0.05394561       0.21558659 </v>
   <v>       0.03967545      -0.01995283      -0.01151097 </v>
   <v>      -0.08335062      -0.09749449       0.18960520 </v>
   <v>       0.04708274      -0.39435894       0.31014142 </v>
   <v>      -0.00633320       0.00335621       0.00272206 </v>
   <v>       0.09624204      -0.01949082       0.03966175 </v>
   <v>       0.03819419      -0.02029840      -0.06639003 </v>
   <v>       0.01024619       0.15831852       0.12390955 </v>
   <v>       0.00603571       0.00588429      -0.06947607 </v>
   <v>       0.00708483       0.00003236      -0.00059474 </v>
   <v>       0.18300897      -0.03278056      -0.20494954 </v>
   <v>      -0.03810145       0.03162199       0.26264305 </v>
   <v>      -0.06360087       0.06748357      -0.10706679 </v>
   <v>       0.06780960      -0.01365653       0.14986405 </v>
   <v>       0.00173149       0.00176448      -0.00497061 </v>
   <v>      -0.00485090      -0.01325585      -0.00396893 </v>
   <v>       0.00286911       0.00400946       0.01782333 </v>
   <v>       0.23433180       0.05042564       0.29988621 </v>
   <v>       0.00396435       0.00815517      -0.01233779 </v>
   <v>      -0.13718050       0.19927364      -0.46645171 </v>
   <v>       0.00118310      -0.00223287       0.01130305 </v>
   <v>      -0.02752520      -0.01653229       0.05186340 </v>
   <v>       0.15221517       0.15182928       0.37220616 </v>
   <v>       0.02905892       0.03967038       0.24477356 </v>
   <v>      -0.04518688      -0.03151604      -0.23606396 </v>
   <v>      -0.40489797       0.04237385      -0.06899422 </v>
   <v>       0.00767625      -0.00910101       0.00195810 </v>
   <v>       0.10730958      -0.06122188       0.24811056 </v>
   <v>       0.00218484       0.05780257       0.08980892 </v>
   <v>      -0.01365355      -0.04337416       0.14862143 </v>
   <v>      -0.23460351      -0.00922752       0.25683284 </v>
   <v>      -0.00077771      -0.00847430       0.00211718 </v>
   <v>      -0.02677505       0.01593458      -0.47016721 </v>
   <v>       0.00511956      -0.00619481      -0.01773507 </v>
   <v>      -0.02535902      -0.01985826       0.03792546 </v>
   <v>      -0.05096671      -0.06627353       0.04705470 </v>
   <v>      -0.00750955      -0.00844065      -0.00762791 </v>
   <v>      -0.11773994      -0.05672555      -0.15464906 </v>
   <v>       0.02356330      -0.01550856       0.00126480 </v>
   <v>      -0.06733503       0.01752643      -0.05943430 </v>
   <v>       0.04408168      -0.09260526      -0.19377404 </v>
   <v>       0.01498943      -0.13492402      -0.20761271 </v>
   <v>       0.41705634       0.45933279      -0.17074269 </v>
   <v>       0.01204817       0.02435057      -0.09920476 </v>
   <v>      -0.00238026       0.01438691       0.00284855 </v>
   <v>      -0.02632987      -0.01069702      -0.11852080 </v>
   <v>       0.05782447       0.07788818       0.28019338 </v>
   <v>      -0.03616257      -0.42622417      -0.27609396 </v>
   <v>      -0.00376563      -0.00242944      -0.01477665 </v>
   <v>      -0.00757281       0.01397740       0.03617492 </v>
   <v>      -0.00218703      -0.00744442       0.00157173 </v>
  </varray>
  <varray name="stress" >
   <v>     -18.87969351       0.05834753       0.28662055 </v>
   <v>       0.05834745     -20.66529020       0.82247454 </v>
   <v>       0.28662103       0.82247453      -2.89631814 </v>
  </varray>
  <energy>
   <i name="e_fr_energy">   -512.77204397 </i>
   <i name="e_wo_entrp">   -512.78516540 </i>
   <i name="e_0_energy">   -512.77641778 </i>
  </energy>
  <time name="totalsc">  212.63  214.00</time>
 </calculation>
 <calculation>
  <scstep>
   <time name="dav">   15.97   16.08</time>
   <time name="total">   16.94   17.05</time>
   <dipole>
    <v name="dipole">      0.00000000       0.00000000       0.07797713 </v>
    <i name="Tr[quadrupol]">  -7399.48437911 </i>
    <i name="Echarged">      0.00000000 </i>
    <i name="Edipol_quadrupol">      0.00000000 </i>
    <i name="Eion">      0.00000000 </i>
   </dipole>
   <energy>
    <i name="alphaZ">   1854.68901754 </i>
    <i name="ewald"> 207802.55613479 </i>
    <i name="hartreedc">-258682.61030472 </i>
    <i name="XCdc">    954.96831149 </i>
    <i name="pawpsdc">  55334.88931724 </i>
    <i name="pawaedc"> -56425.63588050 </i>
    <i name="eentropy">      0.01309052 </i>
    <i name="bandstr">  -4151.62929109 </i>
    <i name="atom">  52799.98958613 </i>
    <i name="e_fr_energy">   -512.77001861 </i>
    <i name="e_wo_entrp">   -512.78310913 </i>
    <i name="e_0_energy">   -512.77438212 </i>
   </energy>
  </scstep>
  <scstep>
   <time name="dav">   16.28   16.39</time>
   <time name="total">   17.24   17.36</time>
   <dipole>
    <v name="dipole">      0.00000000       0.00000000       0.07475085 </v>
    <i name="Tr[quadrupol]">  -7399.49231676 </i>
    <i name="Echarged">      0.00000000 </i>
    <i name="Edipol_quadrupol">      0.00000000 </i>
    <i name="Eion">      0.00000000 </i>
   </dipole>
   <energy>
    <i name="e_fr_energy">   -512.77182436 </i>
    <i name="e_wo_entrp">   -512.78638693 </i>
    <i name="e_0_energy">   -512.77667855 </i>
   </energy>
  </scstep>
  <scstep>
   <time name="dav">   21.51   21.65</time>
   <time name="total">   22.49   22.64</time>
   <dipole>
    <v name="dipole">      0.00000000       0.00000000       0.08272003 </v>
    <i name="Tr[quadrupol]">  -7399.49434027 </i>
    <i name="Echarged">      0.00000000 </i>
    <i name="Edipol_quadrupol">      0.00000000 </i>
    <i name="Eion">      0.00000000 </i>
   </dipole>
   <energy>
    <i name="e_fr_energy">   -512.77248088 </i>
    <i name="e_wo_entrp">   -512.78294654 </i>
    <i name="e_0_energy">   -512.77596943 </i>
   </energy>
  </scstep>
  <scstep>
   <time name="dav">   22.56   22.71</time>
   <time name="total">   23.54   23.70</time>
   <dipole>
    <v name="dipole">      0.00000000       0.00000000       0.07715740 </v>
    <i name="Tr[quadrupol]">  -7399.47829636 </i>
    <i name="Echarged">      0.00000000 </i>
    <i name="Edipol_quadrupol">      0.00000000 </i>
    <i name="Eion">      0.00000000 </i>
   </dipole>
   <energy>
    <i name="e_fr_energy">   -512.77171084 </i>
    <i name="e_wo_entrp">   -512.78531800 </i>
    <i name="e_0_energy">   -512.77624656 </i>
   </energy>
  </scstep>
  <scstep>
   <time name="dav">   20.18   20.30</time>
   <time name="total">   21.16   21.28</time>
   <dipole>
    <v name="dipole">      0.00000000       0.00000000       0.07730104 </v>
    <i name="Tr[quadrupol]">  -7399.49259268 </i>
    <i name="Echarged">      0.00000000 </i>
    <i name="Edipol_quadrupol">      0.00000000 </i>
    <i name="Eion">      0.00000000 </i>
   </dipole>
   <energy>
    <i name="e_fr_energy">   -512.77181237 </i>
    <i name="e_wo_entrp">   -512.78516070 </i>
    <i name="e_0_energy">   -512.77626181 </i>
   </energy>
  </scstep>
  <scstep>
   <time name="dav">   22.96   23.09</time>
   <time name="total">   23.91   24.04</time>
   <dipole>
    <v name="dipole">      0.00000000       0.00000000       0.07900766 </v>
    <i name="Tr[quadrupol]">  -7399.48475981 </i>
    <i name="Echarged">      0.00000000 </i>
    <i name="Edipol_quadrupol">      0.00000000 </i>
    <i name="Eion">      0.00000000 </i>
   </dipole>
   <energy>
    <i name="e_fr_energy">   -512.77197087 </i>
    <i name="e_wo_entrp">   -512.78450228 </i>
    <i name="e_0_energy">   -512.77614800 </i>
   </energy>
  </scstep>
  <scstep>
   <time name="dav">   16.87   16.97</time>
   <time name="total">   17.81   17.94</time>
   <dipole>
    <v name="dipole">      0.00000000       0.00000000       0.07813202 </v>
    <i name="Tr[quadrupol]">  -7399.48471824 </i>
    <i name="Echarged">      0.00000000 </i>
    <i name="Edipol_quadrupol">      0.00000000 </i>
    <i name="Eion">      0.00000000 </i>
   </dipole>
   <energy>
    <i name="e_fr_energy">   -512.77193617 </i>
    <i name="e_wo_entrp">   -512.78507043 </i>
    <i name="e_0_energy">   -512.77631426 </i>
   </energy>
  </scstep>
  <scstep>
   <time name="dav">   11.47   11.54</time>
   <time name="total">   11.90   11.97</time>
   <dipole>
    <v name="dipole">      0.00000000       0.00000000       0.07758658 </v>
    <i name="Tr[quadrupol]">  -7399.48518826 </i>
    <i name="Echarged">      0.00000000 </i>
    <i name="Edipol_quadrupol">      0.00000000 </i>
    <i name="Eion">      0.00000000 </i>
   </dipole>
   <energy>
    <i name="alphaZ">   1854.68215569 </i>
    <i name="ewald"> 207802.55613479 </i>
    <i name="hartreedc">-258682.70770843 </i>
    <i name="XCdc">    954.96252601 </i>
    <i name="pawpsdc">  55335.49046166 </i>
    <i name="pawaedc"> -56426.23561479 </i>
    <i name="eentropy">      0.01334212 </i>
    <i name="bandstr">  -4151.52282191 </i>
    <i name="atom">  52799.98958613 </i>
    <i name="e_fr_energy">   -512.77193873 </i>
    <i name="e_wo_entrp">   -512.78528085 </i>
    <i name="e_0_energy">   -512.77638610 </i>
   </energy>
  </scstep>
  <structure>
   <crystal>
    <varray name="basis" >
     <v>       8.50970000       0.00000000       0.00000000 </v>
     <v>      -0.00372597       8.53929919       0.00000000 </v>
     <v>       0.00000000       0.00000000      23.57140000 </v>
    </varray>
    <i name="volume">   1712.85996128 </i>
    <varray name="rec_basis" >
     <v>       0.11751296       0.00005127       0.00000000 </v>
     <v>       0.00000000       0.11710563       0.00000000 </v>
     <v>       0.00000000       0.00000000       0.04242429 </v>
    </varray>
   </crystal>
   <varray name="positions" >
    <v>       0.83310000       0.49871000       0.06001000 </v>
    <v>       0.83472000       0.83192000       0.06027000 </v>
    <v>       0.67687940       0.64503741       0.35952604 </v>
    <v>       0.00081000       0.66425000       0.00034000 </v>
    <v>       0.15937830       0.83104733       0.29912066 </v>
    <v>       0.66314052       0.33296348       0.36212722 </v>
    <v>       0.66559000       0.33138000       0.00044000 </v>
    <v>       0.49968000       0.83322000       0.06046000 </v>
    <v>       0.66721000       0.33321000       0.24067000 </v>
    <v>       0.50058000       0.49950000       0.18024000 </v>
    <v>       0.33595000       0.33196000       0.11912000 </v>
    <v>       0.33462000       0.33376000       0.24059000 </v>
    <v>       0.50030396       0.49944865       0.30022538 </v>
    <v>       0.00055000       0.33190000       0.12006000 </v>
    <v>       0.16752000       0.49945000       0.18065000 </v>
    <v>       0.00021000       0.33145000       0.00038000 </v>
    <v>       0.33510000       0.33170000       0.00029000 </v>
    <v>       0.01264302       0.33852060       0.36111195 </v>
    <v>       0.00077000       0.99959000       0.12036000 </v>
    <v>       0.16814000       0.16634000       0.18048000 </v>
    <v>       0.33405000       0.66593000       0.12095000 </v>
    <v>       0.50078000       0.83242000       0.18121000 </v>
    <v>       0.98614158       0.66606681       0.36089313 </v>
    <v>       0.99982000       0.33359000       0.24030000 </v>
    <v>       0.00025000       0.66569000       0.12051000 </v>
    <v>       0.16581000       0.83217000       0.18114000 </v>
    <v>       0.66566000       0.33123000       0.11970000 </v>
    <v>       0.83113815       0.83549641       0.30155460 </v>
    <v>       0.16604418       0.49895756       0.30061531 </v>
    <v>       0.16487027       0.16783158       0.30140037 </v>
    <v>       0.00161000       0.99891000       0.00024000 </v>
    <v>       0.99585105       0.99640426       0.36023007 </v>
    <v>       0.16807000       0.16539000       0.06004000 </v>
    <v>       0.50506052       0.83150389       0.30195587 </v>
    <v>       0.83476000       0.83303000       0.18132000 </v>
    <v>       0.66715000       0.66559000       0.00000000 </v>
    <v>       0.66719000       0.66640000       0.12032000 </v>
    <v>       0.83302000       0.49937000       0.17995000 </v>
    <v>       0.16769000       0.83389000       0.06029000 </v>
    <v>       0.49987981       0.16720772       0.30110039 </v>
    <v>       0.33289000       0.99824000       0.24130000 </v>
    <v>       0.66679000       0.99914000       0.24097000 </v>
    <v>       0.33466000       0.00023000       0.12082000 </v>
    <v>       0.66746000       0.99815000       0.00001000 </v>
    <v>       0.83671973       0.17179824       0.30165765 </v>
    <v>       0.83358000       0.16456000       0.06013000 </v>
    <v>       0.67316670       0.01598820       0.36020139 </v>
    <v>       0.83364000       0.16593000       0.18062000 </v>
    <v>       0.66653000       0.99972000       0.12044000 </v>
    <v>       0.33674063       0.33364913       0.35948604 </v>
    <v>       0.33487000       0.00167000       0.00066000 </v>
    <v>       0.32820788       0.99800658       0.36568041 </v>
    <v>       0.00122000       0.00217000       0.24080000 </v>
    <v>       0.16722000       0.50179000       0.05903000 </v>
    <v>       0.50000000       0.50344000       0.05949000 </v>
    <v>       0.49861000       0.16115000       0.05868000 </v>
    <v>       0.49968000       0.16444000       0.18182000 </v>
    <v>       0.83797713       0.50088947       0.29815919 </v>
    <v>       0.99722000       0.66135000       0.24151000 </v>
    <v>       0.33419000       0.66573000       0.24040000 </v>
    <v>       0.33414000       0.65855000       0.00278000 </v>
    <v>       0.32741555       0.66606912       0.36399638 </v>
    <v>       0.66923000       0.66337000       0.24097000 </v>
    <v>       0.53100448       0.82711499       0.43909567 </v>
   </varray>
  </structure>
  <varray name="forces" >
   <v>       0.01124781       0.00796143      -0.44789806 </v>
   <v>      -0.03633962       0.02183912      -0.40016923 </v>
   <v>       0.00214127      -0.00156759       0.00092996 </v>
   <v>      -0.19130781       0.13355388       0.31160727 </v>
   <v>      -0.01745998       0.00581657       0.02687389 </v>
   <v>       0.02911375       0.00222122      -0.01289941 </v>
   <v>      -0.01650931      -0.08806076       0.25233965 </v>
   <v>       0.41446719       0.17436800      -0.12362245 </v>
   <v>      -0.11651607      -0.01887400      -0.04070007 </v>
   <v>      -0.02760009       0.01087140      -0.00991412 </v>
   <v>      -0.08931625      -0.03675220       0.17747673 </v>
   <v>      -0.12635275      -0.06123896      -0.14472971 </v>
   <v>       0.00155062      -0.01048023       0.01636612 </v>
   <v>      -0.02010289       0.05402647       0.21559423 </v>
   <v>       0.04023451      -0.02037748      -0.01357296 </v>
   <v>      -0.08321020      -0.09764544       0.18932670 </v>
   <v>       0.04772556      -0.39500296       0.30949460 </v>
   <v>      -0.00624270       0.00388314      -0.00122487 </v>
   <v>       0.09628121      -0.01960200       0.03914088 </v>
   <v>       0.03829195      -0.02058695      -0.06633437 </v>
   <v>       0.01052923       0.15783099       0.12370993 </v>
   <v>       0.00632577       0.00542411      -0.07232353 </v>
   <v>       0.00234196      -0.00004767      -0.00497568 </v>
   <v>       0.18878786      -0.03393664      -0.21010828 </v>
   <v>      -0.03804839       0.03137935       0.26260433 </v>
   <v>      -0.06286047       0.06738515      -0.10887758 </v>
   <v>       0.06808466      -0.01381507       0.14895658 </v>
   <v>       0.00587506       0.00310863      -0.00581479 </v>
   <v>      -0.00237100      -0.01361293       0.00829869 </v>
   <v>       0.00132263       0.00894294       0.00998573 </v>
   <v>       0.23459060       0.05038694       0.29928842 </v>
   <v>       0.00782003       0.00658310      -0.01318535 </v>
   <v>      -0.13608706       0.19950381      -0.46671224 </v>
   <v>      -0.00493706       0.00828436       0.02737980 </v>
   <v>      -0.02705463      -0.01633129       0.05124611 </v>
   <v>       0.15192303       0.15161754       0.37187916 </v>
   <v>       0.02916663       0.03918398       0.24428788 </v>
   <v>      -0.04471289      -0.03211242      -0.24002583 </v>
   <v>      -0.40405867       0.04242600      -0.06937416 </v>
   <v>       0.01154465      -0.00083461      -0.00363960 </v>
   <v>       0.10700558      -0.06154370       0.24716742 </v>
   <v>       0.00358269       0.05822642       0.08772936 </v>
   <v>      -0.01334539      -0.04324565       0.14764691 </v>
   <v>      -0.23500405      -0.00890473       0.25652943 </v>
   <v>      -0.01223977      -0.02321605       0.02244685 </v>
   <v>      -0.02754369       0.01636468      -0.47073432 </v>
   <v>       0.01514108      -0.00131307      -0.02481691 </v>
   <v>      -0.02537460      -0.02027949       0.03535325 </v>
   <v>      -0.05086466      -0.06624019       0.04639496 </v>
   <v>      -0.00746450      -0.00955874      -0.01102764 </v>
   <v>      -0.11694449      -0.05589401      -0.15510914 </v>
   <v>       0.01872325      -0.01302173      -0.00127257 </v>
   <v>      -0.06665675       0.01712852      -0.05995346 </v>
   <v>       0.04461339      -0.09337208      -0.19401286 </v>
   <v>       0.01555873      -0.13593359      -0.20830887 </v>
   <v>       0.41737874       0.45947774      -0.17207543 </v>
   <v>       0.01247942       0.02406140      -0.09980896 </v>
   <v>      -0.01328784       0.01892186       0.01663032 </v>
   <v>      -0.02612897      -0.00971969      -0.11872263 </v>
   <v>       0.05700422       0.07789668       0.27769857 </v>
   <v>      -0.03542921      -0.42666261      -0.27653699 </v>
   <v>      -0.00064610      -0.01106814      -0.01161799 </v>
   <v>      -0.00593835       0.01189008       0.03337644 </v>
   <v>      -0.00289692      -0.00971282       0.00233990 </v>
  </varray>
  <varray name="stress" >
   <v>     -18.89248533       0.05169637       0.28142036 </v>
   <v>       0.05169642     -20.67873153       0.82051946 </v>
   <v>       0.28142023       0.82051994      -2.88263084 </v>
  </varray>
  <energy>
   <i name="e_fr_energy">   -512.77193873 </i>
   <i name="e_wo_entrp">   -512.78528085 </i>
   <i name="e_0_energy">   -512.77638610 </i>
  </energy>
  <time name="totalsc">  172.00  173.09</time>
 </calculation>
 <calculation>
  <scstep>
   <time name="dav">   15.91   16.01</time>
   <time name="total">   16.87   16.98</time>
   <dipole>
    <v name="dipole">      0.00000000       0.00000000       0.07764251 </v>
    <i name="Tr[quadrupol]">  -7399.54299513 </i>
    <i name="Echarged">      0.00000000 </i>
    <i name="Edipol_quadrupol">      0.00000000 </i>
    <i name="Eion">      0.00000000 </i>
   </dipole>
   <energy>
    <i name="alphaZ">   1854.68284004 </i>
    <i name="ewald"> 207793.02927684 </i>
    <i name="hartreedc">-258673.21534638 </i>
    <i name="XCdc">    954.95784368 </i>
    <i name="pawpsdc">  55335.58837495 </i>
    <i name="pawaedc"> -56426.33320567 </i>
    <i name="eentropy">      0.01325631 </i>
    <i name="bandstr">  -4151.48419725 </i>
    <i name="atom">  52799.98958613 </i>
    <i name="e_fr_energy">   -512.77157135 </i>
    <i name="e_wo_entrp">   -512.78482766 </i>
    <i name="e_0_energy">   -512.77599012 </i>
   </energy>
  </scstep>
  <scstep>
   <time name="dav">   20.15   20.28</time>
   <time name="total">   21.12   21.26</time>
   <dipole>
    <v name="dipole">      0.00000000       0.00000000       0.08013749 </v>
    <i name="Tr[quadrupol]">  -7399.54164277 </i>
    <i name="Echarged">      0.00000000 </i>
    <i name="Edipol_quadrupol">      0.00000000 </i>
    <i name="Eion">      0.00000000 </i>
   </dipole>
   <energy>
    <i name="e_fr_energy">   -512.77207917 </i>
    <i name="e_wo_entrp">   -512.78410473 </i>
    <i name="e_0_energy">   -512.77608769 </i>
   </energy>
  </scstep>
  <scstep>
   <time name="dav">   22.83   22.98</time>
   <time name="total">   23.80   23.96</time>
   <dipole>
    <v name="dipole">      0.00000000       0.00000000       0.07586289 </v>
    <i name="Tr[quadrupol]">  -7399.53912917 </i>
    <i name="Echarged">      0.00000000 </i>
    <i name="Edipol_quadrupol">      0.00000000 </i>
    <i name="Eion">      0.00000000 </i>
   </dipole>
   <energy>
    <i name="e_fr_energy">   -512.77205340 </i>
    <i name="e_wo_entrp">   -512.78630582 </i>
    <i name="e_0_energy">   -512.77680421 </i>
   </energy>
  </scstep>
  <scstep>
   <time name="dav">   15.69   15.78</time>
   <time name="total">   16.66   16.76</time>
   <dipole>
    <v name="dipole">      0.00000000       0.00000000       0.07818089 </v>
    <i name="Tr[quadrupol]">  -7399.54529501 </i>
    <i name="Echarged">      0.00000000 </i>
    <i name="Edipol_quadrupol">      0.00000000 </i>
    <i name="Eion">      0.00000000 </i>
   </dipole>
   <energy>
    <i name="e_fr_energy">   -512.77194844 </i>
    <i name="e_wo_entrp">   -512.78489113 </i>
    <i name="e_0_energy">   -512.77626267 </i>
   </energy>
  </scstep>
  <scstep>
   <time name="dav">   14.94   15.04</time>
   <time name="total">   15.91   16.02</time>
   <dipole>
    <v name="dipole">      0.00000000       0.00000000       0.07853168 </v>
    <i name="Tr[quadrupol]">  -7399.53833091 </i>
    <i name="Echarged">      0.00000000 </i>
    <i name="Edipol_quadrupol">      0.00000000 </i>
    <i name="Eion">      0.00000000 </i>
   </dipole>
   <energy>
    <i name="e_fr_energy">   -512.77199098 </i>
    <i name="e_wo_entrp">   -512.78488889 </i>
    <i name="e_0_energy">   -512.77629028 </i>
   </energy>
  </scstep>
  <scstep>
   <time name="dav">   14.81   14.91</time>
   <time name="total">   15.78   15.88</time>
   <dipole>
    <v name="dipole">      0.00000000       0.00000000       0.07805198 </v>
    <i name="Tr[quadrupol]">  -7399.54201072 </i>
    <i name="Echarged">      0.00000000 </i>
    <i name="Edipol_quadrupol">      0.00000000 </i>
    <i name="Eion">      0.00000000 </i>
   </dipole>
   <energy>
    <i name="e_fr_energy">   -512.77200272 </i>
    <i name="e_wo_entrp">   -512.78519034 </i>
    <i name="e_0_energy">   -512.77639859 </i>
   </energy>
  </scstep>
  <scstep>
   <time name="dav">   10.32   10.39</time>
   <time name="total">   10.76   10.83</time>
   <dipole>
    <v name="dipole">      0.00000000       0.00000000       0.07791194 </v>
    <i name="Tr[quadrupol]">  -7399.54172900 </i>
    <i name="Echarged">      0.00000000 </i>
    <i name="Edipol_quadrupol">      0.00000000 </i>
    <i name="Eion">      0.00000000 </i>
   </dipole>
   <energy>
    <i name="alphaZ">   1854.68757296 </i>
    <i name="ewald"> 207793.02927684 </i>
    <i name="hartreedc">-258673.15672000 </i>
    <i name="XCdc">    954.95658952 </i>
    <i name="pawpsdc">  55335.57760117 </i>
    <i name="pawaedc"> -56426.32018736 </i>
    <i name="eentropy">      0.01321612 </i>
    <i name="bandstr">  -4151.54894196 </i>
    <i name="atom">  52799.98958613 </i>
    <i name="e_fr_energy">   -512.77200656 </i>
    <i name="e_wo_entrp">   -512.78522268 </i>
    <i name="e_0_energy">   -512.77641194 </i>
   </energy>
  </scstep>
  <structure>
   <crystal>
    <varray name="basis" >
     <v>       8.50970000       0.00000000       0.00000000 </v>
     <v>      -0.00372597       8.53929919       0.00000000 </v>
     <v>       0.00000000       0.00000000      23.57140000 </v>
    </varray>
    <i name="volume">   1712.85996128 </i>
    <varray name="rec_basis" >
     <v>       0.11751296       0.00005127       0.00000000 </v>
     <v>       0.00000000       0.11710563       0.00000000 </v>
     <v>       0.00000000       0.00000000       0.04242429 </v>
    </varray>
   </crystal>
   <varray name="positions" >
    <v>       0.83310000       0.49871000       0.06001000 </v>
    <v>       0.83472000       0.83192000       0.06027000 </v>
    <v>       0.67685711       0.64511354       0.35954459 </v>
    <v>       0.00081000       0.66425000       0.00034000 </v>
    <v>       0.15938047       0.83104666       0.29913113 </v>
    <v>       0.66303895       0.33297144       0.36211930 </v>
    <v>       0.66559000       0.33138000       0.00044000 </v>
    <v>       0.49968000       0.83322000       0.06046000 </v>
    <v>       0.66721000       0.33321000       0.24067000 </v>
    <v>       0.50058000       0.49950000       0.18024000 </v>
    <v>       0.33595000       0.33196000       0.11912000 </v>
    <v>       0.33462000       0.33376000       0.24059000 </v>
    <v>       0.50030250       0.49947687       0.30024450 </v>
    <v>       0.00055000       0.33190000       0.12006000 </v>
    <v>       0.16752000       0.49945000       0.18065000 </v>
    <v>       0.00021000       0.33145000       0.00038000 </v>
    <v>       0.33510000       0.33170000       0.00029000 </v>
    <v>       0.01264196       0.33847923       0.36110081 </v>
    <v>       0.00077000       0.99959000       0.12036000 </v>
    <v>       0.16814000       0.16634000       0.18048000 </v>
    <v>       0.33405000       0.66593000       0.12095000 </v>
    <v>       0.50078000       0.83242000       0.18121000 </v>
    <v>       0.98610899       0.66607883       0.36088146 </v>
    <v>       0.99982000       0.33359000       0.24030000 </v>
    <v>       0.00025000       0.66569000       0.12051000 </v>
    <v>       0.16581000       0.83217000       0.18114000 </v>
    <v>       0.66566000       0.33123000       0.11970000 </v>
    <v>       0.83115059       0.83550615       0.30155288 </v>
    <v>       0.16604525       0.49896012       0.30063498 </v>
    <v>       0.16485377       0.16785123       0.30138281 </v>
    <v>       0.00161000       0.99891000       0.00024000 </v>
    <v>       0.99589589       0.99638688       0.36023628 </v>
    <v>       0.16807000       0.16539000       0.06004000 </v>
    <v>       0.50503615       0.83157020       0.30198825 </v>
    <v>       0.83476000       0.83303000       0.18132000 </v>
    <v>       0.66715000       0.66559000       0.00000000 </v>
    <v>       0.66719000       0.66640000       0.12032000 </v>
    <v>       0.83302000       0.49937000       0.17995000 </v>
    <v>       0.16769000       0.83389000       0.06029000 </v>
    <v>       0.49988997       0.16724422       0.30109076 </v>
    <v>       0.33289000       0.99824000       0.24130000 </v>
    <v>       0.66679000       0.99914000       0.24097000 </v>
    <v>       0.33466000       0.00023000       0.12082000 </v>
    <v>       0.66746000       0.99815000       0.00001000 </v>
    <v>       0.83667877       0.17174954       0.30168639 </v>
    <v>       0.83358000       0.16456000       0.06013000 </v>
    <v>       0.67321596       0.01599163       0.36020452 </v>
    <v>       0.83364000       0.16593000       0.18062000 </v>
    <v>       0.66653000       0.99972000       0.12044000 </v>
    <v>       0.33675014       0.33364509       0.35948862 </v>
    <v>       0.33487000       0.00167000       0.00066000 </v>
    <v>       0.32816323       0.99805952       0.36567846 </v>
    <v>       0.00122000       0.00217000       0.24080000 </v>
    <v>       0.16722000       0.50179000       0.05903000 </v>
    <v>       0.50000000       0.50344000       0.05949000 </v>
    <v>       0.49861000       0.16115000       0.05868000 </v>
    <v>       0.49968000       0.16444000       0.18182000 </v>
    <v>       0.83792478       0.50090008       0.29818114 </v>
    <v>       0.99722000       0.66135000       0.24151000 </v>
    <v>       0.33419000       0.66573000       0.24040000 </v>
    <v>       0.33414000       0.65855000       0.00278000 </v>
    <v>       0.32743915       0.66602284       0.36402470 </v>
    <v>       0.66923000       0.66337000       0.24097000 </v>
    <v>       0.53095034       0.82718287       0.43911801 </v>
   </varray>
  </structure>
  <varray name="forces" >
   <v>       0.01142887       0.00782056      -0.44835980 </v>
   <v>      -0.03622127       0.02173903      -0.40085913 </v>
   <v>       0.00071165       0.00156474       0.00158151 </v>
   <v>      -0.19132803       0.13333157       0.31123134 </v>
   <v>      -0.01638667       0.00469219       0.02626639 </v>
   <v>       0.02647169       0.00237079      -0.01102654 </v>
   <v>      -0.01648415      -0.08812471       0.25203532 </v>
   <v>       0.41475692       0.17426905      -0.12396426 </v>
   <v>      -0.11612990      -0.01804577      -0.03986330 </v>
   <v>      -0.02742402       0.01098858      -0.00918873 </v>
   <v>      -0.08902292      -0.03690112       0.17735582 </v>
   <v>      -0.12588579      -0.05924159      -0.14426600 </v>
   <v>       0.00131895      -0.00940333       0.01409125 </v>
   <v>      -0.01994467       0.05394336       0.21529732 </v>
   <v>       0.04032749      -0.02027150      -0.01276251 </v>
   <v>      -0.08307856      -0.09770783       0.18890998 </v>
   <v>       0.04806537      -0.39499769       0.30939574 </v>
   <v>      -0.00653863       0.00271878      -0.00015544 </v>
   <v>       0.09647749      -0.01968729       0.03901474 </v>
   <v>       0.03844802      -0.02043811      -0.06659112 </v>
   <v>       0.01077340       0.15768046       0.12357620 </v>
   <v>       0.00627772       0.00523023      -0.07153645 </v>
   <v>       0.00326026       0.00020182      -0.00396268 </v>
   <v>       0.18613695      -0.03310171      -0.20753232 </v>
   <v>      -0.03783441       0.03119378       0.26246768 </v>
   <v>      -0.06279190       0.06694209      -0.10817138 </v>
   <v>       0.06805388      -0.01391008       0.14874177 </v>
   <v>       0.00506932       0.00292210      -0.00662471 </v>
   <v>      -0.00318816      -0.01348995       0.00634270 </v>
   <v>       0.00133593       0.00780416       0.00934652 </v>
   <v>       0.23467969       0.05038660       0.29900701 </v>
   <v>       0.00819806       0.00598486      -0.01328708 </v>
   <v>      -0.13597878       0.19946491      -0.46728498 </v>
   <v>      -0.00402785       0.00682875       0.02580599 </v>
   <v>      -0.02697350      -0.01676727       0.05146655 </v>
   <v>       0.15209654       0.15135711       0.37153258 </v>
   <v>       0.02925616       0.03905943       0.24418562 </v>
   <v>      -0.04473622      -0.03199953      -0.23871124 </v>
   <v>      -0.40402476       0.04229286      -0.06973720 </v>
   <v>       0.01077975      -0.00307436      -0.00380295 </v>
   <v>       0.10728713      -0.06162869       0.24731985 </v>
   <v>       0.00307422       0.05783248       0.08852630 </v>
   <v>      -0.01301448      -0.04325909       0.14742608 </v>
   <v>      -0.23485034      -0.00889572       0.25635007 </v>
   <v>      -0.00968010      -0.01960533       0.01827205 </v>
   <v>      -0.02745177       0.01621325      -0.47127164 </v>
   <v>       0.01305124      -0.00343216      -0.02142263 </v>
   <v>      -0.02521411      -0.02021457       0.03592496 </v>
   <v>      -0.05085749      -0.06627390       0.04612036 </v>
   <v>      -0.00776361      -0.00955572      -0.01051510 </v>
   <v>      -0.11641096      -0.05578650      -0.15537507 </v>
   <v>       0.02103171      -0.01432411      -0.00030059 </v>
   <v>      -0.06665390       0.01676760      -0.05977094 </v>
   <v>       0.04490052      -0.09349689      -0.19479266 </v>
   <v>       0.01564634      -0.13617846      -0.20917808 </v>
   <v>       0.41745449       0.45935221      -0.17294362 </v>
   <v>       0.01258723       0.02413862      -0.10034160 </v>
   <v>      -0.01428473       0.01777818       0.01692452 </v>
   <v>      -0.02600710      -0.01067563      -0.11756300 </v>
   <v>       0.05742944       0.07813290       0.27906981 </v>
   <v>      -0.03523837      -0.42697934      -0.27685750 </v>
   <v>      -0.00153254      -0.00750244      -0.01184007 </v>
   <v>      -0.00686394       0.01312740       0.03513565 </v>
   <v>      -0.00256277      -0.00916008       0.00113862 </v>
  </varray>
  <varray name="stress" >
   <v>     -18.88609696       0.05192284       0.28481361 </v>
   <v>       0.05192279     -20.66777667       0.81723660 </v>
   <v>       0.28481377       0.81723611      -2.89112274 </v>
  </varray>
  <energy>
   <i name="e_fr_energy">   -512.77200656 </i>
   <i name="e_wo_entrp">   -512.78522268 </i>
   <i name="e_0_energy">   -512.77641194 </i>
  </energy>
  <time name="totalsc">  137.92  138.82</time>
 </calculation>
 <calculation>
  <scstep>
   <time name="dav">   15.86   15.96</time>
   <time name="total">   16.83   16.94</time>
   <dipole>
    <v name="dipole">      0.00000000       0.00000000       0.07781599 </v>
    <i name="Tr[quadrupol]">  -7399.57601301 </i>
    <i name="Echarged">      0.00000000 </i>
    <i name="Edipol_quadrupol">      0.00000000 </i>
    <i name="Eion">      0.00000000 </i>
   </dipole>
   <energy>
    <i name="alphaZ">   1854.68571060 </i>
    <i name="ewald"> 207787.38903666 </i>
    <i name="hartreedc">-258667.53917067 </i>
    <i name="XCdc">    954.95471530 </i>
    <i name="pawpsdc">  55335.57695314 </i>
    <i name="pawaedc"> -56426.31951212 </i>
    <i name="eentropy">      0.01323837 </i>
    <i name="bandstr">  -4151.52244060 </i>
    <i name="atom">  52799.98958613 </i>
    <i name="e_fr_energy">   -512.77188319 </i>
    <i name="e_wo_entrp">   -512.78512156 </i>
    <i name="e_0_energy">   -512.77629598 </i>
   </energy>
  </scstep>
  <scstep>
   <time name="dav">   22.47   22.62</time>
   <time name="total">   23.44   23.61</time>
   <dipole>
    <v name="dipole">      0.00000000       0.00000000       0.08022929 </v>
    <i name="Tr[quadrupol]">  -7399.56442708 </i>
    <i name="Echarged">      0.00000000 </i>
    <i name="Edipol_quadrupol">      0.00000000 </i>
    <i name="Eion">      0.00000000 </i>
   </dipole>
   <energy>
    <i name="e_fr_energy">   -512.77215849 </i>
    <i name="e_wo_entrp">   -512.78417031 </i>
    <i name="e_0_energy">   -512.77616243 </i>
   </energy>
  </scstep>
  <scstep>
   <time name="dav">   22.17   22.32</time>
   <time name="total">   23.14   23.29</time>
   <dipole>
    <v name="dipole">      0.00000000       0.00000000       0.07722132 </v>
    <i name="Tr[quadrupol]">  -7399.56301806 </i>
    <i name="Echarged">      0.00000000 </i>
    <i name="Edipol_quadrupol">      0.00000000 </i>
    <i name="Eion">      0.00000000 </i>
   </dipole>
   <energy>
    <i name="e_fr_energy">   -512.77201163 </i>
    <i name="e_wo_entrp">   -512.78558569 </i>
    <i name="e_0_energy">   -512.77653632 </i>
   </energy>
  </scstep>
  <scstep>
   <time name="dav">   13.92   14.01</time>
   <time name="total">   14.35   14.45</time>
   <dipole>
    <v name="dipole">      0.00000000       0.00000000       0.07782864 </v>
    <i name="Tr[quadrupol]">  -7399.55551319 </i>
    <i name="Echarged">      0.00000000 </i>
    <i name="Edipol_quadrupol">      0.00000000 </i>
    <i name="Eion">      0.00000000 </i>
   </dipole>
   <energy>
    <i name="alphaZ">   1854.02837040 </i>
    <i name="ewald"> 207787.38903666 </i>
    <i name="hartreedc">-258667.59177942 </i>
    <i name="XCdc">    954.95498097 </i>
    <i name="pawpsdc">  55335.55296580 </i>
    <i name="pawaedc"> -56426.29544989 </i>
    <i name="eentropy">      0.01316926 </i>
    <i name="bandstr">  -4150.81289231 </i>
    <i name="atom">  52799.98958613 </i>
    <i name="e_fr_energy">   -512.77201241 </i>
    <i name="e_wo_entrp">   -512.78518167 </i>
    <i name="e_0_energy">   -512.77640216 </i>
   </energy>
  </scstep>
  <structure>
   <crystal>
    <varray name="basis" >
     <v>       8.50970000       0.00000000       0.00000000 </v>
     <v>      -0.00372597       8.53929919       0.00000000 </v>
     <v>       0.00000000       0.00000000      23.57140000 </v>
    </varray>
    <i name="volume">   1712.85996128 </i>
    <varray name="rec_basis" >
     <v>       0.11751296       0.00005127       0.00000000 </v>
     <v>       0.00000000       0.11710563       0.00000000 </v>
     <v>       0.00000000       0.00000000       0.04242429 </v>
    </varray>
   </crystal>
   <varray name="positions" >
    <v>       0.83310000       0.49871000       0.06001000 </v>
    <v>       0.83472000       0.83192000       0.06027000 </v>
    <v>       0.67684392       0.64515861       0.35955558 </v>
    <v>       0.00081000       0.66425000       0.00034000 </v>
    <v>       0.15938175       0.83104627       0.29913733 </v>
    <v>       0.66297881       0.33297615       0.36211462 </v>
    <v>       0.66559000       0.33138000       0.00044000 </v>
    <v>       0.49968000       0.83322000       0.06046000 </v>
    <v>       0.66721000       0.33321000       0.24067000 </v>
    <v>       0.50058000       0.49950000       0.18024000 </v>
    <v>       0.33595000       0.33196000       0.11912000 </v>
    <v>       0.33462000       0.33376000       0.24059000 </v>
    <v>       0.50030164       0.49949358       0.30025582 </v>
    <v>       0.00055000       0.33190000       0.12006000 </v>
    <v>       0.16752000       0.49945000       0.18065000 </v>
    <v>       0.00021000       0.33145000       0.00038000 </v>
    <v>       0.33510000       0.33170000       0.00029000 </v>
    <v>       0.01264134       0.33845474       0.36109422 </v>
    <v>       0.00077000       0.99959000       0.12036000 </v>
    <v>       0.16814000       0.16634000       0.18048000 </v>
    <v>       0.33405000       0.66593000       0.12095000 </v>
    <v>       0.50078000       0.83242000       0.18121000 </v>
    <v>       0.98608970       0.66608595       0.36087454 </v>
    <v>       0.99982000       0.33359000       0.24030000 </v>
    <v>       0.00025000       0.66569000       0.12051000 </v>
    <v>       0.16581000       0.83217000       0.18114000 </v>
    <v>       0.66566000       0.33123000       0.11970000 </v>
    <v>       0.83115796       0.83551191       0.30155186 </v>
    <v>       0.16604589       0.49896163       0.30064663 </v>
    <v>       0.16484400       0.16786286       0.30137241 </v>
    <v>       0.00161000       0.99891000       0.00024000 </v>
    <v>       0.99592244       0.99637659       0.36023996 </v>
    <v>       0.16807000       0.16539000       0.06004000 </v>
    <v>       0.50502172       0.83160946       0.30200742 </v>
    <v>       0.83476000       0.83303000       0.18132000 </v>
    <v>       0.66715000       0.66559000       0.00000000 </v>
    <v>       0.66719000       0.66640000       0.12032000 </v>
    <v>       0.83302000       0.49937000       0.17995000 </v>
    <v>       0.16769000       0.83389000       0.06029000 </v>
    <v>       0.49989599       0.16726583       0.30108506 </v>
    <v>       0.33289000       0.99824000       0.24130000 </v>
    <v>       0.66679000       0.99914000       0.24097000 </v>
    <v>       0.33466000       0.00023000       0.12082000 </v>
    <v>       0.66746000       0.99815000       0.00001000 </v>
    <v>       0.83665452       0.17172071       0.30170340 </v>
    <v>       0.83358000       0.16456000       0.06013000 </v>
    <v>       0.67324512       0.01599367       0.36020638 </v>
    <v>       0.83364000       0.16593000       0.18062000 </v>
    <v>       0.66653000       0.99972000       0.12044000 </v>
    <v>       0.33675577       0.33364270       0.35949015 </v>
    <v>       0.33487000       0.00167000       0.00066000 </v>
    <v>       0.32813679       0.99809087       0.36567731 </v>
    <v>       0.00122000       0.00217000       0.24080000 </v>
    <v>       0.16722000       0.50179000       0.05903000 </v>
    <v>       0.50000000       0.50344000       0.05949000 </v>
    <v>       0.49861000       0.16115000       0.05868000 </v>
    <v>       0.49968000       0.16444000       0.18182000 </v>
    <v>       0.83789378       0.50090636       0.29819413 </v>
    <v>       0.99722000       0.66135000       0.24151000 </v>
    <v>       0.33419000       0.66573000       0.24040000 </v>
    <v>       0.33414000       0.65855000       0.00278000 </v>
    <v>       0.32745313       0.66599544       0.36404148 </v>
    <v>       0.66923000       0.66337000       0.24097000 </v>
    <v>       0.53091828       0.82722305       0.43913124 </v>
   </varray>
  </structure>
  <varray name="forces" >
   <v>       0.01133038       0.00786806      -0.44865917 </v>
   <v>      -0.03634462       0.02170835      -0.40117294 </v>
   <v>       0.00159637      -0.00307756      -0.00196876 </v>
   <v>      -0.19164800       0.13337249       0.31141387 </v>
   <v>      -0.01580019       0.00438262       0.02504252 </v>
   <v>       0.03557194       0.00166113      -0.00779515 </v>
   <v>      -0.01643135      -0.08786532       0.25203361 </v>
   <v>       0.41475337       0.17427689      -0.12400376 </v>
   <v>      -0.11593264      -0.01738401      -0.03922376 </v>
   <v>      -0.02758167       0.01120108      -0.00853339 </v>
   <v>      -0.08916516      -0.03669187       0.17743072 </v>
   <v>      -0.12583731      -0.05792798      -0.14383164 </v>
   <v>       0.00107396      -0.01054808       0.01002013 </v>
   <v>      -0.02005586       0.05404728       0.21523209 </v>
   <v>       0.04018329      -0.02013095      -0.01210447 </v>
   <v>      -0.08336150      -0.09755406       0.18897340 </v>
   <v>       0.04797100      -0.39471372       0.30951500 </v>
   <v>      -0.00664061       0.00657515       0.00338853 </v>
   <v>       0.09640452      -0.01956626       0.03900061 </v>
   <v>       0.03821185      -0.02020415      -0.06664353 </v>
   <v>       0.01067124       0.15772703       0.12344815 </v>
   <v>       0.00605512       0.00522350      -0.07079395 </v>
   <v>       0.00654758      -0.00059634      -0.00048211 </v>
   <v>       0.18422673      -0.03246075      -0.20595827 </v>
   <v>      -0.03790427       0.03124567       0.26241749 </v>
   <v>      -0.06298492       0.06693314      -0.10756604 </v>
   <v>       0.06787144      -0.01375301       0.14870902 </v>
   <v>       0.00354685       0.00245545      -0.00595990 </v>
   <v>      -0.00387543      -0.01363669       0.00235266 </v>
   <v>       0.00238747       0.00612778       0.01336812 </v>
   <v>       0.23445863       0.05053108       0.29924795 </v>
   <v>       0.00361322       0.00761150      -0.01452781 </v>
   <v>      -0.13624082       0.19967341      -0.46753729 </v>
   <v>      -0.00216018       0.00202205       0.01951207 </v>
   <v>      -0.02719622      -0.01677514       0.05173035 </v>
   <v>       0.15213114       0.15131745       0.37166082 </v>
   <v>       0.02911806       0.03915222       0.24421040 </v>
   <v>      -0.04493901      -0.03187831      -0.23770776 </v>
   <v>      -0.40432683       0.04231960      -0.06977146 </v>
   <v>       0.00937973      -0.00662252      -0.00115785 </v>
   <v>       0.10734323      -0.06159611       0.24777369 </v>
   <v>       0.00257836       0.05767997       0.08916806 </v>
   <v>      -0.01308735      -0.04312728       0.14749977 </v>
   <v>      -0.23478547      -0.00880531       0.25654526 </v>
   <v>      -0.00522230      -0.01359015       0.01016311 </v>
   <v>      -0.02754865       0.01643767      -0.47160125 </v>
   <v>       0.00684458      -0.00475039      -0.01997176 </v>
   <v>      -0.02525527      -0.01998849       0.03656434 </v>
   <v>      -0.05097359      -0.06617803       0.04616143 </v>
   <v>      -0.00927977      -0.00909518      -0.01061404 </v>
   <v>      -0.11666606      -0.05582866      -0.15514367 </v>
   <v>       0.02299207      -0.01583417       0.00120406 </v>
   <v>      -0.06687152       0.01687471      -0.05939895 </v>
   <v>       0.04462206      -0.09350873      -0.19493877 </v>
   <v>       0.01567668      -0.13616884      -0.20936734 </v>
   <v>       0.41745818       0.45968063      -0.17307141 </v>
   <v>       0.01243759       0.02428637      -0.10031801 </v>
   <v>      -0.01299726       0.01645293       0.01586787 </v>
   <v>      -0.02609327      -0.01108806      -0.11669916 </v>
   <v>       0.05757251       0.07839720       0.28009626 </v>
   <v>      -0.03537039      -0.42694976      -0.27672039 </v>
   <v>      -0.00261647      -0.00473048      -0.01278920 </v>
   <v>      -0.00766646       0.01392427       0.03641958 </v>
   <v>      -0.00176874      -0.00854034      -0.00013794 </v>
  </varray>
  <varray name="stress" >
   <v>     -18.93557185       0.05262385       0.28417837 </v>
   <v>       0.05262409     -20.71828154       0.81532455 </v>
   <v>       0.28417831       0.81532449      -3.00455329 </v>
  </varray>
  <energy>
   <i name="e_fr_energy">   -512.77201241 </i>
   <i name="e_wo_entrp">   -512.78518167 </i>
   <i name="e_0_energy">   -512.77640216 </i>
  </energy>
  <time name="totalsc">   94.79   95.41</time>
 </calculation>
 <calculation>
  <scstep>
   <time name="dav">   16.16   16.27</time>
   <time name="total">   17.12   17.23</time>
   <dipole>
    <v name="dipole">      0.00000000       0.00000000       0.07808011 </v>
    <i name="Tr[quadrupol]">  -7398.94334788 </i>
    <i name="Echarged">      0.00000000 </i>
    <i name="Edipol_quadrupol">      0.00000000 </i>
    <i name="Eion">      0.00000000 </i>
   </dipole>
   <energy>
    <i name="alphaZ">   1854.03127474 </i>
    <i name="ewald"> 207815.99389344 </i>
    <i name="hartreedc">-258695.86855890 </i>
    <i name="XCdc">    954.97637041 </i>
    <i name="pawpsdc">  55335.53528194 </i>
    <i name="pawaedc"> -56426.27736183 </i>
    <i name="eentropy">      0.01340081 </i>
    <i name="bandstr">  -4151.15371652 </i>
    <i name="atom">  52799.98958613 </i>
    <i name="e_fr_energy">   -512.75982977 </i>
    <i name="e_wo_entrp">   -512.77323058 </i>
    <i name="e_0_energy">   -512.76429671 </i>
   </energy>
  </scstep>
  <scstep>
   <time name="dav">   15.94   16.05</time>
   <time name="total">   16.91   17.02</time>
   <dipole>
    <v name="dipole">      0.00000000       0.00000000       0.08037513 </v>
    <i name="Tr[quadrupol]">  -7398.95728870 </i>
    <i name="Echarged">      0.00000000 </i>
    <i name="Edipol_quadrupol">      0.00000000 </i>
    <i name="Eion">      0.00000000 </i>
   </dipole>
   <energy>
    <i name="e_fr_energy">   -512.77019540 </i>
    <i name="e_wo_entrp">   -512.78219755 </i>
    <i name="e_0_energy">   -512.77419611 </i>
   </energy>
  </scstep>
  <scstep>
   <time name="dav">   24.92   25.09</time>
   <time name="total">   25.89   26.06</time>
   <dipole>
    <v name="dipole">      0.00000000       0.00000000       0.06042601 </v>
    <i name="Tr[quadrupol]">  -7398.94946226 </i>
    <i name="Echarged">      0.00000000 </i>
    <i name="Edipol_quadrupol">      0.00000000 </i>
    <i name="Eion">      0.00000000 </i>
   </dipole>
   <energy>
    <i name="e_fr_energy">   -512.78153487 </i>
    <i name="e_wo_entrp">   -512.80418395 </i>
    <i name="e_0_energy">   -512.78908456 </i>
   </energy>
  </scstep>
  <scstep>
   <time name="dav">   25.92   26.08</time>
   <time name="total">   26.89   27.06</time>
   <dipole>
    <v name="dipole">      0.00000000       0.00000000       0.07991442 </v>
    <i name="Tr[quadrupol]">  -7398.95081686 </i>
    <i name="Echarged">      0.00000000 </i>
    <i name="Edipol_quadrupol">      0.00000000 </i>
    <i name="Eion">      0.00000000 </i>
   </dipole>
   <energy>
    <i name="e_fr_energy">   -512.77083485 </i>
    <i name="e_wo_entrp">   -512.78324720 </i>
    <i name="e_0_energy">   -512.77497230 </i>
   </energy>
  </scstep>
  <scstep>
   <time name="dav">   23.07   23.22</time>
   <time name="total">   24.03   24.18</time>
   <dipole>
    <v name="dipole">      0.00000000       0.00000000       0.07550843 </v>
    <i name="Tr[quadrupol]">  -7398.97867291 </i>
    <i name="Echarged">      0.00000000 </i>
    <i name="Edipol_quadrupol">      0.00000000 </i>
    <i name="Eion">      0.00000000 </i>
   </dipole>
   <energy>
    <i name="e_fr_energy">   -512.77244223 </i>
    <i name="e_wo_entrp">   -512.78650236 </i>
    <i name="e_0_energy">   -512.77712894 </i>
   </energy>
  </scstep>
  <scstep>
   <time name="dav">   23.01   23.16</time>
   <time name="total">   23.98   24.14</time>
   <dipole>
    <v name="dipole">      0.00000000       0.00000000       0.07709417 </v>
    <i name="Tr[quadrupol]">  -7398.96647487 </i>
    <i name="Echarged">      0.00000000 </i>
    <i name="Edipol_quadrupol">      0.00000000 </i>
    <i name="Eion">      0.00000000 </i>
   </dipole>
   <energy>
    <i name="e_fr_energy">   -512.77251374 </i>
    <i name="e_wo_entrp">   -512.78616367 </i>
    <i name="e_0_energy">   -512.77706372 </i>
   </energy>
  </scstep>
  <scstep>
   <time name="dav">   22.56   22.71</time>
   <time name="total">   23.53   23.70</time>
   <dipole>
    <v name="dipole">      0.00000000       0.00000000       0.07758663 </v>
    <i name="Tr[quadrupol]">  -7398.98321816 </i>
    <i name="Echarged">      0.00000000 </i>
    <i name="Edipol_quadrupol">      0.00000000 </i>
    <i name="Eion">      0.00000000 </i>
   </dipole>
   <energy>
    <i name="e_fr_energy">   -512.77246941 </i>
    <i name="e_wo_entrp">   -512.78566017 </i>
    <i name="e_0_energy">   -512.77686633 </i>
   </energy>
  </scstep>
  <scstep>
   <time name="dav">   14.43   14.53</time>
   <time name="total">   15.41   15.51</time>
   <dipole>
    <v name="dipole">      0.00000000       0.00000000       0.07811766 </v>
    <i name="Tr[quadrupol]">  -7398.98168193 </i>
    <i name="Echarged">      0.00000000 </i>
    <i name="Edipol_quadrupol">      0.00000000 </i>
    <i name="Eion">      0.00000000 </i>
   </dipole>
   <energy>
    <i name="e_fr_energy">   -512.77248058 </i>
    <i name="e_wo_entrp">   -512.78536354 </i>
    <i name="e_0_energy">   -512.77677490 </i>
   </energy>
  </scstep>
  <scstep>
   <time name="dav">   12.83   12.91</time>
   <time name="total">   13.27   13.36</time>
   <dipole>
    <v name="dipole">      0.00000000       0.00000000       0.07827112 </v>
    <i name="Tr[quadrupol]">  -7398.98067210 </i>
    <i name="Echarged">      0.00000000 </i>
    <i name="Edipol_quadrupol">      0.00000000 </i>
    <i name="Eion">      0.00000000 </i>
   </dipole>
   <energy>
    <i name="alphaZ">   1855.02496844 </i>
    <i name="ewald"> 207815.99389344 </i>
    <i name="hartreedc">-258695.97244231 </i>
    <i name="XCdc">    954.96019019 </i>
    <i name="pawpsdc">  55337.13684173 </i>
    <i name="pawaedc"> -56427.88807447 </i>
    <i name="eentropy">      0.01292670 </i>
    <i name="bandstr">  -4152.03036624 </i>
    <i name="atom">  52799.98958613 </i>
    <i name="e_fr_energy">   -512.77247640 </i>
    <i name="e_wo_entrp">   -512.78540310 </i>
    <i name="e_0_energy">   -512.77678530 </i>
   </energy>
  </scstep>
  <structure>
   <crystal>
    <varray name="basis" >
     <v>       8.50970000       0.00000000       0.00000000 </v>
     <v>      -0.00372597       8.53929919       0.00000000 </v>
     <v>       0.00000000       0.00000000      23.57140000 </v>
    </varray>
    <i name="volume">   1712.85996128 </i>
    <varray name="rec_basis" >
     <v>       0.11751296       0.00005127       0.00000000 </v>
     <v>       0.00000000       0.11710563       0.00000000 </v>
     <v>       0.00000000       0.00000000       0.04242429 </v>
    </varray>
   </crystal>
   <varray name="positions" >
    <v>       0.83310000       0.49871000       0.06001000 </v>
    <v>       0.83472000       0.83192000       0.06027000 </v>
    <v>       0.67693294       0.64489230       0.35949126 </v>
    <v>       0.00081000       0.66425000       0.00034000 </v>
    <v>       0.15912502       0.83111743       0.29925076 </v>
    <v>       0.66383337       0.33297964       0.36209263 </v>
    <v>       0.66559000       0.33138000       0.00044000 </v>
    <v>       0.49968000       0.83322000       0.06046000 </v>
    <v>       0.66721000       0.33321000       0.24067000 </v>
    <v>       0.50058000       0.49950000       0.18024000 </v>
    <v>       0.33595000       0.33196000       0.11912000 </v>
    <v>       0.33462000       0.33376000       0.24059000 </v>
    <v>       0.50032276       0.49924619       0.30025851 </v>
    <v>       0.00055000       0.33190000       0.12006000 </v>
    <v>       0.16752000       0.49945000       0.18065000 </v>
    <v>       0.00021000       0.33145000       0.00038000 </v>
    <v>       0.33510000       0.33170000       0.00029000 </v>
    <v>       0.01253910       0.33867693       0.36114547 </v>
    <v>       0.00077000       0.99959000       0.12036000 </v>
    <v>       0.16814000       0.16634000       0.18048000 </v>
    <v>       0.33405000       0.66593000       0.12095000 </v>
    <v>       0.50078000       0.83242000       0.18121000 </v>
    <v>       0.98628670       0.66604216       0.36090516 </v>
    <v>       0.99982000       0.33359000       0.24030000 </v>
    <v>       0.00025000       0.66569000       0.12051000 </v>
    <v>       0.16581000       0.83217000       0.18114000 </v>
    <v>       0.66566000       0.33123000       0.11970000 </v>
    <v>       0.83117865       0.83552287       0.30152267 </v>
    <v>       0.16598126       0.49873883       0.30060385 </v>
    <v>       0.16492909       0.16790352       0.30149917 </v>
    <v>       0.00161000       0.99891000       0.00024000 </v>
    <v>       0.99585158       0.99654657       0.36013903 </v>
    <v>       0.16807000       0.16539000       0.06004000 </v>
    <v>       0.50505716       0.83145182       0.30202655 </v>
    <v>       0.83476000       0.83303000       0.18132000 </v>
    <v>       0.66715000       0.66559000       0.00000000 </v>
    <v>       0.66719000       0.66640000       0.12032000 </v>
    <v>       0.83302000       0.49937000       0.17995000 </v>
    <v>       0.16769000       0.83389000       0.06029000 </v>
    <v>       0.50001564       0.16705680       0.30110597 </v>
    <v>       0.33289000       0.99824000       0.24130000 </v>
    <v>       0.66679000       0.99914000       0.24097000 </v>
    <v>       0.33466000       0.00023000       0.12082000 </v>
    <v>       0.66746000       0.99815000       0.00001000 </v>
    <v>       0.83668872       0.17164519       0.30167942 </v>
    <v>       0.83358000       0.16456000       0.06013000 </v>
    <v>       0.67321278       0.01590878       0.36008308 </v>
    <v>       0.83364000       0.16593000       0.18062000 </v>
    <v>       0.66653000       0.99972000       0.12044000 </v>
    <v>       0.33658135       0.33351051       0.35942201 </v>
    <v>       0.33487000       0.00167000       0.00066000 </v>
    <v>       0.32862897       0.99768926       0.36568977 </v>
    <v>       0.00122000       0.00217000       0.24080000 </v>
    <v>       0.16722000       0.50179000       0.05903000 </v>
    <v>       0.50000000       0.50344000       0.05949000 </v>
    <v>       0.49861000       0.16115000       0.05868000 </v>
    <v>       0.49968000       0.16444000       0.18182000 </v>
    <v>       0.83783748       0.50113603       0.29822221 </v>
    <v>       0.99722000       0.66135000       0.24151000 </v>
    <v>       0.33419000       0.66573000       0.24040000 </v>
    <v>       0.33414000       0.65855000       0.00278000 </v>
    <v>       0.32734411       0.66605301       0.36388725 </v>
    <v>       0.66923000       0.66337000       0.24097000 </v>
    <v>       0.53104499       0.82689401       0.43906656 </v>
   </varray>
  </structure>
  <varray name="forces" >
   <v>       0.01146894       0.00814957      -0.44994015 </v>
   <v>      -0.03603714       0.02174307      -0.40174867 </v>
   <v>      -0.00669312       0.00685797       0.01209747 </v>
   <v>      -0.19211300       0.13263171       0.31237997 </v>
   <v>      -0.00351488       0.00401963       0.00284899 </v>
   <v>       0.02397148       0.00082271      -0.00585415 </v>
   <v>      -0.01583531      -0.08782416       0.25244533 </v>
   <v>       0.41535905       0.17366930      -0.12436549 </v>
   <v>      -0.11292782      -0.02077916      -0.04002461 </v>
   <v>      -0.02887255       0.01165931      -0.00790062 </v>
   <v>      -0.08903948      -0.03655348       0.17732233 </v>
   <v>      -0.12393510      -0.06789350      -0.14441126 </v>
   <v>       0.00070773      -0.00461709       0.01420057 </v>
   <v>      -0.02006056       0.05384472       0.21523935 </v>
   <v>       0.04019167      -0.02016244      -0.01266843 </v>
   <v>      -0.08381514      -0.09759019       0.18969201 </v>
   <v>       0.04799861      -0.39458384       0.31055661 </v>
   <v>      -0.01112460       0.00407880       0.00535536 </v>
   <v>       0.09613022      -0.01919099       0.03896363 </v>
   <v>       0.03809293      -0.02121058      -0.06293041 </v>
   <v>       0.01049780       0.15755464       0.12277943 </v>
   <v>       0.00457896       0.00532968      -0.06965548 </v>
   <v>      -0.00120410       0.00089978       0.00025469 </v>
   <v>       0.18306428      -0.03605926      -0.20441871 </v>
   <v>      -0.03796159       0.03135907       0.26263366 </v>
   <v>      -0.06164938       0.06690729      -0.10296041 </v>
   <v>       0.06822185      -0.01391825       0.14805061 </v>
   <v>       0.00269729      -0.00362484      -0.00801001 </v>
   <v>      -0.00007976       0.00285971       0.00704233 </v>
   <v>       0.00293284      -0.00074561      -0.00603383 </v>
   <v>       0.23417501       0.05077661       0.30027022 </v>
   <v>       0.01444840       0.00757833       0.00784078 </v>
   <v>      -0.13649892       0.19995148      -0.46790738 </v>
   <v>      -0.00155154       0.00405261       0.01063534 </v>
   <v>      -0.02608519      -0.01621348       0.05046339 </v>
   <v>       0.15227858       0.15150896       0.37225103 </v>
   <v>       0.02846012       0.03931888       0.24395831 </v>
   <v>      -0.04393705      -0.03185095      -0.23674340 </v>
   <v>      -0.40473950       0.04189755      -0.07034878 </v>
   <v>       0.00510351       0.01178838      -0.00811153 </v>
   <v>       0.10195786      -0.06513962       0.25410569 </v>
   <v>       0.00249013       0.05430626       0.08458647 </v>
   <v>      -0.01342387      -0.04333796       0.14709570 </v>
   <v>      -0.23469792      -0.00881218       0.25736466 </v>
   <v>      -0.00228600      -0.00716669       0.00191441 </v>
   <v>      -0.02745639       0.01674468      -0.47246211 </v>
   <v>       0.00821267      -0.00881894      -0.00068615 </v>
   <v>      -0.02477567      -0.02045093       0.03550829 </v>
   <v>      -0.05115611      -0.06600154       0.04635846 </v>
   <v>      -0.00339191      -0.01440099      -0.00406020 </v>
   <v>      -0.11581734      -0.05519259      -0.15419351 </v>
   <v>       0.00149207      -0.00078587      -0.00304669 </v>
   <v>      -0.06338516       0.01940469      -0.06083965 </v>
   <v>       0.04514217      -0.09307659      -0.19607204 </v>
   <v>       0.01496169      -0.13602398      -0.21001482 </v>
   <v>       0.41674175       0.45937979      -0.17468498 </v>
   <v>       0.01205658       0.02389258      -0.09952567 </v>
   <v>      -0.00113353       0.00209633      -0.00352680 </v>
   <v>      -0.02221409      -0.00922431      -0.11852766 </v>
   <v>       0.05479796       0.07866470       0.28298446 </v>
   <v>      -0.03541969      -0.42689442      -0.27576858 </v>
   <v>       0.00189628      -0.01734811      -0.00662791 </v>
   <v>      -0.00972680       0.01224822       0.03254415 </v>
   <v>       0.00243180      -0.01050447       0.00432640 </v>
  </varray>
  <varray name="stress" >
   <v>     -18.85123307       0.03499608       0.24855960 </v>
   <v>       0.03499610     -20.65981505       0.84598432 </v>
   <v>       0.24855985       0.84598440      -2.87007985 </v>
  </varray>
  <energy>
   <i name="e_fr_energy">   -512.77247640 </i>
   <i name="e_wo_entrp">   -512.78540310 </i>
   <i name="e_0_energy">   -512.77678530 </i>
  </energy>
  <time name="totalsc">  204.04  205.38</time>
 </calculation>
 <calculation>
  <scstep>
   <time name="dav">   16.06   16.15</time>
   <time name="total">   17.03   17.13</time>
   <dipole>
    <v name="dipole">      0.00000000       0.00000000       0.07788114 </v>
    <i name="Tr[quadrupol]">  -7398.76587203 </i>
    <i name="Echarged">      0.00000000 </i>
    <i name="Edipol_quadrupol">      0.00000000 </i>
    <i name="Eion">      0.00000000 </i>
   </dipole>
   <energy>
    <i name="alphaZ">   1855.01664691 </i>
    <i name="ewald"> 207824.35984438 </i>
    <i name="hartreedc">-258704.20310554 </i>
    <i name="XCdc">    954.96131456 </i>
    <i name="pawpsdc">  55337.53137828 </i>
    <i name="pawaedc"> -56428.28110885 </i>
    <i name="eentropy">      0.01344481 </i>
    <i name="bandstr">  -4152.15935227 </i>
    <i name="atom">  52799.98958613 </i>
    <i name="e_fr_energy">   -512.77135158 </i>
    <i name="e_wo_entrp">   -512.78479640 </i>
    <i name="e_0_energy">   -512.77583319 </i>
   </energy>
  </scstep>
  <scstep>
   <time name="dav">   20.48   20.62</time>
   <time name="total">   21.46   21.60</time>
   <dipole>
    <v name="dipole">      0.00000000       0.00000000       0.08281682 </v>
    <i name="Tr[quadrupol]">  -7398.77131298 </i>
    <i name="Echarged">      0.00000000 </i>
    <i name="Edipol_quadrupol">      0.00000000 </i>
    <i name="Eion">      0.00000000 </i>
   </dipole>
   <energy>
    <i name="e_fr_energy">   -512.77288504 </i>
    <i name="e_wo_entrp">   -512.78364550 </i>
    <i name="e_0_energy">   -512.77647186 </i>
   </energy>
  </scstep>
  <scstep>
   <time name="dav">   19.69   19.82</time>
   <time name="total">   20.66   20.80</time>
   <dipole>
    <v name="dipole">      0.00000000       0.00000000       0.07671721 </v>
    <i name="Tr[quadrupol]">  -7398.76540977 </i>
    <i name="Echarged">      0.00000000 </i>
    <i name="Edipol_quadrupol">      0.00000000 </i>
    <i name="Eion">      0.00000000 </i>
   </dipole>
   <energy>
    <i name="e_fr_energy">   -512.77229607 </i>
    <i name="e_wo_entrp">   -512.78633587 </i>
    <i name="e_0_energy">   -512.77697601 </i>
   </energy>
  </scstep>
  <scstep>
   <time name="dav">   18.30   18.42</time>
   <time name="total">   19.27   19.40</time>
   <dipole>
    <v name="dipole">      0.00000000       0.00000000       0.07749822 </v>
    <i name="Tr[quadrupol]">  -7398.76878610 </i>
    <i name="Echarged">      0.00000000 </i>
    <i name="Edipol_quadrupol">      0.00000000 </i>
    <i name="Eion">      0.00000000 </i>
   </dipole>
   <energy>
    <i name="e_fr_energy">   -512.77233994 </i>
    <i name="e_wo_entrp">   -512.78584541 </i>
    <i name="e_0_energy">   -512.77684176 </i>
   </energy>
  </scstep>
  <scstep>
   <time name="dav">   12.40   12.48</time>
   <time name="total">   13.38   13.47</time>
   <dipole>
    <v name="dipole">      0.00000000       0.00000000       0.07889038 </v>
    <i name="Tr[quadrupol]">  -7398.76474266 </i>
    <i name="Echarged">      0.00000000 </i>
    <i name="Edipol_quadrupol">      0.00000000 </i>
    <i name="Eion">      0.00000000 </i>
   </dipole>
   <energy>
    <i name="e_fr_energy">   -512.77246948 </i>
    <i name="e_wo_entrp">   -512.78516870 </i>
    <i name="e_0_energy">   -512.77670255 </i>
   </energy>
  </scstep>
  <scstep>
   <time name="dav">   20.63   20.76</time>
   <time name="total">   21.60   21.74</time>
   <dipole>
    <v name="dipole">      0.00000000       0.00000000       0.07834733 </v>
    <i name="Tr[quadrupol]">  -7398.77524467 </i>
    <i name="Echarged">      0.00000000 </i>
    <i name="Edipol_quadrupol">      0.00000000 </i>
    <i name="Eion">      0.00000000 </i>
   </dipole>
   <energy>
    <i name="e_fr_energy">   -512.77246336 </i>
    <i name="e_wo_entrp">   -512.78527918 </i>
    <i name="e_0_energy">   -512.77673530 </i>
   </energy>
  </scstep>
  <scstep>
   <time name="dav">   12.04   12.12</time>
   <time name="total">   13.02   13.11</time>
   <dipole>
    <v name="dipole">      0.00000000       0.00000000       0.07784621 </v>
    <i name="Tr[quadrupol]">  -7398.77060311 </i>
    <i name="Echarged">      0.00000000 </i>
    <i name="Edipol_quadrupol">      0.00000000 </i>
    <i name="Eion">      0.00000000 </i>
   </dipole>
   <energy>
    <i name="e_fr_energy">   -512.77245127 </i>
    <i name="e_wo_entrp">   -512.78558414 </i>
    <i name="e_0_energy">   -512.77682889 </i>
   </energy>
  </scstep>
  <scstep>
   <time name="dav">   10.93   11.00</time>
   <time name="total">   11.35   11.43</time>
   <dipole>
    <v name="dipole">      0.00000000       0.00000000       0.07774143 </v>
    <i name="Tr[quadrupol]">  -7398.76977406 </i>
    <i name="Echarged">      0.00000000 </i>
    <i name="Edipol_quadrupol">      0.00000000 </i>
    <i name="Eion">      0.00000000 </i>
   </dipole>
   <energy>
    <i name="alphaZ">   1855.01360136 </i>
    <i name="ewald"> 207824.35984438 </i>
    <i name="hartreedc">-258704.33382014 </i>
    <i name="XCdc">    954.95658305 </i>
    <i name="pawpsdc">  55338.27353954 </i>
    <i name="pawaedc"> -56429.02755061 </i>
    <i name="eentropy">      0.01319451 </i>
    <i name="bandstr">  -4152.01743055 </i>
    <i name="atom">  52799.98958613 </i>
    <i name="e_fr_energy">   -512.77245233 </i>
    <i name="e_wo_entrp">   -512.78564684 </i>
    <i name="e_0_energy">   -512.77685050 </i>
   </energy>
  </scstep>
  <structure>
   <crystal>
    <varray name="basis" >
     <v>       8.50970000       0.00000000       0.00000000 </v>
     <v>      -0.00372597       8.53929919       0.00000000 </v>
     <v>       0.00000000       0.00000000      23.57140000 </v>
    </varray>
    <i name="volume">   1712.85996128 </i>
    <varray name="rec_basis" >
     <v>       0.11751296       0.00005127       0.00000000 </v>
     <v>       0.00000000       0.11710563       0.00000000 </v>
     <v>       0.00000000       0.00000000       0.04242429 </v>
    </varray>
   </crystal>
   <varray name="positions" >
    <v>       0.83310000       0.49871000       0.06001000 </v>
    <v>       0.83472000       0.83192000       0.06027000 </v>
    <v>       0.67695897       0.64481445       0.35947246 </v>
    <v>       0.00081000       0.66425000       0.00034000 </v>
    <v>       0.15904998       0.83113823       0.29928392 </v>
    <v>       0.66408316       0.33298066       0.36208620 </v>
    <v>       0.66559000       0.33138000       0.00044000 </v>
    <v>       0.49968000       0.83322000       0.06046000 </v>
    <v>       0.66721000       0.33321000       0.24067000 </v>
    <v>       0.50058000       0.49950000       0.18024000 </v>
    <v>       0.33595000       0.33196000       0.11912000 </v>
    <v>       0.33462000       0.33376000       0.24059000 </v>
    <v>       0.50032893       0.49917388       0.30025930 </v>
    <v>       0.00055000       0.33190000       0.12006000 </v>
    <v>       0.16752000       0.49945000       0.18065000 </v>
    <v>       0.00021000       0.33145000       0.00038000 </v>
    <v>       0.33510000       0.33170000       0.00029000 </v>
    <v>       0.01250921       0.33874187       0.36116046 </v>
    <v>       0.00077000       0.99959000       0.12036000 </v>
    <v>       0.16814000       0.16634000       0.18048000 </v>
    <v>       0.33405000       0.66593000       0.12095000 </v>
    <v>       0.50078000       0.83242000       0.18121000 </v>
    <v>       0.98634429       0.66602936       0.36091411 </v>
    <v>       0.99982000       0.33359000       0.24030000 </v>
    <v>       0.00025000       0.66569000       0.12051000 </v>
    <v>       0.16581000       0.83217000       0.18114000 </v>
    <v>       0.66566000       0.33123000       0.11970000 </v>
    <v>       0.83118470       0.83552608       0.30151413 </v>
    <v>       0.16596237       0.49867370       0.30059135 </v>
    <v>       0.16495396       0.16791541       0.30153621 </v>
    <v>       0.00161000       0.99891000       0.00024000 </v>
    <v>       0.99583087       0.99659626       0.36010953 </v>
    <v>       0.16807000       0.16539000       0.06004000 </v>
    <v>       0.50506752       0.83140574       0.30203214 </v>
    <v>       0.83476000       0.83303000       0.18132000 </v>
    <v>       0.66715000       0.66559000       0.00000000 </v>
    <v>       0.66719000       0.66640000       0.12032000 </v>
    <v>       0.83302000       0.49937000       0.17995000 </v>
    <v>       0.16769000       0.83389000       0.06029000 </v>
    <v>       0.50005061       0.16699570       0.30111209 </v>
    <v>       0.33289000       0.99824000       0.24130000 </v>
    <v>       0.66679000       0.99914000       0.24097000 </v>
    <v>       0.33466000       0.00023000       0.12082000 </v>
    <v>       0.66746000       0.99815000       0.00001000 </v>
    <v>       0.83669872       0.17162311       0.30167241 </v>
    <v>       0.83358000       0.16456000       0.06013000 </v>
    <v>       0.67320333       0.01588396       0.36004704 </v>
    <v>       0.83364000       0.16593000       0.18062000 </v>
    <v>       0.66653000       0.99972000       0.12044000 </v>
    <v>       0.33653037       0.33347187       0.35940209 </v>
    <v>       0.33487000       0.00167000       0.00066000 </v>
    <v>       0.32877283       0.99757187       0.36569342 </v>
    <v>       0.00122000       0.00217000       0.24080000 </v>
    <v>       0.16722000       0.50179000       0.05903000 </v>
    <v>       0.50000000       0.50344000       0.05949000 </v>
    <v>       0.49861000       0.16115000       0.05868000 </v>
    <v>       0.49968000       0.16444000       0.18182000 </v>
    <v>       0.83782102       0.50120317       0.29823042 </v>
    <v>       0.99722000       0.66135000       0.24151000 </v>
    <v>       0.33419000       0.66573000       0.24040000 </v>
    <v>       0.33414000       0.65855000       0.00278000 </v>
    <v>       0.32731224       0.66606984       0.36384218 </v>
    <v>       0.66923000       0.66337000       0.24097000 </v>
    <v>       0.53108202       0.82679783       0.43904765 </v>
   </varray>
  </structure>
  <varray name="forces" >
   <v>       0.01151523       0.00816634      -0.44891599 </v>
   <v>      -0.03603208       0.02192955      -0.40039160 </v>
   <v>      -0.00859250       0.00840849       0.01465652 </v>
   <v>      -0.19140830       0.13260249       0.31170655 </v>
   <v>       0.00342204       0.00279764      -0.00564843 </v>
   <v>       0.02055594       0.00120155      -0.00522944 </v>
   <v>      -0.01590904      -0.08828465       0.25175978 </v>
   <v>       0.41488793       0.17384841      -0.12402171 </v>
   <v>      -0.11212697      -0.02176545      -0.04027520 </v>
   <v>      -0.02928174       0.01183233      -0.00705015 </v>
   <v>      -0.08898895      -0.03658671       0.17693973 </v>
   <v>      -0.12309664      -0.07078697      -0.14498398 </v>
   <v>      -0.00017796      -0.00113620       0.01617687 </v>
   <v>      -0.02008003       0.05371481       0.21488674 </v>
   <v>       0.04033295      -0.02022021      -0.01218778 </v>
   <v>      -0.08353639      -0.09795205       0.18902566 </v>
   <v>       0.04789725      -0.39504744       0.30955521 </v>
   <v>      -0.01161994       0.00497949       0.00569363 </v>
   <v>       0.09598162      -0.01903852       0.03834729 </v>
   <v>       0.03809248      -0.02155972      -0.06122172 </v>
   <v>       0.01054878       0.15733940       0.12178140 </v>
   <v>       0.00415157       0.00543465      -0.06870737 </v>
   <v>      -0.00450875       0.00029993       0.00030739 </v>
   <v>       0.18265844      -0.03727173      -0.20373959 </v>
   <v>      -0.03805281       0.03133654       0.26239690 </v>
   <v>      -0.06108080       0.06699513      -0.10067434 </v>
   <v>       0.06830690      -0.01406729       0.14755503 </v>
   <v>       0.00232804      -0.00536883      -0.00601785 </v>
   <v>       0.00200385       0.00975292       0.01095266 </v>
   <v>       0.00300661      -0.00345909      -0.01350107 </v>
   <v>       0.23440233       0.05085449       0.29920341 </v>
   <v>       0.01628578       0.00666530       0.01291996 </v>
   <v>      -0.13587265       0.19952426      -0.46724872 </v>
   <v>      -0.00271924       0.00449896       0.00710617 </v>
   <v>      -0.02586382      -0.01588742       0.05065512 </v>
   <v>       0.15164387       0.15181318       0.37156989 </v>
   <v>       0.02830552       0.03925048       0.24366884 </v>
   <v>      -0.04369310      -0.03185824      -0.23607807 </v>
   <v>      -0.40401972       0.04216321      -0.06995801 </v>
   <v>       0.00218349       0.01821717      -0.00865501 </v>
   <v>       0.10036508      -0.06627905       0.25606115 </v>
   <v>       0.00249509       0.05320543       0.08313644 </v>
   <v>      -0.01349124      -0.04337091       0.14643408 </v>
   <v>      -0.23505454      -0.00885658       0.25619498 </v>
   <v>      -0.00099656      -0.00306705       0.00018451 </v>
   <v>      -0.02744066       0.01660516      -0.47132771 </v>
   <v>       0.00706107      -0.00898454       0.00510383 </v>
   <v>      -0.02469333      -0.02073517       0.03587595 </v>
   <v>      -0.05106399      -0.06595087       0.04609841 </v>
   <v>      -0.00228389      -0.01494637      -0.00405731 </v>
   <v>      -0.11617140      -0.05541525      -0.15494809 </v>
   <v>      -0.00601104       0.00465769      -0.00485340 </v>
   <v>      -0.06274948       0.02000568      -0.06071462 </v>
   <v>       0.04515813      -0.09312366      -0.19487457 </v>
   <v>       0.01493223      -0.13591733      -0.20842794 </v>
   <v>       0.41645485       0.45918482      -0.17344503 </v>
   <v>       0.01206633       0.02381070      -0.09839365 </v>
   <v>       0.00482310      -0.00708629      -0.00969649 </v>
   <v>      -0.02186624      -0.00911662      -0.11761935 </v>
   <v>       0.05437894       0.07891170       0.28392713 </v>
   <v>      -0.03543965      -0.42644247      -0.27702184 </v>
   <v>       0.00366624      -0.02069600      -0.00485513 </v>
   <v>      -0.00962655       0.01153710       0.03283923 </v>
   <v>       0.00363833      -0.01126628       0.00202075 </v>
  </varray>
  <varray name="stress" >
   <v>     -18.83855978       0.02859969       0.23831700 </v>
   <v>       0.02859937     -20.65769089       0.85345125 </v>
   <v>       0.23831722       0.85345151      -2.85442927 </v>
  </varray>
  <energy>
   <i name="e_fr_energy">   -512.77245233 </i>
   <i name="e_wo_entrp">   -512.78564684 </i>
   <i name="e_0_energy">   -512.77685050 </i>
  </energy>
  <time name="totalsc">  154.83  155.84</time>
 </calculation>
 <calculation>
  <scstep>
   <time name="dav">   15.93   16.03</time>
   <time name="total">   16.90   17.00</time>
   <dipole>
    <v name="dipole">      0.00000000       0.00000000       0.07783465 </v>
    <i name="Tr[quadrupol]">  -7398.50013939 </i>
    <i name="Echarged">      0.00000000 </i>
    <i name="Edipol_quadrupol">      0.00000000 </i>
    <i name="Eion">      0.00000000 </i>
   </dipole>
   <energy>
    <i name="alphaZ">   1855.01594312 </i>
    <i name="ewald"> 207836.91081596 </i>
    <i name="hartreedc">-258716.80794306 </i>
    <i name="XCdc">    954.96257389 </i>
    <i name="pawpsdc">  55338.42568323 </i>
    <i name="pawaedc"> -56429.17895780 </i>
    <i name="eentropy">      0.01345532 </i>
    <i name="bandstr">  -4152.09675851 </i>
    <i name="atom">  52799.98958613 </i>
    <i name="e_fr_energy">   -512.76560171 </i>
    <i name="e_wo_entrp">   -512.77905703 </i>
    <i name="e_0_energy">   -512.77008682 </i>
   </energy>
  </scstep>
  <scstep>
   <time name="dav">   15.89   15.99</time>
   <time name="total">   16.85   16.96</time>
   <dipole>
    <v name="dipole">      0.00000000       0.00000000       0.07807723 </v>
    <i name="Tr[quadrupol]">  -7398.50312035 </i>
    <i name="Echarged">      0.00000000 </i>
    <i name="Edipol_quadrupol">      0.00000000 </i>
    <i name="Eion">      0.00000000 </i>
   </dipole>
   <energy>
    <i name="e_fr_energy">   -512.77079792 </i>
    <i name="e_wo_entrp">   -512.78396716 </i>
    <i name="e_0_energy">   -512.77518766 </i>
   </energy>
  </scstep>
  <scstep>
   <time name="dav">   25.55   25.72</time>
   <time name="total">   26.50   26.68</time>
   <dipole>
    <v name="dipole">      0.00000000       0.00000000       0.07290567 </v>
    <i name="Tr[quadrupol]">  -7398.49149070 </i>
    <i name="Echarged">      0.00000000 </i>
    <i name="Edipol_quadrupol">      0.00000000 </i>
    <i name="Eion">      0.00000000 </i>
   </dipole>
   <energy>
    <i name="e_fr_energy">   -512.77256851 </i>
    <i name="e_wo_entrp">   -512.78872780 </i>
    <i name="e_0_energy">   -512.77795494 </i>
   </energy>
  </scstep>
  <scstep>
   <time name="dav">   25.44   25.60</time>
   <time name="total">   26.41   26.58</time>
   <dipole>
    <v name="dipole">      0.00000000       0.00000000       0.08335275 </v>
    <i name="Tr[quadrupol]">  -7398.50430003 </i>
    <i name="Echarged">      0.00000000 </i>
    <i name="Edipol_quadrupol">      0.00000000 </i>
    <i name="Eion">      0.00000000 </i>
   </dipole>
   <energy>
    <i name="e_fr_energy">   -512.77283257 </i>
    <i name="e_wo_entrp">   -512.78327424 </i>
    <i name="e_0_energy">   -512.77631313 </i>
   </energy>
  </scstep>
  <scstep>
   <time name="dav">   24.99   25.15</time>
   <time name="total">   25.96   26.13</time>
   <dipole>
    <v name="dipole">      0.00000000       0.00000000       0.07700103 </v>
    <i name="Tr[quadrupol]">  -7398.52301998 </i>
    <i name="Echarged">      0.00000000 </i>
    <i name="Edipol_quadrupol">      0.00000000 </i>
    <i name="Eion">      0.00000000 </i>
   </dipole>
   <energy>
    <i name="e_fr_energy">   -512.77282310 </i>
    <i name="e_wo_entrp">   -512.78624465 </i>
    <i name="e_0_energy">   -512.77729695 </i>
   </energy>
  </scstep>
  <scstep>
   <time name="dav">   23.32   23.46</time>
   <time name="total">   24.27   24.43</time>
   <dipole>
    <v name="dipole">      0.00000000       0.00000000       0.07817659 </v>
    <i name="Tr[quadrupol]">  -7398.49657960 </i>
    <i name="Echarged">      0.00000000 </i>
    <i name="Edipol_quadrupol">      0.00000000 </i>
    <i name="Eion">      0.00000000 </i>
   </dipole>
   <energy>
    <i name="e_fr_energy">   -512.77278984 </i>
    <i name="e_wo_entrp">   -512.78598662 </i>
    <i name="e_0_energy">   -512.77718876 </i>
   </energy>
  </scstep>
  <scstep>
   <time name="dav">   19.20   19.31</time>
   <time name="total">   20.16   20.27</time>
   <dipole>
    <v name="dipole">      0.00000000       0.00000000       0.07796156 </v>
    <i name="Tr[quadrupol]">  -7398.50204185 </i>
    <i name="Echarged">      0.00000000 </i>
    <i name="Edipol_quadrupol">      0.00000000 </i>
    <i name="Eion">      0.00000000 </i>
   </dipole>
   <energy>
    <i name="e_fr_energy">   -512.77278258 </i>
    <i name="e_wo_entrp">   -512.78611689 </i>
    <i name="e_0_energy">   -512.77722735 </i>
   </energy>
  </scstep>
  <scstep>
   <time name="dav">   11.59   11.66</time>
   <time name="total">   12.02   12.10</time>
   <dipole>
    <v name="dipole">      0.00000000       0.00000000       0.07797772 </v>
    <i name="Tr[quadrupol]">  -7398.50256985 </i>
    <i name="Echarged">      0.00000000 </i>
    <i name="Edipol_quadrupol">      0.00000000 </i>
    <i name="Eion">      0.00000000 </i>
   </dipole>
   <energy>
    <i name="alphaZ">   1855.01906248 </i>
    <i name="ewald"> 207836.91081596 </i>
    <i name="hartreedc">-258716.88919548 </i>
    <i name="XCdc">    954.95305573 </i>
    <i name="pawpsdc">  55339.05484835 </i>
    <i name="pawaedc"> -56429.80898633 </i>
    <i name="eentropy">      0.01326476 </i>
    <i name="bandstr">  -4152.01523187 </i>
    <i name="atom">  52799.98958613 </i>
    <i name="e_fr_energy">   -512.77278027 </i>
    <i name="e_wo_entrp">   -512.78604503 </i>
    <i name="e_0_energy">   -512.77720186 </i>
   </energy>
  </scstep>
  <structure>
   <crystal>
    <varray name="basis" >
     <v>       8.50970000       0.00000000       0.00000000 </v>
     <v>      -0.00372597       8.53929919       0.00000000 </v>
     <v>       0.00000000       0.00000000      23.57140000 </v>
    </varray>
    <i name="volume">   1712.85996128 </i>
    <varray name="rec_basis" >
     <v>       0.11751296       0.00005127       0.00000000 </v>
     <v>       0.00000000       0.11710563       0.00000000 </v>
     <v>       0.00000000       0.00000000       0.04242429 </v>
    </varray>
   </crystal>
   <varray name="positions" >
    <v>       0.83310000       0.49871000       0.06001000 </v>
    <v>       0.83472000       0.83192000       0.06027000 </v>
    <v>       0.67686605       0.64480178       0.35952425 </v>
    <v>       0.00081000       0.66425000       0.00034000 </v>
    <v>       0.15895964       0.83122600       0.29931499 </v>
    <v>       0.66492016       0.33300276       0.36204185 </v>
    <v>       0.66559000       0.33138000       0.00044000 </v>
    <v>       0.49968000       0.83322000       0.06046000 </v>
    <v>       0.66721000       0.33321000       0.24067000 </v>
    <v>       0.50058000       0.49950000       0.18024000 </v>
    <v>       0.33595000       0.33196000       0.11912000 </v>
    <v>       0.33462000       0.33376000       0.24059000 </v>
    <v>       0.50033809       0.49901246       0.30035887 </v>
    <v>       0.00055000       0.33190000       0.12006000 </v>
    <v>       0.16752000       0.49945000       0.18065000 </v>
    <v>       0.00021000       0.33145000       0.00038000 </v>
    <v>       0.33510000       0.33170000       0.00029000 </v>
    <v>       0.01225534       0.33895308       0.36122447 </v>
    <v>       0.00077000       0.99959000       0.12036000 </v>
    <v>       0.16814000       0.16634000       0.18048000 </v>
    <v>       0.33405000       0.66593000       0.12095000 </v>
    <v>       0.50078000       0.83242000       0.18121000 </v>
    <v>       0.98638202       0.66600917       0.36093360 </v>
    <v>       0.99982000       0.33359000       0.24030000 </v>
    <v>       0.00025000       0.66569000       0.12051000 </v>
    <v>       0.16581000       0.83217000       0.18114000 </v>
    <v>       0.66566000       0.33123000       0.11970000 </v>
    <v>       0.83123565       0.83544258       0.30146086 </v>
    <v>       0.16595887       0.49870857       0.30063309 </v>
    <v>       0.16505338       0.16788096       0.30152737 </v>
    <v>       0.00161000       0.99891000       0.00024000 </v>
    <v>       0.99606349       0.99680561       0.36012972 </v>
    <v>       0.16807000       0.16539000       0.06004000 </v>
    <v>       0.50504231       0.83139024       0.30208621 </v>
    <v>       0.83476000       0.83303000       0.18132000 </v>
    <v>       0.66715000       0.66559000       0.00000000 </v>
    <v>       0.66719000       0.66640000       0.12032000 </v>
    <v>       0.83302000       0.49937000       0.17995000 </v>
    <v>       0.16769000       0.83389000       0.06029000 </v>
    <v>       0.50015627       0.16718008       0.30107168 </v>
    <v>       0.33289000       0.99824000       0.24130000 </v>
    <v>       0.66679000       0.99914000       0.24097000 </v>
    <v>       0.33466000       0.00023000       0.12082000 </v>
    <v>       0.66746000       0.99815000       0.00001000 </v>
    <v>       0.83670166       0.17152833       0.30165973 </v>
    <v>       0.83358000       0.16456000       0.06013000 </v>
    <v>       0.67330317       0.01568481       0.36000699 </v>
    <v>       0.83364000       0.16593000       0.18062000 </v>
    <v>       0.66653000       0.99972000       0.12044000 </v>
    <v>       0.33639151       0.33314577       0.35933827 </v>
    <v>       0.33487000       0.00167000       0.00066000 </v>
    <v>       0.32895531       0.99741858       0.36567118 </v>
    <v>       0.00122000       0.00217000       0.24080000 </v>
    <v>       0.16722000       0.50179000       0.05903000 </v>
    <v>       0.50000000       0.50344000       0.05949000 </v>
    <v>       0.49861000       0.16115000       0.05868000 </v>
    <v>       0.49968000       0.16444000       0.18182000 </v>
    <v>       0.83786951       0.50121686       0.29818783 </v>
    <v>       0.99722000       0.66135000       0.24151000 </v>
    <v>       0.33419000       0.66573000       0.24040000 </v>
    <v>       0.33414000       0.65855000       0.00278000 </v>
    <v>       0.32731087       0.66575681       0.36372397 </v>
    <v>       0.66923000       0.66337000       0.24097000 </v>
    <v>       0.53121595       0.82641995       0.43902266 </v>
   </varray>
  </structure>
  <varray name="forces" >
   <v>       0.01130446       0.00783555      -0.44981186 </v>
   <v>      -0.03616066       0.02156393      -0.40038720 </v>
   <v>      -0.00008672       0.00153208       0.00170140 </v>
   <v>      -0.19167418       0.13215609       0.31264817 </v>
   <v>       0.00949168       0.00037862      -0.01079472 </v>
   <v>       0.01918265      -0.00013541       0.00270142 </v>
   <v>      -0.01594835      -0.08812574       0.25217329 </v>
   <v>       0.41540500       0.17386708      -0.12447476 </v>
   <v>      -0.11022121      -0.01769257      -0.04281223 </v>
   <v>      -0.03006211       0.01228775      -0.00376675 </v>
   <v>      -0.08917823      -0.03677626       0.17736632 </v>
   <v>      -0.12242677      -0.06610638      -0.14643870 </v>
   <v>       0.00652051       0.00094766       0.00170235 </v>
   <v>      -0.02041960       0.05396461       0.21540072 </v>
   <v>       0.04066126      -0.02033166      -0.01069383 </v>
   <v>      -0.08417680      -0.09779413       0.18929840 </v>
   <v>       0.04787351      -0.39551075       0.31000170 </v>
   <v>      -0.00806113       0.00551455       0.00120417 </v>
   <v>       0.09537297      -0.01853714       0.03843903 </v>
   <v>       0.03846409      -0.02131376      -0.06155041 </v>
   <v>       0.01022655       0.15744804       0.12142545 </v>
   <v>       0.00377510       0.00462829      -0.06659962 </v>
   <v>      -0.01030551       0.00100111      -0.00033629 </v>
   <v>       0.18568369      -0.03756433      -0.20278089 </v>
   <v>      -0.03862224       0.03167455       0.26325875 </v>
   <v>      -0.05946363       0.06631994      -0.09892468 </v>
   <v>       0.06827196      -0.01386236       0.14756716 </v>
   <v>       0.00479945      -0.00135425       0.00639157 </v>
   <v>      -0.00367594       0.00209401       0.00271463 </v>
   <v>      -0.00652857       0.00066925      -0.01098246 </v>
   <v>       0.23415037       0.05147540       0.29971788 </v>
   <v>       0.01141145       0.00170861       0.00872693 </v>
   <v>      -0.13568316       0.19970525      -0.46762214 </v>
   <v>       0.00155502       0.00074293      -0.00399417 </v>
   <v>      -0.02618952      -0.01639953       0.04900861 </v>
   <v>       0.15102612       0.15202422       0.37204517 </v>
   <v>       0.02784843       0.03933937       0.24422697 </v>
   <v>      -0.04392240      -0.03141647      -0.23781722 </v>
   <v>      -0.40399161       0.04200943      -0.07018537 </v>
   <v>       0.00347771       0.00403396       0.00210483 </v>
   <v>       0.10189529      -0.06716810       0.25736005 </v>
   <v>       0.00101821       0.05126133       0.08259538 </v>
   <v>      -0.01370713      -0.04326694       0.14657128 </v>
   <v>      -0.23547458      -0.00849641       0.25663190 </v>
   <v>       0.00827621      -0.00303324      -0.00616854 </v>
   <v>      -0.02787056       0.01639739      -0.47172490 </v>
   <v>       0.00267575      -0.00612094       0.00867763 </v>
   <v>      -0.02470140      -0.02097898       0.03496756 </v>
   <v>      -0.05133501      -0.06573685       0.04600852 </v>
   <v>      -0.00398297      -0.01412607       0.00072020 </v>
   <v>      -0.11534174      -0.05460212      -0.15428881 </v>
   <v>      -0.00759749       0.00632124      -0.00278999 </v>
   <v>      -0.06222417       0.02048072      -0.06213128 </v>
   <v>       0.04551162      -0.09286821      -0.19533221 </v>
   <v>       0.01482171      -0.13601053      -0.20869996 </v>
   <v>       0.41586317       0.45920398      -0.17483986 </v>
   <v>       0.01189879       0.02396107      -0.10035215 </v>
   <v>       0.00350154      -0.00223899      -0.00748495 </v>
   <v>      -0.01791773      -0.00955676      -0.11787238 </v>
   <v>       0.05468781       0.07634536       0.28765534 </v>
   <v>      -0.03558246      -0.42612157      -0.27646732 </v>
   <v>       0.00513377      -0.00952724       0.00609072 </v>
   <v>      -0.01479703       0.00927129       0.03679102 </v>
   <v>      -0.00445526      -0.00539095       0.00423115 </v>
  </varray>
  <varray name="stress" >
   <v>     -18.81425765       0.01638340       0.19944641 </v>
   <v>       0.01638301     -20.65446720       0.87774668 </v>
   <v>       0.19944690       0.87774674      -2.85810555 </v>
  </varray>
  <energy>
   <i name="e_fr_energy">   -512.77278027 </i>
   <i name="e_wo_entrp">   -512.78604503 </i>
   <i name="e_0_energy">   -512.77720186 </i>
  </energy>
  <time name="totalsc">  183.97  185.14</time>
  <eigenvalues>
   <array>
    <dimension dim="1">band</dimension>
    <dimension dim="2">kpoint</dimension>
    <dimension dim="3">spin</dimension>
    <field>eigene</field>
    <field>occ</field>
    <set>
     <set comment="spin 1">
      <set comment="kpoint 1">
       <r>  -42.9861    1.0000 </r>
       <r>  -42.8614    1.0000 </r>
       <r>  -42.8338    1.0000 </r>
       <r>  -42.8267    1.0000 </r>
       <r>  -42.8032    1.0000 </r>
       <r>  -42.7835    1.0000 </r>
       <r>  -42.7590    1.0000 </r>
       <r>  -42.7429    1.0000 </r>
       <r>  -42.7076    1.0000 </r>
       <r>  -42.2785    1.0000 </r>
       <r>  -42.1765    1.0000 </r>
       <r>  -42.0689    1.0000 </r>
       <r>  -42.0409    1.0000 </r>
       <r>  -42.0113    1.0000 </r>
       <r>  -42.0022    1.0000 </r>
       <r>  -41.9816    1.0000 </r>
       <r>  -41.9686    1.0000 </r>
       <r>  -41.9431    1.0000 </r>
       <r>  -41.9288    1.0000 </r>
       <r>  -41.8358    1.0000 </r>
       <r>  -41.8114    1.0000 </r>
       <r>  -41.7901    1.0000 </r>
       <r>  -41.7862    1.0000 </r>
       <r>  -41.7814    1.0000 </r>
       <r>  -41.7787    1.0000 </r>
       <r>  -41.7623    1.0000 </r>
       <r>  -41.7539    1.0000 </r>
       <r>  -41.7171    1.0000 </r>
       <r>  -41.7106    1.0000 </r>
       <r>  -41.7050    1.0000 </r>
       <r>  -41.6883    1.0000 </r>
       <r>  -41.6458    1.0000 </r>
       <r>  -41.6237    1.0000 </r>
       <r>  -41.5839    1.0000 </r>
       <r>  -41.5706    1.0000 </r>
       <r>  -41.5341    1.0000 </r>
       <r>  -40.3594    1.0000 </r>
       <r>  -40.3286    1.0000 </r>
       <r>  -40.2813    1.0000 </r>
       <r>  -15.4083    1.0000 </r>
       <r>  -15.4060    1.0000 </r>
       <r>  -15.3747    1.0000 </r>
       <r>  -15.3610    1.0000 </r>
       <r>  -15.3316    1.0000 </r>
       <r>   -7.5136    1.0000 </r>
       <r>   -7.1613    1.0000 </r>
       <r>   -6.1967    1.0000 </r>
       <r>   -5.2787    1.0000 </r>
       <r>   -5.2505    1.0000 </r>
       <r>   -5.2082    1.0000 </r>
       <r>   -5.1517    1.0000 </r>
       <r>   -4.9062    1.0000 </r>
       <r>   -4.6469    1.0000 </r>
       <r>   -4.6025    1.0000 </r>
       <r>   -4.5758    1.0000 </r>
       <r>   -4.5626    1.0000 </r>
       <r>   -4.1259    1.0000 </r>
       <r>   -4.1220    1.0000 </r>
       <r>   -4.1008    1.0000 </r>
       <r>   -4.0858    1.0000 </r>
       <r>   -4.0640    1.0000 </r>
       <r>   -4.0375    1.0000 </r>
       <r>   -4.0075    1.0000 </r>
       <r>   -3.9886    1.0000 </r>
       <r>   -3.8665    1.0000 </r>
       <r>   -3.8524    1.0000 </r>
       <r>   -3.7690    1.0000 </r>
       <r>   -3.6658    1.0000 </r>
       <r>   -3.6639    1.0000 </r>
       <r>   -3.6384    1.0000 </r>
       <r>   -3.5973    1.0000 </r>
       <r>   -3.4841    1.0000 </r>
       <r>   -3.4527    1.0000 </r>
       <r>   -3.4245    1.0000 </r>
       <r>   -3.4065    1.0000 </r>
       <r>   -3.3893    1.0000 </r>
       <r>   -3.3846    1.0000 </r>
       <r>   -3.3749    1.0000 </r>
       <r>   -3.3620    1.0000 </r>
       <r>   -3.3547    1.0000 </r>
       <r>   -3.3452    1.0000 </r>
       <r>   -3.3307    1.0000 </r>
       <r>   -3.3106    1.0000 </r>
       <r>   -3.2891    1.0000 </r>
       <r>   -3.2804    1.0000 </r>
       <r>   -3.2434    1.0000 </r>
       <r>   -3.2309    1.0000 </r>
       <r>   -3.2248    1.0000 </r>
       <r>   -3.2006    1.0000 </r>
       <r>   -3.1714    1.0000 </r>
       <r>   -3.1646    1.0000 </r>
       <r>   -3.1338    1.0000 </r>
       <r>   -3.1083    1.0000 </r>
       <r>   -3.0509    1.0000 </r>
       <r>   -3.0067    1.0000 </r>
       <r>   -2.9686    1.0000 </r>
       <r>   -2.9551    1.0000 </r>
       <r>   -2.9487    1.0000 </r>
       <r>   -2.9347    1.0000 </r>
       <r>   -2.9291    1.0000 </r>
       <r>   -2.9108    1.0000 </r>
       <r>   -2.8804    1.0000 </r>
       <r>   -2.8745    1.0000 </r>
       <r>   -2.8612    1.0000 </r>
       <r>   -2.8482    1.0000 </r>
       <r>   -2.8304    1.0000 </r>
       <r>   -2.8112    1.0000 </r>
       <r>   -2.7381    1.0000 </r>
       <r>   -2.7017    1.0000 </r>
       <r>   -2.6780    1.0000 </r>
       <r>   -2.6621    1.0000 </r>
       <r>   -2.5942    1.0000 </r>
       <r>   -2.5870    1.0000 </r>
       <r>   -2.5760    1.0000 </r>
       <r>   -2.5696    1.0000 </r>
       <r>   -2.5637    1.0000 </r>
       <r>   -2.5427    1.0000 </r>
       <r>   -2.5365    1.0000 </r>
       <r>   -2.5288    1.0000 </r>
       <r>   -2.5211    1.0000 </r>
       <r>   -2.5132    1.0000 </r>
       <r>   -2.5011    1.0000 </r>
       <r>   -2.4940    1.0000 </r>
       <r>   -2.4855    1.0000 </r>
       <r>   -2.4776    1.0000 </r>
       <r>   -2.4763    1.0000 </r>
       <r>   -2.4519    1.0000 </r>
       <r>   -2.4377    1.0000 </r>
       <r>   -2.4249    1.0000 </r>
       <r>   -2.4191    1.0000 </r>
       <r>   -2.4099    1.0000 </r>
       <r>   -2.3971    1.0000 </r>
       <r>   -2.3879    1.0000 </r>
       <r>   -2.3577    1.0000 </r>
       <r>   -2.3537    1.0000 </r>
       <r>   -2.3406    1.0000 </r>
       <r>   -2.3366    1.0000 </r>
       <r>   -2.3195    1.0000 </r>
       <r>   -2.3062    1.0000 </r>
       <r>   -2.2976    1.0000 </r>
       <r>   -2.2895    1.0000 </r>
       <r>   -2.2696    1.0000 </r>
       <r>   -2.2653    1.0000 </r>
       <r>   -2.2539    1.0000 </r>
       <r>   -2.2461    1.0000 </r>
       <r>   -2.2392    1.0000 </r>
       <r>   -2.2201    1.0000 </r>
       <r>   -2.2116    1.0000 </r>
       <r>   -2.2040    1.0000 </r>
       <r>   -2.1903    1.0000 </r>
       <r>   -2.1725    1.0000 </r>
       <r>   -2.1664    1.0000 </r>
       <r>   -2.1454    1.0000 </r>
       <r>   -2.1337    1.0000 </r>
       <r>   -2.1189    1.0000 </r>
       <r>   -2.0999    1.0000 </r>
       <r>   -2.0982    1.0000 </r>
       <r>   -2.0787    1.0000 </r>
       <r>   -2.0704    1.0000 </r>
       <r>   -2.0548    1.0000 </r>
       <r>   -2.0439    1.0000 </r>
       <r>   -2.0224    1.0000 </r>
       <r>   -2.0077    1.0000 </r>
       <r>   -1.9995    1.0000 </r>
       <r>   -1.9843    1.0000 </r>
       <r>   -1.9707    1.0000 </r>
       <r>   -1.9607    1.0000 </r>
       <r>   -1.9490    1.0000 </r>
       <r>   -1.9471    1.0000 </r>
       <r>   -1.9144    1.0000 </r>
       <r>   -1.9086    1.0000 </r>
       <r>   -1.8939    1.0000 </r>
       <r>   -1.8752    1.0000 </r>
       <r>   -1.8695    1.0000 </r>
       <r>   -1.8502    1.0000 </r>
       <r>   -1.8465    1.0000 </r>
       <r>   -1.8343    1.0000 </r>
       <r>   -1.8145    1.0000 </r>
       <r>   -1.8081    1.0000 </r>
       <r>   -1.7817    1.0000 </r>
       <r>   -1.7799    1.0000 </r>
       <r>   -1.7430    1.0000 </r>
       <r>   -1.7289    1.0000 </r>
       <r>   -1.7183    1.0000 </r>
       <r>   -1.7142    1.0000 </r>
       <r>   -1.7015    1.0000 </r>
       <r>   -1.6876    1.0000 </r>
       <r>   -1.6730    1.0000 </r>
       <r>   -1.6450    1.0000 </r>
       <r>   -1.6400    1.0000 </r>
       <r>   -1.6231    1.0000 </r>
       <r>   -1.6145    1.0000 </r>
       <r>   -1.5936    1.0000 </r>
       <r>   -1.5705    1.0000 </r>
       <r>   -1.5419    1.0000 </r>
       <r>   -1.5248    1.0000 </r>
       <r>   -1.5141    1.0000 </r>
       <r>   -1.4935    1.0000 </r>
       <r>   -1.4804    1.0000 </r>
       <r>   -1.4731    1.0000 </r>
       <r>   -1.4685    1.0000 </r>
       <r>   -1.4519    1.0000 </r>
       <r>   -1.4327    1.0000 </r>
       <r>   -1.4160    1.0000 </r>
       <r>   -1.3989    1.0000 </r>
       <r>   -1.3929    1.0000 </r>
       <r>   -1.3745    1.0000 </r>
       <r>   -1.3493    1.0000 </r>
       <r>   -1.3196    1.0000 </r>
       <r>   -1.3116    1.0000 </r>
       <r>   -1.2980    1.0000 </r>
       <r>   -1.2794    1.0000 </r>
       <r>   -1.2515    1.0000 </r>
       <r>   -1.2368    1.0000 </r>
       <r>   -1.2271    1.0000 </r>
       <r>   -1.2021    1.0000 </r>
       <r>   -1.1969    1.0000 </r>
       <r>   -1.1932    1.0000 </r>
       <r>   -1.1662    1.0000 </r>
       <r>   -1.1553    1.0000 </r>
       <r>   -1.1300    1.0000 </r>
       <r>   -1.1276    1.0000 </r>
       <r>   -1.1131    1.0000 </r>
       <r>   -1.0957    1.0000 </r>
       <r>   -1.0849    1.0000 </r>
       <r>   -1.0674    1.0000 </r>
       <r>   -1.0418    1.0000 </r>
       <r>   -1.0315    1.0000 </r>
       <r>   -1.0160    1.0000 </r>
       <r>   -1.0011    1.0000 </r>
       <r>   -0.9759    1.0000 </r>
       <r>   -0.9582    1.0000 </r>
       <r>   -0.9383    1.0000 </r>
       <r>   -0.9287    1.0000 </r>
       <r>   -0.9055    1.0000 </r>
       <r>   -0.8914    1.0000 </r>
       <r>   -0.8769    1.0000 </r>
       <r>   -0.8555    1.0000 </r>
       <r>   -0.8386    1.0000 </r>
       <r>   -0.8212    1.0000 </r>
       <r>   -0.8064    1.0000 </r>
       <r>   -0.7716    1.0000 </r>
       <r>   -0.7665    1.0000 </r>
       <r>   -0.7482    1.0000 </r>
       <r>   -0.7223    1.0000 </r>
       <r>   -0.7050    1.0000 </r>
       <r>   -0.6793    1.0000 </r>
       <r>   -0.6764    1.0000 </r>
       <r>   -0.6515    1.0000 </r>
       <r>   -0.6452    1.0000 </r>
       <r>   -0.6421    1.0000 </r>
       <r>   -0.6269    1.0000 </r>
       <r>   -0.6111    1.0000 </r>
       <r>   -0.5980    1.0000 </r>
       <r>   -0.5841    1.0000 </r>
       <r>   -0.5614    1.0000 </r>
       <r>   -0.5436    1.0000 </r>
       <r>   -0.5324    1.0000 </r>
       <r>   -0.5213    1.0000 </r>
       <r>   -0.5105    1.0000 </r>
       <r>   -0.5010    1.0000 </r>
       <r>   -0.4970    1.0000 </r>
       <r>   -0.4866    1.0000 </r>
       <r>   -0.4624    1.0000 </r>
       <r>   -0.4499    1.0000 </r>
       <r>   -0.4482    1.0000 </r>
       <r>   -0.4288    1.0000 </r>
       <r>   -0.4247    1.0000 </r>
       <r>   -0.4155    1.0000 </r>
       <r>   -0.4043    1.0000 </r>
       <r>   -0.3928    1.0000 </r>
       <r>   -0.3781    1.0000 </r>
       <r>   -0.3739    1.0000 </r>
       <r>   -0.3546    1.0000 </r>
       <r>   -0.3373    1.0000 </r>
       <r>   -0.3314    1.0000 </r>
       <r>   -0.3217    1.0000 </r>
       <r>   -0.3184    1.0000 </r>
       <r>   -0.3037    1.0000 </r>
       <r>   -0.3026    1.0000 </r>
       <r>   -0.2948    1.0000 </r>
       <r>   -0.2719    1.0000 </r>
       <r>   -0.2647    1.0000 </r>
       <r>   -0.2541    1.0000 </r>
       <r>   -0.2423    1.0000 </r>
       <r>   -0.2324    1.0000 </r>
       <r>   -0.2260    1.0000 </r>
       <r>   -0.2248    1.0000 </r>
       <r>   -0.2190    1.0000 </r>
       <r>   -0.2044    1.0000 </r>
       <r>   -0.1925    1.0000 </r>
       <r>   -0.1857    1.0000 </r>
       <r>   -0.1760    1.0000 </r>
       <r>   -0.1683    1.0000 </r>
       <r>   -0.1548    1.0000 </r>
       <r>   -0.1484    1.0000 </r>
       <r>   -0.1396    1.0000 </r>
       <r>   -0.1295    1.0000 </r>
       <r>   -0.1206    1.0000 </r>
       <r>   -0.1097    1.0000 </r>
       <r>   -0.0955    1.0000 </r>
       <r>   -0.0883    1.0000 </r>
       <r>   -0.0769    1.0000 </r>
       <r>   -0.0617    1.0000 </r>
       <r>   -0.0597    1.0000 </r>
       <r>   -0.0311    1.0000 </r>
       <r>   -0.0250    1.0000 </r>
       <r>    0.0056    1.0000 </r>
       <r>    0.0130    1.0000 </r>
       <r>    0.0492    1.0000 </r>
       <r>    0.0928    1.0000 </r>
       <r>    0.1061    1.0000 </r>
       <r>    0.1306    1.0000 </r>
       <r>    0.1590    1.0000 </r>
       <r>    0.1798    1.0000 </r>
       <r>    0.1924    1.0000 </r>
       <r>    0.2128    1.0000 </r>
       <r>    0.2377    1.0000 </r>
       <r>    0.2672    1.0000 </r>
       <r>    0.2815    1.0000 </r>
       <r>    0.3050    1.0000 </r>
       <r>    0.3507    1.0000 </r>
       <r>    0.3632    1.0000 </r>
       <r>    0.3759    1.0000 </r>
       <r>    0.4125    1.0000 </r>
       <r>    0.4445    1.0000 </r>
       <r>    0.4543    1.0000 </r>
       <r>    0.4832    1.0001 </r>
       <r>    0.5029    1.0001 </r>
       <r>    0.5172    1.0002 </r>
       <r>    0.5468    1.0006 </r>
       <r>    0.5664    1.0011 </r>
       <r>    0.5815    1.0018 </r>
       <r>    0.6191    1.0047 </r>
       <r>    0.6387    1.0074 </r>
       <r>    0.6848    1.0179 </r>
       <r>    0.7058    1.0242 </r>
       <r>    0.7274    1.0306 </r>
       <r>    0.7572    1.0354 </r>
       <r>    0.8079    1.0104 </r>
       <r>    0.8346    0.9655 </r>
       <r>    0.8480    0.9320 </r>
       <r>    0.9050    0.7023 </r>
       <r>    0.9531    0.4382 </r>
       <r>    0.9908    0.2405 </r>
       <r>    1.0035    0.1839 </r>
       <r>    1.0340    0.0744 </r>
       <r>    1.0691   -0.0010 </r>
       <r>    1.1065   -0.0325 </r>
       <r>    1.1332   -0.0351 </r>
       <r>    1.1763   -0.0249 </r>
       <r>    1.2036   -0.0167 </r>
       <r>    1.2228   -0.0119 </r>
       <r>    1.2469   -0.0072 </r>
       <r>    1.2787   -0.0034 </r>
       <r>    1.3367   -0.0006 </r>
       <r>    1.3902   -0.0001 </r>
       <r>    1.4635   -0.0000 </r>
       <r>    1.4742   -0.0000 </r>
       <r>    1.5020   -0.0000 </r>
       <r>    1.5203   -0.0000 </r>
       <r>    1.5899   -0.0000 </r>
       <r>    1.6161   -0.0000 </r>
       <r>    1.6455   -0.0000 </r>
       <r>    1.6868   -0.0000 </r>
       <r>    1.6926   -0.0000 </r>
       <r>    1.7449   -0.0000 </r>
       <r>    1.7590   -0.0000 </r>
       <r>    1.7678   -0.0000 </r>
       <r>    1.8111   -0.0000 </r>
       <r>    1.8301   -0.0000 </r>
       <r>    1.8653   -0.0000 </r>
       <r>    1.9199   -0.0000 </r>
       <r>    1.9433   -0.0000 </r>
       <r>    2.0086   -0.0000 </r>
      </set>
      <set comment="kpoint 2">
       <r>  -42.9861    1.0000 </r>
       <r>  -42.8614    1.0000 </r>
       <r>  -42.8338    1.0000 </r>
       <r>  -42.8267    1.0000 </r>
       <r>  -42.8032    1.0000 </r>
       <r>  -42.7835    1.0000 </r>
       <r>  -42.7591    1.0000 </r>
       <r>  -42.7429    1.0000 </r>
       <r>  -42.7076    1.0000 </r>
       <r>  -42.2791    1.0000 </r>
       <r>  -42.1766    1.0000 </r>
       <r>  -42.0689    1.0000 </r>
       <r>  -42.0409    1.0000 </r>
       <r>  -42.0148    1.0000 </r>
       <r>  -42.0022    1.0000 </r>
       <r>  -41.9817    1.0000 </r>
       <r>  -41.9686    1.0000 </r>
       <r>  -41.9363    1.0000 </r>
       <r>  -41.9279    1.0000 </r>
       <r>  -41.8322    1.0000 </r>
       <r>  -41.8118    1.0000 </r>
       <r>  -41.7969    1.0000 </r>
       <r>  -41.7899    1.0000 </r>
       <r>  -41.7822    1.0000 </r>
       <r>  -41.7788    1.0000 </r>
       <r>  -41.7617    1.0000 </r>
       <r>  -41.7499    1.0000 </r>
       <r>  -41.7171    1.0000 </r>
       <r>  -41.7106    1.0000 </r>
       <r>  -41.7050    1.0000 </r>
       <r>  -41.6883    1.0000 </r>
       <r>  -41.6458    1.0000 </r>
       <r>  -41.6238    1.0000 </r>
       <r>  -41.5839    1.0000 </r>
       <r>  -41.5706    1.0000 </r>
       <r>  -41.5341    1.0000 </r>
       <r>  -40.3594    1.0000 </r>
       <r>  -40.3286    1.0000 </r>
       <r>  -40.2813    1.0000 </r>
       <r>  -15.4083    1.0000 </r>
       <r>  -15.4060    1.0000 </r>
       <r>  -15.3747    1.0000 </r>
       <r>  -15.3610    1.0000 </r>
       <r>  -15.3316    1.0000 </r>
       <r>   -7.4825    1.0000 </r>
       <r>   -7.0449    1.0000 </r>
       <r>   -6.0867    1.0000 </r>
       <r>   -6.0178    1.0000 </r>
       <r>   -5.2172    1.0000 </r>
       <r>   -5.1500    1.0000 </r>
       <r>   -5.0651    1.0000 </r>
       <r>   -4.8165    1.0000 </r>
       <r>   -4.5248    1.0000 </r>
       <r>   -4.4949    1.0000 </r>
       <r>   -4.4358    1.0000 </r>
       <r>   -4.4157    1.0000 </r>
       <r>   -4.3378    1.0000 </r>
       <r>   -4.2230    1.0000 </r>
       <r>   -4.1263    1.0000 </r>
       <r>   -4.0153    1.0000 </r>
       <r>   -3.9546    1.0000 </r>
       <r>   -3.9375    1.0000 </r>
       <r>   -3.8830    1.0000 </r>
       <r>   -3.8385    1.0000 </r>
       <r>   -3.8118    1.0000 </r>
       <r>   -3.7859    1.0000 </r>
       <r>   -3.7488    1.0000 </r>
       <r>   -3.7220    1.0000 </r>
       <r>   -3.6884    1.0000 </r>
       <r>   -3.6611    1.0000 </r>
       <r>   -3.5910    1.0000 </r>
       <r>   -3.5408    1.0000 </r>
       <r>   -3.5369    1.0000 </r>
       <r>   -3.5178    1.0000 </r>
       <r>   -3.5136    1.0000 </r>
       <r>   -3.4636    1.0000 </r>
       <r>   -3.4477    1.0000 </r>
       <r>   -3.4011    1.0000 </r>
       <r>   -3.3736    1.0000 </r>
       <r>   -3.3268    1.0000 </r>
       <r>   -3.3128    1.0000 </r>
       <r>   -3.2918    1.0000 </r>
       <r>   -3.2692    1.0000 </r>
       <r>   -3.2452    1.0000 </r>
       <r>   -3.2310    1.0000 </r>
       <r>   -3.2255    1.0000 </r>
       <r>   -3.2067    1.0000 </r>
       <r>   -3.1981    1.0000 </r>
       <r>   -3.1859    1.0000 </r>
       <r>   -3.1714    1.0000 </r>
       <r>   -3.1596    1.0000 </r>
       <r>   -3.1288    1.0000 </r>
       <r>   -3.1184    1.0000 </r>
       <r>   -3.1008    1.0000 </r>
       <r>   -3.0779    1.0000 </r>
       <r>   -3.0620    1.0000 </r>
       <r>   -3.0360    1.0000 </r>
       <r>   -3.0138    1.0000 </r>
       <r>   -2.9984    1.0000 </r>
       <r>   -2.9629    1.0000 </r>
       <r>   -2.9454    1.0000 </r>
       <r>   -2.9210    1.0000 </r>
       <r>   -2.9030    1.0000 </r>
       <r>   -2.8841    1.0000 </r>
       <r>   -2.8481    1.0000 </r>
       <r>   -2.8182    1.0000 </r>
       <r>   -2.7879    1.0000 </r>
       <r>   -2.7440    1.0000 </r>
       <r>   -2.7131    1.0000 </r>
       <r>   -2.7013    1.0000 </r>
       <r>   -2.6839    1.0000 </r>
       <r>   -2.6672    1.0000 </r>
       <r>   -2.6473    1.0000 </r>
       <r>   -2.6361    1.0000 </r>
       <r>   -2.6244    1.0000 </r>
       <r>   -2.6065    1.0000 </r>
       <r>   -2.5927    1.0000 </r>
       <r>   -2.5869    1.0000 </r>
       <r>   -2.5685    1.0000 </r>
       <r>   -2.5525    1.0000 </r>
       <r>   -2.5385    1.0000 </r>
       <r>   -2.5291    1.0000 </r>
       <r>   -2.5263    1.0000 </r>
       <r>   -2.5157    1.0000 </r>
       <r>   -2.5023    1.0000 </r>
       <r>   -2.4897    1.0000 </r>
       <r>   -2.4789    1.0000 </r>
       <r>   -2.4608    1.0000 </r>
       <r>   -2.4546    1.0000 </r>
       <r>   -2.4408    1.0000 </r>
       <r>   -2.4316    1.0000 </r>
       <r>   -2.4145    1.0000 </r>
       <r>   -2.3932    1.0000 </r>
       <r>   -2.3854    1.0000 </r>
       <r>   -2.3616    1.0000 </r>
       <r>   -2.3561    1.0000 </r>
       <r>   -2.3455    1.0000 </r>
       <r>   -2.3167    1.0000 </r>
       <r>   -2.3145    1.0000 </r>
       <r>   -2.3004    1.0000 </r>
       <r>   -2.2886    1.0000 </r>
       <r>   -2.2678    1.0000 </r>
       <r>   -2.2613    1.0000 </r>
       <r>   -2.2502    1.0000 </r>
       <r>   -2.2321    1.0000 </r>
       <r>   -2.2178    1.0000 </r>
       <r>   -2.2040    1.0000 </r>
       <r>   -2.1957    1.0000 </r>
       <r>   -2.1795    1.0000 </r>
       <r>   -2.1685    1.0000 </r>
       <r>   -2.1519    1.0000 </r>
       <r>   -2.1446    1.0000 </r>
       <r>   -2.1376    1.0000 </r>
       <r>   -2.1323    1.0000 </r>
       <r>   -2.1183    1.0000 </r>
       <r>   -2.1085    1.0000 </r>
       <r>   -2.1039    1.0000 </r>
       <r>   -2.0852    1.0000 </r>
       <r>   -2.0700    1.0000 </r>
       <r>   -2.0523    1.0000 </r>
       <r>   -2.0352    1.0000 </r>
       <r>   -2.0232    1.0000 </r>
       <r>   -2.0059    1.0000 </r>
       <r>   -1.9963    1.0000 </r>
       <r>   -1.9882    1.0000 </r>
       <r>   -1.9702    1.0000 </r>
       <r>   -1.9556    1.0000 </r>
       <r>   -1.9412    1.0000 </r>
       <r>   -1.9206    1.0000 </r>
       <r>   -1.9003    1.0000 </r>
       <r>   -1.8855    1.0000 </r>
       <r>   -1.8658    1.0000 </r>
       <r>   -1.8516    1.0000 </r>
       <r>   -1.8304    1.0000 </r>
       <r>   -1.8195    1.0000 </r>
       <r>   -1.8042    1.0000 </r>
       <r>   -1.7902    1.0000 </r>
       <r>   -1.7704    1.0000 </r>
       <r>   -1.7657    1.0000 </r>
       <r>   -1.7522    1.0000 </r>
       <r>   -1.7307    1.0000 </r>
       <r>   -1.7106    1.0000 </r>
       <r>   -1.7018    1.0000 </r>
       <r>   -1.6968    1.0000 </r>
       <r>   -1.6829    1.0000 </r>
       <r>   -1.6728    1.0000 </r>
       <r>   -1.6605    1.0000 </r>
       <r>   -1.6489    1.0000 </r>
       <r>   -1.6334    1.0000 </r>
       <r>   -1.6261    1.0000 </r>
       <r>   -1.6119    1.0000 </r>
       <r>   -1.6027    1.0000 </r>
       <r>   -1.5919    1.0000 </r>
       <r>   -1.5728    1.0000 </r>
       <r>   -1.5618    1.0000 </r>
       <r>   -1.5427    1.0000 </r>
       <r>   -1.5306    1.0000 </r>
       <r>   -1.5228    1.0000 </r>
       <r>   -1.5075    1.0000 </r>
       <r>   -1.4921    1.0000 </r>
       <r>   -1.4855    1.0000 </r>
       <r>   -1.4612    1.0000 </r>
       <r>   -1.4440    1.0000 </r>
       <r>   -1.4336    1.0000 </r>
       <r>   -1.4256    1.0000 </r>
       <r>   -1.4045    1.0000 </r>
       <r>   -1.3960    1.0000 </r>
       <r>   -1.3708    1.0000 </r>
       <r>   -1.3566    1.0000 </r>
       <r>   -1.3432    1.0000 </r>
       <r>   -1.3340    1.0000 </r>
       <r>   -1.3179    1.0000 </r>
       <r>   -1.3008    1.0000 </r>
       <r>   -1.2941    1.0000 </r>
       <r>   -1.2692    1.0000 </r>
       <r>   -1.2613    1.0000 </r>
       <r>   -1.2513    1.0000 </r>
       <r>   -1.2415    1.0000 </r>
       <r>   -1.2244    1.0000 </r>
       <r>   -1.2087    1.0000 </r>
       <r>   -1.2019    1.0000 </r>
       <r>   -1.1821    1.0000 </r>
       <r>   -1.1472    1.0000 </r>
       <r>   -1.1293    1.0000 </r>
       <r>   -1.1078    1.0000 </r>
       <r>   -1.0919    1.0000 </r>
       <r>   -1.0745    1.0000 </r>
       <r>   -1.0651    1.0000 </r>
       <r>   -1.0320    1.0000 </r>
       <r>   -0.9891    1.0000 </r>
       <r>   -0.9767    1.0000 </r>
       <r>   -0.9706    1.0000 </r>
       <r>   -0.9160    1.0000 </r>
       <r>   -0.9023    1.0000 </r>
       <r>   -0.8636    1.0000 </r>
       <r>   -0.8443    1.0000 </r>
       <r>   -0.8394    1.0000 </r>
       <r>   -0.8145    1.0000 </r>
       <r>   -0.8029    1.0000 </r>
       <r>   -0.7768    1.0000 </r>
       <r>   -0.7495    1.0000 </r>
       <r>   -0.7415    1.0000 </r>
       <r>   -0.7327    1.0000 </r>
       <r>   -0.7268    1.0000 </r>
       <r>   -0.7030    1.0000 </r>
       <r>   -0.6953    1.0000 </r>
       <r>   -0.6827    1.0000 </r>
       <r>   -0.6667    1.0000 </r>
       <r>   -0.6492    1.0000 </r>
       <r>   -0.6265    1.0000 </r>
       <r>   -0.6175    1.0000 </r>
       <r>   -0.6049    1.0000 </r>
       <r>   -0.5965    1.0000 </r>
       <r>   -0.5739    1.0000 </r>
       <r>   -0.5646    1.0000 </r>
       <r>   -0.5539    1.0000 </r>
       <r>   -0.5502    1.0000 </r>
       <r>   -0.5374    1.0000 </r>
       <r>   -0.5192    1.0000 </r>
       <r>   -0.5071    1.0000 </r>
       <r>   -0.4918    1.0000 </r>
       <r>   -0.4783    1.0000 </r>
       <r>   -0.4624    1.0000 </r>
       <r>   -0.4530    1.0000 </r>
       <r>   -0.4400    1.0000 </r>
       <r>   -0.4283    1.0000 </r>
       <r>   -0.4152    1.0000 </r>
       <r>   -0.4026    1.0000 </r>
       <r>   -0.3956    1.0000 </r>
       <r>   -0.3856    1.0000 </r>
       <r>   -0.3774    1.0000 </r>
       <r>   -0.3602    1.0000 </r>
       <r>   -0.3510    1.0000 </r>
       <r>   -0.3389    1.0000 </r>
       <r>   -0.3246    1.0000 </r>
       <r>   -0.3189    1.0000 </r>
       <r>   -0.3129    1.0000 </r>
       <r>   -0.3018    1.0000 </r>
       <r>   -0.2959    1.0000 </r>
       <r>   -0.2869    1.0000 </r>
       <r>   -0.2746    1.0000 </r>
       <r>   -0.2690    1.0000 </r>
       <r>   -0.2550    1.0000 </r>
       <r>   -0.2470    1.0000 </r>
       <r>   -0.2413    1.0000 </r>
       <r>   -0.2263    1.0000 </r>
       <r>   -0.2160    1.0000 </r>
       <r>   -0.2020    1.0000 </r>
       <r>   -0.2003    1.0000 </r>
       <r>   -0.1793    1.0000 </r>
       <r>   -0.1731    1.0000 </r>
       <r>   -0.1661    1.0000 </r>
       <r>   -0.1540    1.0000 </r>
       <r>   -0.1396    1.0000 </r>
       <r>   -0.1236    1.0000 </r>
       <r>   -0.1148    1.0000 </r>
       <r>   -0.1072    1.0000 </r>
       <r>   -0.0868    1.0000 </r>
       <r>   -0.0744    1.0000 </r>
       <r>   -0.0608    1.0000 </r>
       <r>   -0.0538    1.0000 </r>
       <r>   -0.0475    1.0000 </r>
       <r>   -0.0236    1.0000 </r>
       <r>   -0.0065    1.0000 </r>
       <r>    0.0082    1.0000 </r>
       <r>    0.0287    1.0000 </r>
       <r>    0.0494    1.0000 </r>
       <r>    0.0706    1.0000 </r>
       <r>    0.0846    1.0000 </r>
       <r>    0.0958    1.0000 </r>
       <r>    0.1241    1.0000 </r>
       <r>    0.1300    1.0000 </r>
       <r>    0.1752    1.0000 </r>
       <r>    0.1878    1.0000 </r>
       <r>    0.1991    1.0000 </r>
       <r>    0.2170    1.0000 </r>
       <r>    0.2447    1.0000 </r>
       <r>    0.2760    1.0000 </r>
       <r>    0.2945    1.0000 </r>
       <r>    0.3216    1.0000 </r>
       <r>    0.3464    1.0000 </r>
       <r>    0.3774    1.0000 </r>
       <r>    0.3892    1.0000 </r>
       <r>    0.4128    1.0000 </r>
       <r>    0.4288    1.0000 </r>
       <r>    0.4544    1.0000 </r>
       <r>    0.4910    1.0001 </r>
       <r>    0.5037    1.0001 </r>
       <r>    0.5363    1.0004 </r>
       <r>    0.5576    1.0009 </r>
       <r>    0.5645    1.0011 </r>
       <r>    0.6066    1.0035 </r>
       <r>    0.6297    1.0061 </r>
       <r>    0.6488    1.0092 </r>
       <r>    0.6862    1.0183 </r>
       <r>    0.7048    1.0239 </r>
       <r>    0.7217    1.0290 </r>
       <r>    0.7445    1.0343 </r>
       <r>    0.8012    1.0177 </r>
       <r>    0.8296    0.9762 </r>
       <r>    0.8602    0.8942 </r>
       <r>    0.8993    0.7307 </r>
       <r>    0.9334    0.5493 </r>
       <r>    0.9647    0.3738 </r>
       <r>    0.9729    0.3300 </r>
       <r>    1.0115    0.1512 </r>
       <r>    1.0480    0.0381 </r>
       <r>    1.1026   -0.0309 </r>
       <r>    1.1166   -0.0348 </r>
       <r>    1.1417   -0.0340 </r>
       <r>    1.1509   -0.0321 </r>
       <r>    1.2130   -0.0142 </r>
       <r>    1.2190   -0.0127 </r>
       <r>    1.2638   -0.0049 </r>
       <r>    1.3015   -0.0018 </r>
       <r>    1.3221   -0.0010 </r>
       <r>    1.3740   -0.0002 </r>
       <r>    1.4047   -0.0001 </r>
       <r>    1.4604   -0.0000 </r>
       <r>    1.4860   -0.0000 </r>
       <r>    1.5318   -0.0000 </r>
       <r>    1.5733   -0.0000 </r>
       <r>    1.5941   -0.0000 </r>
       <r>    1.6072   -0.0000 </r>
       <r>    1.6371   -0.0000 </r>
       <r>    1.6889   -0.0000 </r>
       <r>    1.7193   -0.0000 </r>
       <r>    1.7479   -0.0000 </r>
       <r>    1.7934   -0.0000 </r>
       <r>    1.8094   -0.0000 </r>
       <r>    1.8266   -0.0000 </r>
       <r>    1.8628   -0.0000 </r>
       <r>    1.8921   -0.0000 </r>
       <r>    1.9524   -0.0000 </r>
       <r>    1.9728   -0.0000 </r>
      </set>
      <set comment="kpoint 3">
       <r>  -42.9862    1.0000 </r>
       <r>  -42.8615    1.0000 </r>
       <r>  -42.8338    1.0000 </r>
       <r>  -42.8267    1.0000 </r>
       <r>  -42.8032    1.0000 </r>
       <r>  -42.7835    1.0000 </r>
       <r>  -42.7591    1.0000 </r>
       <r>  -42.7429    1.0000 </r>
       <r>  -42.7077    1.0000 </r>
       <r>  -42.2797    1.0000 </r>
       <r>  -42.1766    1.0000 </r>
       <r>  -42.0689    1.0000 </r>
       <r>  -42.0410    1.0000 </r>
       <r>  -42.0177    1.0000 </r>
       <r>  -42.0022    1.0000 </r>
       <r>  -41.9817    1.0000 </r>
       <r>  -41.9686    1.0000 </r>
       <r>  -41.9322    1.0000 </r>
       <r>  -41.9247    1.0000 </r>
       <r>  -41.8221    1.0000 </r>
       <r>  -41.8174    1.0000 </r>
       <r>  -41.8081    1.0000 </r>
       <r>  -41.7899    1.0000 </r>
       <r>  -41.7824    1.0000 </r>
       <r>  -41.7789    1.0000 </r>
       <r>  -41.7615    1.0000 </r>
       <r>  -41.7469    1.0000 </r>
       <r>  -41.7171    1.0000 </r>
       <r>  -41.7106    1.0000 </r>
       <r>  -41.7050    1.0000 </r>
       <r>  -41.6883    1.0000 </r>
       <r>  -41.6458    1.0000 </r>
       <r>  -41.6238    1.0000 </r>
       <r>  -41.5840    1.0000 </r>
       <r>  -41.5706    1.0000 </r>
       <r>  -41.5341    1.0000 </r>
       <r>  -40.3594    1.0000 </r>
       <r>  -40.3287    1.0000 </r>
       <r>  -40.2813    1.0000 </r>
       <r>  -15.4083    1.0000 </r>
       <r>  -15.4060    1.0000 </r>
       <r>  -15.3747    1.0000 </r>
       <r>  -15.3610    1.0000 </r>
       <r>  -15.3316    1.0000 </r>
       <r>   -7.4557    1.0000 </r>
       <r>   -6.6983    1.0000 </r>
       <r>   -6.6209    1.0000 </r>
       <r>   -5.8085    1.0000 </r>
       <r>   -5.6581    1.0000 </r>
       <r>   -4.8819    1.0000 </r>
       <r>   -4.8710    1.0000 </r>
       <r>   -4.8023    1.0000 </r>
       <r>   -4.7256    1.0000 </r>
       <r>   -4.6418    1.0000 </r>
       <r>   -4.4537    1.0000 </r>
       <r>   -4.2335    1.0000 </r>
       <r>   -4.1632    1.0000 </r>
       <r>   -4.1129    1.0000 </r>
       <r>   -4.0769    1.0000 </r>
       <r>   -4.0106    1.0000 </r>
       <r>   -3.9842    1.0000 </r>
       <r>   -3.8088    1.0000 </r>
       <r>   -3.7878    1.0000 </r>
       <r>   -3.7304    1.0000 </r>
       <r>   -3.7277    1.0000 </r>
       <r>   -3.6976    1.0000 </r>
       <r>   -3.6869    1.0000 </r>
       <r>   -3.6807    1.0000 </r>
       <r>   -3.6690    1.0000 </r>
       <r>   -3.6522    1.0000 </r>
       <r>   -3.6447    1.0000 </r>
       <r>   -3.6323    1.0000 </r>
       <r>   -3.6148    1.0000 </r>
       <r>   -3.6002    1.0000 </r>
       <r>   -3.5811    1.0000 </r>
       <r>   -3.5653    1.0000 </r>
       <r>   -3.5544    1.0000 </r>
       <r>   -3.5122    1.0000 </r>
       <r>   -3.4101    1.0000 </r>
       <r>   -3.3318    1.0000 </r>
       <r>   -3.3118    1.0000 </r>
       <r>   -3.3058    1.0000 </r>
       <r>   -3.2694    1.0000 </r>
       <r>   -3.2605    1.0000 </r>
       <r>   -3.2403    1.0000 </r>
       <r>   -3.2179    1.0000 </r>
       <r>   -3.1996    1.0000 </r>
       <r>   -3.1880    1.0000 </r>
       <r>   -3.1564    1.0000 </r>
       <r>   -3.1415    1.0000 </r>
       <r>   -3.1309    1.0000 </r>
       <r>   -3.1212    1.0000 </r>
       <r>   -3.0860    1.0000 </r>
       <r>   -3.0765    1.0000 </r>
       <r>   -3.0645    1.0000 </r>
       <r>   -3.0608    1.0000 </r>
       <r>   -3.0436    1.0000 </r>
       <r>   -3.0230    1.0000 </r>
       <r>   -3.0040    1.0000 </r>
       <r>   -2.9694    1.0000 </r>
       <r>   -2.9485    1.0000 </r>
       <r>   -2.9351    1.0000 </r>
       <r>   -2.9209    1.0000 </r>
       <r>   -2.9189    1.0000 </r>
       <r>   -2.8807    1.0000 </r>
       <r>   -2.8605    1.0000 </r>
       <r>   -2.8297    1.0000 </r>
       <r>   -2.8158    1.0000 </r>
       <r>   -2.7791    1.0000 </r>
       <r>   -2.7635    1.0000 </r>
       <r>   -2.7457    1.0000 </r>
       <r>   -2.7403    1.0000 </r>
       <r>   -2.7274    1.0000 </r>
       <r>   -2.7069    1.0000 </r>
       <r>   -2.7031    1.0000 </r>
       <r>   -2.6925    1.0000 </r>
       <r>   -2.6577    1.0000 </r>
       <r>   -2.6268    1.0000 </r>
       <r>   -2.6088    1.0000 </r>
       <r>   -2.5960    1.0000 </r>
       <r>   -2.5855    1.0000 </r>
       <r>   -2.5640    1.0000 </r>
       <r>   -2.5402    1.0000 </r>
       <r>   -2.5233    1.0000 </r>
       <r>   -2.5078    1.0000 </r>
       <r>   -2.4946    1.0000 </r>
       <r>   -2.4858    1.0000 </r>
       <r>   -2.4698    1.0000 </r>
       <r>   -2.4575    1.0000 </r>
       <r>   -2.4441    1.0000 </r>
       <r>   -2.4262    1.0000 </r>
       <r>   -2.4196    1.0000 </r>
       <r>   -2.4024    1.0000 </r>
       <r>   -2.3834    1.0000 </r>
       <r>   -2.3791    1.0000 </r>
       <r>   -2.3699    1.0000 </r>
       <r>   -2.3635    1.0000 </r>
       <r>   -2.3408    1.0000 </r>
       <r>   -2.3149    1.0000 </r>
       <r>   -2.3131    1.0000 </r>
       <r>   -2.2999    1.0000 </r>
       <r>   -2.2747    1.0000 </r>
       <r>   -2.2616    1.0000 </r>
       <r>   -2.2431    1.0000 </r>
       <r>   -2.2392    1.0000 </r>
       <r>   -2.2148    1.0000 </r>
       <r>   -2.2000    1.0000 </r>
       <r>   -2.1895    1.0000 </r>
       <r>   -2.1799    1.0000 </r>
       <r>   -2.1478    1.0000 </r>
       <r>   -2.1384    1.0000 </r>
       <r>   -2.1348    1.0000 </r>
       <r>   -2.1294    1.0000 </r>
       <r>   -2.0993    1.0000 </r>
       <r>   -2.0833    1.0000 </r>
       <r>   -2.0723    1.0000 </r>
       <r>   -2.0622    1.0000 </r>
       <r>   -2.0556    1.0000 </r>
       <r>   -2.0361    1.0000 </r>
       <r>   -2.0277    1.0000 </r>
       <r>   -2.0158    1.0000 </r>
       <r>   -1.9990    1.0000 </r>
       <r>   -1.9801    1.0000 </r>
       <r>   -1.9721    1.0000 </r>
       <r>   -1.9653    1.0000 </r>
       <r>   -1.9541    1.0000 </r>
       <r>   -1.9412    1.0000 </r>
       <r>   -1.9154    1.0000 </r>
       <r>   -1.9083    1.0000 </r>
       <r>   -1.9015    1.0000 </r>
       <r>   -1.8813    1.0000 </r>
       <r>   -1.8667    1.0000 </r>
       <r>   -1.8559    1.0000 </r>
       <r>   -1.8384    1.0000 </r>
       <r>   -1.8282    1.0000 </r>
       <r>   -1.8186    1.0000 </r>
       <r>   -1.8051    1.0000 </r>
       <r>   -1.7782    1.0000 </r>
       <r>   -1.7544    1.0000 </r>
       <r>   -1.7375    1.0000 </r>
       <r>   -1.7253    1.0000 </r>
       <r>   -1.7142    1.0000 </r>
       <r>   -1.7028    1.0000 </r>
       <r>   -1.6979    1.0000 </r>
       <r>   -1.6784    1.0000 </r>
       <r>   -1.6735    1.0000 </r>
       <r>   -1.6560    1.0000 </r>
       <r>   -1.6478    1.0000 </r>
       <r>   -1.6386    1.0000 </r>
       <r>   -1.6321    1.0000 </r>
       <r>   -1.6062    1.0000 </r>
       <r>   -1.6042    1.0000 </r>
       <r>   -1.5893    1.0000 </r>
       <r>   -1.5752    1.0000 </r>
       <r>   -1.5626    1.0000 </r>
       <r>   -1.5598    1.0000 </r>
       <r>   -1.5356    1.0000 </r>
       <r>   -1.5185    1.0000 </r>
       <r>   -1.4965    1.0000 </r>
       <r>   -1.4834    1.0000 </r>
       <r>   -1.4649    1.0000 </r>
       <r>   -1.4493    1.0000 </r>
       <r>   -1.4451    1.0000 </r>
       <r>   -1.4366    1.0000 </r>
       <r>   -1.4133    1.0000 </r>
       <r>   -1.4085    1.0000 </r>
       <r>   -1.3941    1.0000 </r>
       <r>   -1.3841    1.0000 </r>
       <r>   -1.3696    1.0000 </r>
       <r>   -1.3574    1.0000 </r>
       <r>   -1.3492    1.0000 </r>
       <r>   -1.3307    1.0000 </r>
       <r>   -1.3220    1.0000 </r>
       <r>   -1.3168    1.0000 </r>
       <r>   -1.3109    1.0000 </r>
       <r>   -1.2726    1.0000 </r>
       <r>   -1.2523    1.0000 </r>
       <r>   -1.2302    1.0000 </r>
       <r>   -1.2114    1.0000 </r>
       <r>   -1.2088    1.0000 </r>
       <r>   -1.2061    1.0000 </r>
       <r>   -1.1972    1.0000 </r>
       <r>   -1.1952    1.0000 </r>
       <r>   -1.1702    1.0000 </r>
       <r>   -1.1466    1.0000 </r>
       <r>   -1.1362    1.0000 </r>
       <r>   -1.0973    1.0000 </r>
       <r>   -1.0591    1.0000 </r>
       <r>   -1.0514    1.0000 </r>
       <r>   -1.0348    1.0000 </r>
       <r>   -0.9938    1.0000 </r>
       <r>   -0.9570    1.0000 </r>
       <r>   -0.9209    1.0000 </r>
       <r>   -0.8964    1.0000 </r>
       <r>   -0.8644    1.0000 </r>
       <r>   -0.8430    1.0000 </r>
       <r>   -0.8263    1.0000 </r>
       <r>   -0.8208    1.0000 </r>
       <r>   -0.7848    1.0000 </r>
       <r>   -0.7826    1.0000 </r>
       <r>   -0.7556    1.0000 </r>
       <r>   -0.7363    1.0000 </r>
       <r>   -0.7302    1.0000 </r>
       <r>   -0.7130    1.0000 </r>
       <r>   -0.6905    1.0000 </r>
       <r>   -0.6645    1.0000 </r>
       <r>   -0.6453    1.0000 </r>
       <r>   -0.6401    1.0000 </r>
       <r>   -0.6221    1.0000 </r>
       <r>   -0.6031    1.0000 </r>
       <r>   -0.5930    1.0000 </r>
       <r>   -0.5853    1.0000 </r>
       <r>   -0.5737    1.0000 </r>
       <r>   -0.5593    1.0000 </r>
       <r>   -0.5551    1.0000 </r>
       <r>   -0.5390    1.0000 </r>
       <r>   -0.5158    1.0000 </r>
       <r>   -0.5095    1.0000 </r>
       <r>   -0.4927    1.0000 </r>
       <r>   -0.4880    1.0000 </r>
       <r>   -0.4831    1.0000 </r>
       <r>   -0.4624    1.0000 </r>
       <r>   -0.4591    1.0000 </r>
       <r>   -0.4461    1.0000 </r>
       <r>   -0.4273    1.0000 </r>
       <r>   -0.4233    1.0000 </r>
       <r>   -0.4205    1.0000 </r>
       <r>   -0.4051    1.0000 </r>
       <r>   -0.3943    1.0000 </r>
       <r>   -0.3878    1.0000 </r>
       <r>   -0.3753    1.0000 </r>
       <r>   -0.3641    1.0000 </r>
       <r>   -0.3587    1.0000 </r>
       <r>   -0.3373    1.0000 </r>
       <r>   -0.3353    1.0000 </r>
       <r>   -0.3275    1.0000 </r>
       <r>   -0.3180    1.0000 </r>
       <r>   -0.3107    1.0000 </r>
       <r>   -0.2973    1.0000 </r>
       <r>   -0.2844    1.0000 </r>
       <r>   -0.2736    1.0000 </r>
       <r>   -0.2619    1.0000 </r>
       <r>   -0.2440    1.0000 </r>
       <r>   -0.2376    1.0000 </r>
       <r>   -0.2318    1.0000 </r>
       <r>   -0.2057    1.0000 </r>
       <r>   -0.1991    1.0000 </r>
       <r>   -0.1920    1.0000 </r>
       <r>   -0.1809    1.0000 </r>
       <r>   -0.1737    1.0000 </r>
       <r>   -0.1580    1.0000 </r>
       <r>   -0.1523    1.0000 </r>
       <r>   -0.1295    1.0000 </r>
       <r>   -0.1210    1.0000 </r>
       <r>   -0.1106    1.0000 </r>
       <r>   -0.0982    1.0000 </r>
       <r>   -0.0893    1.0000 </r>
       <r>   -0.0741    1.0000 </r>
       <r>   -0.0545    1.0000 </r>
       <r>   -0.0490    1.0000 </r>
       <r>   -0.0193    1.0000 </r>
       <r>    0.0009    1.0000 </r>
       <r>    0.0077    1.0000 </r>
       <r>    0.0114    1.0000 </r>
       <r>    0.0383    1.0000 </r>
       <r>    0.0456    1.0000 </r>
       <r>    0.0832    1.0000 </r>
       <r>    0.1084    1.0000 </r>
       <r>    0.1190    1.0000 </r>
       <r>    0.1293    1.0000 </r>
       <r>    0.1493    1.0000 </r>
       <r>    0.1707    1.0000 </r>
       <r>    0.1892    1.0000 </r>
       <r>    0.2111    1.0000 </r>
       <r>    0.2501    1.0000 </r>
       <r>    0.2846    1.0000 </r>
       <r>    0.2900    1.0000 </r>
       <r>    0.3048    1.0000 </r>
       <r>    0.3524    1.0000 </r>
       <r>    0.3731    1.0000 </r>
       <r>    0.4144    1.0000 </r>
       <r>    0.4285    1.0000 </r>
       <r>    0.4431    1.0000 </r>
       <r>    0.4657    1.0000 </r>
       <r>    0.4945    1.0001 </r>
       <r>    0.5302    1.0004 </r>
       <r>    0.5381    1.0005 </r>
       <r>    0.5541    1.0008 </r>
       <r>    0.5594    1.0009 </r>
       <r>    0.5748    1.0015 </r>
       <r>    0.6150    1.0043 </r>
       <r>    0.6616    1.0119 </r>
       <r>    0.6831    1.0174 </r>
       <r>    0.6864    1.0183 </r>
       <r>    0.7206    1.0287 </r>
       <r>    0.7808    1.0313 </r>
       <r>    0.8168    0.9986 </r>
       <r>    0.8288    0.9777 </r>
       <r>    0.8326    0.9700 </r>
       <r>    0.8443    0.9419 </r>
       <r>    0.8871    0.7885 </r>
       <r>    0.9239    0.6021 </r>
       <r>    0.9656    0.3691 </r>
       <r>    0.9788    0.2995 </r>
       <r>    1.0332    0.0766 </r>
       <r>    1.0608    0.0122 </r>
       <r>    1.1075   -0.0328 </r>
       <r>    1.1192   -0.0351 </r>
       <r>    1.1728   -0.0259 </r>
       <r>    1.1781   -0.0243 </r>
       <r>    1.2136   -0.0141 </r>
       <r>    1.2305   -0.0102 </r>
       <r>    1.2626   -0.0050 </r>
       <r>    1.2807   -0.0032 </r>
       <r>    1.3360   -0.0006 </r>
       <r>    1.3745   -0.0002 </r>
       <r>    1.4262   -0.0000 </r>
       <r>    1.4615   -0.0000 </r>
       <r>    1.4687   -0.0000 </r>
       <r>    1.4825   -0.0000 </r>
       <r>    1.5213   -0.0000 </r>
       <r>    1.5381   -0.0000 </r>
       <r>    1.5659   -0.0000 </r>
       <r>    1.5881   -0.0000 </r>
       <r>    1.6120   -0.0000 </r>
       <r>    1.6241   -0.0000 </r>
       <r>    1.7194   -0.0000 </r>
       <r>    1.7346   -0.0000 </r>
       <r>    1.7658   -0.0000 </r>
       <r>    1.8017   -0.0000 </r>
       <r>    1.8367   -0.0000 </r>
       <r>    1.8457   -0.0000 </r>
       <r>    1.8663   -0.0000 </r>
       <r>    1.9174   -0.0000 </r>
       <r>    1.9466   -0.0000 </r>
      </set>
      <set comment="kpoint 4">
       <r>  -42.9861    1.0000 </r>
       <r>  -42.8615    1.0000 </r>
       <r>  -42.8337    1.0000 </r>
       <r>  -42.8267    1.0000 </r>
       <r>  -42.8032    1.0000 </r>
       <r>  -42.7835    1.0000 </r>
       <r>  -42.7591    1.0000 </r>
       <r>  -42.7430    1.0000 </r>
       <r>  -42.7077    1.0000 </r>
       <r>  -42.2785    1.0000 </r>
       <r>  -42.1765    1.0000 </r>
       <r>  -42.0689    1.0000 </r>
       <r>  -42.0408    1.0000 </r>
       <r>  -42.0114    1.0000 </r>
       <r>  -42.0022    1.0000 </r>
       <r>  -41.9817    1.0000 </r>
       <r>  -41.9686    1.0000 </r>
       <r>  -41.9431    1.0000 </r>
       <r>  -41.9288    1.0000 </r>
       <r>  -41.8358    1.0000 </r>
       <r>  -41.8114    1.0000 </r>
       <r>  -41.7902    1.0000 </r>
       <r>  -41.7862    1.0000 </r>
       <r>  -41.7813    1.0000 </r>
       <r>  -41.7787    1.0000 </r>
       <r>  -41.7623    1.0000 </r>
       <r>  -41.7539    1.0000 </r>
       <r>  -41.7171    1.0000 </r>
       <r>  -41.7106    1.0000 </r>
       <r>  -41.7051    1.0000 </r>
       <r>  -41.6883    1.0000 </r>
       <r>  -41.6458    1.0000 </r>
       <r>  -41.6238    1.0000 </r>
       <r>  -41.5839    1.0000 </r>
       <r>  -41.5706    1.0000 </r>
       <r>  -41.5341    1.0000 </r>
       <r>  -40.3594    1.0000 </r>
       <r>  -40.3287    1.0000 </r>
       <r>  -40.2813    1.0000 </r>
       <r>  -15.4083    1.0000 </r>
       <r>  -15.4060    1.0000 </r>
       <r>  -15.3747    1.0000 </r>
       <r>  -15.3610    1.0000 </r>
       <r>  -15.3316    1.0000 </r>
       <r>   -7.4820    1.0000 </r>
       <r>   -7.0467    1.0000 </r>
       <r>   -6.1246    1.0000 </r>
       <r>   -5.9844    1.0000 </r>
       <r>   -5.2123    1.0000 </r>
       <r>   -5.1349    1.0000 </r>
       <r>   -5.0744    1.0000 </r>
       <r>   -4.8059    1.0000 </r>
       <r>   -4.5204    1.0000 </r>
       <r>   -4.5015    1.0000 </r>
       <r>   -4.4354    1.0000 </r>
       <r>   -4.4281    1.0000 </r>
       <r>   -4.3381    1.0000 </r>
       <r>   -4.2394    1.0000 </r>
       <r>   -4.1211    1.0000 </r>
       <r>   -4.0195    1.0000 </r>
       <r>   -3.9615    1.0000 </r>
       <r>   -3.9164    1.0000 </r>
       <r>   -3.8792    1.0000 </r>
       <r>   -3.8500    1.0000 </r>
       <r>   -3.8150    1.0000 </r>
       <r>   -3.7879    1.0000 </r>
       <r>   -3.7526    1.0000 </r>
       <r>   -3.7065    1.0000 </r>
       <r>   -3.6955    1.0000 </r>
       <r>   -3.6653    1.0000 </r>
       <r>   -3.5696    1.0000 </r>
       <r>   -3.5602    1.0000 </r>
       <r>   -3.5320    1.0000 </r>
       <r>   -3.5265    1.0000 </r>
       <r>   -3.5165    1.0000 </r>
       <r>   -3.4848    1.0000 </r>
       <r>   -3.4333    1.0000 </r>
       <r>   -3.3931    1.0000 </r>
       <r>   -3.3539    1.0000 </r>
       <r>   -3.3169    1.0000 </r>
       <r>   -3.2948    1.0000 </r>
       <r>   -3.2732    1.0000 </r>
       <r>   -3.2692    1.0000 </r>
       <r>   -3.2585    1.0000 </r>
       <r>   -3.2418    1.0000 </r>
       <r>   -3.2286    1.0000 </r>
       <r>   -3.2196    1.0000 </r>
       <r>   -3.2065    1.0000 </r>
       <r>   -3.1828    1.0000 </r>
       <r>   -3.1770    1.0000 </r>
       <r>   -3.1367    1.0000 </r>
       <r>   -3.1298    1.0000 </r>
       <r>   -3.1133    1.0000 </r>
       <r>   -3.1038    1.0000 </r>
       <r>   -3.0827    1.0000 </r>
       <r>   -3.0638    1.0000 </r>
       <r>   -3.0385    1.0000 </r>
       <r>   -3.0294    1.0000 </r>
       <r>   -2.9900    1.0000 </r>
       <r>   -2.9684    1.0000 </r>
       <r>   -2.9509    1.0000 </r>
       <r>   -2.9170    1.0000 </r>
       <r>   -2.9070    1.0000 </r>
       <r>   -2.8797    1.0000 </r>
       <r>   -2.8624    1.0000 </r>
       <r>   -2.8026    1.0000 </r>
       <r>   -2.7740    1.0000 </r>
       <r>   -2.7440    1.0000 </r>
       <r>   -2.7204    1.0000 </r>
       <r>   -2.6968    1.0000 </r>
       <r>   -2.6766    1.0000 </r>
       <r>   -2.6575    1.0000 </r>
       <r>   -2.6444    1.0000 </r>
       <r>   -2.6295    1.0000 </r>
       <r>   -2.6175    1.0000 </r>
       <r>   -2.6086    1.0000 </r>
       <r>   -2.5957    1.0000 </r>
       <r>   -2.5891    1.0000 </r>
       <r>   -2.5749    1.0000 </r>
       <r>   -2.5640    1.0000 </r>
       <r>   -2.5503    1.0000 </r>
       <r>   -2.5415    1.0000 </r>
       <r>   -2.5259    1.0000 </r>
       <r>   -2.5168    1.0000 </r>
       <r>   -2.4994    1.0000 </r>
       <r>   -2.4892    1.0000 </r>
       <r>   -2.4710    1.0000 </r>
       <r>   -2.4676    1.0000 </r>
       <r>   -2.4531    1.0000 </r>
       <r>   -2.4357    1.0000 </r>
       <r>   -2.4215    1.0000 </r>
       <r>   -2.4108    1.0000 </r>
       <r>   -2.4002    1.0000 </r>
       <r>   -2.3905    1.0000 </r>
       <r>   -2.3714    1.0000 </r>
       <r>   -2.3579    1.0000 </r>
       <r>   -2.3466    1.0000 </r>
       <r>   -2.3374    1.0000 </r>
       <r>   -2.3282    1.0000 </r>
       <r>   -2.3032    1.0000 </r>
       <r>   -2.2940    1.0000 </r>
       <r>   -2.2721    1.0000 </r>
       <r>   -2.2644    1.0000 </r>
       <r>   -2.2542    1.0000 </r>
       <r>   -2.2412    1.0000 </r>
       <r>   -2.2342    1.0000 </r>
       <r>   -2.2167    1.0000 </r>
       <r>   -2.2000    1.0000 </r>
       <r>   -2.1922    1.0000 </r>
       <r>   -2.1819    1.0000 </r>
       <r>   -2.1659    1.0000 </r>
       <r>   -2.1503    1.0000 </r>
       <r>   -2.1364    1.0000 </r>
       <r>   -2.1321    1.0000 </r>
       <r>   -2.1142    1.0000 </r>
       <r>   -2.0892    1.0000 </r>
       <r>   -2.0832    1.0000 </r>
       <r>   -2.0729    1.0000 </r>
       <r>   -2.0679    1.0000 </r>
       <r>   -2.0501    1.0000 </r>
       <r>   -2.0296    1.0000 </r>
       <r>   -2.0137    1.0000 </r>
       <r>   -1.9916    1.0000 </r>
       <r>   -1.9865    1.0000 </r>
       <r>   -1.9619    1.0000 </r>
       <r>   -1.9469    1.0000 </r>
       <r>   -1.9401    1.0000 </r>
       <r>   -1.9343    1.0000 </r>
       <r>   -1.9152    1.0000 </r>
       <r>   -1.8941    1.0000 </r>
       <r>   -1.8811    1.0000 </r>
       <r>   -1.8720    1.0000 </r>
       <r>   -1.8647    1.0000 </r>
       <r>   -1.8429    1.0000 </r>
       <r>   -1.8221    1.0000 </r>
       <r>   -1.8182    1.0000 </r>
       <r>   -1.8013    1.0000 </r>
       <r>   -1.7824    1.0000 </r>
       <r>   -1.7563    1.0000 </r>
       <r>   -1.7453    1.0000 </r>
       <r>   -1.7342    1.0000 </r>
       <r>   -1.7244    1.0000 </r>
       <r>   -1.7085    1.0000 </r>
       <r>   -1.6975    1.0000 </r>
       <r>   -1.6862    1.0000 </r>
       <r>   -1.6695    1.0000 </r>
       <r>   -1.6565    1.0000 </r>
       <r>   -1.6384    1.0000 </r>
       <r>   -1.6247    1.0000 </r>
       <r>   -1.6191    1.0000 </r>
       <r>   -1.6081    1.0000 </r>
       <r>   -1.5940    1.0000 </r>
       <r>   -1.5839    1.0000 </r>
       <r>   -1.5684    1.0000 </r>
       <r>   -1.5571    1.0000 </r>
       <r>   -1.5392    1.0000 </r>
       <r>   -1.5287    1.0000 </r>
       <r>   -1.5193    1.0000 </r>
       <r>   -1.5028    1.0000 </r>
       <r>   -1.4934    1.0000 </r>
       <r>   -1.4842    1.0000 </r>
       <r>   -1.4730    1.0000 </r>
       <r>   -1.4581    1.0000 </r>
       <r>   -1.4373    1.0000 </r>
       <r>   -1.4332    1.0000 </r>
       <r>   -1.4153    1.0000 </r>
       <r>   -1.4003    1.0000 </r>
       <r>   -1.3879    1.0000 </r>
       <r>   -1.3683    1.0000 </r>
       <r>   -1.3545    1.0000 </r>
       <r>   -1.3350    1.0000 </r>
       <r>   -1.3197    1.0000 </r>
       <r>   -1.2957    1.0000 </r>
       <r>   -1.2792    1.0000 </r>
       <r>   -1.2681    1.0000 </r>
       <r>   -1.2538    1.0000 </r>
       <r>   -1.2463    1.0000 </r>
       <r>   -1.2204    1.0000 </r>
       <r>   -1.2167    1.0000 </r>
       <r>   -1.1987    1.0000 </r>
       <r>   -1.1862    1.0000 </r>
       <r>   -1.1731    1.0000 </r>
       <r>   -1.1548    1.0000 </r>
       <r>   -1.1128    1.0000 </r>
       <r>   -1.1028    1.0000 </r>
       <r>   -1.0670    1.0000 </r>
       <r>   -1.0454    1.0000 </r>
       <r>   -1.0284    1.0000 </r>
       <r>   -0.9937    1.0000 </r>
       <r>   -0.9707    1.0000 </r>
       <r>   -0.9555    1.0000 </r>
       <r>   -0.9337    1.0000 </r>
       <r>   -0.9089    1.0000 </r>
       <r>   -0.8909    1.0000 </r>
       <r>   -0.8685    1.0000 </r>
       <r>   -0.8533    1.0000 </r>
       <r>   -0.8442    1.0000 </r>
       <r>   -0.8227    1.0000 </r>
       <r>   -0.8020    1.0000 </r>
       <r>   -0.7924    1.0000 </r>
       <r>   -0.7864    1.0000 </r>
       <r>   -0.7620    1.0000 </r>
       <r>   -0.7548    1.0000 </r>
       <r>   -0.7296    1.0000 </r>
       <r>   -0.7270    1.0000 </r>
       <r>   -0.7076    1.0000 </r>
       <r>   -0.6879    1.0000 </r>
       <r>   -0.6806    1.0000 </r>
       <r>   -0.6559    1.0000 </r>
       <r>   -0.6414    1.0000 </r>
       <r>   -0.6153    1.0000 </r>
       <r>   -0.6078    1.0000 </r>
       <r>   -0.5940    1.0000 </r>
       <r>   -0.5727    1.0000 </r>
       <r>   -0.5607    1.0000 </r>
       <r>   -0.5514    1.0000 </r>
       <r>   -0.5432    1.0000 </r>
       <r>   -0.5287    1.0000 </r>
       <r>   -0.5185    1.0000 </r>
       <r>   -0.4968    1.0000 </r>
       <r>   -0.4931    1.0000 </r>
       <r>   -0.4812    1.0000 </r>
       <r>   -0.4609    1.0000 </r>
       <r>   -0.4547    1.0000 </r>
       <r>   -0.4372    1.0000 </r>
       <r>   -0.4310    1.0000 </r>
       <r>   -0.4243    1.0000 </r>
       <r>   -0.4105    1.0000 </r>
       <r>   -0.4037    1.0000 </r>
       <r>   -0.3940    1.0000 </r>
       <r>   -0.3809    1.0000 </r>
       <r>   -0.3623    1.0000 </r>
       <r>   -0.3549    1.0000 </r>
       <r>   -0.3354    1.0000 </r>
       <r>   -0.3311    1.0000 </r>
       <r>   -0.3268    1.0000 </r>
       <r>   -0.3160    1.0000 </r>
       <r>   -0.3081    1.0000 </r>
       <r>   -0.2922    1.0000 </r>
       <r>   -0.2854    1.0000 </r>
       <r>   -0.2781    1.0000 </r>
       <r>   -0.2630    1.0000 </r>
       <r>   -0.2578    1.0000 </r>
       <r>   -0.2536    1.0000 </r>
       <r>   -0.2380    1.0000 </r>
       <r>   -0.2240    1.0000 </r>
       <r>   -0.2173    1.0000 </r>
       <r>   -0.2029    1.0000 </r>
       <r>   -0.1930    1.0000 </r>
       <r>   -0.1886    1.0000 </r>
       <r>   -0.1705    1.0000 </r>
       <r>   -0.1559    1.0000 </r>
       <r>   -0.1494    1.0000 </r>
       <r>   -0.1370    1.0000 </r>
       <r>   -0.1311    1.0000 </r>
       <r>   -0.1138    1.0000 </r>
       <r>   -0.1049    1.0000 </r>
       <r>   -0.0893    1.0000 </r>
       <r>   -0.0817    1.0000 </r>
       <r>   -0.0618    1.0000 </r>
       <r>   -0.0512    1.0000 </r>
       <r>   -0.0392    1.0000 </r>
       <r>   -0.0192    1.0000 </r>
       <r>   -0.0107    1.0000 </r>
       <r>   -0.0044    1.0000 </r>
       <r>    0.0258    1.0000 </r>
       <r>    0.0427    1.0000 </r>
       <r>    0.0586    1.0000 </r>
       <r>    0.0830    1.0000 </r>
       <r>    0.0960    1.0000 </r>
       <r>    0.1186    1.0000 </r>
       <r>    0.1329    1.0000 </r>
       <r>    0.1505    1.0000 </r>
       <r>    0.1681    1.0000 </r>
       <r>    0.2067    1.0000 </r>
       <r>    0.2435    1.0000 </r>
       <r>    0.2545    1.0000 </r>
       <r>    0.2694    1.0000 </r>
       <r>    0.3070    1.0000 </r>
       <r>    0.3269    1.0000 </r>
       <r>    0.3388    1.0000 </r>
       <r>    0.3657    1.0000 </r>
       <r>    0.3787    1.0000 </r>
       <r>    0.4015    1.0000 </r>
       <r>    0.4157    1.0000 </r>
       <r>    0.4474    1.0000 </r>
       <r>    0.4784    1.0001 </r>
       <r>    0.4901    1.0001 </r>
       <r>    0.4990    1.0001 </r>
       <r>    0.5267    1.0003 </r>
       <r>    0.5466    1.0006 </r>
       <r>    0.5839    1.0019 </r>
       <r>    0.6560    1.0107 </r>
       <r>    0.6623    1.0120 </r>
       <r>    0.6771    1.0158 </r>
       <r>    0.7078    1.0248 </r>
       <r>    0.7507    1.0351 </r>
       <r>    0.7713    1.0342 </r>
       <r>    0.8064    1.0122 </r>
       <r>    0.8182    0.9965 </r>
       <r>    0.8725    0.8498 </r>
       <r>    0.8907    0.7722 </r>
       <r>    0.9018    0.7186 </r>
       <r>    0.9387    0.5192 </r>
       <r>    0.9684    0.3541 </r>
       <r>    1.0105    0.1550 </r>
       <r>    1.0572    0.0187 </r>
       <r>    1.0675    0.0013 </r>
       <r>    1.1064   -0.0324 </r>
       <r>    1.1331   -0.0351 </r>
       <r>    1.1602   -0.0296 </r>
       <r>    1.1857   -0.0220 </r>
       <r>    1.2438   -0.0077 </r>
       <r>    1.2685   -0.0043 </r>
       <r>    1.3294   -0.0008 </r>
       <r>    1.3705   -0.0002 </r>
       <r>    1.4075   -0.0001 </r>
       <r>    1.4398   -0.0000 </r>
       <r>    1.4628   -0.0000 </r>
       <r>    1.5004   -0.0000 </r>
       <r>    1.5537   -0.0000 </r>
       <r>    1.5770   -0.0000 </r>
       <r>    1.6173   -0.0000 </r>
       <r>    1.6539   -0.0000 </r>
       <r>    1.6737   -0.0000 </r>
       <r>    1.6788   -0.0000 </r>
       <r>    1.7253   -0.0000 </r>
       <r>    1.7608   -0.0000 </r>
       <r>    1.7958   -0.0000 </r>
       <r>    1.8199   -0.0000 </r>
       <r>    1.8509   -0.0000 </r>
       <r>    1.8802   -0.0000 </r>
       <r>    1.8837   -0.0000 </r>
       <r>    1.9149   -0.0000 </r>
       <r>    1.9669   -0.0000 </r>
      </set>
      <set comment="kpoint 5">
       <r>  -42.9861    1.0000 </r>
       <r>  -42.8614    1.0000 </r>
       <r>  -42.8337    1.0000 </r>
       <r>  -42.8267    1.0000 </r>
       <r>  -42.8032    1.0000 </r>
       <r>  -42.7835    1.0000 </r>
       <r>  -42.7591    1.0000 </r>
       <r>  -42.7430    1.0000 </r>
       <r>  -42.7077    1.0000 </r>
       <r>  -42.2791    1.0000 </r>
       <r>  -42.1766    1.0000 </r>
       <r>  -42.0689    1.0000 </r>
       <r>  -42.0409    1.0000 </r>
       <r>  -42.0148    1.0000 </r>
       <r>  -42.0022    1.0000 </r>
       <r>  -41.9817    1.0000 </r>
       <r>  -41.9686    1.0000 </r>
       <r>  -41.9363    1.0000 </r>
       <r>  -41.9279    1.0000 </r>
       <r>  -41.8322    1.0000 </r>
       <r>  -41.8118    1.0000 </r>
       <r>  -41.7969    1.0000 </r>
       <r>  -41.7899    1.0000 </r>
       <r>  -41.7822    1.0000 </r>
       <r>  -41.7788    1.0000 </r>
       <r>  -41.7617    1.0000 </r>
       <r>  -41.7499    1.0000 </r>
       <r>  -41.7171    1.0000 </r>
       <r>  -41.7106    1.0000 </r>
       <r>  -41.7050    1.0000 </r>
       <r>  -41.6883    1.0000 </r>
       <r>  -41.6458    1.0000 </r>
       <r>  -41.6238    1.0000 </r>
       <r>  -41.5839    1.0000 </r>
       <r>  -41.5706    1.0000 </r>
       <r>  -41.5341    1.0000 </r>
       <r>  -40.3594    1.0000 </r>
       <r>  -40.3286    1.0000 </r>
       <r>  -40.2813    1.0000 </r>
       <r>  -15.4083    1.0000 </r>
       <r>  -15.4060    1.0000 </r>
       <r>  -15.3747    1.0000 </r>
       <r>  -15.3610    1.0000 </r>
       <r>  -15.3316    1.0000 </r>
       <r>   -7.4623    1.0000 </r>
       <r>   -6.9210    1.0000 </r>
       <r>   -6.0062    1.0000 </r>
       <r>   -5.8988    1.0000 </r>
       <r>   -5.8619    1.0000 </r>
       <r>   -5.1264    1.0000 </r>
       <r>   -5.0538    1.0000 </r>
       <r>   -4.9863    1.0000 </r>
       <r>   -4.7157    1.0000 </r>
       <r>   -4.3265    1.0000 </r>
       <r>   -4.2994    1.0000 </r>
       <r>   -4.2207    1.0000 </r>
       <r>   -4.1568    1.0000 </r>
       <r>   -4.1056    1.0000 </r>
       <r>   -4.0337    1.0000 </r>
       <r>   -3.9971    1.0000 </r>
       <r>   -3.9340    1.0000 </r>
       <r>   -3.9233    1.0000 </r>
       <r>   -3.9036    1.0000 </r>
       <r>   -3.8921    1.0000 </r>
       <r>   -3.8382    1.0000 </r>
       <r>   -3.7482    1.0000 </r>
       <r>   -3.7289    1.0000 </r>
       <r>   -3.7026    1.0000 </r>
       <r>   -3.6639    1.0000 </r>
       <r>   -3.6487    1.0000 </r>
       <r>   -3.5977    1.0000 </r>
       <r>   -3.4975    1.0000 </r>
       <r>   -3.4639    1.0000 </r>
       <r>   -3.4295    1.0000 </r>
       <r>   -3.4278    1.0000 </r>
       <r>   -3.3987    1.0000 </r>
       <r>   -3.3822    1.0000 </r>
       <r>   -3.3702    1.0000 </r>
       <r>   -3.3594    1.0000 </r>
       <r>   -3.3499    1.0000 </r>
       <r>   -3.3434    1.0000 </r>
       <r>   -3.3097    1.0000 </r>
       <r>   -3.2961    1.0000 </r>
       <r>   -3.2892    1.0000 </r>
       <r>   -3.2749    1.0000 </r>
       <r>   -3.2577    1.0000 </r>
       <r>   -3.2388    1.0000 </r>
       <r>   -3.2304    1.0000 </r>
       <r>   -3.2129    1.0000 </r>
       <r>   -3.1978    1.0000 </r>
       <r>   -3.1809    1.0000 </r>
       <r>   -3.1641    1.0000 </r>
       <r>   -3.1418    1.0000 </r>
       <r>   -3.1346    1.0000 </r>
       <r>   -3.1186    1.0000 </r>
       <r>   -3.0960    1.0000 </r>
       <r>   -3.0768    1.0000 </r>
       <r>   -3.0622    1.0000 </r>
       <r>   -3.0373    1.0000 </r>
       <r>   -3.0155    1.0000 </r>
       <r>   -3.0064    1.0000 </r>
       <r>   -2.9492    1.0000 </r>
       <r>   -2.9046    1.0000 </r>
       <r>   -2.8523    1.0000 </r>
       <r>   -2.8199    1.0000 </r>
       <r>   -2.8085    1.0000 </r>
       <r>   -2.7976    1.0000 </r>
       <r>   -2.7869    1.0000 </r>
       <r>   -2.7577    1.0000 </r>
       <r>   -2.7429    1.0000 </r>
       <r>   -2.7289    1.0000 </r>
       <r>   -2.6918    1.0000 </r>
       <r>   -2.6750    1.0000 </r>
       <r>   -2.6581    1.0000 </r>
       <r>   -2.6384    1.0000 </r>
       <r>   -2.6228    1.0000 </r>
       <r>   -2.6158    1.0000 </r>
       <r>   -2.6112    1.0000 </r>
       <r>   -2.5849    1.0000 </r>
       <r>   -2.5821    1.0000 </r>
       <r>   -2.5779    1.0000 </r>
       <r>   -2.5613    1.0000 </r>
       <r>   -2.5555    1.0000 </r>
       <r>   -2.5346    1.0000 </r>
       <r>   -2.5240    1.0000 </r>
       <r>   -2.5123    1.0000 </r>
       <r>   -2.4994    1.0000 </r>
       <r>   -2.4854    1.0000 </r>
       <r>   -2.4718    1.0000 </r>
       <r>   -2.4639    1.0000 </r>
       <r>   -2.4495    1.0000 </r>
       <r>   -2.4392    1.0000 </r>
       <r>   -2.4283    1.0000 </r>
       <r>   -2.3993    1.0000 </r>
       <r>   -2.3906    1.0000 </r>
       <r>   -2.3841    1.0000 </r>
       <r>   -2.3505    1.0000 </r>
       <r>   -2.3360    1.0000 </r>
       <r>   -2.3252    1.0000 </r>
       <r>   -2.3165    1.0000 </r>
       <r>   -2.3013    1.0000 </r>
       <r>   -2.2894    1.0000 </r>
       <r>   -2.2789    1.0000 </r>
       <r>   -2.2676    1.0000 </r>
       <r>   -2.2496    1.0000 </r>
       <r>   -2.2409    1.0000 </r>
       <r>   -2.2202    1.0000 </r>
       <r>   -2.2103    1.0000 </r>
       <r>   -2.1874    1.0000 </r>
       <r>   -2.1772    1.0000 </r>
       <r>   -2.1599    1.0000 </r>
       <r>   -2.1447    1.0000 </r>
       <r>   -2.1337    1.0000 </r>
       <r>   -2.1141    1.0000 </r>
       <r>   -2.1053    1.0000 </r>
       <r>   -2.1005    1.0000 </r>
       <r>   -2.0831    1.0000 </r>
       <r>   -2.0686    1.0000 </r>
       <r>   -2.0580    1.0000 </r>
       <r>   -2.0476    1.0000 </r>
       <r>   -2.0275    1.0000 </r>
       <r>   -2.0129    1.0000 </r>
       <r>   -2.0069    1.0000 </r>
       <r>   -1.9782    1.0000 </r>
       <r>   -1.9653    1.0000 </r>
       <r>   -1.9467    1.0000 </r>
       <r>   -1.9405    1.0000 </r>
       <r>   -1.9293    1.0000 </r>
       <r>   -1.9162    1.0000 </r>
       <r>   -1.9065    1.0000 </r>
       <r>   -1.8941    1.0000 </r>
       <r>   -1.8823    1.0000 </r>
       <r>   -1.8627    1.0000 </r>
       <r>   -1.8483    1.0000 </r>
       <r>   -1.8299    1.0000 </r>
       <r>   -1.8098    1.0000 </r>
       <r>   -1.8022    1.0000 </r>
       <r>   -1.7888    1.0000 </r>
       <r>   -1.7705    1.0000 </r>
       <r>   -1.7575    1.0000 </r>
       <r>   -1.7426    1.0000 </r>
       <r>   -1.7331    1.0000 </r>
       <r>   -1.7239    1.0000 </r>
       <r>   -1.7113    1.0000 </r>
       <r>   -1.7016    1.0000 </r>
       <r>   -1.6926    1.0000 </r>
       <r>   -1.6884    1.0000 </r>
       <r>   -1.6706    1.0000 </r>
       <r>   -1.6562    1.0000 </r>
       <r>   -1.6318    1.0000 </r>
       <r>   -1.6235    1.0000 </r>
       <r>   -1.5930    1.0000 </r>
       <r>   -1.5839    1.0000 </r>
       <r>   -1.5735    1.0000 </r>
       <r>   -1.5657    1.0000 </r>
       <r>   -1.5373    1.0000 </r>
       <r>   -1.5303    1.0000 </r>
       <r>   -1.5126    1.0000 </r>
       <r>   -1.4956    1.0000 </r>
       <r>   -1.4865    1.0000 </r>
       <r>   -1.4831    1.0000 </r>
       <r>   -1.4696    1.0000 </r>
       <r>   -1.4660    1.0000 </r>
       <r>   -1.4413    1.0000 </r>
       <r>   -1.4351    1.0000 </r>
       <r>   -1.4177    1.0000 </r>
       <r>   -1.3989    1.0000 </r>
       <r>   -1.3855    1.0000 </r>
       <r>   -1.3713    1.0000 </r>
       <r>   -1.3534    1.0000 </r>
       <r>   -1.3488    1.0000 </r>
       <r>   -1.3333    1.0000 </r>
       <r>   -1.3223    1.0000 </r>
       <r>   -1.3032    1.0000 </r>
       <r>   -1.2875    1.0000 </r>
       <r>   -1.2646    1.0000 </r>
       <r>   -1.2348    1.0000 </r>
       <r>   -1.2276    1.0000 </r>
       <r>   -1.2057    1.0000 </r>
       <r>   -1.1918    1.0000 </r>
       <r>   -1.1794    1.0000 </r>
       <r>   -1.1422    1.0000 </r>
       <r>   -1.1145    1.0000 </r>
       <r>   -1.0857    1.0000 </r>
       <r>   -1.0713    1.0000 </r>
       <r>   -1.0392    1.0000 </r>
       <r>   -1.0260    1.0000 </r>
       <r>   -0.9799    1.0000 </r>
       <r>   -0.9736    1.0000 </r>
       <r>   -0.9485    1.0000 </r>
       <r>   -0.9267    1.0000 </r>
       <r>   -0.9018    1.0000 </r>
       <r>   -0.8730    1.0000 </r>
       <r>   -0.8573    1.0000 </r>
       <r>   -0.8385    1.0000 </r>
       <r>   -0.8288    1.0000 </r>
       <r>   -0.8169    1.0000 </r>
       <r>   -0.8000    1.0000 </r>
       <r>   -0.7850    1.0000 </r>
       <r>   -0.7690    1.0000 </r>
       <r>   -0.7569    1.0000 </r>
       <r>   -0.7369    1.0000 </r>
       <r>   -0.7174    1.0000 </r>
       <r>   -0.7063    1.0000 </r>
       <r>   -0.6788    1.0000 </r>
       <r>   -0.6689    1.0000 </r>
       <r>   -0.6641    1.0000 </r>
       <r>   -0.6428    1.0000 </r>
       <r>   -0.6307    1.0000 </r>
       <r>   -0.6074    1.0000 </r>
       <r>   -0.6008    1.0000 </r>
       <r>   -0.5774    1.0000 </r>
       <r>   -0.5689    1.0000 </r>
       <r>   -0.5605    1.0000 </r>
       <r>   -0.5533    1.0000 </r>
       <r>   -0.5387    1.0000 </r>
       <r>   -0.5179    1.0000 </r>
       <r>   -0.5117    1.0000 </r>
       <r>   -0.5081    1.0000 </r>
       <r>   -0.5001    1.0000 </r>
       <r>   -0.4828    1.0000 </r>
       <r>   -0.4709    1.0000 </r>
       <r>   -0.4653    1.0000 </r>
       <r>   -0.4464    1.0000 </r>
       <r>   -0.4411    1.0000 </r>
       <r>   -0.4240    1.0000 </r>
       <r>   -0.4168    1.0000 </r>
       <r>   -0.3990    1.0000 </r>
       <r>   -0.3922    1.0000 </r>
       <r>   -0.3828    1.0000 </r>
       <r>   -0.3654    1.0000 </r>
       <r>   -0.3606    1.0000 </r>
       <r>   -0.3536    1.0000 </r>
       <r>   -0.3395    1.0000 </r>
       <r>   -0.3260    1.0000 </r>
       <r>   -0.3169    1.0000 </r>
       <r>   -0.3077    1.0000 </r>
       <r>   -0.2978    1.0000 </r>
       <r>   -0.2794    1.0000 </r>
       <r>   -0.2664    1.0000 </r>
       <r>   -0.2529    1.0000 </r>
       <r>   -0.2435    1.0000 </r>
       <r>   -0.2340    1.0000 </r>
       <r>   -0.2281    1.0000 </r>
       <r>   -0.2227    1.0000 </r>
       <r>   -0.2129    1.0000 </r>
       <r>   -0.2067    1.0000 </r>
       <r>   -0.2008    1.0000 </r>
       <r>   -0.1860    1.0000 </r>
       <r>   -0.1767    1.0000 </r>
       <r>   -0.1598    1.0000 </r>
       <r>   -0.1490    1.0000 </r>
       <r>   -0.1373    1.0000 </r>
       <r>   -0.1249    1.0000 </r>
       <r>   -0.1207    1.0000 </r>
       <r>   -0.1091    1.0000 </r>
       <r>   -0.0972    1.0000 </r>
       <r>   -0.0855    1.0000 </r>
       <r>   -0.0588    1.0000 </r>
       <r>   -0.0400    1.0000 </r>
       <r>   -0.0365    1.0000 </r>
       <r>   -0.0029    1.0000 </r>
       <r>    0.0097    1.0000 </r>
       <r>    0.0224    1.0000 </r>
       <r>    0.0349    1.0000 </r>
       <r>    0.0458    1.0000 </r>
       <r>    0.0731    1.0000 </r>
       <r>    0.0993    1.0000 </r>
       <r>    0.1041    1.0000 </r>
       <r>    0.1302    1.0000 </r>
       <r>    0.1474    1.0000 </r>
       <r>    0.1763    1.0000 </r>
       <r>    0.1900    1.0000 </r>
       <r>    0.1952    1.0000 </r>
       <r>    0.2242    1.0000 </r>
       <r>    0.2441    1.0000 </r>
       <r>    0.2596    1.0000 </r>
       <r>    0.2752    1.0000 </r>
       <r>    0.3004    1.0000 </r>
       <r>    0.3299    1.0000 </r>
       <r>    0.3405    1.0000 </r>
       <r>    0.3707    1.0000 </r>
       <r>    0.3976    1.0000 </r>
       <r>    0.4111    1.0000 </r>
       <r>    0.4440    1.0000 </r>
       <r>    0.4657    1.0000 </r>
       <r>    0.4834    1.0001 </r>
       <r>    0.5062    1.0002 </r>
       <r>    0.5275    1.0003 </r>
       <r>    0.5609    1.0010 </r>
       <r>    0.5820    1.0018 </r>
       <r>    0.6024    1.0031 </r>
       <r>    0.6225    1.0051 </r>
       <r>    0.6663    1.0130 </r>
       <r>    0.6847    1.0179 </r>
       <r>    0.7133    1.0265 </r>
       <r>    0.7532    1.0353 </r>
       <r>    0.7666    1.0350 </r>
       <r>    0.8192    0.9949 </r>
       <r>    0.8508    0.9239 </r>
       <r>    0.8762    0.8350 </r>
       <r>    0.8860    0.7933 </r>
       <r>    0.9497    0.4570 </r>
       <r>    0.9710    0.3403 </r>
       <r>    0.9972    0.2114 </r>
       <r>    1.0092    0.1603 </r>
       <r>    1.0391    0.0602 </r>
       <r>    1.0860   -0.0204 </r>
       <r>    1.1207   -0.0353 </r>
       <r>    1.1566   -0.0306 </r>
       <r>    1.1818   -0.0232 </r>
       <r>    1.2179   -0.0130 </r>
       <r>    1.2466   -0.0072 </r>
       <r>    1.2837   -0.0030 </r>
       <r>    1.3342   -0.0007 </r>
       <r>    1.3598   -0.0003 </r>
       <r>    1.4036   -0.0001 </r>
       <r>    1.4420   -0.0000 </r>
       <r>    1.4669   -0.0000 </r>
       <r>    1.4810   -0.0000 </r>
       <r>    1.5175   -0.0000 </r>
       <r>    1.5347   -0.0000 </r>
       <r>    1.5848   -0.0000 </r>
       <r>    1.6276   -0.0000 </r>
       <r>    1.6555   -0.0000 </r>
       <r>    1.6931   -0.0000 </r>
       <r>    1.7032   -0.0000 </r>
       <r>    1.7444   -0.0000 </r>
       <r>    1.7958   -0.0000 </r>
       <r>    1.8073   -0.0000 </r>
       <r>    1.8321   -0.0000 </r>
       <r>    1.8660   -0.0000 </r>
       <r>    1.9102   -0.0000 </r>
       <r>    1.9450   -0.0000 </r>
       <r>    1.9860   -0.0000 </r>
      </set>
      <set comment="kpoint 6">
       <r>  -42.9862    1.0000 </r>
       <r>  -42.8614    1.0000 </r>
       <r>  -42.8337    1.0000 </r>
       <r>  -42.8267    1.0000 </r>
       <r>  -42.8032    1.0000 </r>
       <r>  -42.7835    1.0000 </r>
       <r>  -42.7591    1.0000 </r>
       <r>  -42.7429    1.0000 </r>
       <r>  -42.7077    1.0000 </r>
       <r>  -42.2797    1.0000 </r>
       <r>  -42.1766    1.0000 </r>
       <r>  -42.0689    1.0000 </r>
       <r>  -42.0409    1.0000 </r>
       <r>  -42.0177    1.0000 </r>
       <r>  -42.0022    1.0000 </r>
       <r>  -41.9817    1.0000 </r>
       <r>  -41.9686    1.0000 </r>
       <r>  -41.9321    1.0000 </r>
       <r>  -41.9247    1.0000 </r>
       <r>  -41.8221    1.0000 </r>
       <r>  -41.8174    1.0000 </r>
       <r>  -41.8081    1.0000 </r>
       <r>  -41.7899    1.0000 </r>
       <r>  -41.7823    1.0000 </r>
       <r>  -41.7789    1.0000 </r>
       <r>  -41.7615    1.0000 </r>
       <r>  -41.7469    1.0000 </r>
       <r>  -41.7171    1.0000 </r>
       <r>  -41.7106    1.0000 </r>
       <r>  -41.7050    1.0000 </r>
       <r>  -41.6883    1.0000 </r>
       <r>  -41.6458    1.0000 </r>
       <r>  -41.6238    1.0000 </r>
       <r>  -41.5840    1.0000 </r>
       <r>  -41.5706    1.0000 </r>
       <r>  -41.5341    1.0000 </r>
       <r>  -40.3594    1.0000 </r>
       <r>  -40.3286    1.0000 </r>
       <r>  -40.2813    1.0000 </r>
       <r>  -15.4083    1.0000 </r>
       <r>  -15.4060    1.0000 </r>
       <r>  -15.3747    1.0000 </r>
       <r>  -15.3610    1.0000 </r>
       <r>  -15.3316    1.0000 </r>
       <r>   -7.4447    1.0000 </r>
       <r>   -6.5649    1.0000 </r>
       <r>   -6.4952    1.0000 </r>
       <r>   -5.6916    1.0000 </r>
       <r>   -5.6164    1.0000 </r>
       <r>   -5.5576    1.0000 </r>
       <r>   -5.4454    1.0000 </r>
       <r>   -4.7758    1.0000 </r>
       <r>   -4.6819    1.0000 </r>
       <r>   -4.5291    1.0000 </r>
       <r>   -4.3333    1.0000 </r>
       <r>   -4.1257    1.0000 </r>
       <r>   -4.0818    1.0000 </r>
       <r>   -3.9261    1.0000 </r>
       <r>   -3.8897    1.0000 </r>
       <r>   -3.8810    1.0000 </r>
       <r>   -3.8429    1.0000 </r>
       <r>   -3.8116    1.0000 </r>
       <r>   -3.7739    1.0000 </r>
       <r>   -3.7589    1.0000 </r>
       <r>   -3.7111    1.0000 </r>
       <r>   -3.6837    1.0000 </r>
       <r>   -3.6749    1.0000 </r>
       <r>   -3.6508    1.0000 </r>
       <r>   -3.6426    1.0000 </r>
       <r>   -3.6077    1.0000 </r>
       <r>   -3.5971    1.0000 </r>
       <r>   -3.5699    1.0000 </r>
       <r>   -3.5677    1.0000 </r>
       <r>   -3.5434    1.0000 </r>
       <r>   -3.5427    1.0000 </r>
       <r>   -3.5022    1.0000 </r>
       <r>   -3.4878    1.0000 </r>
       <r>   -3.4637    1.0000 </r>
       <r>   -3.4200    1.0000 </r>
       <r>   -3.3491    1.0000 </r>
       <r>   -3.3355    1.0000 </r>
       <r>   -3.3019    1.0000 </r>
       <r>   -3.2778    1.0000 </r>
       <r>   -3.2708    1.0000 </r>
       <r>   -3.2615    1.0000 </r>
       <r>   -3.2479    1.0000 </r>
       <r>   -3.2267    1.0000 </r>
       <r>   -3.2167    1.0000 </r>
       <r>   -3.2039    1.0000 </r>
       <r>   -3.1926    1.0000 </r>
       <r>   -3.1718    1.0000 </r>
       <r>   -3.1594    1.0000 </r>
       <r>   -3.1489    1.0000 </r>
       <r>   -3.1332    1.0000 </r>
       <r>   -3.1242    1.0000 </r>
       <r>   -3.1095    1.0000 </r>
       <r>   -3.0841    1.0000 </r>
       <r>   -3.0610    1.0000 </r>
       <r>   -3.0357    1.0000 </r>
       <r>   -3.0238    1.0000 </r>
       <r>   -2.9874    1.0000 </r>
       <r>   -2.9659    1.0000 </r>
       <r>   -2.9469    1.0000 </r>
       <r>   -2.9225    1.0000 </r>
       <r>   -2.8983    1.0000 </r>
       <r>   -2.8611    1.0000 </r>
       <r>   -2.8314    1.0000 </r>
       <r>   -2.8034    1.0000 </r>
       <r>   -2.7784    1.0000 </r>
       <r>   -2.7621    1.0000 </r>
       <r>   -2.7569    1.0000 </r>
       <r>   -2.7470    1.0000 </r>
       <r>   -2.7345    1.0000 </r>
       <r>   -2.7196    1.0000 </r>
       <r>   -2.7054    1.0000 </r>
       <r>   -2.6469    1.0000 </r>
       <r>   -2.6399    1.0000 </r>
       <r>   -2.6167    1.0000 </r>
       <r>   -2.6121    1.0000 </r>
       <r>   -2.6021    1.0000 </r>
       <r>   -2.5872    1.0000 </r>
       <r>   -2.5779    1.0000 </r>
       <r>   -2.5505    1.0000 </r>
       <r>   -2.5422    1.0000 </r>
       <r>   -2.5292    1.0000 </r>
       <r>   -2.5220    1.0000 </r>
       <r>   -2.5102    1.0000 </r>
       <r>   -2.5009    1.0000 </r>
       <r>   -2.4802    1.0000 </r>
       <r>   -2.4777    1.0000 </r>
       <r>   -2.4577    1.0000 </r>
       <r>   -2.4444    1.0000 </r>
       <r>   -2.4317    1.0000 </r>
       <r>   -2.4248    1.0000 </r>
       <r>   -2.4154    1.0000 </r>
       <r>   -2.4072    1.0000 </r>
       <r>   -2.3847    1.0000 </r>
       <r>   -2.3695    1.0000 </r>
       <r>   -2.3495    1.0000 </r>
       <r>   -2.3401    1.0000 </r>
       <r>   -2.3235    1.0000 </r>
       <r>   -2.3032    1.0000 </r>
       <r>   -2.2844    1.0000 </r>
       <r>   -2.2709    1.0000 </r>
       <r>   -2.2599    1.0000 </r>
       <r>   -2.2528    1.0000 </r>
       <r>   -2.2315    1.0000 </r>
       <r>   -2.2140    1.0000 </r>
       <r>   -2.2035    1.0000 </r>
       <r>   -2.1857    1.0000 </r>
       <r>   -2.1713    1.0000 </r>
       <r>   -2.1575    1.0000 </r>
       <r>   -2.1513    1.0000 </r>
       <r>   -2.1326    1.0000 </r>
       <r>   -2.1096    1.0000 </r>
       <r>   -2.0866    1.0000 </r>
       <r>   -2.0781    1.0000 </r>
       <r>   -2.0626    1.0000 </r>
       <r>   -2.0422    1.0000 </r>
       <r>   -2.0330    1.0000 </r>
       <r>   -2.0173    1.0000 </r>
       <r>   -2.0027    1.0000 </r>
       <r>   -1.9885    1.0000 </r>
       <r>   -1.9764    1.0000 </r>
       <r>   -1.9695    1.0000 </r>
       <r>   -1.9456    1.0000 </r>
       <r>   -1.9368    1.0000 </r>
       <r>   -1.9257    1.0000 </r>
       <r>   -1.9103    1.0000 </r>
       <r>   -1.9032    1.0000 </r>
       <r>   -1.8926    1.0000 </r>
       <r>   -1.8867    1.0000 </r>
       <r>   -1.8733    1.0000 </r>
       <r>   -1.8638    1.0000 </r>
       <r>   -1.8428    1.0000 </r>
       <r>   -1.8248    1.0000 </r>
       <r>   -1.8064    1.0000 </r>
       <r>   -1.8008    1.0000 </r>
       <r>   -1.7905    1.0000 </r>
       <r>   -1.7787    1.0000 </r>
       <r>   -1.7734    1.0000 </r>
       <r>   -1.7552    1.0000 </r>
       <r>   -1.7435    1.0000 </r>
       <r>   -1.7291    1.0000 </r>
       <r>   -1.7154    1.0000 </r>
       <r>   -1.7015    1.0000 </r>
       <r>   -1.6735    1.0000 </r>
       <r>   -1.6678    1.0000 </r>
       <r>   -1.6510    1.0000 </r>
       <r>   -1.6421    1.0000 </r>
       <r>   -1.6170    1.0000 </r>
       <r>   -1.6059    1.0000 </r>
       <r>   -1.5913    1.0000 </r>
       <r>   -1.5792    1.0000 </r>
       <r>   -1.5503    1.0000 </r>
       <r>   -1.5409    1.0000 </r>
       <r>   -1.5256    1.0000 </r>
       <r>   -1.5136    1.0000 </r>
       <r>   -1.5060    1.0000 </r>
       <r>   -1.5008    1.0000 </r>
       <r>   -1.4722    1.0000 </r>
       <r>   -1.4650    1.0000 </r>
       <r>   -1.4484    1.0000 </r>
       <r>   -1.4345    1.0000 </r>
       <r>   -1.4256    1.0000 </r>
       <r>   -1.4057    1.0000 </r>
       <r>   -1.3956    1.0000 </r>
       <r>   -1.3828    1.0000 </r>
       <r>   -1.3612    1.0000 </r>
       <r>   -1.3540    1.0000 </r>
       <r>   -1.3442    1.0000 </r>
       <r>   -1.3196    1.0000 </r>
       <r>   -1.3006    1.0000 </r>
       <r>   -1.2903    1.0000 </r>
       <r>   -1.2766    1.0000 </r>
       <r>   -1.2366    1.0000 </r>
       <r>   -1.2171    1.0000 </r>
       <r>   -1.2053    1.0000 </r>
       <r>   -1.1799    1.0000 </r>
       <r>   -1.1716    1.0000 </r>
       <r>   -1.1495    1.0000 </r>
       <r>   -1.1340    1.0000 </r>
       <r>   -1.1045    1.0000 </r>
       <r>   -1.0791    1.0000 </r>
       <r>   -1.0510    1.0000 </r>
       <r>   -1.0236    1.0000 </r>
       <r>   -0.9953    1.0000 </r>
       <r>   -0.9796    1.0000 </r>
       <r>   -0.9557    1.0000 </r>
       <r>   -0.9404    1.0000 </r>
       <r>   -0.9262    1.0000 </r>
       <r>   -0.9069    1.0000 </r>
       <r>   -0.8947    1.0000 </r>
       <r>   -0.8634    1.0000 </r>
       <r>   -0.8424    1.0000 </r>
       <r>   -0.8328    1.0000 </r>
       <r>   -0.7980    1.0000 </r>
       <r>   -0.7783    1.0000 </r>
       <r>   -0.7624    1.0000 </r>
       <r>   -0.7455    1.0000 </r>
       <r>   -0.7384    1.0000 </r>
       <r>   -0.7290    1.0000 </r>
       <r>   -0.7042    1.0000 </r>
       <r>   -0.6892    1.0000 </r>
       <r>   -0.6608    1.0000 </r>
       <r>   -0.6474    1.0000 </r>
       <r>   -0.6351    1.0000 </r>
       <r>   -0.6188    1.0000 </r>
       <r>   -0.6065    1.0000 </r>
       <r>   -0.5981    1.0000 </r>
       <r>   -0.5878    1.0000 </r>
       <r>   -0.5742    1.0000 </r>
       <r>   -0.5706    1.0000 </r>
       <r>   -0.5358    1.0000 </r>
       <r>   -0.5292    1.0000 </r>
       <r>   -0.5188    1.0000 </r>
       <r>   -0.5028    1.0000 </r>
       <r>   -0.4900    1.0000 </r>
       <r>   -0.4767    1.0000 </r>
       <r>   -0.4710    1.0000 </r>
       <r>   -0.4556    1.0000 </r>
       <r>   -0.4497    1.0000 </r>
       <r>   -0.4382    1.0000 </r>
       <r>   -0.4311    1.0000 </r>
       <r>   -0.4231    1.0000 </r>
       <r>   -0.4114    1.0000 </r>
       <r>   -0.3999    1.0000 </r>
       <r>   -0.3894    1.0000 </r>
       <r>   -0.3780    1.0000 </r>
       <r>   -0.3719    1.0000 </r>
       <r>   -0.3642    1.0000 </r>
       <r>   -0.3543    1.0000 </r>
       <r>   -0.3377    1.0000 </r>
       <r>   -0.3344    1.0000 </r>
       <r>   -0.3258    1.0000 </r>
       <r>   -0.3155    1.0000 </r>
       <r>   -0.3024    1.0000 </r>
       <r>   -0.2900    1.0000 </r>
       <r>   -0.2864    1.0000 </r>
       <r>   -0.2718    1.0000 </r>
       <r>   -0.2608    1.0000 </r>
       <r>   -0.2471    1.0000 </r>
       <r>   -0.2407    1.0000 </r>
       <r>   -0.2351    1.0000 </r>
       <r>   -0.2208    1.0000 </r>
       <r>   -0.2089    1.0000 </r>
       <r>   -0.1976    1.0000 </r>
       <r>   -0.1880    1.0000 </r>
       <r>   -0.1700    1.0000 </r>
       <r>   -0.1634    1.0000 </r>
       <r>   -0.1541    1.0000 </r>
       <r>   -0.1321    1.0000 </r>
       <r>   -0.1166    1.0000 </r>
       <r>   -0.1071    1.0000 </r>
       <r>   -0.0976    1.0000 </r>
       <r>   -0.0811    1.0000 </r>
       <r>   -0.0753    1.0000 </r>
       <r>   -0.0722    1.0000 </r>
       <r>   -0.0488    1.0000 </r>
       <r>   -0.0245    1.0000 </r>
       <r>   -0.0127    1.0000 </r>
       <r>    0.0067    1.0000 </r>
       <r>    0.0194    1.0000 </r>
       <r>    0.0373    1.0000 </r>
       <r>    0.0613    1.0000 </r>
       <r>    0.0728    1.0000 </r>
       <r>    0.0794    1.0000 </r>
       <r>    0.0957    1.0000 </r>
       <r>    0.1134    1.0000 </r>
       <r>    0.1307    1.0000 </r>
       <r>    0.1656    1.0000 </r>
       <r>    0.1964    1.0000 </r>
       <r>    0.2077    1.0000 </r>
       <r>    0.2245    1.0000 </r>
       <r>    0.2355    1.0000 </r>
       <r>    0.2636    1.0000 </r>
       <r>    0.2796    1.0000 </r>
       <r>    0.2985    1.0000 </r>
       <r>    0.3245    1.0000 </r>
       <r>    0.3353    1.0000 </r>
       <r>    0.3790    1.0000 </r>
       <r>    0.3956    1.0000 </r>
       <r>    0.4282    1.0000 </r>
       <r>    0.4640    1.0000 </r>
       <r>    0.4720    1.0000 </r>
       <r>    0.4856    1.0001 </r>
       <r>    0.5148    1.0002 </r>
       <r>    0.5278    1.0003 </r>
       <r>    0.5353    1.0004 </r>
       <r>    0.5688    1.0012 </r>
       <r>    0.6109    1.0039 </r>
       <r>    0.6649    1.0127 </r>
       <r>    0.6693    1.0137 </r>
       <r>    0.6999    1.0224 </r>
       <r>    0.7415    1.0338 </r>
       <r>    0.7715    1.0341 </r>
       <r>    0.7793    1.0319 </r>
       <r>    0.8123    1.0049 </r>
       <r>    0.8336    0.9677 </r>
       <r>    0.8730    0.8478 </r>
       <r>    0.8905    0.7727 </r>
       <r>    0.9164    0.6428 </r>
       <r>    0.9366    0.5312 </r>
       <r>    0.9879    0.2544 </r>
       <r>    1.0090    0.1609 </r>
       <r>    1.0586    0.0161 </r>
       <r>    1.0784   -0.0129 </r>
       <r>    1.1015   -0.0305 </r>
       <r>    1.1361   -0.0348 </r>
       <r>    1.1729   -0.0259 </r>
       <r>    1.2095   -0.0151 </r>
       <r>    1.2187   -0.0128 </r>
       <r>    1.2674   -0.0045 </r>
       <r>    1.3033   -0.0017 </r>
       <r>    1.3320   -0.0007 </r>
       <r>    1.3696   -0.0002 </r>
       <r>    1.4060   -0.0001 </r>
       <r>    1.4222   -0.0000 </r>
       <r>    1.4504   -0.0000 </r>
       <r>    1.5046   -0.0000 </r>
       <r>    1.5382   -0.0000 </r>
       <r>    1.5594   -0.0000 </r>
       <r>    1.5887   -0.0000 </r>
       <r>    1.6287   -0.0000 </r>
       <r>    1.6481   -0.0000 </r>
       <r>    1.6793   -0.0000 </r>
       <r>    1.6969   -0.0000 </r>
       <r>    1.7447   -0.0000 </r>
       <r>    1.7903   -0.0000 </r>
       <r>    1.8171   -0.0000 </r>
       <r>    1.8374   -0.0000 </r>
       <r>    1.8867   -0.0000 </r>
       <r>    1.9027   -0.0000 </r>
       <r>    1.9581   -0.0000 </r>
       <r>    1.9867   -0.0000 </r>
      </set>
      <set comment="kpoint 7">
       <r>  -42.9862    1.0000 </r>
       <r>  -42.8614    1.0000 </r>
       <r>  -42.8337    1.0000 </r>
       <r>  -42.8267    1.0000 </r>
       <r>  -42.8032    1.0000 </r>
       <r>  -42.7835    1.0000 </r>
       <r>  -42.7591    1.0000 </r>
       <r>  -42.7430    1.0000 </r>
       <r>  -42.7077    1.0000 </r>
       <r>  -42.2791    1.0000 </r>
       <r>  -42.1766    1.0000 </r>
       <r>  -42.0689    1.0000 </r>
       <r>  -42.0409    1.0000 </r>
       <r>  -42.0148    1.0000 </r>
       <r>  -42.0022    1.0000 </r>
       <r>  -41.9817    1.0000 </r>
       <r>  -41.9686    1.0000 </r>
       <r>  -41.9363    1.0000 </r>
       <r>  -41.9279    1.0000 </r>
       <r>  -41.8322    1.0000 </r>
       <r>  -41.8118    1.0000 </r>
       <r>  -41.7969    1.0000 </r>
       <r>  -41.7899    1.0000 </r>
       <r>  -41.7822    1.0000 </r>
       <r>  -41.7788    1.0000 </r>
       <r>  -41.7617    1.0000 </r>
       <r>  -41.7499    1.0000 </r>
       <r>  -41.7171    1.0000 </r>
       <r>  -41.7106    1.0000 </r>
       <r>  -41.7050    1.0000 </r>
       <r>  -41.6883    1.0000 </r>
       <r>  -41.6458    1.0000 </r>
       <r>  -41.6238    1.0000 </r>
       <r>  -41.5839    1.0000 </r>
       <r>  -41.5706    1.0000 </r>
       <r>  -41.5341    1.0000 </r>
       <r>  -40.3594    1.0000 </r>
       <r>  -40.3286    1.0000 </r>
       <r>  -40.2813    1.0000 </r>
       <r>  -15.4083    1.0000 </r>
       <r>  -15.4060    1.0000 </r>
       <r>  -15.3747    1.0000 </r>
       <r>  -15.3610    1.0000 </r>
       <r>  -15.3316    1.0000 </r>
       <r>   -7.4625    1.0000 </r>
       <r>   -6.9208    1.0000 </r>
       <r>   -6.0022    1.0000 </r>
       <r>   -5.9037    1.0000 </r>
       <r>   -5.8615    1.0000 </r>
       <r>   -5.1267    1.0000 </r>
       <r>   -5.0491    1.0000 </r>
       <r>   -4.9905    1.0000 </r>
       <r>   -4.7124    1.0000 </r>
       <r>   -4.3387    1.0000 </r>
       <r>   -4.2964    1.0000 </r>
       <r>   -4.2161    1.0000 </r>
       <r>   -4.1499    1.0000 </r>
       <r>   -4.1013    1.0000 </r>
       <r>   -4.0381    1.0000 </r>
       <r>   -4.0202    1.0000 </r>
       <r>   -3.9291    1.0000 </r>
       <r>   -3.9196    1.0000 </r>
       <r>   -3.9074    1.0000 </r>
       <r>   -3.8788    1.0000 </r>
       <r>   -3.8389    1.0000 </r>
       <r>   -3.7493    1.0000 </r>
       <r>   -3.7313    1.0000 </r>
       <r>   -3.7024    1.0000 </r>
       <r>   -3.6647    1.0000 </r>
       <r>   -3.6470    1.0000 </r>
       <r>   -3.5986    1.0000 </r>
       <r>   -3.5061    1.0000 </r>
       <r>   -3.4531    1.0000 </r>
       <r>   -3.4293    1.0000 </r>
       <r>   -3.4148    1.0000 </r>
       <r>   -3.3912    1.0000 </r>
       <r>   -3.3844    1.0000 </r>
       <r>   -3.3790    1.0000 </r>
       <r>   -3.3667    1.0000 </r>
       <r>   -3.3482    1.0000 </r>
       <r>   -3.3327    1.0000 </r>
       <r>   -3.3224    1.0000 </r>
       <r>   -3.3006    1.0000 </r>
       <r>   -3.2885    1.0000 </r>
       <r>   -3.2753    1.0000 </r>
       <r>   -3.2528    1.0000 </r>
       <r>   -3.2373    1.0000 </r>
       <r>   -3.2199    1.0000 </r>
       <r>   -3.2141    1.0000 </r>
       <r>   -3.2014    1.0000 </r>
       <r>   -3.1722    1.0000 </r>
       <r>   -3.1633    1.0000 </r>
       <r>   -3.1458    1.0000 </r>
       <r>   -3.1349    1.0000 </r>
       <r>   -3.1243    1.0000 </r>
       <r>   -3.0994    1.0000 </r>
       <r>   -3.0747    1.0000 </r>
       <r>   -3.0613    1.0000 </r>
       <r>   -3.0470    1.0000 </r>
       <r>   -3.0375    1.0000 </r>
       <r>   -3.0026    1.0000 </r>
       <r>   -2.9434    1.0000 </r>
       <r>   -2.9059    1.0000 </r>
       <r>   -2.8338    1.0000 </r>
       <r>   -2.8158    1.0000 </r>
       <r>   -2.8089    1.0000 </r>
       <r>   -2.7974    1.0000 </r>
       <r>   -2.7928    1.0000 </r>
       <r>   -2.7651    1.0000 </r>
       <r>   -2.7429    1.0000 </r>
       <r>   -2.7102    1.0000 </r>
       <r>   -2.6933    1.0000 </r>
       <r>   -2.6767    1.0000 </r>
       <r>   -2.6511    1.0000 </r>
       <r>   -2.6381    1.0000 </r>
       <r>   -2.6353    1.0000 </r>
       <r>   -2.6196    1.0000 </r>
       <r>   -2.5983    1.0000 </r>
       <r>   -2.5861    1.0000 </r>
       <r>   -2.5741    1.0000 </r>
       <r>   -2.5711    1.0000 </r>
       <r>   -2.5604    1.0000 </r>
       <r>   -2.5541    1.0000 </r>
       <r>   -2.5426    1.0000 </r>
       <r>   -2.5279    1.0000 </r>
       <r>   -2.5186    1.0000 </r>
       <r>   -2.4971    1.0000 </r>
       <r>   -2.4838    1.0000 </r>
       <r>   -2.4725    1.0000 </r>
       <r>   -2.4648    1.0000 </r>
       <r>   -2.4460    1.0000 </r>
       <r>   -2.4426    1.0000 </r>
       <r>   -2.4268    1.0000 </r>
       <r>   -2.4161    1.0000 </r>
       <r>   -2.3927    1.0000 </r>
       <r>   -2.3784    1.0000 </r>
       <r>   -2.3592    1.0000 </r>
       <r>   -2.3525    1.0000 </r>
       <r>   -2.3286    1.0000 </r>
       <r>   -2.3118    1.0000 </r>
       <r>   -2.3017    1.0000 </r>
       <r>   -2.2908    1.0000 </r>
       <r>   -2.2676    1.0000 </r>
       <r>   -2.2508    1.0000 </r>
       <r>   -2.2375    1.0000 </r>
       <r>   -2.2289    1.0000 </r>
       <r>   -2.2154    1.0000 </r>
       <r>   -2.2030    1.0000 </r>
       <r>   -2.1941    1.0000 </r>
       <r>   -2.1860    1.0000 </r>
       <r>   -2.1687    1.0000 </r>
       <r>   -2.1516    1.0000 </r>
       <r>   -2.1386    1.0000 </r>
       <r>   -2.1160    1.0000 </r>
       <r>   -2.1107    1.0000 </r>
       <r>   -2.0990    1.0000 </r>
       <r>   -2.0845    1.0000 </r>
       <r>   -2.0642    1.0000 </r>
       <r>   -2.0592    1.0000 </r>
       <r>   -2.0403    1.0000 </r>
       <r>   -2.0284    1.0000 </r>
       <r>   -2.0131    1.0000 </r>
       <r>   -1.9988    1.0000 </r>
       <r>   -1.9816    1.0000 </r>
       <r>   -1.9689    1.0000 </r>
       <r>   -1.9606    1.0000 </r>
       <r>   -1.9476    1.0000 </r>
       <r>   -1.9322    1.0000 </r>
       <r>   -1.9226    1.0000 </r>
       <r>   -1.9059    1.0000 </r>
       <r>   -1.8878    1.0000 </r>
       <r>   -1.8752    1.0000 </r>
       <r>   -1.8604    1.0000 </r>
       <r>   -1.8502    1.0000 </r>
       <r>   -1.8271    1.0000 </r>
       <r>   -1.8080    1.0000 </r>
       <r>   -1.8026    1.0000 </r>
       <r>   -1.7884    1.0000 </r>
       <r>   -1.7691    1.0000 </r>
       <r>   -1.7662    1.0000 </r>
       <r>   -1.7506    1.0000 </r>
       <r>   -1.7294    1.0000 </r>
       <r>   -1.7196    1.0000 </r>
       <r>   -1.7092    1.0000 </r>
       <r>   -1.7008    1.0000 </r>
       <r>   -1.6805    1.0000 </r>
       <r>   -1.6766    1.0000 </r>
       <r>   -1.6686    1.0000 </r>
       <r>   -1.6471    1.0000 </r>
       <r>   -1.6325    1.0000 </r>
       <r>   -1.6117    1.0000 </r>
       <r>   -1.6083    1.0000 </r>
       <r>   -1.5929    1.0000 </r>
       <r>   -1.5770    1.0000 </r>
       <r>   -1.5658    1.0000 </r>
       <r>   -1.5513    1.0000 </r>
       <r>   -1.5378    1.0000 </r>
       <r>   -1.5129    1.0000 </r>
       <r>   -1.5101    1.0000 </r>
       <r>   -1.4876    1.0000 </r>
       <r>   -1.4761    1.0000 </r>
       <r>   -1.4631    1.0000 </r>
       <r>   -1.4538    1.0000 </r>
       <r>   -1.4371    1.0000 </r>
       <r>   -1.4343    1.0000 </r>
       <r>   -1.4102    1.0000 </r>
       <r>   -1.4016    1.0000 </r>
       <r>   -1.3891    1.0000 </r>
       <r>   -1.3784    1.0000 </r>
       <r>   -1.3588    1.0000 </r>
       <r>   -1.3455    1.0000 </r>
       <r>   -1.3318    1.0000 </r>
       <r>   -1.3155    1.0000 </r>
       <r>   -1.2999    1.0000 </r>
       <r>   -1.2840    1.0000 </r>
       <r>   -1.2715    1.0000 </r>
       <r>   -1.2445    1.0000 </r>
       <r>   -1.2278    1.0000 </r>
       <r>   -1.2218    1.0000 </r>
       <r>   -1.1936    1.0000 </r>
       <r>   -1.1633    1.0000 </r>
       <r>   -1.1333    1.0000 </r>
       <r>   -1.1166    1.0000 </r>
       <r>   -1.1069    1.0000 </r>
       <r>   -1.0611    1.0000 </r>
       <r>   -1.0497    1.0000 </r>
       <r>   -1.0171    1.0000 </r>
       <r>   -0.9773    1.0000 </r>
       <r>   -0.9694    1.0000 </r>
       <r>   -0.9567    1.0000 </r>
       <r>   -0.9230    1.0000 </r>
       <r>   -0.9081    1.0000 </r>
       <r>   -0.8914    1.0000 </r>
       <r>   -0.8613    1.0000 </r>
       <r>   -0.8381    1.0000 </r>
       <r>   -0.8345    1.0000 </r>
       <r>   -0.8184    1.0000 </r>
       <r>   -0.7907    1.0000 </r>
       <r>   -0.7816    1.0000 </r>
       <r>   -0.7634    1.0000 </r>
       <r>   -0.7441    1.0000 </r>
       <r>   -0.7223    1.0000 </r>
       <r>   -0.7132    1.0000 </r>
       <r>   -0.6966    1.0000 </r>
       <r>   -0.6836    1.0000 </r>
       <r>   -0.6726    1.0000 </r>
       <r>   -0.6613    1.0000 </r>
       <r>   -0.6471    1.0000 </r>
       <r>   -0.6359    1.0000 </r>
       <r>   -0.6215    1.0000 </r>
       <r>   -0.6054    1.0000 </r>
       <r>   -0.5869    1.0000 </r>
       <r>   -0.5727    1.0000 </r>
       <r>   -0.5651    1.0000 </r>
       <r>   -0.5484    1.0000 </r>
       <r>   -0.5459    1.0000 </r>
       <r>   -0.5220    1.0000 </r>
       <r>   -0.5103    1.0000 </r>
       <r>   -0.5005    1.0000 </r>
       <r>   -0.4917    1.0000 </r>
       <r>   -0.4730    1.0000 </r>
       <r>   -0.4657    1.0000 </r>
       <r>   -0.4552    1.0000 </r>
       <r>   -0.4459    1.0000 </r>
       <r>   -0.4325    1.0000 </r>
       <r>   -0.4176    1.0000 </r>
       <r>   -0.4076    1.0000 </r>
       <r>   -0.3942    1.0000 </r>
       <r>   -0.3915    1.0000 </r>
       <r>   -0.3726    1.0000 </r>
       <r>   -0.3574    1.0000 </r>
       <r>   -0.3496    1.0000 </r>
       <r>   -0.3391    1.0000 </r>
       <r>   -0.3267    1.0000 </r>
       <r>   -0.3169    1.0000 </r>
       <r>   -0.3108    1.0000 </r>
       <r>   -0.3050    1.0000 </r>
       <r>   -0.2891    1.0000 </r>
       <r>   -0.2831    1.0000 </r>
       <r>   -0.2756    1.0000 </r>
       <r>   -0.2694    1.0000 </r>
       <r>   -0.2529    1.0000 </r>
       <r>   -0.2449    1.0000 </r>
       <r>   -0.2393    1.0000 </r>
       <r>   -0.2260    1.0000 </r>
       <r>   -0.2181    1.0000 </r>
       <r>   -0.2037    1.0000 </r>
       <r>   -0.1895    1.0000 </r>
       <r>   -0.1739    1.0000 </r>
       <r>   -0.1701    1.0000 </r>
       <r>   -0.1622    1.0000 </r>
       <r>   -0.1500    1.0000 </r>
       <r>   -0.1369    1.0000 </r>
       <r>   -0.1232    1.0000 </r>
       <r>   -0.1127    1.0000 </r>
       <r>   -0.1081    1.0000 </r>
       <r>   -0.0933    1.0000 </r>
       <r>   -0.0725    1.0000 </r>
       <r>   -0.0626    1.0000 </r>
       <r>   -0.0529    1.0000 </r>
       <r>   -0.0286    1.0000 </r>
       <r>   -0.0134    1.0000 </r>
       <r>    0.0023    1.0000 </r>
       <r>    0.0040    1.0000 </r>
       <r>    0.0102    1.0000 </r>
       <r>    0.0485    1.0000 </r>
       <r>    0.0609    1.0000 </r>
       <r>    0.0766    1.0000 </r>
       <r>    0.0903    1.0000 </r>
       <r>    0.1030    1.0000 </r>
       <r>    0.1400    1.0000 </r>
       <r>    0.1603    1.0000 </r>
       <r>    0.1856    1.0000 </r>
       <r>    0.2028    1.0000 </r>
       <r>    0.2359    1.0000 </r>
       <r>    0.2427    1.0000 </r>
       <r>    0.2643    1.0000 </r>
       <r>    0.2851    1.0000 </r>
       <r>    0.2984    1.0000 </r>
       <r>    0.3318    1.0000 </r>
       <r>    0.3453    1.0000 </r>
       <r>    0.3720    1.0000 </r>
       <r>    0.3877    1.0000 </r>
       <r>    0.4179    1.0000 </r>
       <r>    0.4283    1.0000 </r>
       <r>    0.4617    1.0000 </r>
       <r>    0.4917    1.0001 </r>
       <r>    0.5012    1.0001 </r>
       <r>    0.5252    1.0003 </r>
       <r>    0.5486    1.0007 </r>
       <r>    0.5837    1.0019 </r>
       <r>    0.6055    1.0034 </r>
       <r>    0.6324    1.0064 </r>
       <r>    0.6541    1.0103 </r>
       <r>    0.7123    1.0262 </r>
       <r>    0.7404    1.0336 </r>
       <r>    0.7535    1.0353 </r>
       <r>    0.7689    1.0346 </r>
       <r>    0.7963    1.0219 </r>
       <r>    0.8403    0.9523 </r>
       <r>    0.8610    0.8915 </r>
       <r>    0.8894    0.7782 </r>
       <r>    0.9465    0.4755 </r>
       <r>    0.9766    0.3109 </r>
       <r>    1.0027    0.1871 </r>
       <r>    1.0328    0.0779 </r>
       <r>    1.0441    0.0472 </r>
       <r>    1.0972   -0.0283 </r>
       <r>    1.1119   -0.0340 </r>
       <r>    1.1455   -0.0332 </r>
       <r>    1.1891   -0.0209 </r>
       <r>    1.2028   -0.0169 </r>
       <r>    1.2652   -0.0047 </r>
       <r>    1.2752   -0.0037 </r>
       <r>    1.3253   -0.0009 </r>
       <r>    1.3706   -0.0002 </r>
       <r>    1.4102   -0.0000 </r>
       <r>    1.4352   -0.0000 </r>
       <r>    1.4765   -0.0000 </r>
       <r>    1.5089   -0.0000 </r>
       <r>    1.5424   -0.0000 </r>
       <r>    1.5813   -0.0000 </r>
       <r>    1.5979   -0.0000 </r>
       <r>    1.6220   -0.0000 </r>
       <r>    1.6780   -0.0000 </r>
       <r>    1.7021   -0.0000 </r>
       <r>    1.7084   -0.0000 </r>
       <r>    1.7644   -0.0000 </r>
       <r>    1.7813   -0.0000 </r>
       <r>    1.8255   -0.0000 </r>
       <r>    1.8363   -0.0000 </r>
       <r>    1.8614   -0.0000 </r>
       <r>    1.9008   -0.0000 </r>
       <r>    1.9341   -0.0000 </r>
       <r>    1.9635   -0.0000 </r>
      </set>
      <set comment="kpoint 8">
       <r>  -42.9862    1.0000 </r>
       <r>  -42.8615    1.0000 </r>
       <r>  -42.8337    1.0000 </r>
       <r>  -42.8267    1.0000 </r>
       <r>  -42.8032    1.0000 </r>
       <r>  -42.7835    1.0000 </r>
       <r>  -42.7591    1.0000 </r>
       <r>  -42.7430    1.0000 </r>
       <r>  -42.7077    1.0000 </r>
       <r>  -42.2786    1.0000 </r>
       <r>  -42.1766    1.0000 </r>
       <r>  -42.0690    1.0000 </r>
       <r>  -42.0408    1.0000 </r>
       <r>  -42.0114    1.0000 </r>
       <r>  -42.0022    1.0000 </r>
       <r>  -41.9817    1.0000 </r>
       <r>  -41.9686    1.0000 </r>
       <r>  -41.9431    1.0000 </r>
       <r>  -41.9288    1.0000 </r>
       <r>  -41.8358    1.0000 </r>
       <r>  -41.8114    1.0000 </r>
       <r>  -41.7902    1.0000 </r>
       <r>  -41.7862    1.0000 </r>
       <r>  -41.7813    1.0000 </r>
       <r>  -41.7787    1.0000 </r>
       <r>  -41.7624    1.0000 </r>
       <r>  -41.7539    1.0000 </r>
       <r>  -41.7171    1.0000 </r>
       <r>  -41.7106    1.0000 </r>
       <r>  -41.7051    1.0000 </r>
       <r>  -41.6883    1.0000 </r>
       <r>  -41.6458    1.0000 </r>
       <r>  -41.6237    1.0000 </r>
       <r>  -41.5839    1.0000 </r>
       <r>  -41.5706    1.0000 </r>
       <r>  -41.5341    1.0000 </r>
       <r>  -40.3594    1.0000 </r>
       <r>  -40.3287    1.0000 </r>
       <r>  -40.2813    1.0000 </r>
       <r>  -15.4083    1.0000 </r>
       <r>  -15.4060    1.0000 </r>
       <r>  -15.3747    1.0000 </r>
       <r>  -15.3610    1.0000 </r>
       <r>  -15.3316    1.0000 </r>
       <r>   -7.4546    1.0000 </r>
       <r>   -6.7059    1.0000 </r>
       <r>   -6.6287    1.0000 </r>
       <r>   -5.8096    1.0000 </r>
       <r>   -5.6462    1.0000 </r>
       <r>   -4.8955    1.0000 </r>
       <r>   -4.8097    1.0000 </r>
       <r>   -4.7971    1.0000 </r>
       <r>   -4.7732    1.0000 </r>
       <r>   -4.6127    1.0000 </r>
       <r>   -4.4893    1.0000 </r>
       <r>   -4.2193    1.0000 </r>
       <r>   -4.1591    1.0000 </r>
       <r>   -4.1163    1.0000 </r>
       <r>   -4.0968    1.0000 </r>
       <r>   -4.0088    1.0000 </r>
       <r>   -3.9883    1.0000 </r>
       <r>   -3.8113    1.0000 </r>
       <r>   -3.7775    1.0000 </r>
       <r>   -3.7403    1.0000 </r>
       <r>   -3.7319    1.0000 </r>
       <r>   -3.7047    1.0000 </r>
       <r>   -3.6967    1.0000 </r>
       <r>   -3.6805    1.0000 </r>
       <r>   -3.6675    1.0000 </r>
       <r>   -3.6609    1.0000 </r>
       <r>   -3.6453    1.0000 </r>
       <r>   -3.6237    1.0000 </r>
       <r>   -3.6164    1.0000 </r>
       <r>   -3.6054    1.0000 </r>
       <r>   -3.5903    1.0000 </r>
       <r>   -3.5867    1.0000 </r>
       <r>   -3.5702    1.0000 </r>
       <r>   -3.4233    1.0000 </r>
       <r>   -3.3808    1.0000 </r>
       <r>   -3.3256    1.0000 </r>
       <r>   -3.3223    1.0000 </r>
       <r>   -3.2973    1.0000 </r>
       <r>   -3.2783    1.0000 </r>
       <r>   -3.2537    1.0000 </r>
       <r>   -3.2420    1.0000 </r>
       <r>   -3.2204    1.0000 </r>
       <r>   -3.1984    1.0000 </r>
       <r>   -3.1900    1.0000 </r>
       <r>   -3.1588    1.0000 </r>
       <r>   -3.1386    1.0000 </r>
       <r>   -3.1178    1.0000 </r>
       <r>   -3.1032    1.0000 </r>
       <r>   -3.0960    1.0000 </r>
       <r>   -3.0917    1.0000 </r>
       <r>   -3.0605    1.0000 </r>
       <r>   -3.0502    1.0000 </r>
       <r>   -3.0371    1.0000 </r>
       <r>   -3.0258    1.0000 </r>
       <r>   -3.0121    1.0000 </r>
       <r>   -2.9921    1.0000 </r>
       <r>   -2.9596    1.0000 </r>
       <r>   -2.9525    1.0000 </r>
       <r>   -2.9012    1.0000 </r>
       <r>   -2.8989    1.0000 </r>
       <r>   -2.8539    1.0000 </r>
       <r>   -2.8467    1.0000 </r>
       <r>   -2.8354    1.0000 </r>
       <r>   -2.8137    1.0000 </r>
       <r>   -2.8004    1.0000 </r>
       <r>   -2.7868    1.0000 </r>
       <r>   -2.7761    1.0000 </r>
       <r>   -2.7495    1.0000 </r>
       <r>   -2.7316    1.0000 </r>
       <r>   -2.7135    1.0000 </r>
       <r>   -2.6781    1.0000 </r>
       <r>   -2.6614    1.0000 </r>
       <r>   -2.6398    1.0000 </r>
       <r>   -2.6334    1.0000 </r>
       <r>   -2.6182    1.0000 </r>
       <r>   -2.6019    1.0000 </r>
       <r>   -2.5878    1.0000 </r>
       <r>   -2.5630    1.0000 </r>
       <r>   -2.5548    1.0000 </r>
       <r>   -2.5412    1.0000 </r>
       <r>   -2.5083    1.0000 </r>
       <r>   -2.5039    1.0000 </r>
       <r>   -2.4863    1.0000 </r>
       <r>   -2.4680    1.0000 </r>
       <r>   -2.4628    1.0000 </r>
       <r>   -2.4548    1.0000 </r>
       <r>   -2.4402    1.0000 </r>
       <r>   -2.4374    1.0000 </r>
       <r>   -2.4209    1.0000 </r>
       <r>   -2.4076    1.0000 </r>
       <r>   -2.3772    1.0000 </r>
       <r>   -2.3709    1.0000 </r>
       <r>   -2.3548    1.0000 </r>
       <r>   -2.3510    1.0000 </r>
       <r>   -2.3399    1.0000 </r>
       <r>   -2.3175    1.0000 </r>
       <r>   -2.2968    1.0000 </r>
       <r>   -2.2925    1.0000 </r>
       <r>   -2.2682    1.0000 </r>
       <r>   -2.2513    1.0000 </r>
       <r>   -2.2411    1.0000 </r>
       <r>   -2.2192    1.0000 </r>
       <r>   -2.2087    1.0000 </r>
       <r>   -2.2049    1.0000 </r>
       <r>   -2.1866    1.0000 </r>
       <r>   -2.1694    1.0000 </r>
       <r>   -2.1460    1.0000 </r>
       <r>   -2.1206    1.0000 </r>
       <r>   -2.1028    1.0000 </r>
       <r>   -2.0956    1.0000 </r>
       <r>   -2.0813    1.0000 </r>
       <r>   -2.0651    1.0000 </r>
       <r>   -2.0541    1.0000 </r>
       <r>   -2.0412    1.0000 </r>
       <r>   -2.0306    1.0000 </r>
       <r>   -2.0038    1.0000 </r>
       <r>   -1.9966    1.0000 </r>
       <r>   -1.9759    1.0000 </r>
       <r>   -1.9694    1.0000 </r>
       <r>   -1.9614    1.0000 </r>
       <r>   -1.9461    1.0000 </r>
       <r>   -1.9318    1.0000 </r>
       <r>   -1.9162    1.0000 </r>
       <r>   -1.9042    1.0000 </r>
       <r>   -1.8976    1.0000 </r>
       <r>   -1.8876    1.0000 </r>
       <r>   -1.8731    1.0000 </r>
       <r>   -1.8573    1.0000 </r>
       <r>   -1.8493    1.0000 </r>
       <r>   -1.8452    1.0000 </r>
       <r>   -1.8162    1.0000 </r>
       <r>   -1.8089    1.0000 </r>
       <r>   -1.7852    1.0000 </r>
       <r>   -1.7754    1.0000 </r>
       <r>   -1.7503    1.0000 </r>
       <r>   -1.7460    1.0000 </r>
       <r>   -1.7331    1.0000 </r>
       <r>   -1.7257    1.0000 </r>
       <r>   -1.7184    1.0000 </r>
       <r>   -1.6973    1.0000 </r>
       <r>   -1.6833    1.0000 </r>
       <r>   -1.6737    1.0000 </r>
       <r>   -1.6672    1.0000 </r>
       <r>   -1.6474    1.0000 </r>
       <r>   -1.6393    1.0000 </r>
       <r>   -1.6242    1.0000 </r>
       <r>   -1.6053    1.0000 </r>
       <r>   -1.5918    1.0000 </r>
       <r>   -1.5821    1.0000 </r>
       <r>   -1.5713    1.0000 </r>
       <r>   -1.5577    1.0000 </r>
       <r>   -1.5464    1.0000 </r>
       <r>   -1.5281    1.0000 </r>
       <r>   -1.5222    1.0000 </r>
       <r>   -1.5178    1.0000 </r>
       <r>   -1.4971    1.0000 </r>
       <r>   -1.4881    1.0000 </r>
       <r>   -1.4835    1.0000 </r>
       <r>   -1.4775    1.0000 </r>
       <r>   -1.4504    1.0000 </r>
       <r>   -1.4350    1.0000 </r>
       <r>   -1.4264    1.0000 </r>
       <r>   -1.4033    1.0000 </r>
       <r>   -1.3809    1.0000 </r>
       <r>   -1.3727    1.0000 </r>
       <r>   -1.3537    1.0000 </r>
       <r>   -1.3264    1.0000 </r>
       <r>   -1.3241    1.0000 </r>
       <r>   -1.3022    1.0000 </r>
       <r>   -1.2853    1.0000 </r>
       <r>   -1.2659    1.0000 </r>
       <r>   -1.2538    1.0000 </r>
       <r>   -1.2491    1.0000 </r>
       <r>   -1.2385    1.0000 </r>
       <r>   -1.2247    1.0000 </r>
       <r>   -1.2101    1.0000 </r>
       <r>   -1.1881    1.0000 </r>
       <r>   -1.1814    1.0000 </r>
       <r>   -1.1731    1.0000 </r>
       <r>   -1.1429    1.0000 </r>
       <r>   -1.1144    1.0000 </r>
       <r>   -1.0874    1.0000 </r>
       <r>   -1.0806    1.0000 </r>
       <r>   -1.0497    1.0000 </r>
       <r>   -1.0207    1.0000 </r>
       <r>   -1.0115    1.0000 </r>
       <r>   -1.0084    1.0000 </r>
       <r>   -0.9586    1.0000 </r>
       <r>   -0.9436    1.0000 </r>
       <r>   -0.9166    1.0000 </r>
       <r>   -0.8871    1.0000 </r>
       <r>   -0.8373    1.0000 </r>
       <r>   -0.8297    1.0000 </r>
       <r>   -0.8025    1.0000 </r>
       <r>   -0.7852    1.0000 </r>
       <r>   -0.7603    1.0000 </r>
       <r>   -0.7286    1.0000 </r>
       <r>   -0.7267    1.0000 </r>
       <r>   -0.7136    1.0000 </r>
       <r>   -0.6980    1.0000 </r>
       <r>   -0.6904    1.0000 </r>
       <r>   -0.6751    1.0000 </r>
       <r>   -0.6618    1.0000 </r>
       <r>   -0.6378    1.0000 </r>
       <r>   -0.6251    1.0000 </r>
       <r>   -0.6116    1.0000 </r>
       <r>   -0.6068    1.0000 </r>
       <r>   -0.5948    1.0000 </r>
       <r>   -0.5823    1.0000 </r>
       <r>   -0.5769    1.0000 </r>
       <r>   -0.5609    1.0000 </r>
       <r>   -0.5432    1.0000 </r>
       <r>   -0.5333    1.0000 </r>
       <r>   -0.5202    1.0000 </r>
       <r>   -0.5121    1.0000 </r>
       <r>   -0.5019    1.0000 </r>
       <r>   -0.4883    1.0000 </r>
       <r>   -0.4826    1.0000 </r>
       <r>   -0.4725    1.0000 </r>
       <r>   -0.4573    1.0000 </r>
       <r>   -0.4430    1.0000 </r>
       <r>   -0.4392    1.0000 </r>
       <r>   -0.4264    1.0000 </r>
       <r>   -0.4106    1.0000 </r>
       <r>   -0.4018    1.0000 </r>
       <r>   -0.3886    1.0000 </r>
       <r>   -0.3784    1.0000 </r>
       <r>   -0.3667    1.0000 </r>
       <r>   -0.3487    1.0000 </r>
       <r>   -0.3463    1.0000 </r>
       <r>   -0.3384    1.0000 </r>
       <r>   -0.3283    1.0000 </r>
       <r>   -0.3161    1.0000 </r>
       <r>   -0.3011    1.0000 </r>
       <r>   -0.2939    1.0000 </r>
       <r>   -0.2831    1.0000 </r>
       <r>   -0.2735    1.0000 </r>
       <r>   -0.2644    1.0000 </r>
       <r>   -0.2492    1.0000 </r>
       <r>   -0.2382    1.0000 </r>
       <r>   -0.2284    1.0000 </r>
       <r>   -0.2132    1.0000 </r>
       <r>   -0.1945    1.0000 </r>
       <r>   -0.1929    1.0000 </r>
       <r>   -0.1753    1.0000 </r>
       <r>   -0.1598    1.0000 </r>
       <r>   -0.1448    1.0000 </r>
       <r>   -0.1328    1.0000 </r>
       <r>   -0.1296    1.0000 </r>
       <r>   -0.1177    1.0000 </r>
       <r>   -0.1026    1.0000 </r>
       <r>   -0.0939    1.0000 </r>
       <r>   -0.0835    1.0000 </r>
       <r>   -0.0778    1.0000 </r>
       <r>   -0.0579    1.0000 </r>
       <r>   -0.0531    1.0000 </r>
       <r>   -0.0200    1.0000 </r>
       <r>   -0.0194    1.0000 </r>
       <r>    0.0024    1.0000 </r>
       <r>    0.0078    1.0000 </r>
       <r>    0.0251    1.0000 </r>
       <r>    0.0573    1.0000 </r>
       <r>    0.0711    1.0000 </r>
       <r>    0.0953    1.0000 </r>
       <r>    0.1208    1.0000 </r>
       <r>    0.1434    1.0000 </r>
       <r>    0.1546    1.0000 </r>
       <r>    0.1646    1.0000 </r>
       <r>    0.1919    1.0000 </r>
       <r>    0.2408    1.0000 </r>
       <r>    0.2603    1.0000 </r>
       <r>    0.2897    1.0000 </r>
       <r>    0.3046    1.0000 </r>
       <r>    0.3081    1.0000 </r>
       <r>    0.3332    1.0000 </r>
       <r>    0.3536    1.0000 </r>
       <r>    0.3644    1.0000 </r>
       <r>    0.4031    1.0000 </r>
       <r>    0.4269    1.0000 </r>
       <r>    0.4513    1.0000 </r>
       <r>    0.4797    1.0001 </r>
       <r>    0.4921    1.0001 </r>
       <r>    0.5145    1.0002 </r>
       <r>    0.5427    1.0005 </r>
       <r>    0.5497    1.0007 </r>
       <r>    0.5992    1.0029 </r>
       <r>    0.6125    1.0040 </r>
       <r>    0.6469    1.0089 </r>
       <r>    0.6633    1.0123 </r>
       <r>    0.6956    1.0211 </r>
       <r>    0.7272    1.0305 </r>
       <r>    0.7545    1.0354 </r>
       <r>    0.7732    1.0337 </r>
       <r>    0.8031    1.0158 </r>
       <r>    0.8119    1.0054 </r>
       <r>    0.8467    0.9355 </r>
       <r>    0.8848    0.7984 </r>
       <r>    0.9088    0.6831 </r>
       <r>    0.9453    0.4818 </r>
       <r>    1.0059    0.1738 </r>
       <r>    1.0296    0.0876 </r>
       <r>    1.0483    0.0374 </r>
       <r>    1.0595    0.0144 </r>
       <r>    1.1117   -0.0339 </r>
       <r>    1.1489   -0.0325 </r>
       <r>    1.1584   -0.0301 </r>
       <r>    1.1846   -0.0223 </r>
       <r>    1.2566   -0.0058 </r>
       <r>    1.2973   -0.0020 </r>
       <r>    1.3397   -0.0006 </r>
       <r>    1.3715   -0.0002 </r>
       <r>    1.4021   -0.0001 </r>
       <r>    1.4212   -0.0000 </r>
       <r>    1.4361   -0.0000 </r>
       <r>    1.4721   -0.0000 </r>
       <r>    1.5234   -0.0000 </r>
       <r>    1.5376   -0.0000 </r>
       <r>    1.5868   -0.0000 </r>
       <r>    1.6113   -0.0000 </r>
       <r>    1.6240   -0.0000 </r>
       <r>    1.6834   -0.0000 </r>
       <r>    1.7032   -0.0000 </r>
       <r>    1.7297   -0.0000 </r>
       <r>    1.7458   -0.0000 </r>
       <r>    1.7761   -0.0000 </r>
       <r>    1.8023   -0.0000 </r>
       <r>    1.8384   -0.0000 </r>
       <r>    1.8873   -0.0000 </r>
       <r>    1.8926   -0.0000 </r>
       <r>    1.9104   -0.0000 </r>
       <r>    1.9332   -0.0000 </r>
      </set>
      <set comment="kpoint 9">
       <r>  -42.9861    1.0000 </r>
       <r>  -42.8614    1.0000 </r>
       <r>  -42.8337    1.0000 </r>
       <r>  -42.8267    1.0000 </r>
       <r>  -42.8032    1.0000 </r>
       <r>  -42.7835    1.0000 </r>
       <r>  -42.7591    1.0000 </r>
       <r>  -42.7430    1.0000 </r>
       <r>  -42.7077    1.0000 </r>
       <r>  -42.2791    1.0000 </r>
       <r>  -42.1766    1.0000 </r>
       <r>  -42.0689    1.0000 </r>
       <r>  -42.0409    1.0000 </r>
       <r>  -42.0148    1.0000 </r>
       <r>  -42.0021    1.0000 </r>
       <r>  -41.9817    1.0000 </r>
       <r>  -41.9686    1.0000 </r>
       <r>  -41.9363    1.0000 </r>
       <r>  -41.9279    1.0000 </r>
       <r>  -41.8322    1.0000 </r>
       <r>  -41.8118    1.0000 </r>
       <r>  -41.7969    1.0000 </r>
       <r>  -41.7899    1.0000 </r>
       <r>  -41.7822    1.0000 </r>
       <r>  -41.7788    1.0000 </r>
       <r>  -41.7617    1.0000 </r>
       <r>  -41.7499    1.0000 </r>
       <r>  -41.7171    1.0000 </r>
       <r>  -41.7106    1.0000 </r>
       <r>  -41.7050    1.0000 </r>
       <r>  -41.6883    1.0000 </r>
       <r>  -41.6458    1.0000 </r>
       <r>  -41.6238    1.0000 </r>
       <r>  -41.5839    1.0000 </r>
       <r>  -41.5706    1.0000 </r>
       <r>  -41.5341    1.0000 </r>
       <r>  -40.3594    1.0000 </r>
       <r>  -40.3286    1.0000 </r>
       <r>  -40.2813    1.0000 </r>
       <r>  -15.4083    1.0000 </r>
       <r>  -15.4060    1.0000 </r>
       <r>  -15.3747    1.0000 </r>
       <r>  -15.3610    1.0000 </r>
       <r>  -15.3316    1.0000 </r>
       <r>   -7.4441    1.0000 </r>
       <r>   -6.5714    1.0000 </r>
       <r>   -6.4999    1.0000 </r>
       <r>   -5.6929    1.0000 </r>
       <r>   -5.5707    1.0000 </r>
       <r>   -5.5406    1.0000 </r>
       <r>   -5.5009    1.0000 </r>
       <r>   -4.7732    1.0000 </r>
       <r>   -4.6744    1.0000 </r>
       <r>   -4.4877    1.0000 </r>
       <r>   -4.3987    1.0000 </r>
       <r>   -4.1194    1.0000 </r>
       <r>   -4.0836    1.0000 </r>
       <r>   -3.9278    1.0000 </r>
       <r>   -3.8917    1.0000 </r>
       <r>   -3.8490    1.0000 </r>
       <r>   -3.8302    1.0000 </r>
       <r>   -3.8092    1.0000 </r>
       <r>   -3.7868    1.0000 </r>
       <r>   -3.7604    1.0000 </r>
       <r>   -3.7124    1.0000 </r>
       <r>   -3.6971    1.0000 </r>
       <r>   -3.6882    1.0000 </r>
       <r>   -3.6549    1.0000 </r>
       <r>   -3.6307    1.0000 </r>
       <r>   -3.6108    1.0000 </r>
       <r>   -3.5996    1.0000 </r>
       <r>   -3.5860    1.0000 </r>
       <r>   -3.5783    1.0000 </r>
       <r>   -3.5597    1.0000 </r>
       <r>   -3.5426    1.0000 </r>
       <r>   -3.5175    1.0000 </r>
       <r>   -3.5084    1.0000 </r>
       <r>   -3.4104    1.0000 </r>
       <r>   -3.3810    1.0000 </r>
       <r>   -3.3420    1.0000 </r>
       <r>   -3.3177    1.0000 </r>
       <r>   -3.3062    1.0000 </r>
       <r>   -3.2767    1.0000 </r>
       <r>   -3.2645    1.0000 </r>
       <r>   -3.2552    1.0000 </r>
       <r>   -3.2443    1.0000 </r>
       <r>   -3.2324    1.0000 </r>
       <r>   -3.2203    1.0000 </r>
       <r>   -3.2011    1.0000 </r>
       <r>   -3.1799    1.0000 </r>
       <r>   -3.1658    1.0000 </r>
       <r>   -3.1577    1.0000 </r>
       <r>   -3.1472    1.0000 </r>
       <r>   -3.1311    1.0000 </r>
       <r>   -3.1231    1.0000 </r>
       <r>   -3.1012    1.0000 </r>
       <r>   -3.0844    1.0000 </r>
       <r>   -3.0711    1.0000 </r>
       <r>   -3.0454    1.0000 </r>
       <r>   -3.0232    1.0000 </r>
       <r>   -2.9958    1.0000 </r>
       <r>   -2.9831    1.0000 </r>
       <r>   -2.9583    1.0000 </r>
       <r>   -2.9153    1.0000 </r>
       <r>   -2.8875    1.0000 </r>
       <r>   -2.8613    1.0000 </r>
       <r>   -2.8492    1.0000 </r>
       <r>   -2.8279    1.0000 </r>
       <r>   -2.8139    1.0000 </r>
       <r>   -2.7792    1.0000 </r>
       <r>   -2.7438    1.0000 </r>
       <r>   -2.7270    1.0000 </r>
       <r>   -2.7168    1.0000 </r>
       <r>   -2.6996    1.0000 </r>
       <r>   -2.6780    1.0000 </r>
       <r>   -2.6417    1.0000 </r>
       <r>   -2.6357    1.0000 </r>
       <r>   -2.6174    1.0000 </r>
       <r>   -2.6089    1.0000 </r>
       <r>   -2.6016    1.0000 </r>
       <r>   -2.5902    1.0000 </r>
       <r>   -2.5750    1.0000 </r>
       <r>   -2.5672    1.0000 </r>
       <r>   -2.5625    1.0000 </r>
       <r>   -2.5420    1.0000 </r>
       <r>   -2.5302    1.0000 </r>
       <r>   -2.5230    1.0000 </r>
       <r>   -2.5112    1.0000 </r>
       <r>   -2.4892    1.0000 </r>
       <r>   -2.4876    1.0000 </r>
       <r>   -2.4696    1.0000 </r>
       <r>   -2.4544    1.0000 </r>
       <r>   -2.4370    1.0000 </r>
       <r>   -2.4291    1.0000 </r>
       <r>   -2.4102    1.0000 </r>
       <r>   -2.4000    1.0000 </r>
       <r>   -2.3829    1.0000 </r>
       <r>   -2.3751    1.0000 </r>
       <r>   -2.3536    1.0000 </r>
       <r>   -2.3314    1.0000 </r>
       <r>   -2.3127    1.0000 </r>
       <r>   -2.3083    1.0000 </r>
       <r>   -2.2878    1.0000 </r>
       <r>   -2.2816    1.0000 </r>
       <r>   -2.2503    1.0000 </r>
       <r>   -2.2480    1.0000 </r>
       <r>   -2.2367    1.0000 </r>
       <r>   -2.2244    1.0000 </r>
       <r>   -2.2170    1.0000 </r>
       <r>   -2.1783    1.0000 </r>
       <r>   -2.1646    1.0000 </r>
       <r>   -2.1515    1.0000 </r>
       <r>   -2.1444    1.0000 </r>
       <r>   -2.1350    1.0000 </r>
       <r>   -2.1084    1.0000 </r>
       <r>   -2.0962    1.0000 </r>
       <r>   -2.0817    1.0000 </r>
       <r>   -2.0640    1.0000 </r>
       <r>   -2.0465    1.0000 </r>
       <r>   -2.0261    1.0000 </r>
       <r>   -2.0147    1.0000 </r>
       <r>   -2.0000    1.0000 </r>
       <r>   -1.9862    1.0000 </r>
       <r>   -1.9718    1.0000 </r>
       <r>   -1.9514    1.0000 </r>
       <r>   -1.9426    1.0000 </r>
       <r>   -1.9338    1.0000 </r>
       <r>   -1.9171    1.0000 </r>
       <r>   -1.9086    1.0000 </r>
       <r>   -1.8872    1.0000 </r>
       <r>   -1.8773    1.0000 </r>
       <r>   -1.8669    1.0000 </r>
       <r>   -1.8616    1.0000 </r>
       <r>   -1.8453    1.0000 </r>
       <r>   -1.8371    1.0000 </r>
       <r>   -1.8294    1.0000 </r>
       <r>   -1.8089    1.0000 </r>
       <r>   -1.8003    1.0000 </r>
       <r>   -1.7894    1.0000 </r>
       <r>   -1.7756    1.0000 </r>
       <r>   -1.7595    1.0000 </r>
       <r>   -1.7475    1.0000 </r>
       <r>   -1.7296    1.0000 </r>
       <r>   -1.7226    1.0000 </r>
       <r>   -1.6985    1.0000 </r>
       <r>   -1.6924    1.0000 </r>
       <r>   -1.6848    1.0000 </r>
       <r>   -1.6715    1.0000 </r>
       <r>   -1.6569    1.0000 </r>
       <r>   -1.6435    1.0000 </r>
       <r>   -1.6181    1.0000 </r>
       <r>   -1.6079    1.0000 </r>
       <r>   -1.5921    1.0000 </r>
       <r>   -1.5837    1.0000 </r>
       <r>   -1.5684    1.0000 </r>
       <r>   -1.5567    1.0000 </r>
       <r>   -1.5359    1.0000 </r>
       <r>   -1.5227    1.0000 </r>
       <r>   -1.5121    1.0000 </r>
       <r>   -1.4978    1.0000 </r>
       <r>   -1.4873    1.0000 </r>
       <r>   -1.4671    1.0000 </r>
       <r>   -1.4537    1.0000 </r>
       <r>   -1.4310    1.0000 </r>
       <r>   -1.4173    1.0000 </r>
       <r>   -1.3959    1.0000 </r>
       <r>   -1.3807    1.0000 </r>
       <r>   -1.3727    1.0000 </r>
       <r>   -1.3668    1.0000 </r>
       <r>   -1.3527    1.0000 </r>
       <r>   -1.3299    1.0000 </r>
       <r>   -1.3229    1.0000 </r>
       <r>   -1.2998    1.0000 </r>
       <r>   -1.2834    1.0000 </r>
       <r>   -1.2568    1.0000 </r>
       <r>   -1.2478    1.0000 </r>
       <r>   -1.2356    1.0000 </r>
       <r>   -1.2138    1.0000 </r>
       <r>   -1.1930    1.0000 </r>
       <r>   -1.1647    1.0000 </r>
       <r>   -1.1533    1.0000 </r>
       <r>   -1.1380    1.0000 </r>
       <r>   -1.0911    1.0000 </r>
       <r>   -1.0825    1.0000 </r>
       <r>   -1.0523    1.0000 </r>
       <r>   -1.0319    1.0000 </r>
       <r>   -1.0086    1.0000 </r>
       <r>   -0.9768    1.0000 </r>
       <r>   -0.9551    1.0000 </r>
       <r>   -0.9394    1.0000 </r>
       <r>   -0.9073    1.0000 </r>
       <r>   -0.8879    1.0000 </r>
       <r>   -0.8728    1.0000 </r>
       <r>   -0.8635    1.0000 </r>
       <r>   -0.8523    1.0000 </r>
       <r>   -0.8330    1.0000 </r>
       <r>   -0.8162    1.0000 </r>
       <r>   -0.7881    1.0000 </r>
       <r>   -0.7733    1.0000 </r>
       <r>   -0.7633    1.0000 </r>
       <r>   -0.7280    1.0000 </r>
       <r>   -0.6977    1.0000 </r>
       <r>   -0.6849    1.0000 </r>
       <r>   -0.6749    1.0000 </r>
       <r>   -0.6524    1.0000 </r>
       <r>   -0.6431    1.0000 </r>
       <r>   -0.6328    1.0000 </r>
       <r>   -0.6168    1.0000 </r>
       <r>   -0.6161    1.0000 </r>
       <r>   -0.5886    1.0000 </r>
       <r>   -0.5741    1.0000 </r>
       <r>   -0.5668    1.0000 </r>
       <r>   -0.5577    1.0000 </r>
       <r>   -0.5470    1.0000 </r>
       <r>   -0.5347    1.0000 </r>
       <r>   -0.5244    1.0000 </r>
       <r>   -0.5051    1.0000 </r>
       <r>   -0.4981    1.0000 </r>
       <r>   -0.4875    1.0000 </r>
       <r>   -0.4772    1.0000 </r>
       <r>   -0.4680    1.0000 </r>
       <r>   -0.4568    1.0000 </r>
       <r>   -0.4516    1.0000 </r>
       <r>   -0.4315    1.0000 </r>
       <r>   -0.4233    1.0000 </r>
       <r>   -0.4116    1.0000 </r>
       <r>   -0.4045    1.0000 </r>
       <r>   -0.3980    1.0000 </r>
       <r>   -0.3894    1.0000 </r>
       <r>   -0.3756    1.0000 </r>
       <r>   -0.3680    1.0000 </r>
       <r>   -0.3528    1.0000 </r>
       <r>   -0.3409    1.0000 </r>
       <r>   -0.3377    1.0000 </r>
       <r>   -0.3144    1.0000 </r>
       <r>   -0.3073    1.0000 </r>
       <r>   -0.2956    1.0000 </r>
       <r>   -0.2899    1.0000 </r>
       <r>   -0.2785    1.0000 </r>
       <r>   -0.2750    1.0000 </r>
       <r>   -0.2657    1.0000 </r>
       <r>   -0.2491    1.0000 </r>
       <r>   -0.2371    1.0000 </r>
       <r>   -0.2276    1.0000 </r>
       <r>   -0.2129    1.0000 </r>
       <r>   -0.2062    1.0000 </r>
       <r>   -0.2007    1.0000 </r>
       <r>   -0.1921    1.0000 </r>
       <r>   -0.1767    1.0000 </r>
       <r>   -0.1666    1.0000 </r>
       <r>   -0.1544    1.0000 </r>
       <r>   -0.1439    1.0000 </r>
       <r>   -0.1367    1.0000 </r>
       <r>   -0.1136    1.0000 </r>
       <r>   -0.1020    1.0000 </r>
       <r>   -0.0896    1.0000 </r>
       <r>   -0.0621    1.0000 </r>
       <r>   -0.0484    1.0000 </r>
       <r>   -0.0315    1.0000 </r>
       <r>   -0.0169    1.0000 </r>
       <r>   -0.0126    1.0000 </r>
       <r>    0.0014    1.0000 </r>
       <r>    0.0124    1.0000 </r>
       <r>    0.0407    1.0000 </r>
       <r>    0.0528    1.0000 </r>
       <r>    0.0658    1.0000 </r>
       <r>    0.0880    1.0000 </r>
       <r>    0.1165    1.0000 </r>
       <r>    0.1271    1.0000 </r>
       <r>    0.1371    1.0000 </r>
       <r>    0.1568    1.0000 </r>
       <r>    0.1730    1.0000 </r>
       <r>    0.1977    1.0000 </r>
       <r>    0.2313    1.0000 </r>
       <r>    0.2474    1.0000 </r>
       <r>    0.2555    1.0000 </r>
       <r>    0.2833    1.0000 </r>
       <r>    0.3092    1.0000 </r>
       <r>    0.3348    1.0000 </r>
       <r>    0.3523    1.0000 </r>
       <r>    0.3818    1.0000 </r>
       <r>    0.4023    1.0000 </r>
       <r>    0.4322    1.0000 </r>
       <r>    0.4537    1.0000 </r>
       <r>    0.4596    1.0000 </r>
       <r>    0.4831    1.0001 </r>
       <r>    0.4992    1.0001 </r>
       <r>    0.5301    1.0004 </r>
       <r>    0.5410    1.0005 </r>
       <r>    0.5453    1.0006 </r>
       <r>    0.5922    1.0024 </r>
       <r>    0.6375    1.0072 </r>
       <r>    0.6660    1.0129 </r>
       <r>    0.6851    1.0180 </r>
       <r>    0.7101    1.0255 </r>
       <r>    0.7488    1.0349 </r>
       <r>    0.7622    1.0354 </r>
       <r>    0.7837    1.0300 </r>
       <r>    0.8118    1.0057 </r>
       <r>    0.8491    0.9289 </r>
       <r>    0.8854    0.7958 </r>
       <r>    0.9139    0.6561 </r>
       <r>    0.9425    0.4975 </r>
       <r>    0.9655    0.3699 </r>
       <r>    1.0111    0.1528 </r>
       <r>    1.0367    0.0667 </r>
       <r>    1.0650    0.0052 </r>
       <r>    1.1204   -0.0352 </r>
       <r>    1.1343   -0.0350 </r>
       <r>    1.1687   -0.0272 </r>
       <r>    1.2206   -0.0123 </r>
       <r>    1.2417   -0.0081 </r>
       <r>    1.2774   -0.0035 </r>
       <r>    1.2999   -0.0019 </r>
       <r>    1.3251   -0.0009 </r>
       <r>    1.3858   -0.0001 </r>
       <r>    1.4324   -0.0000 </r>
       <r>    1.4570   -0.0000 </r>
       <r>    1.4777   -0.0000 </r>
       <r>    1.5209   -0.0000 </r>
       <r>    1.5365   -0.0000 </r>
       <r>    1.5842   -0.0000 </r>
       <r>    1.6222   -0.0000 </r>
       <r>    1.6428   -0.0000 </r>
       <r>    1.6468   -0.0000 </r>
       <r>    1.7011   -0.0000 </r>
       <r>    1.7152   -0.0000 </r>
       <r>    1.7714   -0.0000 </r>
       <r>    1.8070   -0.0000 </r>
       <r>    1.8258   -0.0000 </r>
       <r>    1.8574   -0.0000 </r>
       <r>    1.8847   -0.0000 </r>
       <r>    1.9192   -0.0000 </r>
       <r>    1.9346   -0.0000 </r>
       <r>    1.9564   -0.0000 </r>
      </set>
      <set comment="kpoint 10">
       <r>  -42.9861    1.0000 </r>
       <r>  -42.8615    1.0000 </r>
       <r>  -42.8337    1.0000 </r>
       <r>  -42.8267    1.0000 </r>
       <r>  -42.8032    1.0000 </r>
       <r>  -42.7835    1.0000 </r>
       <r>  -42.7591    1.0000 </r>
       <r>  -42.7430    1.0000 </r>
       <r>  -42.7077    1.0000 </r>
       <r>  -42.2797    1.0000 </r>
       <r>  -42.1766    1.0000 </r>
       <r>  -42.0690    1.0000 </r>
       <r>  -42.0409    1.0000 </r>
       <r>  -42.0177    1.0000 </r>
       <r>  -42.0022    1.0000 </r>
       <r>  -41.9817    1.0000 </r>
       <r>  -41.9686    1.0000 </r>
       <r>  -41.9321    1.0000 </r>
       <r>  -41.9247    1.0000 </r>
       <r>  -41.8221    1.0000 </r>
       <r>  -41.8174    1.0000 </r>
       <r>  -41.8080    1.0000 </r>
       <r>  -41.7899    1.0000 </r>
       <r>  -41.7823    1.0000 </r>
       <r>  -41.7788    1.0000 </r>
       <r>  -41.7615    1.0000 </r>
       <r>  -41.7470    1.0000 </r>
       <r>  -41.7171    1.0000 </r>
       <r>  -41.7106    1.0000 </r>
       <r>  -41.7050    1.0000 </r>
       <r>  -41.6883    1.0000 </r>
       <r>  -41.6458    1.0000 </r>
       <r>  -41.6238    1.0000 </r>
       <r>  -41.5840    1.0000 </r>
       <r>  -41.5706    1.0000 </r>
       <r>  -41.5341    1.0000 </r>
       <r>  -40.3594    1.0000 </r>
       <r>  -40.3287    1.0000 </r>
       <r>  -40.2813    1.0000 </r>
       <r>  -15.4083    1.0000 </r>
       <r>  -15.4060    1.0000 </r>
       <r>  -15.3747    1.0000 </r>
       <r>  -15.3610    1.0000 </r>
       <r>  -15.3316    1.0000 </r>
       <r>   -7.4339    1.0000 </r>
       <r>   -6.2113    1.0000 </r>
       <r>   -6.1498    1.0000 </r>
       <r>   -6.1406    1.0000 </r>
       <r>   -6.0945    1.0000 </r>
       <r>   -5.3567    1.0000 </r>
       <r>   -5.2741    1.0000 </r>
       <r>   -5.2673    1.0000 </r>
       <r>   -5.0910    1.0000 </r>
       <r>   -4.2500    1.0000 </r>
       <r>   -4.2157    1.0000 </r>
       <r>   -4.1447    1.0000 </r>
       <r>   -3.9911    1.0000 </r>
       <r>   -3.8785    1.0000 </r>
       <r>   -3.8501    1.0000 </r>
       <r>   -3.6867    1.0000 </r>
       <r>   -3.6657    1.0000 </r>
       <r>   -3.6575    1.0000 </r>
       <r>   -3.6483    1.0000 </r>
       <r>   -3.6421    1.0000 </r>
       <r>   -3.6394    1.0000 </r>
       <r>   -3.6361    1.0000 </r>
       <r>   -3.6148    1.0000 </r>
       <r>   -3.6050    1.0000 </r>
       <r>   -3.5790    1.0000 </r>
       <r>   -3.5577    1.0000 </r>
       <r>   -3.5413    1.0000 </r>
       <r>   -3.5241    1.0000 </r>
       <r>   -3.5039    1.0000 </r>
       <r>   -3.4914    1.0000 </r>
       <r>   -3.4841    1.0000 </r>
       <r>   -3.4669    1.0000 </r>
       <r>   -3.4470    1.0000 </r>
       <r>   -3.4439    1.0000 </r>
       <r>   -3.4279    1.0000 </r>
       <r>   -3.4163    1.0000 </r>
       <r>   -3.4055    1.0000 </r>
       <r>   -3.3953    1.0000 </r>
       <r>   -3.3876    1.0000 </r>
       <r>   -3.3748    1.0000 </r>
       <r>   -3.3640    1.0000 </r>
       <r>   -3.3555    1.0000 </r>
       <r>   -3.3415    1.0000 </r>
       <r>   -3.3210    1.0000 </r>
       <r>   -3.3130    1.0000 </r>
       <r>   -3.2946    1.0000 </r>
       <r>   -3.2204    1.0000 </r>
       <r>   -3.2016    1.0000 </r>
       <r>   -3.1590    1.0000 </r>
       <r>   -3.1354    1.0000 </r>
       <r>   -3.1065    1.0000 </r>
       <r>   -3.0867    1.0000 </r>
       <r>   -3.0640    1.0000 </r>
       <r>   -3.0183    1.0000 </r>
       <r>   -3.0007    1.0000 </r>
       <r>   -2.9734    1.0000 </r>
       <r>   -2.9720    1.0000 </r>
       <r>   -2.9523    1.0000 </r>
       <r>   -2.9217    1.0000 </r>
       <r>   -2.9164    1.0000 </r>
       <r>   -2.9062    1.0000 </r>
       <r>   -2.8938    1.0000 </r>
       <r>   -2.8783    1.0000 </r>
       <r>   -2.8558    1.0000 </r>
       <r>   -2.8141    1.0000 </r>
       <r>   -2.7918    1.0000 </r>
       <r>   -2.7744    1.0000 </r>
       <r>   -2.7620    1.0000 </r>
       <r>   -2.7312    1.0000 </r>
       <r>   -2.7072    1.0000 </r>
       <r>   -2.6936    1.0000 </r>
       <r>   -2.6835    1.0000 </r>
       <r>   -2.6779    1.0000 </r>
       <r>   -2.6533    1.0000 </r>
       <r>   -2.6464    1.0000 </r>
       <r>   -2.6213    1.0000 </r>
       <r>   -2.5977    1.0000 </r>
       <r>   -2.5894    1.0000 </r>
       <r>   -2.5854    1.0000 </r>
       <r>   -2.5628    1.0000 </r>
       <r>   -2.5535    1.0000 </r>
       <r>   -2.5360    1.0000 </r>
       <r>   -2.5351    1.0000 </r>
       <r>   -2.5270    1.0000 </r>
       <r>   -2.5141    1.0000 </r>
       <r>   -2.5030    1.0000 </r>
       <r>   -2.4934    1.0000 </r>
       <r>   -2.4899    1.0000 </r>
       <r>   -2.4698    1.0000 </r>
       <r>   -2.4447    1.0000 </r>
       <r>   -2.4330    1.0000 </r>
       <r>   -2.4206    1.0000 </r>
       <r>   -2.4067    1.0000 </r>
       <r>   -2.3945    1.0000 </r>
       <r>   -2.3837    1.0000 </r>
       <r>   -2.3635    1.0000 </r>
       <r>   -2.3490    1.0000 </r>
       <r>   -2.3387    1.0000 </r>
       <r>   -2.3241    1.0000 </r>
       <r>   -2.3044    1.0000 </r>
       <r>   -2.2967    1.0000 </r>
       <r>   -2.2759    1.0000 </r>
       <r>   -2.2738    1.0000 </r>
       <r>   -2.2439    1.0000 </r>
       <r>   -2.2348    1.0000 </r>
       <r>   -2.2244    1.0000 </r>
       <r>   -2.2006    1.0000 </r>
       <r>   -2.1775    1.0000 </r>
       <r>   -2.1654    1.0000 </r>
       <r>   -2.1598    1.0000 </r>
       <r>   -2.1355    1.0000 </r>
       <r>   -2.1033    1.0000 </r>
       <r>   -2.0579    1.0000 </r>
       <r>   -2.0520    1.0000 </r>
       <r>   -2.0438    1.0000 </r>
       <r>   -2.0390    1.0000 </r>
       <r>   -2.0327    1.0000 </r>
       <r>   -2.0144    1.0000 </r>
       <r>   -2.0011    1.0000 </r>
       <r>   -1.9901    1.0000 </r>
       <r>   -1.9763    1.0000 </r>
       <r>   -1.9630    1.0000 </r>
       <r>   -1.9554    1.0000 </r>
       <r>   -1.9408    1.0000 </r>
       <r>   -1.9223    1.0000 </r>
       <r>   -1.9023    1.0000 </r>
       <r>   -1.8917    1.0000 </r>
       <r>   -1.8807    1.0000 </r>
       <r>   -1.8676    1.0000 </r>
       <r>   -1.8674    1.0000 </r>
       <r>   -1.8593    1.0000 </r>
       <r>   -1.8474    1.0000 </r>
       <r>   -1.8143    1.0000 </r>
       <r>   -1.8065    1.0000 </r>
       <r>   -1.8006    1.0000 </r>
       <r>   -1.7843    1.0000 </r>
       <r>   -1.7679    1.0000 </r>
       <r>   -1.7549    1.0000 </r>
       <r>   -1.7512    1.0000 </r>
       <r>   -1.7319    1.0000 </r>
       <r>   -1.7195    1.0000 </r>
       <r>   -1.7068    1.0000 </r>
       <r>   -1.6838    1.0000 </r>
       <r>   -1.6555    1.0000 </r>
       <r>   -1.6447    1.0000 </r>
       <r>   -1.6181    1.0000 </r>
       <r>   -1.6001    1.0000 </r>
       <r>   -1.5975    1.0000 </r>
       <r>   -1.5844    1.0000 </r>
       <r>   -1.5796    1.0000 </r>
       <r>   -1.5473    1.0000 </r>
       <r>   -1.5422    1.0000 </r>
       <r>   -1.5301    1.0000 </r>
       <r>   -1.5168    1.0000 </r>
       <r>   -1.5002    1.0000 </r>
       <r>   -1.4683    1.0000 </r>
       <r>   -1.4679    1.0000 </r>
       <r>   -1.4587    1.0000 </r>
       <r>   -1.4506    1.0000 </r>
       <r>   -1.4272    1.0000 </r>
       <r>   -1.4189    1.0000 </r>
       <r>   -1.3967    1.0000 </r>
       <r>   -1.3929    1.0000 </r>
       <r>   -1.3742    1.0000 </r>
       <r>   -1.3364    1.0000 </r>
       <r>   -1.3204    1.0000 </r>
       <r>   -1.3049    1.0000 </r>
       <r>   -1.2903    1.0000 </r>
       <r>   -1.2858    1.0000 </r>
       <r>   -1.2763    1.0000 </r>
       <r>   -1.2467    1.0000 </r>
       <r>   -1.2228    1.0000 </r>
       <r>   -1.2061    1.0000 </r>
       <r>   -1.1972    1.0000 </r>
       <r>   -1.1841    1.0000 </r>
       <r>   -1.1652    1.0000 </r>
       <r>   -1.1329    1.0000 </r>
       <r>   -1.1170    1.0000 </r>
       <r>   -1.1001    1.0000 </r>
       <r>   -1.0610    1.0000 </r>
       <r>   -1.0418    1.0000 </r>
       <r>   -1.0324    1.0000 </r>
       <r>   -0.9873    1.0000 </r>
       <r>   -0.9564    1.0000 </r>
       <r>   -0.9081    1.0000 </r>
       <r>   -0.8892    1.0000 </r>
       <r>   -0.8625    1.0000 </r>
       <r>   -0.8474    1.0000 </r>
       <r>   -0.8373    1.0000 </r>
       <r>   -0.8194    1.0000 </r>
       <r>   -0.8086    1.0000 </r>
       <r>   -0.7889    1.0000 </r>
       <r>   -0.7674    1.0000 </r>
       <r>   -0.7600    1.0000 </r>
       <r>   -0.7414    1.0000 </r>
       <r>   -0.7335    1.0000 </r>
       <r>   -0.7004    1.0000 </r>
       <r>   -0.6902    1.0000 </r>
       <r>   -0.6651    1.0000 </r>
       <r>   -0.6504    1.0000 </r>
       <r>   -0.6363    1.0000 </r>
       <r>   -0.6351    1.0000 </r>
       <r>   -0.6163    1.0000 </r>
       <r>   -0.5857    1.0000 </r>
       <r>   -0.5733    1.0000 </r>
       <r>   -0.5653    1.0000 </r>
       <r>   -0.5555    1.0000 </r>
       <r>   -0.5443    1.0000 </r>
       <r>   -0.5232    1.0000 </r>
       <r>   -0.5142    1.0000 </r>
       <r>   -0.5007    1.0000 </r>
       <r>   -0.4960    1.0000 </r>
       <r>   -0.4880    1.0000 </r>
       <r>   -0.4838    1.0000 </r>
       <r>   -0.4764    1.0000 </r>
       <r>   -0.4579    1.0000 </r>
       <r>   -0.4485    1.0000 </r>
       <r>   -0.4252    1.0000 </r>
       <r>   -0.4240    1.0000 </r>
       <r>   -0.4087    1.0000 </r>
       <r>   -0.3952    1.0000 </r>
       <r>   -0.3904    1.0000 </r>
       <r>   -0.3882    1.0000 </r>
       <r>   -0.3785    1.0000 </r>
       <r>   -0.3638    1.0000 </r>
       <r>   -0.3570    1.0000 </r>
       <r>   -0.3436    1.0000 </r>
       <r>   -0.3257    1.0000 </r>
       <r>   -0.3206    1.0000 </r>
       <r>   -0.3089    1.0000 </r>
       <r>   -0.3023    1.0000 </r>
       <r>   -0.2969    1.0000 </r>
       <r>   -0.2926    1.0000 </r>
       <r>   -0.2796    1.0000 </r>
       <r>   -0.2696    1.0000 </r>
       <r>   -0.2637    1.0000 </r>
       <r>   -0.2516    1.0000 </r>
       <r>   -0.2486    1.0000 </r>
       <r>   -0.2420    1.0000 </r>
       <r>   -0.2376    1.0000 </r>
       <r>   -0.2266    1.0000 </r>
       <r>   -0.2199    1.0000 </r>
       <r>   -0.2027    1.0000 </r>
       <r>   -0.1802    1.0000 </r>
       <r>   -0.1588    1.0000 </r>
       <r>   -0.1542    1.0000 </r>
       <r>   -0.1479    1.0000 </r>
       <r>   -0.1175    1.0000 </r>
       <r>   -0.1146    1.0000 </r>
       <r>   -0.1026    1.0000 </r>
       <r>   -0.0834    1.0000 </r>
       <r>   -0.0704    1.0000 </r>
       <r>   -0.0544    1.0000 </r>
       <r>   -0.0454    1.0000 </r>
       <r>   -0.0329    1.0000 </r>
       <r>   -0.0120    1.0000 </r>
       <r>   -0.0048    1.0000 </r>
       <r>    0.0180    1.0000 </r>
       <r>    0.0291    1.0000 </r>
       <r>    0.0448    1.0000 </r>
       <r>    0.0549    1.0000 </r>
       <r>    0.0712    1.0000 </r>
       <r>    0.0934    1.0000 </r>
       <r>    0.1152    1.0000 </r>
       <r>    0.1255    1.0000 </r>
       <r>    0.1290    1.0000 </r>
       <r>    0.1411    1.0000 </r>
       <r>    0.1872    1.0000 </r>
       <r>    0.2081    1.0000 </r>
       <r>    0.2113    1.0000 </r>
       <r>    0.2264    1.0000 </r>
       <r>    0.2518    1.0000 </r>
       <r>    0.2635    1.0000 </r>
       <r>    0.2831    1.0000 </r>
       <r>    0.3129    1.0000 </r>
       <r>    0.3590    1.0000 </r>
       <r>    0.3760    1.0000 </r>
       <r>    0.3933    1.0000 </r>
       <r>    0.4183    1.0000 </r>
       <r>    0.4490    1.0000 </r>
       <r>    0.4654    1.0000 </r>
       <r>    0.4859    1.0001 </r>
       <r>    0.5213    1.0003 </r>
       <r>    0.5289    1.0003 </r>
       <r>    0.5515    1.0007 </r>
       <r>    0.5760    1.0015 </r>
       <r>    0.6304    1.0062 </r>
       <r>    0.6536    1.0101 </r>
       <r>    0.6562    1.0107 </r>
       <r>    0.6904    1.0195 </r>
       <r>    0.7074    1.0247 </r>
       <r>    0.7710    1.0342 </r>
       <r>    0.7950    1.0230 </r>
       <r>    0.8279    0.9795 </r>
       <r>    0.8604    0.8935 </r>
       <r>    0.8793    0.8220 </r>
       <r>    0.8920    0.7658 </r>
       <r>    0.9317    0.5585 </r>
       <r>    0.9683    0.3549 </r>
       <r>    0.9744    0.3225 </r>
       <r>    1.0049    0.1777 </r>
       <r>    1.0646    0.0057 </r>
       <r>    1.0880   -0.0221 </r>
       <r>    1.1140   -0.0344 </r>
       <r>    1.1409   -0.0341 </r>
       <r>    1.1647   -0.0284 </r>
       <r>    1.1904   -0.0205 </r>
       <r>    1.2285   -0.0106 </r>
       <r>    1.2566   -0.0058 </r>
       <r>    1.3007   -0.0019 </r>
       <r>    1.3461   -0.0005 </r>
       <r>    1.3530   -0.0004 </r>
       <r>    1.4002   -0.0001 </r>
       <r>    1.4119   -0.0000 </r>
       <r>    1.4632   -0.0000 </r>
       <r>    1.4994   -0.0000 </r>
       <r>    1.5347   -0.0000 </r>
       <r>    1.5595   -0.0000 </r>
       <r>    1.6060   -0.0000 </r>
       <r>    1.6261   -0.0000 </r>
       <r>    1.6712   -0.0000 </r>
       <r>    1.6812   -0.0000 </r>
       <r>    1.7550   -0.0000 </r>
       <r>    1.7914   -0.0000 </r>
       <r>    1.8236   -0.0000 </r>
       <r>    1.8329   -0.0000 </r>
       <r>    1.8714   -0.0000 </r>
       <r>    1.9109   -0.0000 </r>
       <r>    1.9486   -0.0000 </r>
       <r>    1.9762   -0.0000 </r>
       <r>    2.0053   -0.0000 </r>
      </set>
     </set>
     <set comment="spin 2">
      <set comment="kpoint 1">
       <r>  -43.2199    1.0000 </r>
       <r>  -43.1743    1.0000 </r>
       <r>  -43.1594    1.0000 </r>
       <r>  -43.1467    1.0000 </r>
       <r>  -43.1379    1.0000 </r>
       <r>  -43.1346    1.0000 </r>
       <r>  -43.1116    1.0000 </r>
       <r>  -43.1062    1.0000 </r>
       <r>  -43.0855    1.0000 </r>
       <r>  -43.0795    1.0000 </r>
       <r>  -43.0744    1.0000 </r>
       <r>  -43.0718    1.0000 </r>
       <r>  -43.0589    1.0000 </r>
       <r>  -43.0535    1.0000 </r>
       <r>  -43.0467    1.0000 </r>
       <r>  -43.0328    1.0000 </r>
       <r>  -42.9695    1.0000 </r>
       <r>  -42.9669    1.0000 </r>
       <r>  -42.7135    1.0000 </r>
       <r>  -42.6432    1.0000 </r>
       <r>  -42.6118    1.0000 </r>
       <r>  -42.5660    1.0000 </r>
       <r>  -42.5478    1.0000 </r>
       <r>  -42.4153    1.0000 </r>
       <r>  -42.3921    1.0000 </r>
       <r>  -42.3273    1.0000 </r>
       <r>  -42.3133    1.0000 </r>
       <r>  -42.1122    1.0000 </r>
       <r>  -41.9644    1.0000 </r>
       <r>  -41.9515    1.0000 </r>
       <r>  -40.5195    1.0000 </r>
       <r>  -40.4664    1.0000 </r>
       <r>  -40.3227    1.0000 </r>
       <r>  -40.1988    1.0000 </r>
       <r>  -40.0637    1.0000 </r>
       <r>  -40.0205    1.0000 </r>
       <r>  -39.8894    1.0000 </r>
       <r>  -39.8742    1.0000 </r>
       <r>  -39.6451    1.0000 </r>
       <r>  -15.4407    1.0000 </r>
       <r>  -15.4298    1.0000 </r>
       <r>  -15.3910    1.0000 </r>
       <r>  -15.3908    1.0000 </r>
       <r>  -15.3641    1.0000 </r>
       <r>   -7.5026    1.0000 </r>
       <r>   -7.0727    1.0000 </r>
       <r>   -6.0588    1.0000 </r>
       <r>   -5.0649    1.0000 </r>
       <r>   -5.0442    1.0000 </r>
       <r>   -5.0353    1.0000 </r>
       <r>   -5.0198    1.0000 </r>
       <r>   -4.6435    1.0000 </r>
       <r>   -4.3317    1.0000 </r>
       <r>   -4.2846    1.0000 </r>
       <r>   -4.2350    1.0000 </r>
       <r>   -4.2133    1.0000 </r>
       <r>   -3.7070    1.0000 </r>
       <r>   -3.6252    1.0000 </r>
       <r>   -3.5824    1.0000 </r>
       <r>   -3.5663    1.0000 </r>
       <r>   -3.4856    1.0000 </r>
       <r>   -3.4482    1.0000 </r>
       <r>   -3.3991    1.0000 </r>
       <r>   -3.3449    1.0000 </r>
       <r>   -3.1827    1.0000 </r>
       <r>   -2.9072    1.0000 </r>
       <r>   -2.8737    1.0000 </r>
       <r>   -2.8440    1.0000 </r>
       <r>   -2.8087    1.0000 </r>
       <r>   -2.7789    1.0000 </r>
       <r>   -2.7412    1.0000 </r>
       <r>   -2.7371    1.0000 </r>
       <r>   -2.6586    1.0000 </r>
       <r>   -2.5441    1.0000 </r>
       <r>   -2.4965    1.0000 </r>
       <r>   -2.4425    1.0000 </r>
       <r>   -2.3801    1.0000 </r>
       <r>   -2.3444    1.0000 </r>
       <r>   -2.3114    1.0000 </r>
       <r>   -2.2966    1.0000 </r>
       <r>   -2.2595    1.0000 </r>
       <r>   -2.2468    1.0000 </r>
       <r>   -2.2304    1.0000 </r>
       <r>   -2.2004    1.0000 </r>
       <r>   -2.1846    1.0000 </r>
       <r>   -2.1488    1.0000 </r>
       <r>   -2.1013    1.0000 </r>
       <r>   -2.0544    1.0000 </r>
       <r>   -2.0322    1.0000 </r>
       <r>   -2.0100    1.0000 </r>
       <r>   -1.9678    1.0000 </r>
       <r>   -1.9546    1.0000 </r>
       <r>   -1.9398    1.0000 </r>
       <r>   -1.9065    1.0000 </r>
       <r>   -1.8770    1.0000 </r>
       <r>   -1.8457    1.0000 </r>
       <r>   -1.8201    1.0000 </r>
       <r>   -1.8029    1.0000 </r>
       <r>   -1.7977    1.0000 </r>
       <r>   -1.7565    1.0000 </r>
       <r>   -1.7292    1.0000 </r>
       <r>   -1.7054    1.0000 </r>
       <r>   -1.6871    1.0000 </r>
       <r>   -1.6478    1.0000 </r>
       <r>   -1.6285    1.0000 </r>
       <r>   -1.5875    1.0000 </r>
       <r>   -1.5348    1.0000 </r>
       <r>   -1.4767    1.0000 </r>
       <r>   -1.4609    1.0000 </r>
       <r>   -1.4496    1.0000 </r>
       <r>   -1.4150    1.0000 </r>
       <r>   -1.3675    1.0000 </r>
       <r>   -1.3548    1.0000 </r>
       <r>   -1.3486    1.0000 </r>
       <r>   -1.3324    1.0000 </r>
       <r>   -1.3001    1.0000 </r>
       <r>   -1.2630    1.0000 </r>
       <r>   -1.2493    1.0000 </r>
       <r>   -1.2335    1.0000 </r>
       <r>   -1.2222    1.0000 </r>
       <r>   -1.1824    1.0000 </r>
       <r>   -1.1520    1.0000 </r>
       <r>   -1.1340    1.0000 </r>
       <r>   -1.1183    1.0000 </r>
       <r>   -1.1079    1.0000 </r>
       <r>   -1.0946    1.0000 </r>
       <r>   -1.0862    1.0000 </r>
       <r>   -1.0530    1.0000 </r>
       <r>   -1.0461    1.0000 </r>
       <r>   -1.0256    1.0000 </r>
       <r>   -1.0071    1.0000 </r>
       <r>   -0.9777    1.0000 </r>
       <r>   -0.9651    1.0000 </r>
       <r>   -0.9481    1.0000 </r>
       <r>   -0.9310    1.0000 </r>
       <r>   -0.9184    1.0000 </r>
       <r>   -0.9159    1.0000 </r>
       <r>   -0.8829    1.0000 </r>
       <r>   -0.8760    1.0000 </r>
       <r>   -0.8600    1.0000 </r>
       <r>   -0.8470    1.0000 </r>
       <r>   -0.8191    1.0000 </r>
       <r>   -0.8098    1.0000 </r>
       <r>   -0.7899    1.0000 </r>
       <r>   -0.7835    1.0000 </r>
       <r>   -0.7715    1.0000 </r>
       <r>   -0.7672    1.0000 </r>
       <r>   -0.7567    1.0000 </r>
       <r>   -0.7438    1.0000 </r>
       <r>   -0.7255    1.0000 </r>
       <r>   -0.7104    1.0000 </r>
       <r>   -0.6928    1.0000 </r>
       <r>   -0.6769    1.0000 </r>
       <r>   -0.6658    1.0000 </r>
       <r>   -0.6533    1.0000 </r>
       <r>   -0.6272    1.0000 </r>
       <r>   -0.6197    1.0000 </r>
       <r>   -0.5954    1.0000 </r>
       <r>   -0.5837    1.0000 </r>
       <r>   -0.5770    1.0000 </r>
       <r>   -0.5493    1.0000 </r>
       <r>   -0.5389    1.0000 </r>
       <r>   -0.5280    1.0000 </r>
       <r>   -0.5156    1.0000 </r>
       <r>   -0.5055    1.0000 </r>
       <r>   -0.5010    1.0000 </r>
       <r>   -0.4743    1.0000 </r>
       <r>   -0.4648    1.0000 </r>
       <r>   -0.4471    1.0000 </r>
       <r>   -0.4358    1.0000 </r>
       <r>   -0.4312    1.0000 </r>
       <r>   -0.3953    1.0000 </r>
       <r>   -0.3563    1.0000 </r>
       <r>   -0.3448    1.0000 </r>
       <r>   -0.3085    1.0000 </r>
       <r>   -0.2980    1.0000 </r>
       <r>   -0.2789    1.0000 </r>
       <r>   -0.2629    1.0000 </r>
       <r>   -0.2522    1.0000 </r>
       <r>   -0.2202    1.0000 </r>
       <r>   -0.2128    1.0000 </r>
       <r>   -0.1831    1.0000 </r>
       <r>   -0.1716    1.0000 </r>
       <r>   -0.1628    1.0000 </r>
       <r>   -0.1452    1.0000 </r>
       <r>   -0.1236    1.0000 </r>
       <r>   -0.1102    1.0000 </r>
       <r>   -0.0876    1.0000 </r>
       <r>   -0.0433    1.0000 </r>
       <r>    0.0019    1.0000 </r>
       <r>    0.0497    1.0000 </r>
       <r>    0.0619    1.0000 </r>
       <r>    0.0718    1.0000 </r>
       <r>    0.0911    1.0000 </r>
       <r>    0.1190    1.0000 </r>
       <r>    0.1522    1.0000 </r>
       <r>    0.1579    1.0000 </r>
       <r>    0.1839    1.0000 </r>
       <r>    0.2137    1.0000 </r>
       <r>    0.2350    1.0000 </r>
       <r>    0.2529    1.0000 </r>
       <r>    0.2652    1.0000 </r>
       <r>    0.2909    1.0000 </r>
       <r>    0.3170    1.0000 </r>
       <r>    0.3241    1.0000 </r>
       <r>    0.3512    1.0000 </r>
       <r>    0.3781    1.0000 </r>
       <r>    0.4022    1.0000 </r>
       <r>    0.4077    1.0000 </r>
       <r>    0.4255    1.0000 </r>
       <r>    0.4339    1.0000 </r>
       <r>    0.4347    1.0000 </r>
       <r>    0.4894    1.0001 </r>
       <r>    0.4936    1.0001 </r>
       <r>    0.5203    1.0003 </r>
       <r>    0.5489    1.0007 </r>
       <r>    0.5757    1.0015 </r>
       <r>    0.5958    1.0026 </r>
       <r>    0.6357    1.0069 </r>
       <r>    0.6710    1.0141 </r>
       <r>    0.6908    1.0196 </r>
       <r>    0.7319    1.0317 </r>
       <r>    0.7460    1.0345 </r>
       <r>    0.7598    1.0354 </r>
       <r>    0.7930    1.0245 </r>
       <r>    0.8255    0.9840 </r>
       <r>    0.8977    0.7387 </r>
       <r>    0.9355    0.5371 </r>
       <r>    0.9662    0.3659 </r>
       <r>    1.0021    0.1898 </r>
       <r>    1.0652    0.0048 </r>
       <r>    1.0754   -0.0094 </r>
       <r>    1.0860   -0.0204 </r>
       <r>    1.0970   -0.0282 </r>
       <r>    1.1389   -0.0344 </r>
       <r>    1.1603   -0.0296 </r>
       <r>    1.1856   -0.0220 </r>
       <r>    1.2164   -0.0134 </r>
       <r>    1.2178   -0.0130 </r>
       <r>    1.2257   -0.0112 </r>
       <r>    1.2463   -0.0073 </r>
       <r>    1.2657   -0.0047 </r>
       <r>    1.2825   -0.0030 </r>
       <r>    1.2943   -0.0022 </r>
       <r>    1.2971   -0.0021 </r>
       <r>    1.3099   -0.0014 </r>
       <r>    1.3163   -0.0012 </r>
       <r>    1.3256   -0.0009 </r>
       <r>    1.3494   -0.0004 </r>
       <r>    1.3650   -0.0002 </r>
       <r>    1.3733   -0.0002 </r>
       <r>    1.3920   -0.0001 </r>
       <r>    1.4106   -0.0000 </r>
       <r>    1.4179   -0.0000 </r>
       <r>    1.4260   -0.0000 </r>
       <r>    1.4463   -0.0000 </r>
       <r>    1.4596   -0.0000 </r>
       <r>    1.4967   -0.0000 </r>
       <r>    1.4982   -0.0000 </r>
       <r>    1.5208   -0.0000 </r>
       <r>    1.5370   -0.0000 </r>
       <r>    1.5552   -0.0000 </r>
       <r>    1.5628   -0.0000 </r>
       <r>    1.5753   -0.0000 </r>
       <r>    1.5856   -0.0000 </r>
       <r>    1.5958   -0.0000 </r>
       <r>    1.6113   -0.0000 </r>
       <r>    1.6268   -0.0000 </r>
       <r>    1.6515   -0.0000 </r>
       <r>    1.6967   -0.0000 </r>
       <r>    1.7061   -0.0000 </r>
       <r>    1.7262   -0.0000 </r>
       <r>    1.7405   -0.0000 </r>
       <r>    1.7415   -0.0000 </r>
       <r>    1.7659   -0.0000 </r>
       <r>    1.7808   -0.0000 </r>
       <r>    1.7919   -0.0000 </r>
       <r>    1.8003   -0.0000 </r>
       <r>    1.8100   -0.0000 </r>
       <r>    1.8213   -0.0000 </r>
       <r>    1.8488   -0.0000 </r>
       <r>    1.8688   -0.0000 </r>
       <r>    1.8838   -0.0000 </r>
       <r>    1.8976   -0.0000 </r>
       <r>    1.9033   -0.0000 </r>
       <r>    1.9085   -0.0000 </r>
       <r>    1.9277   -0.0000 </r>
       <r>    1.9441   -0.0000 </r>
       <r>    1.9631   -0.0000 </r>
       <r>    1.9974   -0.0000 </r>
       <r>    2.0018   -0.0000 </r>
       <r>    2.0235   -0.0000 </r>
       <r>    2.0323   -0.0000 </r>
       <r>    2.0498   -0.0000 </r>
       <r>    2.0679   -0.0000 </r>
       <r>    2.0769   -0.0000 </r>
       <r>    2.0903   -0.0000 </r>
       <r>    2.0981   -0.0000 </r>
       <r>    2.1051   -0.0000 </r>
       <r>    2.1111   -0.0000 </r>
       <r>    2.1265   -0.0000 </r>
       <r>    2.1355   -0.0000 </r>
       <r>    2.1445   -0.0000 </r>
       <r>    2.1519   -0.0000 </r>
       <r>    2.1690   -0.0000 </r>
       <r>    2.1764   -0.0000 </r>
       <r>    2.1936   -0.0000 </r>
       <r>    2.2058   -0.0000 </r>
       <r>    2.2139   -0.0000 </r>
       <r>    2.2278   -0.0000 </r>
       <r>    2.2429   -0.0000 </r>
       <r>    2.2536   -0.0000 </r>
       <r>    2.2636   -0.0000 </r>
       <r>    2.2761   -0.0000 </r>
       <r>    2.2839   -0.0000 </r>
       <r>    2.2950   -0.0000 </r>
       <r>    2.3002   -0.0000 </r>
       <r>    2.3135   -0.0000 </r>
       <r>    2.3174   -0.0000 </r>
       <r>    2.3206   -0.0000 </r>
       <r>    2.3445   -0.0000 </r>
       <r>    2.3522   -0.0000 </r>
       <r>    2.3605   -0.0000 </r>
       <r>    2.3728   -0.0000 </r>
       <r>    2.3801   -0.0000 </r>
       <r>    2.3905   -0.0000 </r>
       <r>    2.3975   -0.0000 </r>
       <r>    2.3986   -0.0000 </r>
       <r>    2.4203   -0.0000 </r>
       <r>    2.4250   -0.0000 </r>
       <r>    2.4281   -0.0000 </r>
       <r>    2.4420   -0.0000 </r>
       <r>    2.4540   -0.0000 </r>
       <r>    2.4592   -0.0000 </r>
       <r>    2.4694   -0.0000 </r>
       <r>    2.4747   -0.0000 </r>
       <r>    2.4869   -0.0000 </r>
       <r>    2.4944   -0.0000 </r>
       <r>    2.5063   -0.0000 </r>
       <r>    2.5349   -0.0000 </r>
       <r>    2.5423   -0.0000 </r>
       <r>    2.5641   -0.0000 </r>
       <r>    2.5741   -0.0000 </r>
       <r>    2.5834   -0.0000 </r>
       <r>    2.5891   -0.0000 </r>
       <r>    2.6044   -0.0000 </r>
       <r>    2.6227   -0.0000 </r>
       <r>    2.6352   -0.0000 </r>
       <r>    2.6391   -0.0000 </r>
       <r>    2.6527   -0.0000 </r>
       <r>    2.6662   -0.0000 </r>
       <r>    2.6684   -0.0000 </r>
       <r>    2.6870   -0.0000 </r>
       <r>    2.6911   -0.0000 </r>
       <r>    2.6962   -0.0000 </r>
       <r>    2.7285   -0.0000 </r>
       <r>    2.7497   -0.0000 </r>
       <r>    2.7605   -0.0000 </r>
       <r>    2.7702   -0.0000 </r>
       <r>    2.7966   -0.0000 </r>
       <r>    2.8176   -0.0000 </r>
       <r>    2.8212   -0.0000 </r>
       <r>    2.8556   -0.0000 </r>
       <r>    2.8602   -0.0000 </r>
       <r>    2.8977   -0.0000 </r>
       <r>    2.9111   -0.0000 </r>
       <r>    2.9442   -0.0000 </r>
       <r>    2.9631   -0.0000 </r>
       <r>    3.0102   -0.0000 </r>
       <r>    3.0176   -0.0000 </r>
       <r>    3.0397   -0.0000 </r>
       <r>    3.0587   -0.0000 </r>
       <r>    3.0707   -0.0000 </r>
       <r>    3.0887   -0.0000 </r>
       <r>    3.1026   -0.0000 </r>
      </set>
      <set comment="kpoint 2">
       <r>  -43.2199    1.0000 </r>
       <r>  -43.1743    1.0000 </r>
       <r>  -43.1594    1.0000 </r>
       <r>  -43.1467    1.0000 </r>
       <r>  -43.1379    1.0000 </r>
       <r>  -43.1346    1.0000 </r>
       <r>  -43.1116    1.0000 </r>
       <r>  -43.1062    1.0000 </r>
       <r>  -43.0855    1.0000 </r>
       <r>  -43.0795    1.0000 </r>
       <r>  -43.0744    1.0000 </r>
       <r>  -43.0718    1.0000 </r>
       <r>  -43.0590    1.0000 </r>
       <r>  -43.0535    1.0000 </r>
       <r>  -43.0467    1.0000 </r>
       <r>  -43.0328    1.0000 </r>
       <r>  -42.9702    1.0000 </r>
       <r>  -42.9669    1.0000 </r>
       <r>  -42.7135    1.0000 </r>
       <r>  -42.6431    1.0000 </r>
       <r>  -42.6118    1.0000 </r>
       <r>  -42.5639    1.0000 </r>
       <r>  -42.5473    1.0000 </r>
       <r>  -42.4174    1.0000 </r>
       <r>  -42.3921    1.0000 </r>
       <r>  -42.3273    1.0000 </r>
       <r>  -42.3133    1.0000 </r>
       <r>  -42.1123    1.0000 </r>
       <r>  -41.9643    1.0000 </r>
       <r>  -41.9515    1.0000 </r>
       <r>  -40.5195    1.0000 </r>
       <r>  -40.4664    1.0000 </r>
       <r>  -40.3227    1.0000 </r>
       <r>  -40.1989    1.0000 </r>
       <r>  -40.0637    1.0000 </r>
       <r>  -40.0205    1.0000 </r>
       <r>  -39.8894    1.0000 </r>
       <r>  -39.8742    1.0000 </r>
       <r>  -39.6451    1.0000 </r>
       <r>  -15.4407    1.0000 </r>
       <r>  -15.4298    1.0000 </r>
       <r>  -15.3910    1.0000 </r>
       <r>  -15.3908    1.0000 </r>
       <r>  -15.3641    1.0000 </r>
       <r>   -7.4852    1.0000 </r>
       <r>   -6.9441    1.0000 </r>
       <r>   -5.9419    1.0000 </r>
       <r>   -5.8806    1.0000 </r>
       <r>   -4.9969    1.0000 </r>
       <r>   -4.9393    1.0000 </r>
       <r>   -4.9059    1.0000 </r>
       <r>   -4.5420    1.0000 </r>
       <r>   -4.2003    1.0000 </r>
       <r>   -4.1624    1.0000 </r>
       <r>   -4.1252    1.0000 </r>
       <r>   -4.0940    1.0000 </r>
       <r>   -4.0670    1.0000 </r>
       <r>   -3.8132    1.0000 </r>
       <r>   -3.5675    1.0000 </r>
       <r>   -3.3879    1.0000 </r>
       <r>   -3.3463    1.0000 </r>
       <r>   -3.2803    1.0000 </r>
       <r>   -3.2633    1.0000 </r>
       <r>   -3.2226    1.0000 </r>
       <r>   -3.1747    1.0000 </r>
       <r>   -3.1081    1.0000 </r>
       <r>   -3.0907    1.0000 </r>
       <r>   -2.8603    1.0000 </r>
       <r>   -2.7937    1.0000 </r>
       <r>   -2.7251    1.0000 </r>
       <r>   -2.6824    1.0000 </r>
       <r>   -2.6386    1.0000 </r>
       <r>   -2.5889    1.0000 </r>
       <r>   -2.5326    1.0000 </r>
       <r>   -2.5175    1.0000 </r>
       <r>   -2.4910    1.0000 </r>
       <r>   -2.4628    1.0000 </r>
       <r>   -2.4380    1.0000 </r>
       <r>   -2.3898    1.0000 </r>
       <r>   -2.3545    1.0000 </r>
       <r>   -2.2975    1.0000 </r>
       <r>   -2.2663    1.0000 </r>
       <r>   -2.2309    1.0000 </r>
       <r>   -2.2079    1.0000 </r>
       <r>   -2.1760    1.0000 </r>
       <r>   -2.1560    1.0000 </r>
       <r>   -2.1083    1.0000 </r>
       <r>   -2.0869    1.0000 </r>
       <r>   -2.0272    1.0000 </r>
       <r>   -2.0033    1.0000 </r>
       <r>   -1.9910    1.0000 </r>
       <r>   -1.9796    1.0000 </r>
       <r>   -1.9530    1.0000 </r>
       <r>   -1.9210    1.0000 </r>
       <r>   -1.9060    1.0000 </r>
       <r>   -1.8921    1.0000 </r>
       <r>   -1.8481    1.0000 </r>
       <r>   -1.8166    1.0000 </r>
       <r>   -1.7999    1.0000 </r>
       <r>   -1.7506    1.0000 </r>
       <r>   -1.7438    1.0000 </r>
       <r>   -1.7051    1.0000 </r>
       <r>   -1.6858    1.0000 </r>
       <r>   -1.6600    1.0000 </r>
       <r>   -1.6249    1.0000 </r>
       <r>   -1.5975    1.0000 </r>
       <r>   -1.5648    1.0000 </r>
       <r>   -1.5458    1.0000 </r>
       <r>   -1.5142    1.0000 </r>
       <r>   -1.4818    1.0000 </r>
       <r>   -1.4257    1.0000 </r>
       <r>   -1.4079    1.0000 </r>
       <r>   -1.3865    1.0000 </r>
       <r>   -1.3535    1.0000 </r>
       <r>   -1.3205    1.0000 </r>
       <r>   -1.2992    1.0000 </r>
       <r>   -1.2678    1.0000 </r>
       <r>   -1.2530    1.0000 </r>
       <r>   -1.2307    1.0000 </r>
       <r>   -1.1921    1.0000 </r>
       <r>   -1.1787    1.0000 </r>
       <r>   -1.1463    1.0000 </r>
       <r>   -1.1272    1.0000 </r>
       <r>   -1.1128    1.0000 </r>
       <r>   -1.1040    1.0000 </r>
       <r>   -1.0880    1.0000 </r>
       <r>   -1.0679    1.0000 </r>
       <r>   -1.0534    1.0000 </r>
       <r>   -1.0375    1.0000 </r>
       <r>   -1.0187    1.0000 </r>
       <r>   -1.0056    1.0000 </r>
       <r>   -0.9940    1.0000 </r>
       <r>   -0.9745    1.0000 </r>
       <r>   -0.9573    1.0000 </r>
       <r>   -0.9402    1.0000 </r>
       <r>   -0.9305    1.0000 </r>
       <r>   -0.9086    1.0000 </r>
       <r>   -0.9022    1.0000 </r>
       <r>   -0.8789    1.0000 </r>
       <r>   -0.8654    1.0000 </r>
       <r>   -0.8385    1.0000 </r>
       <r>   -0.8313    1.0000 </r>
       <r>   -0.8216    1.0000 </r>
       <r>   -0.8064    1.0000 </r>
       <r>   -0.7752    1.0000 </r>
       <r>   -0.7625    1.0000 </r>
       <r>   -0.7527    1.0000 </r>
       <r>   -0.7330    1.0000 </r>
       <r>   -0.7206    1.0000 </r>
       <r>   -0.6975    1.0000 </r>
       <r>   -0.6849    1.0000 </r>
       <r>   -0.6688    1.0000 </r>
       <r>   -0.6548    1.0000 </r>
       <r>   -0.6374    1.0000 </r>
       <r>   -0.6291    1.0000 </r>
       <r>   -0.6096    1.0000 </r>
       <r>   -0.5887    1.0000 </r>
       <r>   -0.5824    1.0000 </r>
       <r>   -0.5578    1.0000 </r>
       <r>   -0.5450    1.0000 </r>
       <r>   -0.5259    1.0000 </r>
       <r>   -0.5037    1.0000 </r>
       <r>   -0.4985    1.0000 </r>
       <r>   -0.4857    1.0000 </r>
       <r>   -0.4626    1.0000 </r>
       <r>   -0.4557    1.0000 </r>
       <r>   -0.4282    1.0000 </r>
       <r>   -0.4087    1.0000 </r>
       <r>   -0.3955    1.0000 </r>
       <r>   -0.3752    1.0000 </r>
       <r>   -0.3586    1.0000 </r>
       <r>   -0.3450    1.0000 </r>
       <r>   -0.3398    1.0000 </r>
       <r>   -0.3108    1.0000 </r>
       <r>   -0.2974    1.0000 </r>
       <r>   -0.2878    1.0000 </r>
       <r>   -0.2679    1.0000 </r>
       <r>   -0.2590    1.0000 </r>
       <r>   -0.2391    1.0000 </r>
       <r>   -0.2211    1.0000 </r>
       <r>   -0.2188    1.0000 </r>
       <r>   -0.2020    1.0000 </r>
       <r>   -0.1968    1.0000 </r>
       <r>   -0.1641    1.0000 </r>
       <r>   -0.1439    1.0000 </r>
       <r>   -0.1352    1.0000 </r>
       <r>   -0.1017    1.0000 </r>
       <r>   -0.0846    1.0000 </r>
       <r>   -0.0496    1.0000 </r>
       <r>   -0.0419    1.0000 </r>
       <r>   -0.0205    1.0000 </r>
       <r>   -0.0025    1.0000 </r>
       <r>    0.0200    1.0000 </r>
       <r>    0.0330    1.0000 </r>
       <r>    0.0680    1.0000 </r>
       <r>    0.0838    1.0000 </r>
       <r>    0.1082    1.0000 </r>
       <r>    0.1200    1.0000 </r>
       <r>    0.1324    1.0000 </r>
       <r>    0.1376    1.0000 </r>
       <r>    0.1656    1.0000 </r>
       <r>    0.1761    1.0000 </r>
       <r>    0.2111    1.0000 </r>
       <r>    0.2388    1.0000 </r>
       <r>    0.2772    1.0000 </r>
       <r>    0.3229    1.0000 </r>
       <r>    0.3271    1.0000 </r>
       <r>    0.3555    1.0000 </r>
       <r>    0.3760    1.0000 </r>
       <r>    0.3882    1.0000 </r>
       <r>    0.4219    1.0000 </r>
       <r>    0.4760    1.0001 </r>
       <r>    0.5073    1.0002 </r>
       <r>    0.5376    1.0005 </r>
       <r>    0.5527    1.0007 </r>
       <r>    0.6049    1.0033 </r>
       <r>    0.6122    1.0040 </r>
       <r>    0.6534    1.0101 </r>
       <r>    0.6730    1.0147 </r>
       <r>    0.6786    1.0161 </r>
       <r>    0.7147    1.0269 </r>
       <r>    0.7936    1.0240 </r>
       <r>    0.8122    1.0051 </r>
       <r>    0.8405    0.9516 </r>
       <r>    0.8663    0.8729 </r>
       <r>    0.8939    0.7571 </r>
       <r>    0.9145    0.6530 </r>
       <r>    0.9600    0.3997 </r>
       <r>    0.9806    0.2903 </r>
       <r>    1.0019    0.1905 </r>
       <r>    1.0064    0.1717 </r>
       <r>    1.0512    0.0310 </r>
       <r>    1.0731   -0.0065 </r>
       <r>    1.0935   -0.0261 </r>
       <r>    1.1162   -0.0348 </r>
       <r>    1.1335   -0.0351 </r>
       <r>    1.1467   -0.0330 </r>
       <r>    1.1797   -0.0238 </r>
       <r>    1.1837   -0.0226 </r>
       <r>    1.2090   -0.0152 </r>
       <r>    1.2315   -0.0100 </r>
       <r>    1.2561   -0.0058 </r>
       <r>    1.2806   -0.0032 </r>
       <r>    1.3044   -0.0017 </r>
       <r>    1.3330   -0.0007 </r>
       <r>    1.3460   -0.0005 </r>
       <r>    1.3595   -0.0003 </r>
       <r>    1.3706   -0.0002 </r>
       <r>    1.3779   -0.0002 </r>
       <r>    1.3961   -0.0001 </r>
       <r>    1.4163   -0.0000 </r>
       <r>    1.4405   -0.0000 </r>
       <r>    1.4494   -0.0000 </r>
       <r>    1.4670   -0.0000 </r>
       <r>    1.4886   -0.0000 </r>
       <r>    1.4986   -0.0000 </r>
       <r>    1.5167   -0.0000 </r>
       <r>    1.5471   -0.0000 </r>
       <r>    1.5650   -0.0000 </r>
       <r>    1.5720   -0.0000 </r>
       <r>    1.5944   -0.0000 </r>
       <r>    1.6077   -0.0000 </r>
       <r>    1.6187   -0.0000 </r>
       <r>    1.6298   -0.0000 </r>
       <r>    1.6377   -0.0000 </r>
       <r>    1.6500   -0.0000 </r>
       <r>    1.6773   -0.0000 </r>
       <r>    1.6930   -0.0000 </r>
       <r>    1.7082   -0.0000 </r>
       <r>    1.7132   -0.0000 </r>
       <r>    1.7307   -0.0000 </r>
       <r>    1.7507   -0.0000 </r>
       <r>    1.7608   -0.0000 </r>
       <r>    1.7773   -0.0000 </r>
       <r>    1.7957   -0.0000 </r>
       <r>    1.8051   -0.0000 </r>
       <r>    1.8239   -0.0000 </r>
       <r>    1.8376   -0.0000 </r>
       <r>    1.8496   -0.0000 </r>
       <r>    1.8622   -0.0000 </r>
       <r>    1.8748   -0.0000 </r>
       <r>    1.8899   -0.0000 </r>
       <r>    1.9043   -0.0000 </r>
       <r>    1.9211   -0.0000 </r>
       <r>    1.9289   -0.0000 </r>
       <r>    1.9378   -0.0000 </r>
       <r>    1.9486   -0.0000 </r>
       <r>    1.9690   -0.0000 </r>
       <r>    1.9762   -0.0000 </r>
       <r>    1.9856   -0.0000 </r>
       <r>    1.9992   -0.0000 </r>
       <r>    2.0199   -0.0000 </r>
       <r>    2.0295   -0.0000 </r>
       <r>    2.0417   -0.0000 </r>
       <r>    2.0501   -0.0000 </r>
       <r>    2.0661   -0.0000 </r>
       <r>    2.0766   -0.0000 </r>
       <r>    2.0915   -0.0000 </r>
       <r>    2.0969   -0.0000 </r>
       <r>    2.1109   -0.0000 </r>
       <r>    2.1202   -0.0000 </r>
       <r>    2.1278   -0.0000 </r>
       <r>    2.1382   -0.0000 </r>
       <r>    2.1526   -0.0000 </r>
       <r>    2.1629   -0.0000 </r>
       <r>    2.1700   -0.0000 </r>
       <r>    2.1953   -0.0000 </r>
       <r>    2.2000   -0.0000 </r>
       <r>    2.2110   -0.0000 </r>
       <r>    2.2205   -0.0000 </r>
       <r>    2.2334   -0.0000 </r>
       <r>    2.2388   -0.0000 </r>
       <r>    2.2481   -0.0000 </r>
       <r>    2.2631   -0.0000 </r>
       <r>    2.2731   -0.0000 </r>
       <r>    2.2857   -0.0000 </r>
       <r>    2.2934   -0.0000 </r>
       <r>    2.3010   -0.0000 </r>
       <r>    2.3160   -0.0000 </r>
       <r>    2.3310   -0.0000 </r>
       <r>    2.3431   -0.0000 </r>
       <r>    2.3580   -0.0000 </r>
       <r>    2.3747   -0.0000 </r>
       <r>    2.3858   -0.0000 </r>
       <r>    2.3969   -0.0000 </r>
       <r>    2.4116   -0.0000 </r>
       <r>    2.4148   -0.0000 </r>
       <r>    2.4297   -0.0000 </r>
       <r>    2.4412   -0.0000 </r>
       <r>    2.4485   -0.0000 </r>
       <r>    2.4556   -0.0000 </r>
       <r>    2.4618   -0.0000 </r>
       <r>    2.4676   -0.0000 </r>
       <r>    2.4791   -0.0000 </r>
       <r>    2.4955   -0.0000 </r>
       <r>    2.5019   -0.0000 </r>
       <r>    2.5173   -0.0000 </r>
       <r>    2.5284   -0.0000 </r>
       <r>    2.5341   -0.0000 </r>
       <r>    2.5391   -0.0000 </r>
       <r>    2.5526   -0.0000 </r>
       <r>    2.5629   -0.0000 </r>
       <r>    2.5772   -0.0000 </r>
       <r>    2.5847   -0.0000 </r>
       <r>    2.5964   -0.0000 </r>
       <r>    2.6043   -0.0000 </r>
       <r>    2.6118   -0.0000 </r>
       <r>    2.6263   -0.0000 </r>
       <r>    2.6380   -0.0000 </r>
       <r>    2.6496   -0.0000 </r>
       <r>    2.6620   -0.0000 </r>
       <r>    2.6760   -0.0000 </r>
       <r>    2.6893   -0.0000 </r>
       <r>    2.7005   -0.0000 </r>
       <r>    2.7088   -0.0000 </r>
       <r>    2.7231   -0.0000 </r>
       <r>    2.7338   -0.0000 </r>
       <r>    2.7569   -0.0000 </r>
       <r>    2.7745   -0.0000 </r>
       <r>    2.7875   -0.0000 </r>
       <r>    2.8043   -0.0000 </r>
       <r>    2.8153   -0.0000 </r>
       <r>    2.8234   -0.0000 </r>
       <r>    2.8412   -0.0000 </r>
       <r>    2.8504   -0.0000 </r>
       <r>    2.8563   -0.0000 </r>
       <r>    2.8896   -0.0000 </r>
       <r>    2.9122   -0.0000 </r>
       <r>    2.9218   -0.0000 </r>
       <r>    2.9339   -0.0000 </r>
       <r>    2.9745   -0.0000 </r>
       <r>    3.0025   -0.0000 </r>
       <r>    3.0237   -0.0000 </r>
       <r>    3.0446   -0.0000 </r>
       <r>    3.0654   -0.0000 </r>
      </set>
      <set comment="kpoint 3">
       <r>  -43.2199    1.0000 </r>
       <r>  -43.1742    1.0000 </r>
       <r>  -43.1594    1.0000 </r>
       <r>  -43.1467    1.0000 </r>
       <r>  -43.1379    1.0000 </r>
       <r>  -43.1346    1.0000 </r>
       <r>  -43.1116    1.0000 </r>
       <r>  -43.1062    1.0000 </r>
       <r>  -43.0855    1.0000 </r>
       <r>  -43.0795    1.0000 </r>
       <r>  -43.0744    1.0000 </r>
       <r>  -43.0718    1.0000 </r>
       <r>  -43.0590    1.0000 </r>
       <r>  -43.0535    1.0000 </r>
       <r>  -43.0467    1.0000 </r>
       <r>  -43.0328    1.0000 </r>
       <r>  -42.9708    1.0000 </r>
       <r>  -42.9669    1.0000 </r>
       <r>  -42.7135    1.0000 </r>
       <r>  -42.6430    1.0000 </r>
       <r>  -42.6118    1.0000 </r>
       <r>  -42.5618    1.0000 </r>
       <r>  -42.5467    1.0000 </r>
       <r>  -42.4196    1.0000 </r>
       <r>  -42.3922    1.0000 </r>
       <r>  -42.3274    1.0000 </r>
       <r>  -42.3133    1.0000 </r>
       <r>  -42.1124    1.0000 </r>
       <r>  -41.9642    1.0000 </r>
       <r>  -41.9515    1.0000 </r>
       <r>  -40.5196    1.0000 </r>
       <r>  -40.4664    1.0000 </r>
       <r>  -40.3227    1.0000 </r>
       <r>  -40.1989    1.0000 </r>
       <r>  -40.0637    1.0000 </r>
       <r>  -40.0205    1.0000 </r>
       <r>  -39.8895    1.0000 </r>
       <r>  -39.8742    1.0000 </r>
       <r>  -39.6451    1.0000 </r>
       <r>  -15.4407    1.0000 </r>
       <r>  -15.4298    1.0000 </r>
       <r>  -15.3910    1.0000 </r>
       <r>  -15.3908    1.0000 </r>
       <r>  -15.3641    1.0000 </r>
       <r>   -7.4700    1.0000 </r>
       <r>   -6.5646    1.0000 </r>
       <r>   -6.5223    1.0000 </r>
       <r>   -5.6276    1.0000 </r>
       <r>   -5.5022    1.0000 </r>
       <r>   -4.6427    1.0000 </r>
       <r>   -4.6186    1.0000 </r>
       <r>   -4.5831    1.0000 </r>
       <r>   -4.5716    1.0000 </r>
       <r>   -4.3090    1.0000 </r>
       <r>   -4.1780    1.0000 </r>
       <r>   -3.8703    1.0000 </r>
       <r>   -3.8308    1.0000 </r>
       <r>   -3.7966    1.0000 </r>
       <r>   -3.7231    1.0000 </r>
       <r>   -3.2390    1.0000 </r>
       <r>   -3.2190    1.0000 </r>
       <r>   -3.1353    1.0000 </r>
       <r>   -3.0933    1.0000 </r>
       <r>   -3.0655    1.0000 </r>
       <r>   -3.0275    1.0000 </r>
       <r>   -3.0248    1.0000 </r>
       <r>   -2.9739    1.0000 </r>
       <r>   -2.9430    1.0000 </r>
       <r>   -2.9054    1.0000 </r>
       <r>   -2.8757    1.0000 </r>
       <r>   -2.8655    1.0000 </r>
       <r>   -2.8314    1.0000 </r>
       <r>   -2.7881    1.0000 </r>
       <r>   -2.7295    1.0000 </r>
       <r>   -2.4995    1.0000 </r>
       <r>   -2.4239    1.0000 </r>
       <r>   -2.4054    1.0000 </r>
       <r>   -2.3808    1.0000 </r>
       <r>   -2.3695    1.0000 </r>
       <r>   -2.3489    1.0000 </r>
       <r>   -2.3164    1.0000 </r>
       <r>   -2.2691    1.0000 </r>
       <r>   -2.2480    1.0000 </r>
       <r>   -2.2051    1.0000 </r>
       <r>   -2.1855    1.0000 </r>
       <r>   -2.1415    1.0000 </r>
       <r>   -2.1360    1.0000 </r>
       <r>   -2.0949    1.0000 </r>
       <r>   -2.0575    1.0000 </r>
       <r>   -2.0371    1.0000 </r>
       <r>   -2.0207    1.0000 </r>
       <r>   -2.0049    1.0000 </r>
       <r>   -1.9577    1.0000 </r>
       <r>   -1.9248    1.0000 </r>
       <r>   -1.8902    1.0000 </r>
       <r>   -1.8790    1.0000 </r>
       <r>   -1.8549    1.0000 </r>
       <r>   -1.8389    1.0000 </r>
       <r>   -1.7877    1.0000 </r>
       <r>   -1.7745    1.0000 </r>
       <r>   -1.7617    1.0000 </r>
       <r>   -1.7269    1.0000 </r>
       <r>   -1.7075    1.0000 </r>
       <r>   -1.6759    1.0000 </r>
       <r>   -1.6655    1.0000 </r>
       <r>   -1.6373    1.0000 </r>
       <r>   -1.6094    1.0000 </r>
       <r>   -1.5588    1.0000 </r>
       <r>   -1.5433    1.0000 </r>
       <r>   -1.5188    1.0000 </r>
       <r>   -1.4781    1.0000 </r>
       <r>   -1.4497    1.0000 </r>
       <r>   -1.4178    1.0000 </r>
       <r>   -1.3672    1.0000 </r>
       <r>   -1.3369    1.0000 </r>
       <r>   -1.3150    1.0000 </r>
       <r>   -1.2995    1.0000 </r>
       <r>   -1.2662    1.0000 </r>
       <r>   -1.2042    1.0000 </r>
       <r>   -1.1782    1.0000 </r>
       <r>   -1.1693    1.0000 </r>
       <r>   -1.1527    1.0000 </r>
       <r>   -1.1380    1.0000 </r>
       <r>   -1.1099    1.0000 </r>
       <r>   -1.0955    1.0000 </r>
       <r>   -1.0938    1.0000 </r>
       <r>   -1.0796    1.0000 </r>
       <r>   -1.0699    1.0000 </r>
       <r>   -1.0515    1.0000 </r>
       <r>   -1.0378    1.0000 </r>
       <r>   -1.0146    1.0000 </r>
       <r>   -0.9864    1.0000 </r>
       <r>   -0.9782    1.0000 </r>
       <r>   -0.9718    1.0000 </r>
       <r>   -0.9558    1.0000 </r>
       <r>   -0.9411    1.0000 </r>
       <r>   -0.9273    1.0000 </r>
       <r>   -0.9164    1.0000 </r>
       <r>   -0.8753    1.0000 </r>
       <r>   -0.8469    1.0000 </r>
       <r>   -0.8454    1.0000 </r>
       <r>   -0.8235    1.0000 </r>
       <r>   -0.7987    1.0000 </r>
       <r>   -0.7783    1.0000 </r>
       <r>   -0.7679    1.0000 </r>
       <r>   -0.7474    1.0000 </r>
       <r>   -0.7160    1.0000 </r>
       <r>   -0.6978    1.0000 </r>
       <r>   -0.6753    1.0000 </r>
       <r>   -0.6574    1.0000 </r>
       <r>   -0.6500    1.0000 </r>
       <r>   -0.6148    1.0000 </r>
       <r>   -0.6051    1.0000 </r>
       <r>   -0.5877    1.0000 </r>
       <r>   -0.5594    1.0000 </r>
       <r>   -0.5517    1.0000 </r>
       <r>   -0.5363    1.0000 </r>
       <r>   -0.5227    1.0000 </r>
       <r>   -0.5137    1.0000 </r>
       <r>   -0.5006    1.0000 </r>
       <r>   -0.4819    1.0000 </r>
       <r>   -0.4705    1.0000 </r>
       <r>   -0.4502    1.0000 </r>
       <r>   -0.4405    1.0000 </r>
       <r>   -0.4328    1.0000 </r>
       <r>   -0.4040    1.0000 </r>
       <r>   -0.4010    1.0000 </r>
       <r>   -0.3835    1.0000 </r>
       <r>   -0.3752    1.0000 </r>
       <r>   -0.3639    1.0000 </r>
       <r>   -0.3437    1.0000 </r>
       <r>   -0.3356    1.0000 </r>
       <r>   -0.3320    1.0000 </r>
       <r>   -0.3280    1.0000 </r>
       <r>   -0.2897    1.0000 </r>
       <r>   -0.2721    1.0000 </r>
       <r>   -0.2539    1.0000 </r>
       <r>   -0.2503    1.0000 </r>
       <r>   -0.2228    1.0000 </r>
       <r>   -0.2120    1.0000 </r>
       <r>   -0.2036    1.0000 </r>
       <r>   -0.1842    1.0000 </r>
       <r>   -0.1809    1.0000 </r>
       <r>   -0.1435    1.0000 </r>
       <r>   -0.1374    1.0000 </r>
       <r>   -0.1307    1.0000 </r>
       <r>   -0.1213    1.0000 </r>
       <r>   -0.1107    1.0000 </r>
       <r>   -0.0999    1.0000 </r>
       <r>   -0.0859    1.0000 </r>
       <r>   -0.0783    1.0000 </r>
       <r>   -0.0613    1.0000 </r>
       <r>   -0.0513    1.0000 </r>
       <r>   -0.0292    1.0000 </r>
       <r>   -0.0106    1.0000 </r>
       <r>    0.0126    1.0000 </r>
       <r>    0.0395    1.0000 </r>
       <r>    0.0587    1.0000 </r>
       <r>    0.0624    1.0000 </r>
       <r>    0.1148    1.0000 </r>
       <r>    0.1253    1.0000 </r>
       <r>    0.1629    1.0000 </r>
       <r>    0.1811    1.0000 </r>
       <r>    0.1917    1.0000 </r>
       <r>    0.2101    1.0000 </r>
       <r>    0.2343    1.0000 </r>
       <r>    0.2584    1.0000 </r>
       <r>    0.2925    1.0000 </r>
       <r>    0.3213    1.0000 </r>
       <r>    0.3601    1.0000 </r>
       <r>    0.4171    1.0000 </r>
       <r>    0.4675    1.0000 </r>
       <r>    0.4816    1.0001 </r>
       <r>    0.5137    1.0002 </r>
       <r>    0.5907    1.0023 </r>
       <r>    0.6325    1.0065 </r>
       <r>    0.6476    1.0090 </r>
       <r>    0.7008    1.0227 </r>
       <r>    0.7023    1.0231 </r>
       <r>    0.7274    1.0306 </r>
       <r>    0.7606    1.0354 </r>
       <r>    0.8017    1.0172 </r>
       <r>    0.8292    0.9770 </r>
       <r>    0.8597    0.8960 </r>
       <r>    0.8758    0.8367 </r>
       <r>    0.9001    0.7270 </r>
       <r>    0.9322    0.5557 </r>
       <r>    0.9668    0.3630 </r>
       <r>    0.9865    0.2613 </r>
       <r>    1.0062    0.1725 </r>
       <r>    1.0333    0.0764 </r>
       <r>    1.0381    0.0628 </r>
       <r>    1.0866   -0.0209 </r>
       <r>    1.1185   -0.0351 </r>
       <r>    1.1244   -0.0354 </r>
       <r>    1.1440   -0.0335 </r>
       <r>    1.1626   -0.0290 </r>
       <r>    1.1868   -0.0216 </r>
       <r>    1.2259   -0.0112 </r>
       <r>    1.2390   -0.0085 </r>
       <r>    1.2437   -0.0077 </r>
       <r>    1.2587   -0.0055 </r>
       <r>    1.2667   -0.0045 </r>
       <r>    1.3126   -0.0013 </r>
       <r>    1.3241   -0.0009 </r>
       <r>    1.3607   -0.0003 </r>
       <r>    1.3716   -0.0002 </r>
       <r>    1.3949   -0.0001 </r>
       <r>    1.4130   -0.0000 </r>
       <r>    1.4237   -0.0000 </r>
       <r>    1.4462   -0.0000 </r>
       <r>    1.4637   -0.0000 </r>
       <r>    1.4795   -0.0000 </r>
       <r>    1.4807   -0.0000 </r>
       <r>    1.5184   -0.0000 </r>
       <r>    1.5332   -0.0000 </r>
       <r>    1.5433   -0.0000 </r>
       <r>    1.5921   -0.0000 </r>
       <r>    1.6007   -0.0000 </r>
       <r>    1.6105   -0.0000 </r>
       <r>    1.6195   -0.0000 </r>
       <r>    1.6609   -0.0000 </r>
       <r>    1.6716   -0.0000 </r>
       <r>    1.6819   -0.0000 </r>
       <r>    1.6845   -0.0000 </r>
       <r>    1.6941   -0.0000 </r>
       <r>    1.7055   -0.0000 </r>
       <r>    1.7292   -0.0000 </r>
       <r>    1.7518   -0.0000 </r>
       <r>    1.7794   -0.0000 </r>
       <r>    1.7997   -0.0000 </r>
       <r>    1.8032   -0.0000 </r>
       <r>    1.8139   -0.0000 </r>
       <r>    1.8450   -0.0000 </r>
       <r>    1.8518   -0.0000 </r>
       <r>    1.8547   -0.0000 </r>
       <r>    1.8712   -0.0000 </r>
       <r>    1.8897   -0.0000 </r>
       <r>    1.9001   -0.0000 </r>
       <r>    1.9120   -0.0000 </r>
       <r>    1.9216   -0.0000 </r>
       <r>    1.9261   -0.0000 </r>
       <r>    1.9445   -0.0000 </r>
       <r>    1.9518   -0.0000 </r>
       <r>    1.9624   -0.0000 </r>
       <r>    1.9678   -0.0000 </r>
       <r>    1.9817   -0.0000 </r>
       <r>    1.9880   -0.0000 </r>
       <r>    1.9976   -0.0000 </r>
       <r>    2.0092   -0.0000 </r>
       <r>    2.0200   -0.0000 </r>
       <r>    2.0343   -0.0000 </r>
       <r>    2.0403   -0.0000 </r>
       <r>    2.0492   -0.0000 </r>
       <r>    2.0515   -0.0000 </r>
       <r>    2.0682   -0.0000 </r>
       <r>    2.0756   -0.0000 </r>
       <r>    2.0883   -0.0000 </r>
       <r>    2.0971   -0.0000 </r>
       <r>    2.1042   -0.0000 </r>
       <r>    2.1140   -0.0000 </r>
       <r>    2.1168   -0.0000 </r>
       <r>    2.1263   -0.0000 </r>
       <r>    2.1339   -0.0000 </r>
       <r>    2.1454   -0.0000 </r>
       <r>    2.1553   -0.0000 </r>
       <r>    2.1665   -0.0000 </r>
       <r>    2.1668   -0.0000 </r>
       <r>    2.1700   -0.0000 </r>
       <r>    2.1800   -0.0000 </r>
       <r>    2.1928   -0.0000 </r>
       <r>    2.2032   -0.0000 </r>
       <r>    2.2304   -0.0000 </r>
       <r>    2.2375   -0.0000 </r>
       <r>    2.2499   -0.0000 </r>
       <r>    2.2635   -0.0000 </r>
       <r>    2.2815   -0.0000 </r>
       <r>    2.2967   -0.0000 </r>
       <r>    2.3080   -0.0000 </r>
       <r>    2.3234   -0.0000 </r>
       <r>    2.3441   -0.0000 </r>
       <r>    2.3492   -0.0000 </r>
       <r>    2.3707   -0.0000 </r>
       <r>    2.3779   -0.0000 </r>
       <r>    2.4005   -0.0000 </r>
       <r>    2.4063   -0.0000 </r>
       <r>    2.4182   -0.0000 </r>
       <r>    2.4247   -0.0000 </r>
       <r>    2.4383   -0.0000 </r>
       <r>    2.4484   -0.0000 </r>
       <r>    2.4623   -0.0000 </r>
       <r>    2.4704   -0.0000 </r>
       <r>    2.4955   -0.0000 </r>
       <r>    2.4960   -0.0000 </r>
       <r>    2.5178   -0.0000 </r>
       <r>    2.5239   -0.0000 </r>
       <r>    2.5324   -0.0000 </r>
       <r>    2.5470   -0.0000 </r>
       <r>    2.5592   -0.0000 </r>
       <r>    2.5672   -0.0000 </r>
       <r>    2.5758   -0.0000 </r>
       <r>    2.5815   -0.0000 </r>
       <r>    2.5925   -0.0000 </r>
       <r>    2.5946   -0.0000 </r>
       <r>    2.6100   -0.0000 </r>
       <r>    2.6217   -0.0000 </r>
       <r>    2.6373   -0.0000 </r>
       <r>    2.6407   -0.0000 </r>
       <r>    2.6472   -0.0000 </r>
       <r>    2.6582   -0.0000 </r>
       <r>    2.6685   -0.0000 </r>
       <r>    2.6703   -0.0000 </r>
       <r>    2.6765   -0.0000 </r>
       <r>    2.7030   -0.0000 </r>
       <r>    2.7166   -0.0000 </r>
       <r>    2.7212   -0.0000 </r>
       <r>    2.7406   -0.0000 </r>
       <r>    2.7547   -0.0000 </r>
       <r>    2.7615   -0.0000 </r>
       <r>    2.7782   -0.0000 </r>
       <r>    2.7862   -0.0000 </r>
       <r>    2.8019   -0.0000 </r>
       <r>    2.8238   -0.0000 </r>
       <r>    2.8341   -0.0000 </r>
       <r>    2.8768   -0.0000 </r>
       <r>    2.8918   -0.0000 </r>
       <r>    2.9219   -0.0000 </r>
       <r>    2.9317   -0.0000 </r>
       <r>    2.9650   -0.0000 </r>
       <r>    2.9828   -0.0000 </r>
       <r>    2.9904   -0.0000 </r>
       <r>    3.0182   -0.0000 </r>
       <r>    3.0422   -0.0000 </r>
       <r>    3.0549   -0.0000 </r>
       <r>    3.0791   -0.0000 </r>
      </set>
      <set comment="kpoint 4">
       <r>  -43.2199    1.0000 </r>
       <r>  -43.1743    1.0000 </r>
       <r>  -43.1594    1.0000 </r>
       <r>  -43.1467    1.0000 </r>
       <r>  -43.1379    1.0000 </r>
       <r>  -43.1346    1.0000 </r>
       <r>  -43.1116    1.0000 </r>
       <r>  -43.1062    1.0000 </r>
       <r>  -43.0855    1.0000 </r>
       <r>  -43.0795    1.0000 </r>
       <r>  -43.0744    1.0000 </r>
       <r>  -43.0718    1.0000 </r>
       <r>  -43.0590    1.0000 </r>
       <r>  -43.0536    1.0000 </r>
       <r>  -43.0467    1.0000 </r>
       <r>  -43.0328    1.0000 </r>
       <r>  -42.9696    1.0000 </r>
       <r>  -42.9669    1.0000 </r>
       <r>  -42.7135    1.0000 </r>
       <r>  -42.6432    1.0000 </r>
       <r>  -42.6118    1.0000 </r>
       <r>  -42.5660    1.0000 </r>
       <r>  -42.5478    1.0000 </r>
       <r>  -42.4154    1.0000 </r>
       <r>  -42.3922    1.0000 </r>
       <r>  -42.3274    1.0000 </r>
       <r>  -42.3133    1.0000 </r>
       <r>  -42.1122    1.0000 </r>
       <r>  -41.9644    1.0000 </r>
       <r>  -41.9515    1.0000 </r>
       <r>  -40.5195    1.0000 </r>
       <r>  -40.4664    1.0000 </r>
       <r>  -40.3227    1.0000 </r>
       <r>  -40.1988    1.0000 </r>
       <r>  -40.0637    1.0000 </r>
       <r>  -40.0205    1.0000 </r>
       <r>  -39.8895    1.0000 </r>
       <r>  -39.8742    1.0000 </r>
       <r>  -39.6451    1.0000 </r>
       <r>  -15.4407    1.0000 </r>
       <r>  -15.4298    1.0000 </r>
       <r>  -15.3910    1.0000 </r>
       <r>  -15.3908    1.0000 </r>
       <r>  -15.3641    1.0000 </r>
       <r>   -7.4850    1.0000 </r>
       <r>   -6.9454    1.0000 </r>
       <r>   -5.9565    1.0000 </r>
       <r>   -5.8731    1.0000 </r>
       <r>   -4.9985    1.0000 </r>
       <r>   -4.9236    1.0000 </r>
       <r>   -4.9106    1.0000 </r>
       <r>   -4.5376    1.0000 </r>
       <r>   -4.1892    1.0000 </r>
       <r>   -4.1527    1.0000 </r>
       <r>   -4.1378    1.0000 </r>
       <r>   -4.1020    1.0000 </r>
       <r>   -4.0716    1.0000 </r>
       <r>   -3.8175    1.0000 </r>
       <r>   -3.5734    1.0000 </r>
       <r>   -3.3506    1.0000 </r>
       <r>   -3.3377    1.0000 </r>
       <r>   -3.3060    1.0000 </r>
       <r>   -3.2636    1.0000 </r>
       <r>   -3.2070    1.0000 </r>
       <r>   -3.1691    1.0000 </r>
       <r>   -3.1459    1.0000 </r>
       <r>   -3.0827    1.0000 </r>
       <r>   -2.8737    1.0000 </r>
       <r>   -2.8035    1.0000 </r>
       <r>   -2.7095    1.0000 </r>
       <r>   -2.6874    1.0000 </r>
       <r>   -2.6393    1.0000 </r>
       <r>   -2.5993    1.0000 </r>
       <r>   -2.5382    1.0000 </r>
       <r>   -2.5162    1.0000 </r>
       <r>   -2.4692    1.0000 </r>
       <r>   -2.4406    1.0000 </r>
       <r>   -2.4269    1.0000 </r>
       <r>   -2.4003    1.0000 </r>
       <r>   -2.3466    1.0000 </r>
       <r>   -2.3228    1.0000 </r>
       <r>   -2.2717    1.0000 </r>
       <r>   -2.2506    1.0000 </r>
       <r>   -2.1966    1.0000 </r>
       <r>   -2.1652    1.0000 </r>
       <r>   -2.1261    1.0000 </r>
       <r>   -2.0964    1.0000 </r>
       <r>   -2.0777    1.0000 </r>
       <r>   -2.0420    1.0000 </r>
       <r>   -2.0306    1.0000 </r>
       <r>   -1.9921    1.0000 </r>
       <r>   -1.9676    1.0000 </r>
       <r>   -1.9603    1.0000 </r>
       <r>   -1.9353    1.0000 </r>
       <r>   -1.9029    1.0000 </r>
       <r>   -1.8791    1.0000 </r>
       <r>   -1.8420    1.0000 </r>
       <r>   -1.8198    1.0000 </r>
       <r>   -1.8084    1.0000 </r>
       <r>   -1.7752    1.0000 </r>
       <r>   -1.7477    1.0000 </r>
       <r>   -1.7246    1.0000 </r>
       <r>   -1.6993    1.0000 </r>
       <r>   -1.6349    1.0000 </r>
       <r>   -1.6164    1.0000 </r>
       <r>   -1.5841    1.0000 </r>
       <r>   -1.5706    1.0000 </r>
       <r>   -1.5266    1.0000 </r>
       <r>   -1.4900    1.0000 </r>
       <r>   -1.4481    1.0000 </r>
       <r>   -1.4360    1.0000 </r>
       <r>   -1.4108    1.0000 </r>
       <r>   -1.3874    1.0000 </r>
       <r>   -1.3662    1.0000 </r>
       <r>   -1.3334    1.0000 </r>
       <r>   -1.3103    1.0000 </r>
       <r>   -1.2620    1.0000 </r>
       <r>   -1.2558    1.0000 </r>
       <r>   -1.2173    1.0000 </r>
       <r>   -1.2080    1.0000 </r>
       <r>   -1.1818    1.0000 </r>
       <r>   -1.1603    1.0000 </r>
       <r>   -1.1492    1.0000 </r>
       <r>   -1.1279    1.0000 </r>
       <r>   -1.1043    1.0000 </r>
       <r>   -1.0892    1.0000 </r>
       <r>   -1.0584    1.0000 </r>
       <r>   -1.0407    1.0000 </r>
       <r>   -1.0379    1.0000 </r>
       <r>   -1.0228    1.0000 </r>
       <r>   -1.0036    1.0000 </r>
       <r>   -0.9980    1.0000 </r>
       <r>   -0.9795    1.0000 </r>
       <r>   -0.9485    1.0000 </r>
       <r>   -0.9295    1.0000 </r>
       <r>   -0.9201    1.0000 </r>
       <r>   -0.9125    1.0000 </r>
       <r>   -0.8986    1.0000 </r>
       <r>   -0.8821    1.0000 </r>
       <r>   -0.8623    1.0000 </r>
       <r>   -0.8453    1.0000 </r>
       <r>   -0.8339    1.0000 </r>
       <r>   -0.8196    1.0000 </r>
       <r>   -0.8051    1.0000 </r>
       <r>   -0.7781    1.0000 </r>
       <r>   -0.7611    1.0000 </r>
       <r>   -0.7497    1.0000 </r>
       <r>   -0.7375    1.0000 </r>
       <r>   -0.7160    1.0000 </r>
       <r>   -0.6980    1.0000 </r>
       <r>   -0.6930    1.0000 </r>
       <r>   -0.6718    1.0000 </r>
       <r>   -0.6584    1.0000 </r>
       <r>   -0.6502    1.0000 </r>
       <r>   -0.6356    1.0000 </r>
       <r>   -0.5957    1.0000 </r>
       <r>   -0.5898    1.0000 </r>
       <r>   -0.5774    1.0000 </r>
       <r>   -0.5574    1.0000 </r>
       <r>   -0.5424    1.0000 </r>
       <r>   -0.5300    1.0000 </r>
       <r>   -0.5209    1.0000 </r>
       <r>   -0.4950    1.0000 </r>
       <r>   -0.4791    1.0000 </r>
       <r>   -0.4571    1.0000 </r>
       <r>   -0.4402    1.0000 </r>
       <r>   -0.4203    1.0000 </r>
       <r>   -0.4076    1.0000 </r>
       <r>   -0.3951    1.0000 </r>
       <r>   -0.3784    1.0000 </r>
       <r>   -0.3563    1.0000 </r>
       <r>   -0.3460    1.0000 </r>
       <r>   -0.3336    1.0000 </r>
       <r>   -0.3173    1.0000 </r>
       <r>   -0.3013    1.0000 </r>
       <r>   -0.2925    1.0000 </r>
       <r>   -0.2729    1.0000 </r>
       <r>   -0.2528    1.0000 </r>
       <r>   -0.2381    1.0000 </r>
       <r>   -0.2183    1.0000 </r>
       <r>   -0.1986    1.0000 </r>
       <r>   -0.1898    1.0000 </r>
       <r>   -0.1772    1.0000 </r>
       <r>   -0.1622    1.0000 </r>
       <r>   -0.1494    1.0000 </r>
       <r>   -0.1210    1.0000 </r>
       <r>   -0.0953    1.0000 </r>
       <r>   -0.0858    1.0000 </r>
       <r>   -0.0646    1.0000 </r>
       <r>   -0.0506    1.0000 </r>
       <r>   -0.0319    1.0000 </r>
       <r>   -0.0014    1.0000 </r>
       <r>    0.0317    1.0000 </r>
       <r>    0.0424    1.0000 </r>
       <r>    0.0521    1.0000 </r>
       <r>    0.0798    1.0000 </r>
       <r>    0.0977    1.0000 </r>
       <r>    0.1061    1.0000 </r>
       <r>    0.1321    1.0000 </r>
       <r>    0.1555    1.0000 </r>
       <r>    0.1753    1.0000 </r>
       <r>    0.1799    1.0000 </r>
       <r>    0.2144    1.0000 </r>
       <r>    0.2493    1.0000 </r>
       <r>    0.2584    1.0000 </r>
       <r>    0.2880    1.0000 </r>
       <r>    0.3414    1.0000 </r>
       <r>    0.3728    1.0000 </r>
       <r>    0.3824    1.0000 </r>
       <r>    0.4131    1.0000 </r>
       <r>    0.4518    1.0000 </r>
       <r>    0.4832    1.0001 </r>
       <r>    0.5044    1.0001 </r>
       <r>    0.5200    1.0003 </r>
       <r>    0.5352    1.0004 </r>
       <r>    0.5924    1.0024 </r>
       <r>    0.6088    1.0037 </r>
       <r>    0.6416    1.0079 </r>
       <r>    0.6638    1.0124 </r>
       <r>    0.6955    1.0210 </r>
       <r>    0.7499    1.0350 </r>
       <r>    0.7712    1.0342 </r>
       <r>    0.7958    1.0224 </r>
       <r>    0.8426    0.9465 </r>
       <r>    0.8692    0.8624 </r>
       <r>    0.8757    0.8371 </r>
       <r>    0.8934    0.7591 </r>
       <r>    0.9474    0.4701 </r>
       <r>    0.9890    0.2492 </r>
       <r>    1.0030    0.1856 </r>
       <r>    1.0195    0.1212 </r>
       <r>    1.0406    0.0563 </r>
       <r>    1.0496    0.0345 </r>
       <r>    1.0931   -0.0258 </r>
       <r>    1.1120   -0.0340 </r>
       <r>    1.1181   -0.0350 </r>
       <r>    1.1454   -0.0333 </r>
       <r>    1.1536   -0.0314 </r>
       <r>    1.1990   -0.0180 </r>
       <r>    1.2216   -0.0121 </r>
       <r>    1.2420   -0.0080 </r>
       <r>    1.2624   -0.0050 </r>
       <r>    1.2922   -0.0024 </r>
       <r>    1.3120   -0.0013 </r>
       <r>    1.3381   -0.0006 </r>
       <r>    1.3450   -0.0005 </r>
       <r>    1.3659   -0.0002 </r>
       <r>    1.3842   -0.0001 </r>
       <r>    1.3926   -0.0001 </r>
       <r>    1.4146   -0.0000 </r>
       <r>    1.4320   -0.0000 </r>
       <r>    1.4402   -0.0000 </r>
       <r>    1.4522   -0.0000 </r>
       <r>    1.4719   -0.0000 </r>
       <r>    1.4873   -0.0000 </r>
       <r>    1.5154   -0.0000 </r>
       <r>    1.5253   -0.0000 </r>
       <r>    1.5425   -0.0000 </r>
       <r>    1.5564   -0.0000 </r>
       <r>    1.5749   -0.0000 </r>
       <r>    1.5848   -0.0000 </r>
       <r>    1.5985   -0.0000 </r>
       <r>    1.6079   -0.0000 </r>
       <r>    1.6257   -0.0000 </r>
       <r>    1.6376   -0.0000 </r>
       <r>    1.6534   -0.0000 </r>
       <r>    1.6713   -0.0000 </r>
       <r>    1.6885   -0.0000 </r>
       <r>    1.7120   -0.0000 </r>
       <r>    1.7222   -0.0000 </r>
       <r>    1.7343   -0.0000 </r>
       <r>    1.7545   -0.0000 </r>
       <r>    1.7676   -0.0000 </r>
       <r>    1.7790   -0.0000 </r>
       <r>    1.7864   -0.0000 </r>
       <r>    1.8045   -0.0000 </r>
       <r>    1.8067   -0.0000 </r>
       <r>    1.8193   -0.0000 </r>
       <r>    1.8359   -0.0000 </r>
       <r>    1.8540   -0.0000 </r>
       <r>    1.8709   -0.0000 </r>
       <r>    1.8829   -0.0000 </r>
       <r>    1.8918   -0.0000 </r>
       <r>    1.9161   -0.0000 </r>
       <r>    1.9264   -0.0000 </r>
       <r>    1.9382   -0.0000 </r>
       <r>    1.9507   -0.0000 </r>
       <r>    1.9673   -0.0000 </r>
       <r>    1.9755   -0.0000 </r>
       <r>    1.9873   -0.0000 </r>
       <r>    2.0111   -0.0000 </r>
       <r>    2.0241   -0.0000 </r>
       <r>    2.0380   -0.0000 </r>
       <r>    2.0444   -0.0000 </r>
       <r>    2.0573   -0.0000 </r>
       <r>    2.0655   -0.0000 </r>
       <r>    2.0747   -0.0000 </r>
       <r>    2.0871   -0.0000 </r>
       <r>    2.0976   -0.0000 </r>
       <r>    2.1087   -0.0000 </r>
       <r>    2.1196   -0.0000 </r>
       <r>    2.1282   -0.0000 </r>
       <r>    2.1364   -0.0000 </r>
       <r>    2.1501   -0.0000 </r>
       <r>    2.1633   -0.0000 </r>
       <r>    2.1750   -0.0000 </r>
       <r>    2.1854   -0.0000 </r>
       <r>    2.1958   -0.0000 </r>
       <r>    2.2067   -0.0000 </r>
       <r>    2.2139   -0.0000 </r>
       <r>    2.2251   -0.0000 </r>
       <r>    2.2389   -0.0000 </r>
       <r>    2.2553   -0.0000 </r>
       <r>    2.2632   -0.0000 </r>
       <r>    2.2805   -0.0000 </r>
       <r>    2.2850   -0.0000 </r>
       <r>    2.3060   -0.0000 </r>
       <r>    2.3161   -0.0000 </r>
       <r>    2.3222   -0.0000 </r>
       <r>    2.3383   -0.0000 </r>
       <r>    2.3462   -0.0000 </r>
       <r>    2.3650   -0.0000 </r>
       <r>    2.3790   -0.0000 </r>
       <r>    2.3874   -0.0000 </r>
       <r>    2.3963   -0.0000 </r>
       <r>    2.4066   -0.0000 </r>
       <r>    2.4162   -0.0000 </r>
       <r>    2.4271   -0.0000 </r>
       <r>    2.4369   -0.0000 </r>
       <r>    2.4481   -0.0000 </r>
       <r>    2.4535   -0.0000 </r>
       <r>    2.4694   -0.0000 </r>
       <r>    2.4813   -0.0000 </r>
       <r>    2.4878   -0.0000 </r>
       <r>    2.5042   -0.0000 </r>
       <r>    2.5171   -0.0000 </r>
       <r>    2.5202   -0.0000 </r>
       <r>    2.5263   -0.0000 </r>
       <r>    2.5399   -0.0000 </r>
       <r>    2.5507   -0.0000 </r>
       <r>    2.5597   -0.0000 </r>
       <r>    2.5657   -0.0000 </r>
       <r>    2.5810   -0.0000 </r>
       <r>    2.5895   -0.0000 </r>
       <r>    2.5988   -0.0000 </r>
       <r>    2.6025   -0.0000 </r>
       <r>    2.6072   -0.0000 </r>
       <r>    2.6207   -0.0000 </r>
       <r>    2.6264   -0.0000 </r>
       <r>    2.6379   -0.0000 </r>
       <r>    2.6425   -0.0000 </r>
       <r>    2.6538   -0.0000 </r>
       <r>    2.6775   -0.0000 </r>
       <r>    2.6886   -0.0000 </r>
       <r>    2.7084   -0.0000 </r>
       <r>    2.7169   -0.0000 </r>
       <r>    2.7330   -0.0000 </r>
       <r>    2.7491   -0.0000 </r>
       <r>    2.7636   -0.0000 </r>
       <r>    2.7816   -0.0000 </r>
       <r>    2.7897   -0.0000 </r>
       <r>    2.8134   -0.0000 </r>
       <r>    2.8328   -0.0000 </r>
       <r>    2.8396   -0.0000 </r>
       <r>    2.8626   -0.0000 </r>
       <r>    2.8804   -0.0000 </r>
       <r>    2.8840   -0.0000 </r>
       <r>    2.8953   -0.0000 </r>
       <r>    2.9128   -0.0000 </r>
       <r>    2.9234   -0.0000 </r>
       <r>    2.9694   -0.0000 </r>
       <r>    2.9815   -0.0000 </r>
       <r>    3.0054   -0.0000 </r>
       <r>    3.0278   -0.0000 </r>
       <r>    3.0587   -0.0000 </r>
      </set>
      <set comment="kpoint 5">
       <r>  -43.2199    1.0000 </r>
       <r>  -43.1743    1.0000 </r>
       <r>  -43.1594    1.0000 </r>
       <r>  -43.1467    1.0000 </r>
       <r>  -43.1379    1.0000 </r>
       <r>  -43.1346    1.0000 </r>
       <r>  -43.1116    1.0000 </r>
       <r>  -43.1062    1.0000 </r>
       <r>  -43.0855    1.0000 </r>
       <r>  -43.0795    1.0000 </r>
       <r>  -43.0744    1.0000 </r>
       <r>  -43.0718    1.0000 </r>
       <r>  -43.0590    1.0000 </r>
       <r>  -43.0536    1.0000 </r>
       <r>  -43.0467    1.0000 </r>
       <r>  -43.0328    1.0000 </r>
       <r>  -42.9702    1.0000 </r>
       <r>  -42.9669    1.0000 </r>
       <r>  -42.7135    1.0000 </r>
       <r>  -42.6431    1.0000 </r>
       <r>  -42.6118    1.0000 </r>
       <r>  -42.5639    1.0000 </r>
       <r>  -42.5473    1.0000 </r>
       <r>  -42.4174    1.0000 </r>
       <r>  -42.3922    1.0000 </r>
       <r>  -42.3273    1.0000 </r>
       <r>  -42.3133    1.0000 </r>
       <r>  -42.1123    1.0000 </r>
       <r>  -41.9643    1.0000 </r>
       <r>  -41.9515    1.0000 </r>
       <r>  -40.5195    1.0000 </r>
       <r>  -40.4664    1.0000 </r>
       <r>  -40.3227    1.0000 </r>
       <r>  -40.1988    1.0000 </r>
       <r>  -40.0637    1.0000 </r>
       <r>  -40.0205    1.0000 </r>
       <r>  -39.8895    1.0000 </r>
       <r>  -39.8742    1.0000 </r>
       <r>  -39.6451    1.0000 </r>
       <r>  -15.4407    1.0000 </r>
       <r>  -15.4298    1.0000 </r>
       <r>  -15.3910    1.0000 </r>
       <r>  -15.3908    1.0000 </r>
       <r>  -15.3641    1.0000 </r>
       <r>   -7.4735    1.0000 </r>
       <r>   -6.8125    1.0000 </r>
       <r>   -5.8326    1.0000 </r>
       <r>   -5.7661    1.0000 </r>
       <r>   -5.7390    1.0000 </r>
       <r>   -4.8985    1.0000 </r>
       <r>   -4.8448    1.0000 </r>
       <r>   -4.7977    1.0000 </r>
       <r>   -4.4352    1.0000 </r>
       <r>   -4.0132    1.0000 </r>
       <r>   -3.9881    1.0000 </r>
       <r>   -3.9414    1.0000 </r>
       <r>   -3.7621    1.0000 </r>
       <r>   -3.6630    1.0000 </r>
       <r>   -3.4736    1.0000 </r>
       <r>   -3.4619    1.0000 </r>
       <r>   -3.4229    1.0000 </r>
       <r>   -3.3880    1.0000 </r>
       <r>   -3.1088    1.0000 </r>
       <r>   -3.0714    1.0000 </r>
       <r>   -3.0276    1.0000 </r>
       <r>   -3.0165    1.0000 </r>
       <r>   -2.8958    1.0000 </r>
       <r>   -2.8130    1.0000 </r>
       <r>   -2.8011    1.0000 </r>
       <r>   -2.7558    1.0000 </r>
       <r>   -2.7196    1.0000 </r>
       <r>   -2.7072    1.0000 </r>
       <r>   -2.6817    1.0000 </r>
       <r>   -2.6435    1.0000 </r>
       <r>   -2.5701    1.0000 </r>
       <r>   -2.4954    1.0000 </r>
       <r>   -2.4432    1.0000 </r>
       <r>   -2.4073    1.0000 </r>
       <r>   -2.3869    1.0000 </r>
       <r>   -2.3517    1.0000 </r>
       <r>   -2.2844    1.0000 </r>
       <r>   -2.2737    1.0000 </r>
       <r>   -2.2627    1.0000 </r>
       <r>   -2.2329    1.0000 </r>
       <r>   -2.2137    1.0000 </r>
       <r>   -2.1558    1.0000 </r>
       <r>   -2.1340    1.0000 </r>
       <r>   -2.1028    1.0000 </r>
       <r>   -2.0823    1.0000 </r>
       <r>   -2.0746    1.0000 </r>
       <r>   -2.0377    1.0000 </r>
       <r>   -2.0228    1.0000 </r>
       <r>   -1.9878    1.0000 </r>
       <r>   -1.9632    1.0000 </r>
       <r>   -1.9295    1.0000 </r>
       <r>   -1.9171    1.0000 </r>
       <r>   -1.8871    1.0000 </r>
       <r>   -1.8592    1.0000 </r>
       <r>   -1.8453    1.0000 </r>
       <r>   -1.7956    1.0000 </r>
       <r>   -1.7569    1.0000 </r>
       <r>   -1.7353    1.0000 </r>
       <r>   -1.7012    1.0000 </r>
       <r>   -1.6822    1.0000 </r>
       <r>   -1.6443    1.0000 </r>
       <r>   -1.6188    1.0000 </r>
       <r>   -1.5889    1.0000 </r>
       <r>   -1.5476    1.0000 </r>
       <r>   -1.4985    1.0000 </r>
       <r>   -1.4736    1.0000 </r>
       <r>   -1.4381    1.0000 </r>
       <r>   -1.4185    1.0000 </r>
       <r>   -1.4067    1.0000 </r>
       <r>   -1.3684    1.0000 </r>
       <r>   -1.3515    1.0000 </r>
       <r>   -1.3375    1.0000 </r>
       <r>   -1.2889    1.0000 </r>
       <r>   -1.2758    1.0000 </r>
       <r>   -1.2439    1.0000 </r>
       <r>   -1.2277    1.0000 </r>
       <r>   -1.1898    1.0000 </r>
       <r>   -1.1808    1.0000 </r>
       <r>   -1.1691    1.0000 </r>
       <r>   -1.1354    1.0000 </r>
       <r>   -1.1220    1.0000 </r>
       <r>   -1.0929    1.0000 </r>
       <r>   -1.0758    1.0000 </r>
       <r>   -1.0656    1.0000 </r>
       <r>   -1.0396    1.0000 </r>
       <r>   -1.0296    1.0000 </r>
       <r>   -0.9979    1.0000 </r>
       <r>   -0.9646    1.0000 </r>
       <r>   -0.9592    1.0000 </r>
       <r>   -0.9524    1.0000 </r>
       <r>   -0.9286    1.0000 </r>
       <r>   -0.9127    1.0000 </r>
       <r>   -0.8887    1.0000 </r>
       <r>   -0.8809    1.0000 </r>
       <r>   -0.8653    1.0000 </r>
       <r>   -0.8491    1.0000 </r>
       <r>   -0.8153    1.0000 </r>
       <r>   -0.8047    1.0000 </r>
       <r>   -0.7928    1.0000 </r>
       <r>   -0.7782    1.0000 </r>
       <r>   -0.7674    1.0000 </r>
       <r>   -0.7522    1.0000 </r>
       <r>   -0.7399    1.0000 </r>
       <r>   -0.7241    1.0000 </r>
       <r>   -0.7104    1.0000 </r>
       <r>   -0.6884    1.0000 </r>
       <r>   -0.6810    1.0000 </r>
       <r>   -0.6616    1.0000 </r>
       <r>   -0.6427    1.0000 </r>
       <r>   -0.6181    1.0000 </r>
       <r>   -0.6148    1.0000 </r>
       <r>   -0.6008    1.0000 </r>
       <r>   -0.5851    1.0000 </r>
       <r>   -0.5728    1.0000 </r>
       <r>   -0.5634    1.0000 </r>
       <r>   -0.5531    1.0000 </r>
       <r>   -0.5461    1.0000 </r>
       <r>   -0.5299    1.0000 </r>
       <r>   -0.4969    1.0000 </r>
       <r>   -0.4830    1.0000 </r>
       <r>   -0.4590    1.0000 </r>
       <r>   -0.4507    1.0000 </r>
       <r>   -0.4417    1.0000 </r>
       <r>   -0.4200    1.0000 </r>
       <r>   -0.4048    1.0000 </r>
       <r>   -0.3832    1.0000 </r>
       <r>   -0.3591    1.0000 </r>
       <r>   -0.3482    1.0000 </r>
       <r>   -0.3217    1.0000 </r>
       <r>   -0.3122    1.0000 </r>
       <r>   -0.2819    1.0000 </r>
       <r>   -0.2697    1.0000 </r>
       <r>   -0.2516    1.0000 </r>
       <r>   -0.2423    1.0000 </r>
       <r>   -0.2315    1.0000 </r>
       <r>   -0.2084    1.0000 </r>
       <r>   -0.1864    1.0000 </r>
       <r>   -0.1554    1.0000 </r>
       <r>   -0.1458    1.0000 </r>
       <r>   -0.1278    1.0000 </r>
       <r>   -0.1171    1.0000 </r>
       <r>   -0.1025    1.0000 </r>
       <r>   -0.0961    1.0000 </r>
       <r>   -0.0785    1.0000 </r>
       <r>   -0.0692    1.0000 </r>
       <r>   -0.0572    1.0000 </r>
       <r>   -0.0491    1.0000 </r>
       <r>   -0.0076    1.0000 </r>
       <r>    0.0106    1.0000 </r>
       <r>    0.0315    1.0000 </r>
       <r>    0.0567    1.0000 </r>
       <r>    0.0671    1.0000 </r>
       <r>    0.0792    1.0000 </r>
       <r>    0.1039    1.0000 </r>
       <r>    0.1274    1.0000 </r>
       <r>    0.1397    1.0000 </r>
       <r>    0.1532    1.0000 </r>
       <r>    0.1722    1.0000 </r>
       <r>    0.2231    1.0000 </r>
       <r>    0.2622    1.0000 </r>
       <r>    0.2782    1.0000 </r>
       <r>    0.3114    1.0000 </r>
       <r>    0.3352    1.0000 </r>
       <r>    0.3552    1.0000 </r>
       <r>    0.3887    1.0000 </r>
       <r>    0.4103    1.0000 </r>
       <r>    0.4226    1.0000 </r>
       <r>    0.4886    1.0001 </r>
       <r>    0.5275    1.0003 </r>
       <r>    0.5449    1.0006 </r>
       <r>    0.5894    1.0022 </r>
       <r>    0.6115    1.0039 </r>
       <r>    0.6570    1.0109 </r>
       <r>    0.6762    1.0155 </r>
       <r>    0.7062    1.0243 </r>
       <r>    0.7427    1.0340 </r>
       <r>    0.7706    1.0343 </r>
       <r>    0.7923    1.0250 </r>
       <r>    0.8106    1.0072 </r>
       <r>    0.8429    0.9458 </r>
       <r>    0.8649    0.8781 </r>
       <r>    0.8763    0.8347 </r>
       <r>    0.8952    0.7510 </r>
       <r>    0.9397    0.5134 </r>
       <r>    0.9528    0.4398 </r>
       <r>    0.9772    0.3077 </r>
       <r>    1.0013    0.1930 </r>
       <r>    1.0418    0.0532 </r>
       <r>    1.0536    0.0259 </r>
       <r>    1.0789   -0.0134 </r>
       <r>    1.1208   -0.0353 </r>
       <r>    1.1237   -0.0354 </r>
       <r>    1.1542   -0.0312 </r>
       <r>    1.1771   -0.0246 </r>
       <r>    1.1799   -0.0238 </r>
       <r>    1.2047   -0.0164 </r>
       <r>    1.2366   -0.0090 </r>
       <r>    1.2555   -0.0059 </r>
       <r>    1.2678   -0.0044 </r>
       <r>    1.2888   -0.0026 </r>
       <r>    1.3060   -0.0016 </r>
       <r>    1.3283   -0.0008 </r>
       <r>    1.3562   -0.0003 </r>
       <r>    1.3752   -0.0002 </r>
       <r>    1.3828   -0.0001 </r>
       <r>    1.4227   -0.0000 </r>
       <r>    1.4416   -0.0000 </r>
       <r>    1.4660   -0.0000 </r>
       <r>    1.4838   -0.0000 </r>
       <r>    1.5033   -0.0000 </r>
       <r>    1.5085   -0.0000 </r>
       <r>    1.5319   -0.0000 </r>
       <r>    1.5506   -0.0000 </r>
       <r>    1.5681   -0.0000 </r>
       <r>    1.5822   -0.0000 </r>
       <r>    1.5948   -0.0000 </r>
       <r>    1.6126   -0.0000 </r>
       <r>    1.6284   -0.0000 </r>
       <r>    1.6484   -0.0000 </r>
       <r>    1.6663   -0.0000 </r>
       <r>    1.6729   -0.0000 </r>
       <r>    1.6987   -0.0000 </r>
       <r>    1.7004   -0.0000 </r>
       <r>    1.7099   -0.0000 </r>
       <r>    1.7368   -0.0000 </r>
       <r>    1.7504   -0.0000 </r>
       <r>    1.7599   -0.0000 </r>
       <r>    1.7750   -0.0000 </r>
       <r>    1.7913   -0.0000 </r>
       <r>    1.8091   -0.0000 </r>
       <r>    1.8241   -0.0000 </r>
       <r>    1.8384   -0.0000 </r>
       <r>    1.8475   -0.0000 </r>
       <r>    1.8541   -0.0000 </r>
       <r>    1.8744   -0.0000 </r>
       <r>    1.8886   -0.0000 </r>
       <r>    1.8967   -0.0000 </r>
       <r>    1.9096   -0.0000 </r>
       <r>    1.9162   -0.0000 </r>
       <r>    1.9350   -0.0000 </r>
       <r>    1.9411   -0.0000 </r>
       <r>    1.9483   -0.0000 </r>
       <r>    1.9710   -0.0000 </r>
       <r>    1.9767   -0.0000 </r>
       <r>    1.9835   -0.0000 </r>
       <r>    1.9927   -0.0000 </r>
       <r>    2.0016   -0.0000 </r>
       <r>    2.0211   -0.0000 </r>
       <r>    2.0422   -0.0000 </r>
       <r>    2.0565   -0.0000 </r>
       <r>    2.0640   -0.0000 </r>
       <r>    2.0762   -0.0000 </r>
       <r>    2.0791   -0.0000 </r>
       <r>    2.0993   -0.0000 </r>
       <r>    2.1067   -0.0000 </r>
       <r>    2.1133   -0.0000 </r>
       <r>    2.1297   -0.0000 </r>
       <r>    2.1385   -0.0000 </r>
       <r>    2.1460   -0.0000 </r>
       <r>    2.1561   -0.0000 </r>
       <r>    2.1665   -0.0000 </r>
       <r>    2.1821   -0.0000 </r>
       <r>    2.1928   -0.0000 </r>
       <r>    2.1997   -0.0000 </r>
       <r>    2.2043   -0.0000 </r>
       <r>    2.2157   -0.0000 </r>
       <r>    2.2354   -0.0000 </r>
       <r>    2.2462   -0.0000 </r>
       <r>    2.2512   -0.0000 </r>
       <r>    2.2737   -0.0000 </r>
       <r>    2.2773   -0.0000 </r>
       <r>    2.2893   -0.0000 </r>
       <r>    2.2976   -0.0000 </r>
       <r>    2.3021   -0.0000 </r>
       <r>    2.3223   -0.0000 </r>
       <r>    2.3299   -0.0000 </r>
       <r>    2.3441   -0.0000 </r>
       <r>    2.3651   -0.0000 </r>
       <r>    2.3768   -0.0000 </r>
       <r>    2.3876   -0.0000 </r>
       <r>    2.3994   -0.0000 </r>
       <r>    2.4023   -0.0000 </r>
       <r>    2.4103   -0.0000 </r>
       <r>    2.4202   -0.0000 </r>
       <r>    2.4283   -0.0000 </r>
       <r>    2.4400   -0.0000 </r>
       <r>    2.4540   -0.0000 </r>
       <r>    2.4613   -0.0000 </r>
       <r>    2.4701   -0.0000 </r>
       <r>    2.4780   -0.0000 </r>
       <r>    2.4903   -0.0000 </r>
       <r>    2.5050   -0.0000 </r>
       <r>    2.5119   -0.0000 </r>
       <r>    2.5236   -0.0000 </r>
       <r>    2.5286   -0.0000 </r>
       <r>    2.5378   -0.0000 </r>
       <r>    2.5478   -0.0000 </r>
       <r>    2.5669   -0.0000 </r>
       <r>    2.5706   -0.0000 </r>
       <r>    2.5806   -0.0000 </r>
       <r>    2.5871   -0.0000 </r>
       <r>    2.6037   -0.0000 </r>
       <r>    2.6161   -0.0000 </r>
       <r>    2.6264   -0.0000 </r>
       <r>    2.6353   -0.0000 </r>
       <r>    2.6483   -0.0000 </r>
       <r>    2.6561   -0.0000 </r>
       <r>    2.6652   -0.0000 </r>
       <r>    2.6893   -0.0000 </r>
       <r>    2.7041   -0.0000 </r>
       <r>    2.7156   -0.0000 </r>
       <r>    2.7381   -0.0000 </r>
       <r>    2.7423   -0.0000 </r>
       <r>    2.7610   -0.0000 </r>
       <r>    2.7784   -0.0000 </r>
       <r>    2.7965   -0.0000 </r>
       <r>    2.8088   -0.0000 </r>
       <r>    2.8181   -0.0000 </r>
       <r>    2.8288   -0.0000 </r>
       <r>    2.8449   -0.0000 </r>
       <r>    2.8673   -0.0000 </r>
       <r>    2.8788   -0.0000 </r>
       <r>    2.8844   -0.0000 </r>
       <r>    2.9007   -0.0000 </r>
       <r>    2.9095   -0.0000 </r>
       <r>    2.9245   -0.0000 </r>
       <r>    2.9412   -0.0000 </r>
       <r>    2.9629   -0.0000 </r>
       <r>    2.9781   -0.0000 </r>
       <r>    3.0103   -0.0000 </r>
       <r>    3.0298   -0.0000 </r>
      </set>
      <set comment="kpoint 6">
       <r>  -43.2199    1.0000 </r>
       <r>  -43.1742    1.0000 </r>
       <r>  -43.1594    1.0000 </r>
       <r>  -43.1467    1.0000 </r>
       <r>  -43.1379    1.0000 </r>
       <r>  -43.1346    1.0000 </r>
       <r>  -43.1116    1.0000 </r>
       <r>  -43.1062    1.0000 </r>
       <r>  -43.0855    1.0000 </r>
       <r>  -43.0795    1.0000 </r>
       <r>  -43.0744    1.0000 </r>
       <r>  -43.0718    1.0000 </r>
       <r>  -43.0590    1.0000 </r>
       <r>  -43.0535    1.0000 </r>
       <r>  -43.0467    1.0000 </r>
       <r>  -43.0328    1.0000 </r>
       <r>  -42.9708    1.0000 </r>
       <r>  -42.9669    1.0000 </r>
       <r>  -42.7134    1.0000 </r>
       <r>  -42.6430    1.0000 </r>
       <r>  -42.6118    1.0000 </r>
       <r>  -42.5618    1.0000 </r>
       <r>  -42.5467    1.0000 </r>
       <r>  -42.4196    1.0000 </r>
       <r>  -42.3921    1.0000 </r>
       <r>  -42.3273    1.0000 </r>
       <r>  -42.3133    1.0000 </r>
       <r>  -42.1124    1.0000 </r>
       <r>  -41.9642    1.0000 </r>
       <r>  -41.9515    1.0000 </r>
       <r>  -40.5195    1.0000 </r>
       <r>  -40.4664    1.0000 </r>
       <r>  -40.3227    1.0000 </r>
       <r>  -40.1988    1.0000 </r>
       <r>  -40.0637    1.0000 </r>
       <r>  -40.0205    1.0000 </r>
       <r>  -39.8894    1.0000 </r>
       <r>  -39.8742    1.0000 </r>
       <r>  -39.6451    1.0000 </r>
       <r>  -15.4407    1.0000 </r>
       <r>  -15.4298    1.0000 </r>
       <r>  -15.3910    1.0000 </r>
       <r>  -15.3908    1.0000 </r>
       <r>  -15.3641    1.0000 </r>
       <r>   -7.4629    1.0000 </r>
       <r>   -6.4290    1.0000 </r>
       <r>   -6.3918    1.0000 </r>
       <r>   -5.5036    1.0000 </r>
       <r>   -5.4316    1.0000 </r>
       <r>   -5.4009    1.0000 </r>
       <r>   -5.3293    1.0000 </r>
       <r>   -4.5410    1.0000 </r>
       <r>   -4.4618    1.0000 </r>
       <r>   -4.1950    1.0000 </r>
       <r>   -4.0577    1.0000 </r>
       <r>   -3.7543    1.0000 </r>
       <r>   -3.7427    1.0000 </r>
       <r>   -3.4378    1.0000 </r>
       <r>   -3.3367    1.0000 </r>
       <r>   -3.1782    1.0000 </r>
       <r>   -3.1546    1.0000 </r>
       <r>   -3.1471    1.0000 </r>
       <r>   -3.1237    1.0000 </r>
       <r>   -3.0385    1.0000 </r>
       <r>   -2.9764    1.0000 </r>
       <r>   -2.9497    1.0000 </r>
       <r>   -2.9179    1.0000 </r>
       <r>   -2.9009    1.0000 </r>
       <r>   -2.8711    1.0000 </r>
       <r>   -2.8276    1.0000 </r>
       <r>   -2.7818    1.0000 </r>
       <r>   -2.7698    1.0000 </r>
       <r>   -2.7337    1.0000 </r>
       <r>   -2.7009    1.0000 </r>
       <r>   -2.5468    1.0000 </r>
       <r>   -2.4803    1.0000 </r>
       <r>   -2.4316    1.0000 </r>
       <r>   -2.4154    1.0000 </r>
       <r>   -2.4060    1.0000 </r>
       <r>   -2.3680    1.0000 </r>
       <r>   -2.3519    1.0000 </r>
       <r>   -2.3138    1.0000 </r>
       <r>   -2.2768    1.0000 </r>
       <r>   -2.2441    1.0000 </r>
       <r>   -2.2233    1.0000 </r>
       <r>   -2.2148    1.0000 </r>
       <r>   -2.2034    1.0000 </r>
       <r>   -2.1743    1.0000 </r>
       <r>   -2.1519    1.0000 </r>
       <r>   -2.0964    1.0000 </r>
       <r>   -2.0595    1.0000 </r>
       <r>   -2.0265    1.0000 </r>
       <r>   -1.9994    1.0000 </r>
       <r>   -1.9645    1.0000 </r>
       <r>   -1.9455    1.0000 </r>
       <r>   -1.8933    1.0000 </r>
       <r>   -1.8870    1.0000 </r>
       <r>   -1.8600    1.0000 </r>
       <r>   -1.8393    1.0000 </r>
       <r>   -1.7864    1.0000 </r>
       <r>   -1.7737    1.0000 </r>
       <r>   -1.7597    1.0000 </r>
       <r>   -1.7300    1.0000 </r>
       <r>   -1.7050    1.0000 </r>
       <r>   -1.6725    1.0000 </r>
       <r>   -1.6540    1.0000 </r>
       <r>   -1.6358    1.0000 </r>
       <r>   -1.5774    1.0000 </r>
       <r>   -1.5570    1.0000 </r>
       <r>   -1.5330    1.0000 </r>
       <r>   -1.4873    1.0000 </r>
       <r>   -1.4516    1.0000 </r>
       <r>   -1.4080    1.0000 </r>
       <r>   -1.3864    1.0000 </r>
       <r>   -1.3555    1.0000 </r>
       <r>   -1.3412    1.0000 </r>
       <r>   -1.3070    1.0000 </r>
       <r>   -1.2934    1.0000 </r>
       <r>   -1.2553    1.0000 </r>
       <r>   -1.2327    1.0000 </r>
       <r>   -1.2191    1.0000 </r>
       <r>   -1.1985    1.0000 </r>
       <r>   -1.1697    1.0000 </r>
       <r>   -1.1490    1.0000 </r>
       <r>   -1.1272    1.0000 </r>
       <r>   -1.1009    1.0000 </r>
       <r>   -1.0916    1.0000 </r>
       <r>   -1.0691    1.0000 </r>
       <r>   -1.0523    1.0000 </r>
       <r>   -1.0352    1.0000 </r>
       <r>   -1.0120    1.0000 </r>
       <r>   -0.9924    1.0000 </r>
       <r>   -0.9811    1.0000 </r>
       <r>   -0.9596    1.0000 </r>
       <r>   -0.9286    1.0000 </r>
       <r>   -0.9179    1.0000 </r>
       <r>   -0.9031    1.0000 </r>
       <r>   -0.8878    1.0000 </r>
       <r>   -0.8797    1.0000 </r>
       <r>   -0.8436    1.0000 </r>
       <r>   -0.8255    1.0000 </r>
       <r>   -0.8093    1.0000 </r>
       <r>   -0.7907    1.0000 </r>
       <r>   -0.7823    1.0000 </r>
       <r>   -0.7653    1.0000 </r>
       <r>   -0.7548    1.0000 </r>
       <r>   -0.7212    1.0000 </r>
       <r>   -0.6945    1.0000 </r>
       <r>   -0.6747    1.0000 </r>
       <r>   -0.6597    1.0000 </r>
       <r>   -0.6517    1.0000 </r>
       <r>   -0.6269    1.0000 </r>
       <r>   -0.6193    1.0000 </r>
       <r>   -0.5967    1.0000 </r>
       <r>   -0.5731    1.0000 </r>
       <r>   -0.5643    1.0000 </r>
       <r>   -0.5452    1.0000 </r>
       <r>   -0.5393    1.0000 </r>
       <r>   -0.5229    1.0000 </r>
       <r>   -0.5093    1.0000 </r>
       <r>   -0.4893    1.0000 </r>
       <r>   -0.4840    1.0000 </r>
       <r>   -0.4682    1.0000 </r>
       <r>   -0.4573    1.0000 </r>
       <r>   -0.4379    1.0000 </r>
       <r>   -0.4185    1.0000 </r>
       <r>   -0.4023    1.0000 </r>
       <r>   -0.3956    1.0000 </r>
       <r>   -0.3798    1.0000 </r>
       <r>   -0.3688    1.0000 </r>
       <r>   -0.3579    1.0000 </r>
       <r>   -0.3440    1.0000 </r>
       <r>   -0.3306    1.0000 </r>
       <r>   -0.3184    1.0000 </r>
       <r>   -0.3002    1.0000 </r>
       <r>   -0.2882    1.0000 </r>
       <r>   -0.2684    1.0000 </r>
       <r>   -0.2407    1.0000 </r>
       <r>   -0.2254    1.0000 </r>
       <r>   -0.2097    1.0000 </r>
       <r>   -0.1985    1.0000 </r>
       <r>   -0.1850    1.0000 </r>
       <r>   -0.1687    1.0000 </r>
       <r>   -0.1529    1.0000 </r>
       <r>   -0.1454    1.0000 </r>
       <r>   -0.1270    1.0000 </r>
       <r>   -0.1196    1.0000 </r>
       <r>   -0.0928    1.0000 </r>
       <r>   -0.0749    1.0000 </r>
       <r>   -0.0607    1.0000 </r>
       <r>   -0.0209    1.0000 </r>
       <r>    0.0029    1.0000 </r>
       <r>    0.0153    1.0000 </r>
       <r>    0.0281    1.0000 </r>
       <r>    0.0445    1.0000 </r>
       <r>    0.0657    1.0000 </r>
       <r>    0.0747    1.0000 </r>
       <r>    0.1043    1.0000 </r>
       <r>    0.1243    1.0000 </r>
       <r>    0.1361    1.0000 </r>
       <r>    0.1556    1.0000 </r>
       <r>    0.1918    1.0000 </r>
       <r>    0.2227    1.0000 </r>
       <r>    0.2559    1.0000 </r>
       <r>    0.2673    1.0000 </r>
       <r>    0.2913    1.0000 </r>
       <r>    0.3244    1.0000 </r>
       <r>    0.3463    1.0000 </r>
       <r>    0.3932    1.0000 </r>
       <r>    0.4500    1.0000 </r>
       <r>    0.4659    1.0000 </r>
       <r>    0.4807    1.0001 </r>
       <r>    0.5095    1.0002 </r>
       <r>    0.5246    1.0003 </r>
       <r>    0.5921    1.0024 </r>
       <r>    0.6080    1.0036 </r>
       <r>    0.6261    1.0056 </r>
       <r>    0.6746    1.0151 </r>
       <r>    0.7054    1.0241 </r>
       <r>    0.7303    1.0313 </r>
       <r>    0.7570    1.0354 </r>
       <r>    0.8009    1.0179 </r>
       <r>    0.8227    0.9890 </r>
       <r>    0.8320    0.9713 </r>
       <r>    0.8798    0.8201 </r>
       <r>    0.9106    0.6734 </r>
       <r>    0.9298    0.5692 </r>
       <r>    0.9640    0.3779 </r>
       <r>    0.9882    0.2530 </r>
       <r>    1.0058    0.1741 </r>
       <r>    1.0427    0.0509 </r>
       <r>    1.0603    0.0131 </r>
       <r>    1.0896   -0.0233 </r>
       <r>    1.1047   -0.0318 </r>
       <r>    1.1191   -0.0351 </r>
       <r>    1.1499   -0.0323 </r>
       <r>    1.1665   -0.0278 </r>
       <r>    1.1753   -0.0252 </r>
       <r>    1.2001   -0.0177 </r>
       <r>    1.2212   -0.0122 </r>
       <r>    1.2329   -0.0097 </r>
       <r>    1.2442   -0.0076 </r>
       <r>    1.2644   -0.0048 </r>
       <r>    1.2894   -0.0025 </r>
       <r>    1.3303   -0.0008 </r>
       <r>    1.3370   -0.0006 </r>
       <r>    1.3580   -0.0003 </r>
       <r>    1.3904   -0.0001 </r>
       <r>    1.3990   -0.0001 </r>
       <r>    1.4103   -0.0000 </r>
       <r>    1.4335   -0.0000 </r>
       <r>    1.4444   -0.0000 </r>
       <r>    1.4591   -0.0000 </r>
       <r>    1.4957   -0.0000 </r>
       <r>    1.5073   -0.0000 </r>
       <r>    1.5302   -0.0000 </r>
       <r>    1.5543   -0.0000 </r>
       <r>    1.5775   -0.0000 </r>
       <r>    1.6067   -0.0000 </r>
       <r>    1.6166   -0.0000 </r>
       <r>    1.6451   -0.0000 </r>
       <r>    1.6627   -0.0000 </r>
       <r>    1.6656   -0.0000 </r>
       <r>    1.6855   -0.0000 </r>
       <r>    1.7007   -0.0000 </r>
       <r>    1.7136   -0.0000 </r>
       <r>    1.7306   -0.0000 </r>
       <r>    1.7473   -0.0000 </r>
       <r>    1.7670   -0.0000 </r>
       <r>    1.7824   -0.0000 </r>
       <r>    1.7969   -0.0000 </r>
       <r>    1.8082   -0.0000 </r>
       <r>    1.8295   -0.0000 </r>
       <r>    1.8340   -0.0000 </r>
       <r>    1.8463   -0.0000 </r>
       <r>    1.8544   -0.0000 </r>
       <r>    1.8627   -0.0000 </r>
       <r>    1.8891   -0.0000 </r>
       <r>    1.8969   -0.0000 </r>
       <r>    1.8992   -0.0000 </r>
       <r>    1.9106   -0.0000 </r>
       <r>    1.9217   -0.0000 </r>
       <r>    1.9306   -0.0000 </r>
       <r>    1.9381   -0.0000 </r>
       <r>    1.9550   -0.0000 </r>
       <r>    1.9655   -0.0000 </r>
       <r>    1.9716   -0.0000 </r>
       <r>    1.9833   -0.0000 </r>
       <r>    1.9968   -0.0000 </r>
       <r>    2.0120   -0.0000 </r>
       <r>    2.0238   -0.0000 </r>
       <r>    2.0344   -0.0000 </r>
       <r>    2.0465   -0.0000 </r>
       <r>    2.0597   -0.0000 </r>
       <r>    2.0748   -0.0000 </r>
       <r>    2.0771   -0.0000 </r>
       <r>    2.0957   -0.0000 </r>
       <r>    2.1122   -0.0000 </r>
       <r>    2.1144   -0.0000 </r>
       <r>    2.1268   -0.0000 </r>
       <r>    2.1377   -0.0000 </r>
       <r>    2.1420   -0.0000 </r>
       <r>    2.1598   -0.0000 </r>
       <r>    2.1624   -0.0000 </r>
       <r>    2.1726   -0.0000 </r>
       <r>    2.1808   -0.0000 </r>
       <r>    2.1927   -0.0000 </r>
       <r>    2.2069   -0.0000 </r>
       <r>    2.2174   -0.0000 </r>
       <r>    2.2322   -0.0000 </r>
       <r>    2.2378   -0.0000 </r>
       <r>    2.2534   -0.0000 </r>
       <r>    2.2638   -0.0000 </r>
       <r>    2.2708   -0.0000 </r>
       <r>    2.2864   -0.0000 </r>
       <r>    2.2952   -0.0000 </r>
       <r>    2.3092   -0.0000 </r>
       <r>    2.3214   -0.0000 </r>
       <r>    2.3322   -0.0000 </r>
       <r>    2.3419   -0.0000 </r>
       <r>    2.3512   -0.0000 </r>
       <r>    2.3607   -0.0000 </r>
       <r>    2.3732   -0.0000 </r>
       <r>    2.3916   -0.0000 </r>
       <r>    2.3937   -0.0000 </r>
       <r>    2.4022   -0.0000 </r>
       <r>    2.4156   -0.0000 </r>
       <r>    2.4263   -0.0000 </r>
       <r>    2.4395   -0.0000 </r>
       <r>    2.4532   -0.0000 </r>
       <r>    2.4618   -0.0000 </r>
       <r>    2.4737   -0.0000 </r>
       <r>    2.4811   -0.0000 </r>
       <r>    2.4876   -0.0000 </r>
       <r>    2.4966   -0.0000 </r>
       <r>    2.5116   -0.0000 </r>
       <r>    2.5175   -0.0000 </r>
       <r>    2.5260   -0.0000 </r>
       <r>    2.5464   -0.0000 </r>
       <r>    2.5554   -0.0000 </r>
       <r>    2.5574   -0.0000 </r>
       <r>    2.5661   -0.0000 </r>
       <r>    2.5741   -0.0000 </r>
       <r>    2.5854   -0.0000 </r>
       <r>    2.5946   -0.0000 </r>
       <r>    2.6008   -0.0000 </r>
       <r>    2.6055   -0.0000 </r>
       <r>    2.6131   -0.0000 </r>
       <r>    2.6274   -0.0000 </r>
       <r>    2.6305   -0.0000 </r>
       <r>    2.6394   -0.0000 </r>
       <r>    2.6468   -0.0000 </r>
       <r>    2.6646   -0.0000 </r>
       <r>    2.6724   -0.0000 </r>
       <r>    2.6770   -0.0000 </r>
       <r>    2.6946   -0.0000 </r>
       <r>    2.7056   -0.0000 </r>
       <r>    2.7249   -0.0000 </r>
       <r>    2.7317   -0.0000 </r>
       <r>    2.7633   -0.0000 </r>
       <r>    2.7778   -0.0000 </r>
       <r>    2.7858   -0.0000 </r>
       <r>    2.8104   -0.0000 </r>
       <r>    2.8334   -0.0000 </r>
       <r>    2.8460   -0.0000 </r>
       <r>    2.8623   -0.0000 </r>
       <r>    2.8768   -0.0000 </r>
       <r>    2.9069   -0.0000 </r>
       <r>    2.9244   -0.0000 </r>
       <r>    2.9413   -0.0000 </r>
       <r>    2.9826   -0.0000 </r>
       <r>    3.0024   -0.0000 </r>
       <r>    3.0260   -0.0000 </r>
       <r>    3.0684   -0.0000 </r>
       <r>    3.1068   -0.0000 </r>
      </set>
      <set comment="kpoint 7">
       <r>  -43.2199    1.0000 </r>
       <r>  -43.1743    1.0000 </r>
       <r>  -43.1594    1.0000 </r>
       <r>  -43.1467    1.0000 </r>
       <r>  -43.1379    1.0000 </r>
       <r>  -43.1346    1.0000 </r>
       <r>  -43.1116    1.0000 </r>
       <r>  -43.1062    1.0000 </r>
       <r>  -43.0855    1.0000 </r>
       <r>  -43.0795    1.0000 </r>
       <r>  -43.0744    1.0000 </r>
       <r>  -43.0718    1.0000 </r>
       <r>  -43.0590    1.0000 </r>
       <r>  -43.0536    1.0000 </r>
       <r>  -43.0467    1.0000 </r>
       <r>  -43.0328    1.0000 </r>
       <r>  -42.9702    1.0000 </r>
       <r>  -42.9669    1.0000 </r>
       <r>  -42.7135    1.0000 </r>
       <r>  -42.6431    1.0000 </r>
       <r>  -42.6118    1.0000 </r>
       <r>  -42.5639    1.0000 </r>
       <r>  -42.5473    1.0000 </r>
       <r>  -42.4174    1.0000 </r>
       <r>  -42.3922    1.0000 </r>
       <r>  -42.3273    1.0000 </r>
       <r>  -42.3133    1.0000 </r>
       <r>  -42.1123    1.0000 </r>
       <r>  -41.9643    1.0000 </r>
       <r>  -41.9515    1.0000 </r>
       <r>  -40.5195    1.0000 </r>
       <r>  -40.4664    1.0000 </r>
       <r>  -40.3227    1.0000 </r>
       <r>  -40.1988    1.0000 </r>
       <r>  -40.0637    1.0000 </r>
       <r>  -40.0205    1.0000 </r>
       <r>  -39.8895    1.0000 </r>
       <r>  -39.8742    1.0000 </r>
       <r>  -39.6451    1.0000 </r>
       <r>  -15.4407    1.0000 </r>
       <r>  -15.4298    1.0000 </r>
       <r>  -15.3910    1.0000 </r>
       <r>  -15.3908    1.0000 </r>
       <r>  -15.3641    1.0000 </r>
       <r>   -7.4735    1.0000 </r>
       <r>   -6.8126    1.0000 </r>
       <r>   -5.8306    1.0000 </r>
       <r>   -5.7689    1.0000 </r>
       <r>   -5.7379    1.0000 </r>
       <r>   -4.8934    1.0000 </r>
       <r>   -4.8456    1.0000 </r>
       <r>   -4.8033    1.0000 </r>
       <r>   -4.4309    1.0000 </r>
       <r>   -4.0123    1.0000 </r>
       <r>   -3.9946    1.0000 </r>
       <r>   -3.9470    1.0000 </r>
       <r>   -3.7542    1.0000 </r>
       <r>   -3.6625    1.0000 </r>
       <r>   -3.4681    1.0000 </r>
       <r>   -3.4622    1.0000 </r>
       <r>   -3.4327    1.0000 </r>
       <r>   -3.3928    1.0000 </r>
       <r>   -3.0834    1.0000 </r>
       <r>   -3.0749    1.0000 </r>
       <r>   -3.0419    1.0000 </r>
       <r>   -3.0135    1.0000 </r>
       <r>   -2.9101    1.0000 </r>
       <r>   -2.8159    1.0000 </r>
       <r>   -2.7862    1.0000 </r>
       <r>   -2.7582    1.0000 </r>
       <r>   -2.7140    1.0000 </r>
       <r>   -2.6922    1.0000 </r>
       <r>   -2.6791    1.0000 </r>
       <r>   -2.6453    1.0000 </r>
       <r>   -2.5646    1.0000 </r>
       <r>   -2.5008    1.0000 </r>
       <r>   -2.4315    1.0000 </r>
       <r>   -2.4226    1.0000 </r>
       <r>   -2.3944    1.0000 </r>
       <r>   -2.3260    1.0000 </r>
       <r>   -2.3135    1.0000 </r>
       <r>   -2.2932    1.0000 </r>
       <r>   -2.2730    1.0000 </r>
       <r>   -2.2157    1.0000 </r>
       <r>   -2.1906    1.0000 </r>
       <r>   -2.1598    1.0000 </r>
       <r>   -2.1315    1.0000 </r>
       <r>   -2.1235    1.0000 </r>
       <r>   -2.0952    1.0000 </r>
       <r>   -2.0703    1.0000 </r>
       <r>   -2.0381    1.0000 </r>
       <r>   -2.0248    1.0000 </r>
       <r>   -1.9902    1.0000 </r>
       <r>   -1.9590    1.0000 </r>
       <r>   -1.9350    1.0000 </r>
       <r>   -1.9211    1.0000 </r>
       <r>   -1.8911    1.0000 </r>
       <r>   -1.8725    1.0000 </r>
       <r>   -1.8190    1.0000 </r>
       <r>   -1.7917    1.0000 </r>
       <r>   -1.7564    1.0000 </r>
       <r>   -1.7399    1.0000 </r>
       <r>   -1.6936    1.0000 </r>
       <r>   -1.6681    1.0000 </r>
       <r>   -1.6409    1.0000 </r>
       <r>   -1.5985    1.0000 </r>
       <r>   -1.5894    1.0000 </r>
       <r>   -1.5528    1.0000 </r>
       <r>   -1.4997    1.0000 </r>
       <r>   -1.4788    1.0000 </r>
       <r>   -1.4570    1.0000 </r>
       <r>   -1.4319    1.0000 </r>
       <r>   -1.3882    1.0000 </r>
       <r>   -1.3770    1.0000 </r>
       <r>   -1.3513    1.0000 </r>
       <r>   -1.3071    1.0000 </r>
       <r>   -1.2922    1.0000 </r>
       <r>   -1.2761    1.0000 </r>
       <r>   -1.2376    1.0000 </r>
       <r>   -1.2173    1.0000 </r>
       <r>   -1.2022    1.0000 </r>
       <r>   -1.1916    1.0000 </r>
       <r>   -1.1603    1.0000 </r>
       <r>   -1.1462    1.0000 </r>
       <r>   -1.1186    1.0000 </r>
       <r>   -1.1102    1.0000 </r>
       <r>   -1.0818    1.0000 </r>
       <r>   -1.0633    1.0000 </r>
       <r>   -1.0303    1.0000 </r>
       <r>   -1.0123    1.0000 </r>
       <r>   -1.0048    1.0000 </r>
       <r>   -0.9874    1.0000 </r>
       <r>   -0.9676    1.0000 </r>
       <r>   -0.9501    1.0000 </r>
       <r>   -0.9130    1.0000 </r>
       <r>   -0.9077    1.0000 </r>
       <r>   -0.8979    1.0000 </r>
       <r>   -0.8769    1.0000 </r>
       <r>   -0.8593    1.0000 </r>
       <r>   -0.8415    1.0000 </r>
       <r>   -0.8324    1.0000 </r>
       <r>   -0.8142    1.0000 </r>
       <r>   -0.7932    1.0000 </r>
       <r>   -0.7861    1.0000 </r>
       <r>   -0.7634    1.0000 </r>
       <r>   -0.7481    1.0000 </r>
       <r>   -0.7344    1.0000 </r>
       <r>   -0.7151    1.0000 </r>
       <r>   -0.7027    1.0000 </r>
       <r>   -0.6842    1.0000 </r>
       <r>   -0.6788    1.0000 </r>
       <r>   -0.6653    1.0000 </r>
       <r>   -0.6489    1.0000 </r>
       <r>   -0.6315    1.0000 </r>
       <r>   -0.6124    1.0000 </r>
       <r>   -0.6062    1.0000 </r>
       <r>   -0.5823    1.0000 </r>
       <r>   -0.5683    1.0000 </r>
       <r>   -0.5615    1.0000 </r>
       <r>   -0.5554    1.0000 </r>
       <r>   -0.5480    1.0000 </r>
       <r>   -0.5195    1.0000 </r>
       <r>   -0.5010    1.0000 </r>
       <r>   -0.4890    1.0000 </r>
       <r>   -0.4705    1.0000 </r>
       <r>   -0.4497    1.0000 </r>
       <r>   -0.4413    1.0000 </r>
       <r>   -0.4174    1.0000 </r>
       <r>   -0.4048    1.0000 </r>
       <r>   -0.3681    1.0000 </r>
       <r>   -0.3601    1.0000 </r>
       <r>   -0.3365    1.0000 </r>
       <r>   -0.3311    1.0000 </r>
       <r>   -0.3102    1.0000 </r>
       <r>   -0.2924    1.0000 </r>
       <r>   -0.2725    1.0000 </r>
       <r>   -0.2563    1.0000 </r>
       <r>   -0.2331    1.0000 </r>
       <r>   -0.2149    1.0000 </r>
       <r>   -0.2090    1.0000 </r>
       <r>   -0.1830    1.0000 </r>
       <r>   -0.1642    1.0000 </r>
       <r>   -0.1532    1.0000 </r>
       <r>   -0.1363    1.0000 </r>
       <r>   -0.1237    1.0000 </r>
       <r>   -0.1103    1.0000 </r>
       <r>   -0.0951    1.0000 </r>
       <r>   -0.0810    1.0000 </r>
       <r>   -0.0670    1.0000 </r>
       <r>   -0.0491    1.0000 </r>
       <r>   -0.0374    1.0000 </r>
       <r>   -0.0034    1.0000 </r>
       <r>    0.0092    1.0000 </r>
       <r>    0.0135    1.0000 </r>
       <r>    0.0459    1.0000 </r>
       <r>    0.0701    1.0000 </r>
       <r>    0.0806    1.0000 </r>
       <r>    0.1056    1.0000 </r>
       <r>    0.1292    1.0000 </r>
       <r>    0.1442    1.0000 </r>
       <r>    0.1573    1.0000 </r>
       <r>    0.1675    1.0000 </r>
       <r>    0.2351    1.0000 </r>
       <r>    0.2683    1.0000 </r>
       <r>    0.2893    1.0000 </r>
       <r>    0.3049    1.0000 </r>
       <r>    0.3427    1.0000 </r>
       <r>    0.3521    1.0000 </r>
       <r>    0.3842    1.0000 </r>
       <r>    0.4064    1.0000 </r>
       <r>    0.4498    1.0000 </r>
       <r>    0.4686    1.0000 </r>
       <r>    0.5192    1.0002 </r>
       <r>    0.5478    1.0006 </r>
       <r>    0.5841    1.0019 </r>
       <r>    0.6097    1.0037 </r>
       <r>    0.6408    1.0078 </r>
       <r>    0.6816    1.0170 </r>
       <r>    0.7193    1.0283 </r>
       <r>    0.7343    1.0323 </r>
       <r>    0.7697    1.0345 </r>
       <r>    0.7954    1.0227 </r>
       <r>    0.8242    0.9864 </r>
       <r>    0.8419    0.9481 </r>
       <r>    0.8630    0.8848 </r>
       <r>    0.8858    0.7940 </r>
       <r>    0.8962    0.7458 </r>
       <r>    0.9341    0.5452 </r>
       <r>    0.9631    0.3829 </r>
       <r>    0.9853    0.2672 </r>
       <r>    1.0068    0.1697 </r>
       <r>    1.0463    0.0419 </r>
       <r>    1.0528    0.0275 </r>
       <r>    1.0819   -0.0165 </r>
       <r>    1.1132   -0.0342 </r>
       <r>    1.1238   -0.0354 </r>
       <r>    1.1461   -0.0331 </r>
       <r>    1.1702   -0.0267 </r>
       <r>    1.1777   -0.0244 </r>
       <r>    1.2052   -0.0163 </r>
       <r>    1.2219   -0.0121 </r>
       <r>    1.2654   -0.0047 </r>
       <r>    1.2758   -0.0036 </r>
       <r>    1.2893   -0.0025 </r>
       <r>    1.2964   -0.0021 </r>
       <r>    1.3211   -0.0010 </r>
       <r>    1.3530   -0.0004 </r>
       <r>    1.3716   -0.0002 </r>
       <r>    1.3848   -0.0001 </r>
       <r>    1.4255   -0.0000 </r>
       <r>    1.4328   -0.0000 </r>
       <r>    1.4570   -0.0000 </r>
       <r>    1.4885   -0.0000 </r>
       <r>    1.4950   -0.0000 </r>
       <r>    1.5047   -0.0000 </r>
       <r>    1.5345   -0.0000 </r>
       <r>    1.5386   -0.0000 </r>
       <r>    1.5649   -0.0000 </r>
       <r>    1.5891   -0.0000 </r>
       <r>    1.6068   -0.0000 </r>
       <r>    1.6226   -0.0000 </r>
       <r>    1.6363   -0.0000 </r>
       <r>    1.6520   -0.0000 </r>
       <r>    1.6640   -0.0000 </r>
       <r>    1.6735   -0.0000 </r>
       <r>    1.6861   -0.0000 </r>
       <r>    1.7084   -0.0000 </r>
       <r>    1.7139   -0.0000 </r>
       <r>    1.7299   -0.0000 </r>
       <r>    1.7510   -0.0000 </r>
       <r>    1.7581   -0.0000 </r>
       <r>    1.7819   -0.0000 </r>
       <r>    1.7963   -0.0000 </r>
       <r>    1.8073   -0.0000 </r>
       <r>    1.8288   -0.0000 </r>
       <r>    1.8359   -0.0000 </r>
       <r>    1.8514   -0.0000 </r>
       <r>    1.8580   -0.0000 </r>
       <r>    1.8763   -0.0000 </r>
       <r>    1.8843   -0.0000 </r>
       <r>    1.8911   -0.0000 </r>
       <r>    1.9076   -0.0000 </r>
       <r>    1.9298   -0.0000 </r>
       <r>    1.9326   -0.0000 </r>
       <r>    1.9354   -0.0000 </r>
       <r>    1.9522   -0.0000 </r>
       <r>    1.9658   -0.0000 </r>
       <r>    1.9727   -0.0000 </r>
       <r>    1.9911   -0.0000 </r>
       <r>    1.9973   -0.0000 </r>
       <r>    2.0119   -0.0000 </r>
       <r>    2.0205   -0.0000 </r>
       <r>    2.0424   -0.0000 </r>
       <r>    2.0512   -0.0000 </r>
       <r>    2.0613   -0.0000 </r>
       <r>    2.0698   -0.0000 </r>
       <r>    2.0833   -0.0000 </r>
       <r>    2.0876   -0.0000 </r>
       <r>    2.1004   -0.0000 </r>
       <r>    2.1077   -0.0000 </r>
       <r>    2.1218   -0.0000 </r>
       <r>    2.1377   -0.0000 </r>
       <r>    2.1532   -0.0000 </r>
       <r>    2.1589   -0.0000 </r>
       <r>    2.1711   -0.0000 </r>
       <r>    2.1801   -0.0000 </r>
       <r>    2.1949   -0.0000 </r>
       <r>    2.2035   -0.0000 </r>
       <r>    2.2130   -0.0000 </r>
       <r>    2.2228   -0.0000 </r>
       <r>    2.2336   -0.0000 </r>
       <r>    2.2493   -0.0000 </r>
       <r>    2.2507   -0.0000 </r>
       <r>    2.2575   -0.0000 </r>
       <r>    2.2739   -0.0000 </r>
       <r>    2.2791   -0.0000 </r>
       <r>    2.2956   -0.0000 </r>
       <r>    2.3140   -0.0000 </r>
       <r>    2.3225   -0.0000 </r>
       <r>    2.3363   -0.0000 </r>
       <r>    2.3470   -0.0000 </r>
       <r>    2.3600   -0.0000 </r>
       <r>    2.3748   -0.0000 </r>
       <r>    2.3830   -0.0000 </r>
       <r>    2.3908   -0.0000 </r>
       <r>    2.4041   -0.0000 </r>
       <r>    2.4176   -0.0000 </r>
       <r>    2.4247   -0.0000 </r>
       <r>    2.4292   -0.0000 </r>
       <r>    2.4341   -0.0000 </r>
       <r>    2.4499   -0.0000 </r>
       <r>    2.4666   -0.0000 </r>
       <r>    2.4752   -0.0000 </r>
       <r>    2.4827   -0.0000 </r>
       <r>    2.4989   -0.0000 </r>
       <r>    2.5039   -0.0000 </r>
       <r>    2.5157   -0.0000 </r>
       <r>    2.5235   -0.0000 </r>
       <r>    2.5351   -0.0000 </r>
       <r>    2.5416   -0.0000 </r>
       <r>    2.5459   -0.0000 </r>
       <r>    2.5502   -0.0000 </r>
       <r>    2.5644   -0.0000 </r>
       <r>    2.5704   -0.0000 </r>
       <r>    2.5867   -0.0000 </r>
       <r>    2.5990   -0.0000 </r>
       <r>    2.6081   -0.0000 </r>
       <r>    2.6236   -0.0000 </r>
       <r>    2.6379   -0.0000 </r>
       <r>    2.6439   -0.0000 </r>
       <r>    2.6650   -0.0000 </r>
       <r>    2.6754   -0.0000 </r>
       <r>    2.6872   -0.0000 </r>
       <r>    2.7031   -0.0000 </r>
       <r>    2.7155   -0.0000 </r>
       <r>    2.7304   -0.0000 </r>
       <r>    2.7478   -0.0000 </r>
       <r>    2.7594   -0.0000 </r>
       <r>    2.7818   -0.0000 </r>
       <r>    2.8025   -0.0000 </r>
       <r>    2.8080   -0.0000 </r>
       <r>    2.8213   -0.0000 </r>
       <r>    2.8268   -0.0000 </r>
       <r>    2.8426   -0.0000 </r>
       <r>    2.8590   -0.0000 </r>
       <r>    2.8793   -0.0000 </r>
       <r>    2.8868   -0.0000 </r>
       <r>    2.8994   -0.0000 </r>
       <r>    2.9132   -0.0000 </r>
       <r>    2.9247   -0.0000 </r>
       <r>    2.9508   -0.0000 </r>
       <r>    2.9533   -0.0000 </r>
       <r>    2.9865   -0.0000 </r>
       <r>    3.0020   -0.0000 </r>
       <r>    3.0244   -0.0000 </r>
      </set>
      <set comment="kpoint 8">
       <r>  -43.2199    1.0000 </r>
       <r>  -43.1743    1.0000 </r>
       <r>  -43.1594    1.0000 </r>
       <r>  -43.1467    1.0000 </r>
       <r>  -43.1379    1.0000 </r>
       <r>  -43.1346    1.0000 </r>
       <r>  -43.1116    1.0000 </r>
       <r>  -43.1062    1.0000 </r>
       <r>  -43.0854    1.0000 </r>
       <r>  -43.0795    1.0000 </r>
       <r>  -43.0744    1.0000 </r>
       <r>  -43.0718    1.0000 </r>
       <r>  -43.0590    1.0000 </r>
       <r>  -43.0536    1.0000 </r>
       <r>  -43.0467    1.0000 </r>
       <r>  -43.0328    1.0000 </r>
       <r>  -42.9696    1.0000 </r>
       <r>  -42.9669    1.0000 </r>
       <r>  -42.7135    1.0000 </r>
       <r>  -42.6432    1.0000 </r>
       <r>  -42.6118    1.0000 </r>
       <r>  -42.5661    1.0000 </r>
       <r>  -42.5478    1.0000 </r>
       <r>  -42.4154    1.0000 </r>
       <r>  -42.3922    1.0000 </r>
       <r>  -42.3274    1.0000 </r>
       <r>  -42.3133    1.0000 </r>
       <r>  -42.1122    1.0000 </r>
       <r>  -41.9644    1.0000 </r>
       <r>  -41.9515    1.0000 </r>
       <r>  -40.5195    1.0000 </r>
       <r>  -40.4664    1.0000 </r>
       <r>  -40.3227    1.0000 </r>
       <r>  -40.1988    1.0000 </r>
       <r>  -40.0637    1.0000 </r>
       <r>  -40.0206    1.0000 </r>
       <r>  -39.8895    1.0000 </r>
       <r>  -39.8742    1.0000 </r>
       <r>  -39.6451    1.0000 </r>
       <r>  -15.4407    1.0000 </r>
       <r>  -15.4298    1.0000 </r>
       <r>  -15.3910    1.0000 </r>
       <r>  -15.3908    1.0000 </r>
       <r>  -15.3641    1.0000 </r>
       <r>   -7.4695    1.0000 </r>
       <r>   -6.5778    1.0000 </r>
       <r>   -6.5175    1.0000 </r>
       <r>   -5.6325    1.0000 </r>
       <r>   -5.5012    1.0000 </r>
       <r>   -4.6223    1.0000 </r>
       <r>   -4.6077    1.0000 </r>
       <r>   -4.5954    1.0000 </r>
       <r>   -4.5725    1.0000 </r>
       <r>   -4.3247    1.0000 </r>
       <r>   -4.1630    1.0000 </r>
       <r>   -3.8675    1.0000 </r>
       <r>   -3.8102    1.0000 </r>
       <r>   -3.7822    1.0000 </r>
       <r>   -3.7417    1.0000 </r>
       <r>   -3.2575    1.0000 </r>
       <r>   -3.2373    1.0000 </r>
       <r>   -3.1286    1.0000 </r>
       <r>   -3.1050    1.0000 </r>
       <r>   -3.0426    1.0000 </r>
       <r>   -3.0360    1.0000 </r>
       <r>   -2.9896    1.0000 </r>
       <r>   -2.9669    1.0000 </r>
       <r>   -2.9577    1.0000 </r>
       <r>   -2.9433    1.0000 </r>
       <r>   -2.8972    1.0000 </r>
       <r>   -2.8424    1.0000 </r>
       <r>   -2.8103    1.0000 </r>
       <r>   -2.7975    1.0000 </r>
       <r>   -2.7605    1.0000 </r>
       <r>   -2.4861    1.0000 </r>
       <r>   -2.4560    1.0000 </r>
       <r>   -2.3948    1.0000 </r>
       <r>   -2.3781    1.0000 </r>
       <r>   -2.3642    1.0000 </r>
       <r>   -2.3210    1.0000 </r>
       <r>   -2.3116    1.0000 </r>
       <r>   -2.2619    1.0000 </r>
       <r>   -2.2314    1.0000 </r>
       <r>   -2.2063    1.0000 </r>
       <r>   -2.1875    1.0000 </r>
       <r>   -2.1592    1.0000 </r>
       <r>   -2.1179    1.0000 </r>
       <r>   -2.0837    1.0000 </r>
       <r>   -2.0673    1.0000 </r>
       <r>   -2.0410    1.0000 </r>
       <r>   -2.0144    1.0000 </r>
       <r>   -1.9674    1.0000 </r>
       <r>   -1.9527    1.0000 </r>
       <r>   -1.9173    1.0000 </r>
       <r>   -1.8987    1.0000 </r>
       <r>   -1.8796    1.0000 </r>
       <r>   -1.8503    1.0000 </r>
       <r>   -1.8286    1.0000 </r>
       <r>   -1.8181    1.0000 </r>
       <r>   -1.7693    1.0000 </r>
       <r>   -1.7588    1.0000 </r>
       <r>   -1.7452    1.0000 </r>
       <r>   -1.7323    1.0000 </r>
       <r>   -1.7201    1.0000 </r>
       <r>   -1.6670    1.0000 </r>
       <r>   -1.6289    1.0000 </r>
       <r>   -1.5988    1.0000 </r>
       <r>   -1.5714    1.0000 </r>
       <r>   -1.5459    1.0000 </r>
       <r>   -1.5001    1.0000 </r>
       <r>   -1.4805    1.0000 </r>
       <r>   -1.4263    1.0000 </r>
       <r>   -1.4062    1.0000 </r>
       <r>   -1.3409    1.0000 </r>
       <r>   -1.3266    1.0000 </r>
       <r>   -1.3159    1.0000 </r>
       <r>   -1.2766    1.0000 </r>
       <r>   -1.2601    1.0000 </r>
       <r>   -1.2370    1.0000 </r>
       <r>   -1.2327    1.0000 </r>
       <r>   -1.1873    1.0000 </r>
       <r>   -1.1794    1.0000 </r>
       <r>   -1.1624    1.0000 </r>
       <r>   -1.1292    1.0000 </r>
       <r>   -1.1152    1.0000 </r>
       <r>   -1.0908    1.0000 </r>
       <r>   -1.0880    1.0000 </r>
       <r>   -1.0770    1.0000 </r>
       <r>   -1.0340    1.0000 </r>
       <r>   -1.0126    1.0000 </r>
       <r>   -0.9996    1.0000 </r>
       <r>   -0.9848    1.0000 </r>
       <r>   -0.9753    1.0000 </r>
       <r>   -0.9669    1.0000 </r>
       <r>   -0.9522    1.0000 </r>
       <r>   -0.9296    1.0000 </r>
       <r>   -0.9162    1.0000 </r>
       <r>   -0.8848    1.0000 </r>
       <r>   -0.8653    1.0000 </r>
       <r>   -0.8550    1.0000 </r>
       <r>   -0.8371    1.0000 </r>
       <r>   -0.8222    1.0000 </r>
       <r>   -0.8135    1.0000 </r>
       <r>   -0.7894    1.0000 </r>
       <r>   -0.7530    1.0000 </r>
       <r>   -0.7427    1.0000 </r>
       <r>   -0.7364    1.0000 </r>
       <r>   -0.7062    1.0000 </r>
       <r>   -0.7019    1.0000 </r>
       <r>   -0.6887    1.0000 </r>
       <r>   -0.6470    1.0000 </r>
       <r>   -0.6208    1.0000 </r>
       <r>   -0.5918    1.0000 </r>
       <r>   -0.5860    1.0000 </r>
       <r>   -0.5650    1.0000 </r>
       <r>   -0.5530    1.0000 </r>
       <r>   -0.5256    1.0000 </r>
       <r>   -0.5167    1.0000 </r>
       <r>   -0.4978    1.0000 </r>
       <r>   -0.4853    1.0000 </r>
       <r>   -0.4750    1.0000 </r>
       <r>   -0.4621    1.0000 </r>
       <r>   -0.4518    1.0000 </r>
       <r>   -0.4341    1.0000 </r>
       <r>   -0.4219    1.0000 </r>
       <r>   -0.4153    1.0000 </r>
       <r>   -0.4060    1.0000 </r>
       <r>   -0.3973    1.0000 </r>
       <r>   -0.3792    1.0000 </r>
       <r>   -0.3473    1.0000 </r>
       <r>   -0.3469    1.0000 </r>
       <r>   -0.3257    1.0000 </r>
       <r>   -0.3114    1.0000 </r>
       <r>   -0.2951    1.0000 </r>
       <r>   -0.2871    1.0000 </r>
       <r>   -0.2666    1.0000 </r>
       <r>   -0.2527    1.0000 </r>
       <r>   -0.2447    1.0000 </r>
       <r>   -0.2233    1.0000 </r>
       <r>   -0.2154    1.0000 </r>
       <r>   -0.2124    1.0000 </r>
       <r>   -0.1876    1.0000 </r>
       <r>   -0.1691    1.0000 </r>
       <r>   -0.1559    1.0000 </r>
       <r>   -0.1492    1.0000 </r>
       <r>   -0.1383    1.0000 </r>
       <r>   -0.1130    1.0000 </r>
       <r>   -0.1030    1.0000 </r>
       <r>   -0.0947    1.0000 </r>
       <r>   -0.0843    1.0000 </r>
       <r>   -0.0556    1.0000 </r>
       <r>   -0.0480    1.0000 </r>
       <r>   -0.0372    1.0000 </r>
       <r>   -0.0197    1.0000 </r>
       <r>   -0.0150    1.0000 </r>
       <r>   -0.0011    1.0000 </r>
       <r>    0.0203    1.0000 </r>
       <r>    0.0561    1.0000 </r>
       <r>    0.0805    1.0000 </r>
       <r>    0.0912    1.0000 </r>
       <r>    0.1253    1.0000 </r>
       <r>    0.1390    1.0000 </r>
       <r>    0.1861    1.0000 </r>
       <r>    0.1976    1.0000 </r>
       <r>    0.2247    1.0000 </r>
       <r>    0.2459    1.0000 </r>
       <r>    0.2595    1.0000 </r>
       <r>    0.2775    1.0000 </r>
       <r>    0.3007    1.0000 </r>
       <r>    0.3442    1.0000 </r>
       <r>    0.4387    1.0000 </r>
       <r>    0.4663    1.0000 </r>
       <r>    0.5051    1.0002 </r>
       <r>    0.5270    1.0003 </r>
       <r>    0.5997    1.0029 </r>
       <r>    0.6435    1.0082 </r>
       <r>    0.6622    1.0120 </r>
       <r>    0.6878    1.0188 </r>
       <r>    0.6886    1.0190 </r>
       <r>    0.7271    1.0305 </r>
       <r>    0.7350    1.0324 </r>
       <r>    0.8031    1.0158 </r>
       <r>    0.8342    0.9665 </r>
       <r>    0.8428    0.9459 </r>
       <r>    0.8602    0.8942 </r>
       <r>    0.8915    0.7685 </r>
       <r>    0.9268    0.5861 </r>
       <r>    0.9493    0.4596 </r>
       <r>    0.9799    0.2943 </r>
       <r>    1.0085    0.1630 </r>
       <r>    1.0161    0.1338 </r>
       <r>    1.0547    0.0238 </r>
       <r>    1.0679    0.0007 </r>
       <r>    1.0846   -0.0191 </r>
       <r>    1.1196   -0.0352 </r>
       <r>    1.1517   -0.0319 </r>
       <r>    1.1684   -0.0273 </r>
       <r>    1.2205   -0.0124 </r>
       <r>    1.2249   -0.0114 </r>
       <r>    1.2408   -0.0082 </r>
       <r>    1.2589   -0.0055 </r>
       <r>    1.2704   -0.0041 </r>
       <r>    1.2948   -0.0022 </r>
       <r>    1.3159   -0.0012 </r>
       <r>    1.3305   -0.0008 </r>
       <r>    1.3396   -0.0006 </r>
       <r>    1.3620   -0.0003 </r>
       <r>    1.3939   -0.0001 </r>
       <r>    1.4143   -0.0000 </r>
       <r>    1.4312   -0.0000 </r>
       <r>    1.4370   -0.0000 </r>
       <r>    1.4735   -0.0000 </r>
       <r>    1.4776   -0.0000 </r>
       <r>    1.5050   -0.0000 </r>
       <r>    1.5335   -0.0000 </r>
       <r>    1.5486   -0.0000 </r>
       <r>    1.5712   -0.0000 </r>
       <r>    1.5778   -0.0000 </r>
       <r>    1.5900   -0.0000 </r>
       <r>    1.6033   -0.0000 </r>
       <r>    1.6360   -0.0000 </r>
       <r>    1.6577   -0.0000 </r>
       <r>    1.6634   -0.0000 </r>
       <r>    1.6785   -0.0000 </r>
       <r>    1.6879   -0.0000 </r>
       <r>    1.7132   -0.0000 </r>
       <r>    1.7311   -0.0000 </r>
       <r>    1.7357   -0.0000 </r>
       <r>    1.7422   -0.0000 </r>
       <r>    1.7850   -0.0000 </r>
       <r>    1.7955   -0.0000 </r>
       <r>    1.8091   -0.0000 </r>
       <r>    1.8158   -0.0000 </r>
       <r>    1.8236   -0.0000 </r>
       <r>    1.8347   -0.0000 </r>
       <r>    1.8494   -0.0000 </r>
       <r>    1.8653   -0.0000 </r>
       <r>    1.8797   -0.0000 </r>
       <r>    1.8850   -0.0000 </r>
       <r>    1.8928   -0.0000 </r>
       <r>    1.9079   -0.0000 </r>
       <r>    1.9221   -0.0000 </r>
       <r>    1.9322   -0.0000 </r>
       <r>    1.9442   -0.0000 </r>
       <r>    1.9580   -0.0000 </r>
       <r>    1.9631   -0.0000 </r>
       <r>    1.9767   -0.0000 </r>
       <r>    1.9826   -0.0000 </r>
       <r>    1.9956   -0.0000 </r>
       <r>    2.0046   -0.0000 </r>
       <r>    2.0190   -0.0000 </r>
       <r>    2.0223   -0.0000 </r>
       <r>    2.0307   -0.0000 </r>
       <r>    2.0341   -0.0000 </r>
       <r>    2.0525   -0.0000 </r>
       <r>    2.0660   -0.0000 </r>
       <r>    2.0783   -0.0000 </r>
       <r>    2.0828   -0.0000 </r>
       <r>    2.0973   -0.0000 </r>
       <r>    2.1046   -0.0000 </r>
       <r>    2.1119   -0.0000 </r>
       <r>    2.1194   -0.0000 </r>
       <r>    2.1238   -0.0000 </r>
       <r>    2.1367   -0.0000 </r>
       <r>    2.1463   -0.0000 </r>
       <r>    2.1615   -0.0000 </r>
       <r>    2.1714   -0.0000 </r>
       <r>    2.1802   -0.0000 </r>
       <r>    2.1910   -0.0000 </r>
       <r>    2.1969   -0.0000 </r>
       <r>    2.2019   -0.0000 </r>
       <r>    2.2144   -0.0000 </r>
       <r>    2.2207   -0.0000 </r>
       <r>    2.2478   -0.0000 </r>
       <r>    2.2660   -0.0000 </r>
       <r>    2.2749   -0.0000 </r>
       <r>    2.2865   -0.0000 </r>
       <r>    2.3010   -0.0000 </r>
       <r>    2.3091   -0.0000 </r>
       <r>    2.3189   -0.0000 </r>
       <r>    2.3362   -0.0000 </r>
       <r>    2.3584   -0.0000 </r>
       <r>    2.3759   -0.0000 </r>
       <r>    2.3804   -0.0000 </r>
       <r>    2.3859   -0.0000 </r>
       <r>    2.4136   -0.0000 </r>
       <r>    2.4165   -0.0000 </r>
       <r>    2.4339   -0.0000 </r>
       <r>    2.4472   -0.0000 </r>
       <r>    2.4598   -0.0000 </r>
       <r>    2.4683   -0.0000 </r>
       <r>    2.4775   -0.0000 </r>
       <r>    2.4972   -0.0000 </r>
       <r>    2.4983   -0.0000 </r>
       <r>    2.5088   -0.0000 </r>
       <r>    2.5248   -0.0000 </r>
       <r>    2.5332   -0.0000 </r>
       <r>    2.5424   -0.0000 </r>
       <r>    2.5646   -0.0000 </r>
       <r>    2.5679   -0.0000 </r>
       <r>    2.5757   -0.0000 </r>
       <r>    2.5819   -0.0000 </r>
       <r>    2.5971   -0.0000 </r>
       <r>    2.6070   -0.0000 </r>
       <r>    2.6096   -0.0000 </r>
       <r>    2.6197   -0.0000 </r>
       <r>    2.6273   -0.0000 </r>
       <r>    2.6420   -0.0000 </r>
       <r>    2.6475   -0.0000 </r>
       <r>    2.6505   -0.0000 </r>
       <r>    2.6584   -0.0000 </r>
       <r>    2.6777   -0.0000 </r>
       <r>    2.6785   -0.0000 </r>
       <r>    2.6969   -0.0000 </r>
       <r>    2.7021   -0.0000 </r>
       <r>    2.7052   -0.0000 </r>
       <r>    2.7380   -0.0000 </r>
       <r>    2.7385   -0.0000 </r>
       <r>    2.7537   -0.0000 </r>
       <r>    2.7791   -0.0000 </r>
       <r>    2.7803   -0.0000 </r>
       <r>    2.8038   -0.0000 </r>
       <r>    2.8246   -0.0000 </r>
       <r>    2.8443   -0.0000 </r>
       <r>    2.8592   -0.0000 </r>
       <r>    2.9097   -0.0000 </r>
       <r>    2.9121   -0.0000 </r>
       <r>    2.9332   -0.0000 </r>
       <r>    2.9672   -0.0000 </r>
       <r>    2.9737   -0.0000 </r>
       <r>    2.9938   -0.0000 </r>
       <r>    3.0136   -0.0000 </r>
       <r>    3.0450   -0.0000 </r>
       <r>    3.0581   -0.0000 </r>
       <r>    3.0743   -0.0000 </r>
      </set>
      <set comment="kpoint 9">
       <r>  -43.2199    1.0000 </r>
       <r>  -43.1742    1.0000 </r>
       <r>  -43.1594    1.0000 </r>
       <r>  -43.1467    1.0000 </r>
       <r>  -43.1378    1.0000 </r>
       <r>  -43.1346    1.0000 </r>
       <r>  -43.1116    1.0000 </r>
       <r>  -43.1062    1.0000 </r>
       <r>  -43.0854    1.0000 </r>
       <r>  -43.0795    1.0000 </r>
       <r>  -43.0744    1.0000 </r>
       <r>  -43.0718    1.0000 </r>
       <r>  -43.0590    1.0000 </r>
       <r>  -43.0536    1.0000 </r>
       <r>  -43.0467    1.0000 </r>
       <r>  -43.0328    1.0000 </r>
       <r>  -42.9702    1.0000 </r>
       <r>  -42.9669    1.0000 </r>
       <r>  -42.7135    1.0000 </r>
       <r>  -42.6431    1.0000 </r>
       <r>  -42.6118    1.0000 </r>
       <r>  -42.5639    1.0000 </r>
       <r>  -42.5474    1.0000 </r>
       <r>  -42.4174    1.0000 </r>
       <r>  -42.3921    1.0000 </r>
       <r>  -42.3273    1.0000 </r>
       <r>  -42.3133    1.0000 </r>
       <r>  -42.1123    1.0000 </r>
       <r>  -41.9643    1.0000 </r>
       <r>  -41.9515    1.0000 </r>
       <r>  -40.5195    1.0000 </r>
       <r>  -40.4664    1.0000 </r>
       <r>  -40.3227    1.0000 </r>
       <r>  -40.1988    1.0000 </r>
       <r>  -40.0637    1.0000 </r>
       <r>  -40.0206    1.0000 </r>
       <r>  -39.8894    1.0000 </r>
       <r>  -39.8742    1.0000 </r>
       <r>  -39.6451    1.0000 </r>
       <r>  -15.4407    1.0000 </r>
       <r>  -15.4298    1.0000 </r>
       <r>  -15.3910    1.0000 </r>
       <r>  -15.3908    1.0000 </r>
       <r>  -15.3641    1.0000 </r>
       <r>   -7.4627    1.0000 </r>
       <r>   -6.4410    1.0000 </r>
       <r>   -6.3857    1.0000 </r>
       <r>   -5.5037    1.0000 </r>
       <r>   -5.4200    1.0000 </r>
       <r>   -5.3928    1.0000 </r>
       <r>   -5.3482    1.0000 </r>
       <r>   -4.5366    1.0000 </r>
       <r>   -4.4558    1.0000 </r>
       <r>   -4.2046    1.0000 </r>
       <r>   -4.0608    1.0000 </r>
       <r>   -3.7521    1.0000 </r>
       <r>   -3.7214    1.0000 </r>
       <r>   -3.4148    1.0000 </r>
       <r>   -3.3399    1.0000 </r>
       <r>   -3.2008    1.0000 </r>
       <r>   -3.1722    1.0000 </r>
       <r>   -3.1445    1.0000 </r>
       <r>   -3.1243    1.0000 </r>
       <r>   -3.0323    1.0000 </r>
       <r>   -2.9868    1.0000 </r>
       <r>   -2.9491    1.0000 </r>
       <r>   -2.9178    1.0000 </r>
       <r>   -2.8867    1.0000 </r>
       <r>   -2.8744    1.0000 </r>
       <r>   -2.8454    1.0000 </r>
       <r>   -2.8099    1.0000 </r>
       <r>   -2.7909    1.0000 </r>
       <r>   -2.7407    1.0000 </r>
       <r>   -2.6625    1.0000 </r>
       <r>   -2.5270    1.0000 </r>
       <r>   -2.4749    1.0000 </r>
       <r>   -2.4440    1.0000 </r>
       <r>   -2.4163    1.0000 </r>
       <r>   -2.4007    1.0000 </r>
       <r>   -2.3692    1.0000 </r>
       <r>   -2.3123    1.0000 </r>
       <r>   -2.2954    1.0000 </r>
       <r>   -2.2738    1.0000 </r>
       <r>   -2.2640    1.0000 </r>
       <r>   -2.2513    1.0000 </r>
       <r>   -2.2355    1.0000 </r>
       <r>   -2.1893    1.0000 </r>
       <r>   -2.1625    1.0000 </r>
       <r>   -2.1199    1.0000 </r>
       <r>   -2.1043    1.0000 </r>
       <r>   -2.0537    1.0000 </r>
       <r>   -2.0180    1.0000 </r>
       <r>   -1.9861    1.0000 </r>
       <r>   -1.9525    1.0000 </r>
       <r>   -1.9343    1.0000 </r>
       <r>   -1.9159    1.0000 </r>
       <r>   -1.8892    1.0000 </r>
       <r>   -1.8700    1.0000 </r>
       <r>   -1.8416    1.0000 </r>
       <r>   -1.8270    1.0000 </r>
       <r>   -1.8099    1.0000 </r>
       <r>   -1.7562    1.0000 </r>
       <r>   -1.7434    1.0000 </r>
       <r>   -1.6900    1.0000 </r>
       <r>   -1.6572    1.0000 </r>
       <r>   -1.6360    1.0000 </r>
       <r>   -1.6159    1.0000 </r>
       <r>   -1.5863    1.0000 </r>
       <r>   -1.5531    1.0000 </r>
       <r>   -1.5323    1.0000 </r>
       <r>   -1.5067    1.0000 </r>
       <r>   -1.4429    1.0000 </r>
       <r>   -1.4210    1.0000 </r>
       <r>   -1.3880    1.0000 </r>
       <r>   -1.3422    1.0000 </r>
       <r>   -1.3164    1.0000 </r>
       <r>   -1.2953    1.0000 </r>
       <r>   -1.2827    1.0000 </r>
       <r>   -1.2644    1.0000 </r>
       <r>   -1.2395    1.0000 </r>
       <r>   -1.2166    1.0000 </r>
       <r>   -1.2069    1.0000 </r>
       <r>   -1.1976    1.0000 </r>
       <r>   -1.1720    1.0000 </r>
       <r>   -1.1378    1.0000 </r>
       <r>   -1.1271    1.0000 </r>
       <r>   -1.0852    1.0000 </r>
       <r>   -1.0717    1.0000 </r>
       <r>   -1.0507    1.0000 </r>
       <r>   -1.0275    1.0000 </r>
       <r>   -0.9939    1.0000 </r>
       <r>   -0.9908    1.0000 </r>
       <r>   -0.9731    1.0000 </r>
       <r>   -0.9560    1.0000 </r>
       <r>   -0.9381    1.0000 </r>
       <r>   -0.9201    1.0000 </r>
       <r>   -0.9018    1.0000 </r>
       <r>   -0.8863    1.0000 </r>
       <r>   -0.8729    1.0000 </r>
       <r>   -0.8500    1.0000 </r>
       <r>   -0.8312    1.0000 </r>
       <r>   -0.8165    1.0000 </r>
       <r>   -0.8040    1.0000 </r>
       <r>   -0.7781    1.0000 </r>
       <r>   -0.7516    1.0000 </r>
       <r>   -0.7443    1.0000 </r>
       <r>   -0.7250    1.0000 </r>
       <r>   -0.7001    1.0000 </r>
       <r>   -0.6895    1.0000 </r>
       <r>   -0.6676    1.0000 </r>
       <r>   -0.6469    1.0000 </r>
       <r>   -0.6300    1.0000 </r>
       <r>   -0.6123    1.0000 </r>
       <r>   -0.5957    1.0000 </r>
       <r>   -0.5765    1.0000 </r>
       <r>   -0.5610    1.0000 </r>
       <r>   -0.5458    1.0000 </r>
       <r>   -0.5362    1.0000 </r>
       <r>   -0.5219    1.0000 </r>
       <r>   -0.5074    1.0000 </r>
       <r>   -0.4910    1.0000 </r>
       <r>   -0.4727    1.0000 </r>
       <r>   -0.4549    1.0000 </r>
       <r>   -0.4410    1.0000 </r>
       <r>   -0.4176    1.0000 </r>
       <r>   -0.4051    1.0000 </r>
       <r>   -0.3926    1.0000 </r>
       <r>   -0.3831    1.0000 </r>
       <r>   -0.3668    1.0000 </r>
       <r>   -0.3598    1.0000 </r>
       <r>   -0.3520    1.0000 </r>
       <r>   -0.3412    1.0000 </r>
       <r>   -0.3285    1.0000 </r>
       <r>   -0.3142    1.0000 </r>
       <r>   -0.2969    1.0000 </r>
       <r>   -0.2788    1.0000 </r>
       <r>   -0.2741    1.0000 </r>
       <r>   -0.2641    1.0000 </r>
       <r>   -0.2424    1.0000 </r>
       <r>   -0.2300    1.0000 </r>
       <r>   -0.2163    1.0000 </r>
       <r>   -0.2064    1.0000 </r>
       <r>   -0.1754    1.0000 </r>
       <r>   -0.1644    1.0000 </r>
       <r>   -0.1537    1.0000 </r>
       <r>   -0.1283    1.0000 </r>
       <r>   -0.1143    1.0000 </r>
       <r>   -0.0885    1.0000 </r>
       <r>   -0.0671    1.0000 </r>
       <r>   -0.0474    1.0000 </r>
       <r>   -0.0301    1.0000 </r>
       <r>   -0.0067    1.0000 </r>
       <r>    0.0132    1.0000 </r>
       <r>    0.0379    1.0000 </r>
       <r>    0.0500    1.0000 </r>
       <r>    0.0724    1.0000 </r>
       <r>    0.0869    1.0000 </r>
       <r>    0.0945    1.0000 </r>
       <r>    0.1253    1.0000 </r>
       <r>    0.1400    1.0000 </r>
       <r>    0.1662    1.0000 </r>
       <r>    0.2090    1.0000 </r>
       <r>    0.2180    1.0000 </r>
       <r>    0.2526    1.0000 </r>
       <r>    0.2749    1.0000 </r>
       <r>    0.3029    1.0000 </r>
       <r>    0.3281    1.0000 </r>
       <r>    0.3472    1.0000 </r>
       <r>    0.3643    1.0000 </r>
       <r>    0.4295    1.0000 </r>
       <r>    0.4730    1.0000 </r>
       <r>    0.4938    1.0001 </r>
       <r>    0.5117    1.0002 </r>
       <r>    0.5503    1.0007 </r>
       <r>    0.5905    1.0023 </r>
       <r>    0.6012    1.0030 </r>
       <r>    0.6412    1.0078 </r>
       <r>    0.6691    1.0137 </r>
       <r>    0.6925    1.0202 </r>
       <r>    0.7186    1.0281 </r>
       <r>    0.7452    1.0344 </r>
       <r>    0.7852    1.0292 </r>
       <r>    0.8105    1.0073 </r>
       <r>    0.8635    0.8832 </r>
       <r>    0.8843    0.8007 </r>
       <r>    0.9164    0.6426 </r>
       <r>    0.9235    0.6042 </r>
       <r>    0.9478    0.4680 </r>
       <r>    0.9899    0.2451 </r>
       <r>    1.0194    0.1215 </r>
       <r>    1.0359    0.0688 </r>
       <r>    1.0627    0.0089 </r>
       <r>    1.0808   -0.0155 </r>
       <r>    1.1033   -0.0312 </r>
       <r>    1.1193   -0.0351 </r>
       <r>    1.1268   -0.0355 </r>
       <r>    1.1695   -0.0269 </r>
       <r>    1.1816   -0.0232 </r>
       <r>    1.2028   -0.0169 </r>
       <r>    1.2128   -0.0142 </r>
       <r>    1.2231   -0.0118 </r>
       <r>    1.2484   -0.0070 </r>
       <r>    1.2815   -0.0031 </r>
       <r>    1.2965   -0.0021 </r>
       <r>    1.3277   -0.0008 </r>
       <r>    1.3477   -0.0004 </r>
       <r>    1.3647   -0.0002 </r>
       <r>    1.3866   -0.0001 </r>
       <r>    1.4100   -0.0000 </r>
       <r>    1.4147   -0.0000 </r>
       <r>    1.4269   -0.0000 </r>
       <r>    1.4528   -0.0000 </r>
       <r>    1.4726   -0.0000 </r>
       <r>    1.4816   -0.0000 </r>
       <r>    1.5037   -0.0000 </r>
       <r>    1.5291   -0.0000 </r>
       <r>    1.5471   -0.0000 </r>
       <r>    1.5854   -0.0000 </r>
       <r>    1.6019   -0.0000 </r>
       <r>    1.6124   -0.0000 </r>
       <r>    1.6381   -0.0000 </r>
       <r>    1.6563   -0.0000 </r>
       <r>    1.6849   -0.0000 </r>
       <r>    1.6889   -0.0000 </r>
       <r>    1.7087   -0.0000 </r>
       <r>    1.7256   -0.0000 </r>
       <r>    1.7414   -0.0000 </r>
       <r>    1.7480   -0.0000 </r>
       <r>    1.7789   -0.0000 </r>
       <r>    1.7833   -0.0000 </r>
       <r>    1.7883   -0.0000 </r>
       <r>    1.7984   -0.0000 </r>
       <r>    1.8060   -0.0000 </r>
       <r>    1.8263   -0.0000 </r>
       <r>    1.8330   -0.0000 </r>
       <r>    1.8557   -0.0000 </r>
       <r>    1.8615   -0.0000 </r>
       <r>    1.8755   -0.0000 </r>
       <r>    1.8830   -0.0000 </r>
       <r>    1.8890   -0.0000 </r>
       <r>    1.9150   -0.0000 </r>
       <r>    1.9217   -0.0000 </r>
       <r>    1.9286   -0.0000 </r>
       <r>    1.9429   -0.0000 </r>
       <r>    1.9582   -0.0000 </r>
       <r>    1.9687   -0.0000 </r>
       <r>    1.9790   -0.0000 </r>
       <r>    1.9944   -0.0000 </r>
       <r>    2.0024   -0.0000 </r>
       <r>    2.0107   -0.0000 </r>
       <r>    2.0195   -0.0000 </r>
       <r>    2.0274   -0.0000 </r>
       <r>    2.0355   -0.0000 </r>
       <r>    2.0491   -0.0000 </r>
       <r>    2.0689   -0.0000 </r>
       <r>    2.0810   -0.0000 </r>
       <r>    2.0954   -0.0000 </r>
       <r>    2.1035   -0.0000 </r>
       <r>    2.1109   -0.0000 </r>
       <r>    2.1168   -0.0000 </r>
       <r>    2.1316   -0.0000 </r>
       <r>    2.1452   -0.0000 </r>
       <r>    2.1637   -0.0000 </r>
       <r>    2.1770   -0.0000 </r>
       <r>    2.1830   -0.0000 </r>
       <r>    2.1899   -0.0000 </r>
       <r>    2.1976   -0.0000 </r>
       <r>    2.2058   -0.0000 </r>
       <r>    2.2246   -0.0000 </r>
       <r>    2.2352   -0.0000 </r>
       <r>    2.2486   -0.0000 </r>
       <r>    2.2533   -0.0000 </r>
       <r>    2.2654   -0.0000 </r>
       <r>    2.2771   -0.0000 </r>
       <r>    2.2862   -0.0000 </r>
       <r>    2.3031   -0.0000 </r>
       <r>    2.3143   -0.0000 </r>
       <r>    2.3205   -0.0000 </r>
       <r>    2.3330   -0.0000 </r>
       <r>    2.3459   -0.0000 </r>
       <r>    2.3528   -0.0000 </r>
       <r>    2.3623   -0.0000 </r>
       <r>    2.3697   -0.0000 </r>
       <r>    2.3815   -0.0000 </r>
       <r>    2.3956   -0.0000 </r>
       <r>    2.4060   -0.0000 </r>
       <r>    2.4216   -0.0000 </r>
       <r>    2.4325   -0.0000 </r>
       <r>    2.4400   -0.0000 </r>
       <r>    2.4556   -0.0000 </r>
       <r>    2.4693   -0.0000 </r>
       <r>    2.4734   -0.0000 </r>
       <r>    2.4841   -0.0000 </r>
       <r>    2.4892   -0.0000 </r>
       <r>    2.4964   -0.0000 </r>
       <r>    2.5064   -0.0000 </r>
       <r>    2.5175   -0.0000 </r>
       <r>    2.5238   -0.0000 </r>
       <r>    2.5453   -0.0000 </r>
       <r>    2.5483   -0.0000 </r>
       <r>    2.5532   -0.0000 </r>
       <r>    2.5700   -0.0000 </r>
       <r>    2.5777   -0.0000 </r>
       <r>    2.5845   -0.0000 </r>
       <r>    2.5944   -0.0000 </r>
       <r>    2.5971   -0.0000 </r>
       <r>    2.6066   -0.0000 </r>
       <r>    2.6136   -0.0000 </r>
       <r>    2.6158   -0.0000 </r>
       <r>    2.6328   -0.0000 </r>
       <r>    2.6438   -0.0000 </r>
       <r>    2.6497   -0.0000 </r>
       <r>    2.6600   -0.0000 </r>
       <r>    2.6649   -0.0000 </r>
       <r>    2.6762   -0.0000 </r>
       <r>    2.6845   -0.0000 </r>
       <r>    2.7004   -0.0000 </r>
       <r>    2.7133   -0.0000 </r>
       <r>    2.7428   -0.0000 </r>
       <r>    2.7502   -0.0000 </r>
       <r>    2.7829   -0.0000 </r>
       <r>    2.7917   -0.0000 </r>
       <r>    2.8074   -0.0000 </r>
       <r>    2.8275   -0.0000 </r>
       <r>    2.8537   -0.0000 </r>
       <r>    2.8691   -0.0000 </r>
       <r>    2.8839   -0.0000 </r>
       <r>    2.9145   -0.0000 </r>
       <r>    2.9359   -0.0000 </r>
       <r>    2.9691   -0.0000 </r>
       <r>    2.9815   -0.0000 </r>
       <r>    3.0167   -0.0000 </r>
       <r>    3.0254   -0.0000 </r>
       <r>    3.0714   -0.0000 </r>
       <r>    3.0778   -0.0000 </r>
      </set>
      <set comment="kpoint 10">
       <r>  -43.2199    1.0000 </r>
       <r>  -43.1742    1.0000 </r>
       <r>  -43.1594    1.0000 </r>
       <r>  -43.1467    1.0000 </r>
       <r>  -43.1379    1.0000 </r>
       <r>  -43.1346    1.0000 </r>
       <r>  -43.1116    1.0000 </r>
       <r>  -43.1062    1.0000 </r>
       <r>  -43.0854    1.0000 </r>
       <r>  -43.0795    1.0000 </r>
       <r>  -43.0744    1.0000 </r>
       <r>  -43.0718    1.0000 </r>
       <r>  -43.0590    1.0000 </r>
       <r>  -43.0536    1.0000 </r>
       <r>  -43.0467    1.0000 </r>
       <r>  -43.0328    1.0000 </r>
       <r>  -42.9708    1.0000 </r>
       <r>  -42.9669    1.0000 </r>
       <r>  -42.7135    1.0000 </r>
       <r>  -42.6430    1.0000 </r>
       <r>  -42.6118    1.0000 </r>
       <r>  -42.5618    1.0000 </r>
       <r>  -42.5467    1.0000 </r>
       <r>  -42.4196    1.0000 </r>
       <r>  -42.3922    1.0000 </r>
       <r>  -42.3273    1.0000 </r>
       <r>  -42.3133    1.0000 </r>
       <r>  -42.1124    1.0000 </r>
       <r>  -41.9642    1.0000 </r>
       <r>  -41.9515    1.0000 </r>
       <r>  -40.5196    1.0000 </r>
       <r>  -40.4664    1.0000 </r>
       <r>  -40.3227    1.0000 </r>
       <r>  -40.1988    1.0000 </r>
       <r>  -40.0637    1.0000 </r>
       <r>  -40.0206    1.0000 </r>
       <r>  -39.8895    1.0000 </r>
       <r>  -39.8742    1.0000 </r>
       <r>  -39.6451    1.0000 </r>
       <r>  -15.4407    1.0000 </r>
       <r>  -15.4298    1.0000 </r>
       <r>  -15.3910    1.0000 </r>
       <r>  -15.3908    1.0000 </r>
       <r>  -15.3641    1.0000 </r>
       <r>   -7.4559    1.0000 </r>
       <r>   -6.0499    1.0000 </r>
       <r>   -6.0368    1.0000 </r>
       <r>   -6.0139    1.0000 </r>
       <r>   -5.9711    1.0000 </r>
       <r>   -5.1461    1.0000 </r>
       <r>   -5.1014    1.0000 </r>
       <r>   -5.0945    1.0000 </r>
       <r>   -4.9272    1.0000 </r>
       <r>   -3.8882    1.0000 </r>
       <r>   -3.8717    1.0000 </r>
       <r>   -3.8621    1.0000 </r>
       <r>   -3.6414    1.0000 </r>
       <r>   -3.0806    1.0000 </r>
       <r>   -3.0450    1.0000 </r>
       <r>   -3.0065    1.0000 </r>
       <r>   -2.9729    1.0000 </r>
       <r>   -2.9681    1.0000 </r>
       <r>   -2.9562    1.0000 </r>
       <r>   -2.9363    1.0000 </r>
       <r>   -2.9238    1.0000 </r>
       <r>   -2.8989    1.0000 </r>
       <r>   -2.8707    1.0000 </r>
       <r>   -2.8186    1.0000 </r>
       <r>   -2.8119    1.0000 </r>
       <r>   -2.7976    1.0000 </r>
       <r>   -2.7670    1.0000 </r>
       <r>   -2.7107    1.0000 </r>
       <r>   -2.6972    1.0000 </r>
       <r>   -2.6851    1.0000 </r>
       <r>   -2.6335    1.0000 </r>
       <r>   -2.6016    1.0000 </r>
       <r>   -2.6007    1.0000 </r>
       <r>   -2.5818    1.0000 </r>
       <r>   -2.5701    1.0000 </r>
       <r>   -2.5363    1.0000 </r>
       <r>   -2.5178    1.0000 </r>
       <r>   -2.4804    1.0000 </r>
       <r>   -2.4387    1.0000 </r>
       <r>   -2.3646    1.0000 </r>
       <r>   -2.2031    1.0000 </r>
       <r>   -2.1916    1.0000 </r>
       <r>   -2.1797    1.0000 </r>
       <r>   -2.1515    1.0000 </r>
       <r>   -2.1123    1.0000 </r>
       <r>   -2.0836    1.0000 </r>
       <r>   -2.0563    1.0000 </r>
       <r>   -2.0480    1.0000 </r>
       <r>   -2.0152    1.0000 </r>
       <r>   -1.9953    1.0000 </r>
       <r>   -1.9415    1.0000 </r>
       <r>   -1.9271    1.0000 </r>
       <r>   -1.9064    1.0000 </r>
       <r>   -1.8907    1.0000 </r>
       <r>   -1.8806    1.0000 </r>
       <r>   -1.8604    1.0000 </r>
       <r>   -1.8110    1.0000 </r>
       <r>   -1.7844    1.0000 </r>
       <r>   -1.7375    1.0000 </r>
       <r>   -1.7158    1.0000 </r>
       <r>   -1.7008    1.0000 </r>
       <r>   -1.6493    1.0000 </r>
       <r>   -1.6187    1.0000 </r>
       <r>   -1.5949    1.0000 </r>
       <r>   -1.5762    1.0000 </r>
       <r>   -1.5416    1.0000 </r>
       <r>   -1.4967    1.0000 </r>
       <r>   -1.4559    1.0000 </r>
       <r>   -1.4457    1.0000 </r>
       <r>   -1.4425    1.0000 </r>
       <r>   -1.3907    1.0000 </r>
       <r>   -1.3378    1.0000 </r>
       <r>   -1.3231    1.0000 </r>
       <r>   -1.3007    1.0000 </r>
       <r>   -1.2917    1.0000 </r>
       <r>   -1.2446    1.0000 </r>
       <r>   -1.2410    1.0000 </r>
       <r>   -1.2221    1.0000 </r>
       <r>   -1.2061    1.0000 </r>
       <r>   -1.1957    1.0000 </r>
       <r>   -1.1773    1.0000 </r>
       <r>   -1.1499    1.0000 </r>
       <r>   -1.1207    1.0000 </r>
       <r>   -1.1051    1.0000 </r>
       <r>   -1.0873    1.0000 </r>
       <r>   -1.0663    1.0000 </r>
       <r>   -1.0450    1.0000 </r>
       <r>   -1.0257    1.0000 </r>
       <r>   -1.0182    1.0000 </r>
       <r>   -0.9497    1.0000 </r>
       <r>   -0.9315    1.0000 </r>
       <r>   -0.9194    1.0000 </r>
       <r>   -0.8952    1.0000 </r>
       <r>   -0.8775    1.0000 </r>
       <r>   -0.8559    1.0000 </r>
       <r>   -0.8375    1.0000 </r>
       <r>   -0.8259    1.0000 </r>
       <r>   -0.8158    1.0000 </r>
       <r>   -0.7975    1.0000 </r>
       <r>   -0.7733    1.0000 </r>
       <r>   -0.7569    1.0000 </r>
       <r>   -0.7277    1.0000 </r>
       <r>   -0.7079    1.0000 </r>
       <r>   -0.6925    1.0000 </r>
       <r>   -0.6721    1.0000 </r>
       <r>   -0.6586    1.0000 </r>
       <r>   -0.6505    1.0000 </r>
       <r>   -0.6290    1.0000 </r>
       <r>   -0.6077    1.0000 </r>
       <r>   -0.6004    1.0000 </r>
       <r>   -0.5692    1.0000 </r>
       <r>   -0.5512    1.0000 </r>
       <r>   -0.5377    1.0000 </r>
       <r>   -0.5266    1.0000 </r>
       <r>   -0.5193    1.0000 </r>
       <r>   -0.4920    1.0000 </r>
       <r>   -0.4864    1.0000 </r>
       <r>   -0.4787    1.0000 </r>
       <r>   -0.4609    1.0000 </r>
       <r>   -0.4335    1.0000 </r>
       <r>   -0.4277    1.0000 </r>
       <r>   -0.4054    1.0000 </r>
       <r>   -0.3941    1.0000 </r>
       <r>   -0.3930    1.0000 </r>
       <r>   -0.3701    1.0000 </r>
       <r>   -0.3593    1.0000 </r>
       <r>   -0.3397    1.0000 </r>
       <r>   -0.3257    1.0000 </r>
       <r>   -0.3015    1.0000 </r>
       <r>   -0.2989    1.0000 </r>
       <r>   -0.2687    1.0000 </r>
       <r>   -0.2478    1.0000 </r>
       <r>   -0.2317    1.0000 </r>
       <r>   -0.2066    1.0000 </r>
       <r>   -0.2023    1.0000 </r>
       <r>   -0.1911    1.0000 </r>
       <r>   -0.1810    1.0000 </r>
       <r>   -0.1688    1.0000 </r>
       <r>   -0.1595    1.0000 </r>
       <r>   -0.1468    1.0000 </r>
       <r>   -0.1137    1.0000 </r>
       <r>   -0.1027    1.0000 </r>
       <r>   -0.0871    1.0000 </r>
       <r>   -0.0866    1.0000 </r>
       <r>   -0.0676    1.0000 </r>
       <r>   -0.0600    1.0000 </r>
       <r>   -0.0576    1.0000 </r>
       <r>   -0.0417    1.0000 </r>
       <r>   -0.0208    1.0000 </r>
       <r>   -0.0111    1.0000 </r>
       <r>   -0.0042    1.0000 </r>
       <r>    0.0118    1.0000 </r>
       <r>    0.0514    1.0000 </r>
       <r>    0.0705    1.0000 </r>
       <r>    0.1383    1.0000 </r>
       <r>    0.1768    1.0000 </r>
       <r>    0.1899    1.0000 </r>
       <r>    0.2355    1.0000 </r>
       <r>    0.2448    1.0000 </r>
       <r>    0.3181    1.0000 </r>
       <r>    0.3531    1.0000 </r>
       <r>    0.3677    1.0000 </r>
       <r>    0.3965    1.0000 </r>
       <r>    0.4259    1.0000 </r>
       <r>    0.4741    1.0000 </r>
       <r>    0.4878    1.0001 </r>
       <r>    0.5247    1.0003 </r>
       <r>    0.5396    1.0005 </r>
       <r>    0.5660    1.0011 </r>
       <r>    0.5823    1.0018 </r>
       <r>    0.5911    1.0023 </r>
       <r>    0.6046    1.0033 </r>
       <r>    0.6351    1.0069 </r>
       <r>    0.6651    1.0127 </r>
       <r>    0.6884    1.0189 </r>
       <r>    0.7072    1.0246 </r>
       <r>    0.7426    1.0340 </r>
       <r>    0.7710    1.0342 </r>
       <r>    0.7885    1.0275 </r>
       <r>    0.8553    0.9102 </r>
       <r>    0.8664    0.8725 </r>
       <r>    0.8920    0.7659 </r>
       <r>    0.9135    0.6582 </r>
       <r>    0.9287    0.5751 </r>
       <r>    0.9800    0.2933 </r>
       <r>    0.9971    0.2117 </r>
       <r>    1.0200    0.1196 </r>
       <r>    1.0403    0.0570 </r>
       <r>    1.1181   -0.0350 </r>
       <r>    1.1272   -0.0354 </r>
       <r>    1.1505   -0.0322 </r>
       <r>    1.1754   -0.0251 </r>
       <r>    1.1799   -0.0237 </r>
       <r>    1.1917   -0.0201 </r>
       <r>    1.2141   -0.0139 </r>
       <r>    1.2360   -0.0091 </r>
       <r>    1.2458   -0.0074 </r>
       <r>    1.2627   -0.0050 </r>
       <r>    1.2814   -0.0031 </r>
       <r>    1.2939   -0.0022 </r>
       <r>    1.3031   -0.0017 </r>
       <r>    1.3245   -0.0009 </r>
       <r>    1.3438   -0.0005 </r>
       <r>    1.3740   -0.0002 </r>
       <r>    1.3826   -0.0001 </r>
       <r>    1.4003   -0.0001 </r>
       <r>    1.4206   -0.0000 </r>
       <r>    1.4680   -0.0000 </r>
       <r>    1.4822   -0.0000 </r>
       <r>    1.5012   -0.0000 </r>
       <r>    1.5094   -0.0000 </r>
       <r>    1.5488   -0.0000 </r>
       <r>    1.5522   -0.0000 </r>
       <r>    1.5626   -0.0000 </r>
       <r>    1.5742   -0.0000 </r>
       <r>    1.6005   -0.0000 </r>
       <r>    1.6111   -0.0000 </r>
       <r>    1.6360   -0.0000 </r>
       <r>    1.6627   -0.0000 </r>
       <r>    1.6827   -0.0000 </r>
       <r>    1.6850   -0.0000 </r>
       <r>    1.6984   -0.0000 </r>
       <r>    1.7079   -0.0000 </r>
       <r>    1.7246   -0.0000 </r>
       <r>    1.7388   -0.0000 </r>
       <r>    1.7602   -0.0000 </r>
       <r>    1.7713   -0.0000 </r>
       <r>    1.7918   -0.0000 </r>
       <r>    1.7931   -0.0000 </r>
       <r>    1.8034   -0.0000 </r>
       <r>    1.8470   -0.0000 </r>
       <r>    1.8604   -0.0000 </r>
       <r>    1.8676   -0.0000 </r>
       <r>    1.8707   -0.0000 </r>
       <r>    1.8969   -0.0000 </r>
       <r>    1.9020   -0.0000 </r>
       <r>    1.9175   -0.0000 </r>
       <r>    1.9292   -0.0000 </r>
       <r>    1.9383   -0.0000 </r>
       <r>    1.9480   -0.0000 </r>
       <r>    1.9762   -0.0000 </r>
       <r>    1.9990   -0.0000 </r>
       <r>    2.0105   -0.0000 </r>
       <r>    2.0150   -0.0000 </r>
       <r>    2.0296   -0.0000 </r>
       <r>    2.0350   -0.0000 </r>
       <r>    2.0525   -0.0000 </r>
       <r>    2.0565   -0.0000 </r>
       <r>    2.0746   -0.0000 </r>
       <r>    2.0886   -0.0000 </r>
       <r>    2.0946   -0.0000 </r>
       <r>    2.1107   -0.0000 </r>
       <r>    2.1217   -0.0000 </r>
       <r>    2.1324   -0.0000 </r>
       <r>    2.1385   -0.0000 </r>
       <r>    2.1556   -0.0000 </r>
       <r>    2.1604   -0.0000 </r>
       <r>    2.1641   -0.0000 </r>
       <r>    2.1811   -0.0000 </r>
       <r>    2.1948   -0.0000 </r>
       <r>    2.2112   -0.0000 </r>
       <r>    2.2174   -0.0000 </r>
       <r>    2.2233   -0.0000 </r>
       <r>    2.2436   -0.0000 </r>
       <r>    2.2479   -0.0000 </r>
       <r>    2.2621   -0.0000 </r>
       <r>    2.2669   -0.0000 </r>
       <r>    2.2704   -0.0000 </r>
       <r>    2.2864   -0.0000 </r>
       <r>    2.3071   -0.0000 </r>
       <r>    2.3156   -0.0000 </r>
       <r>    2.3197   -0.0000 </r>
       <r>    2.3275   -0.0000 </r>
       <r>    2.3410   -0.0000 </r>
       <r>    2.3533   -0.0000 </r>
       <r>    2.3692   -0.0000 </r>
       <r>    2.3756   -0.0000 </r>
       <r>    2.3825   -0.0000 </r>
       <r>    2.4055   -0.0000 </r>
       <r>    2.4104   -0.0000 </r>
       <r>    2.4138   -0.0000 </r>
       <r>    2.4280   -0.0000 </r>
       <r>    2.4418   -0.0000 </r>
       <r>    2.4490   -0.0000 </r>
       <r>    2.4593   -0.0000 </r>
       <r>    2.4664   -0.0000 </r>
       <r>    2.4689   -0.0000 </r>
       <r>    2.4730   -0.0000 </r>
       <r>    2.4815   -0.0000 </r>
       <r>    2.4867   -0.0000 </r>
       <r>    2.4947   -0.0000 </r>
       <r>    2.5058   -0.0000 </r>
       <r>    2.5097   -0.0000 </r>
       <r>    2.5208   -0.0000 </r>
       <r>    2.5261   -0.0000 </r>
       <r>    2.5314   -0.0000 </r>
       <r>    2.5477   -0.0000 </r>
       <r>    2.5547   -0.0000 </r>
       <r>    2.5580   -0.0000 </r>
       <r>    2.5679   -0.0000 </r>
       <r>    2.5700   -0.0000 </r>
       <r>    2.5810   -0.0000 </r>
       <r>    2.5894   -0.0000 </r>
       <r>    2.5991   -0.0000 </r>
       <r>    2.6050   -0.0000 </r>
       <r>    2.6124   -0.0000 </r>
       <r>    2.6188   -0.0000 </r>
       <r>    2.6287   -0.0000 </r>
       <r>    2.6408   -0.0000 </r>
       <r>    2.6437   -0.0000 </r>
       <r>    2.6492   -0.0000 </r>
       <r>    2.6667   -0.0000 </r>
       <r>    2.6684   -0.0000 </r>
       <r>    2.6805   -0.0000 </r>
       <r>    2.6839   -0.0000 </r>
       <r>    2.6949   -0.0000 </r>
       <r>    2.7182   -0.0000 </r>
       <r>    2.7401   -0.0000 </r>
       <r>    2.7749   -0.0000 </r>
       <r>    2.7983   -0.0000 </r>
       <r>    2.8195   -0.0000 </r>
       <r>    2.8396   -0.0000 </r>
       <r>    2.8658   -0.0000 </r>
       <r>    2.9073   -0.0000 </r>
       <r>    2.9309   -0.0000 </r>
       <r>    2.9393   -0.0000 </r>
       <r>    2.9754   -0.0000 </r>
       <r>    2.9977   -0.0000 </r>
       <r>    3.0937   -0.0000 </r>
       <r>    3.1188   -0.0000 </r>
       <r>    3.1489   -0.0000 </r>
      </set>
     </set>
    </set>
   </array>
  </eigenvalues>
  <separator name="orbital magnetization" >
   <v name="MAGDIPOLOUT">      0.00000000      0.00000000      0.00000000</v>
  </separator>
  <dos>
   <i name="efermi">      0.94210276 </i>
   <total>
    <array>
     <dimension dim="1">gridpoints</dimension>
     <dimension dim="2">spin</dimension>
     <field>energy</field>
     <field>total</field>
     <field>integrated</field>
     <set>
      <set comment="spin 1">
       <r>   -45.5384     0.0000     0.0000 </r>
       <r>   -45.3684     0.0000     0.0000 </r>
       <r>   -45.1983     0.0000     0.0000 </r>
       <r>   -45.0283     0.0000     0.0000 </r>
       <r>   -44.8583     0.0000     0.0000 </r>
       <r>   -44.6883     0.0000     0.0000 </r>
       <r>   -44.5183     0.0000     0.0000 </r>
       <r>   -44.3482    -0.0000    -0.0000 </r>
       <r>   -44.1782    -0.0000    -0.0000 </r>
       <r>   -44.0082    -0.0000    -0.0000 </r>
       <r>   -43.8382    -0.0000    -0.0000 </r>
       <r>   -43.6682    -0.0000    -0.0000 </r>
       <r>   -43.4981    -0.0000    -0.0000 </r>
       <r>   -43.3281    -0.0177    -0.0030 </r>
       <r>   -43.1581    -0.3093    -0.0556 </r>
       <r>   -42.9881     2.0978     0.3011 </r>
       <r>   -42.8181    21.6545     3.9827 </r>
       <r>   -42.6481    28.6840     8.8596 </r>
       <r>   -42.4780     0.9920     9.0282 </r>
       <r>   -42.3080     1.4195     9.2696 </r>
       <r>   -42.1380     8.8889    10.7808 </r>
       <r>   -41.9680    28.6896    15.6586 </r>
       <r>   -41.7980    42.6973    22.9180 </r>
       <r>   -41.6279    55.3403    32.3269 </r>
       <r>   -41.4579    21.8336    36.0390 </r>
       <r>   -41.2879     0.0529    36.0480 </r>
       <r>   -41.1179    -0.2797    36.0005 </r>
       <r>   -40.9479    -0.0027    36.0000 </r>
       <r>   -40.7778    -0.0024    35.9996 </r>
       <r>   -40.6078    -0.2154    35.9630 </r>
       <r>   -40.4378     0.9211    36.1196 </r>
       <r>   -40.2678    12.9111    38.3147 </r>
       <r>   -40.0978     4.4894    39.0780 </r>
       <r>   -39.9277    -0.4420    39.0028 </r>
       <r>   -39.7577    -0.0167    39.0000 </r>
       <r>   -39.5877    -0.0000    39.0000 </r>
       <r>   -39.4177    -0.0000    39.0000 </r>
       <r>   -39.2477    -0.0000    39.0000 </r>
       <r>   -39.0777     0.0000    39.0000 </r>
       <r>   -38.9076     0.0000    39.0000 </r>
       <r>   -38.7376     0.0000    39.0000 </r>
       <r>   -38.5676     0.0000    39.0000 </r>
       <r>   -38.3976     0.0000    39.0000 </r>
       <r>   -38.2276     0.0000    39.0000 </r>
       <r>   -38.0575     0.0000    39.0000 </r>
       <r>   -37.8875     0.0000    39.0000 </r>
       <r>   -37.7175     0.0000    39.0000 </r>
       <r>   -37.5475     0.0000    39.0000 </r>
       <r>   -37.3775     0.0000    39.0000 </r>
       <r>   -37.2074     0.0000    39.0000 </r>
       <r>   -37.0374     0.0000    39.0000 </r>
       <r>   -36.8674     0.0000    39.0000 </r>
       <r>   -36.6974     0.0000    39.0000 </r>
       <r>   -36.5274     0.0000    39.0000 </r>
       <r>   -36.3573     0.0000    39.0000 </r>
       <r>   -36.1873     0.0000    39.0000 </r>
       <r>   -36.0173     0.0000    39.0000 </r>
       <r>   -35.8473     0.0000    39.0000 </r>
       <r>   -35.6773     0.0000    39.0000 </r>
       <r>   -35.5073     0.0000    39.0000 </r>
       <r>   -35.3372     0.0000    39.0000 </r>
       <r>   -35.1672     0.0000    39.0000 </r>
       <r>   -34.9972     0.0000    39.0000 </r>
       <r>   -34.8272     0.0000    39.0000 </r>
       <r>   -34.6572     0.0000    39.0000 </r>
       <r>   -34.4871     0.0000    39.0000 </r>
       <r>   -34.3171     0.0000    39.0000 </r>
       <r>   -34.1471     0.0000    39.0000 </r>
       <r>   -33.9771     0.0000    39.0000 </r>
       <r>   -33.8071     0.0000    39.0000 </r>
       <r>   -33.6370     0.0000    39.0000 </r>
       <r>   -33.4670     0.0000    39.0000 </r>
       <r>   -33.2970     0.0000    39.0000 </r>
       <r>   -33.1270     0.0000    39.0000 </r>
       <r>   -32.9570     0.0000    39.0000 </r>
       <r>   -32.7869     0.0000    39.0000 </r>
       <r>   -32.6169     0.0000    39.0000 </r>
       <r>   -32.4469     0.0000    39.0000 </r>
       <r>   -32.2769     0.0000    39.0000 </r>
       <r>   -32.1069     0.0000    39.0000 </r>
       <r>   -31.9369     0.0000    39.0000 </r>
       <r>   -31.7668     0.0000    39.0000 </r>
       <r>   -31.5968     0.0000    39.0000 </r>
       <r>   -31.4268     0.0000    39.0000 </r>
       <r>   -31.2568     0.0000    39.0000 </r>
       <r>   -31.0868     0.0000    39.0000 </r>
       <r>   -30.9167     0.0000    39.0000 </r>
       <r>   -30.7467     0.0000    39.0000 </r>
       <r>   -30.5767     0.0000    39.0000 </r>
       <r>   -30.4067     0.0000    39.0000 </r>
       <r>   -30.2367     0.0000    39.0000 </r>
       <r>   -30.0666     0.0000    39.0000 </r>
       <r>   -29.8966     0.0000    39.0000 </r>
       <r>   -29.7266     0.0000    39.0000 </r>
       <r>   -29.5566     0.0000    39.0000 </r>
       <r>   -29.3866     0.0000    39.0000 </r>
       <r>   -29.2165     0.0000    39.0000 </r>
       <r>   -29.0465     0.0000    39.0000 </r>
       <r>   -28.8765     0.0000    39.0000 </r>
       <r>   -28.7065     0.0000    39.0000 </r>
       <r>   -28.5365     0.0000    39.0000 </r>
       <r>   -28.3665     0.0000    39.0000 </r>
       <r>   -28.1964     0.0000    39.0000 </r>
       <r>   -28.0264     0.0000    39.0000 </r>
       <r>   -27.8564     0.0000    39.0000 </r>
       <r>   -27.6864     0.0000    39.0000 </r>
       <r>   -27.5164     0.0000    39.0000 </r>
       <r>   -27.3463     0.0000    39.0000 </r>
       <r>   -27.1763     0.0000    39.0000 </r>
       <r>   -27.0063     0.0000    39.0000 </r>
       <r>   -26.8363     0.0000    39.0000 </r>
       <r>   -26.6663     0.0000    39.0000 </r>
       <r>   -26.4962     0.0000    39.0000 </r>
       <r>   -26.3262     0.0000    39.0000 </r>
       <r>   -26.1562     0.0000    39.0000 </r>
       <r>   -25.9862     0.0000    39.0000 </r>
       <r>   -25.8162     0.0000    39.0000 </r>
       <r>   -25.6461     0.0000    39.0000 </r>
       <r>   -25.4761     0.0000    39.0000 </r>
       <r>   -25.3061     0.0000    39.0000 </r>
       <r>   -25.1361     0.0000    39.0000 </r>
       <r>   -24.9661     0.0000    39.0000 </r>
       <r>   -24.7961     0.0000    39.0000 </r>
       <r>   -24.6260     0.0000    39.0000 </r>
       <r>   -24.4560     0.0000    39.0000 </r>
       <r>   -24.2860     0.0000    39.0000 </r>
       <r>   -24.1160     0.0000    39.0000 </r>
       <r>   -23.9460     0.0000    39.0000 </r>
       <r>   -23.7759     0.0000    39.0000 </r>
       <r>   -23.6059     0.0000    39.0000 </r>
       <r>   -23.4359     0.0000    39.0000 </r>
       <r>   -23.2659     0.0000    39.0000 </r>
       <r>   -23.0959     0.0000    39.0000 </r>
       <r>   -22.9258     0.0000    39.0000 </r>
       <r>   -22.7558     0.0000    39.0000 </r>
       <r>   -22.5858     0.0000    39.0000 </r>
       <r>   -22.4158     0.0000    39.0000 </r>
       <r>   -22.2458     0.0000    39.0000 </r>
       <r>   -22.0757     0.0000    39.0000 </r>
       <r>   -21.9057     0.0000    39.0000 </r>
       <r>   -21.7357     0.0000    39.0000 </r>
       <r>   -21.5657     0.0000    39.0000 </r>
       <r>   -21.3957     0.0000    39.0000 </r>
       <r>   -21.2256     0.0000    39.0000 </r>
       <r>   -21.0556     0.0000    39.0000 </r>
       <r>   -20.8856     0.0000    39.0000 </r>
       <r>   -20.7156     0.0000    39.0000 </r>
       <r>   -20.5456     0.0000    39.0000 </r>
       <r>   -20.3756     0.0000    39.0000 </r>
       <r>   -20.2055     0.0000    39.0000 </r>
       <r>   -20.0355     0.0000    39.0000 </r>
       <r>   -19.8655     0.0000    39.0000 </r>
       <r>   -19.6955     0.0000    39.0000 </r>
       <r>   -19.5255     0.0000    39.0000 </r>
       <r>   -19.3554     0.0000    39.0000 </r>
       <r>   -19.1854     0.0000    39.0000 </r>
       <r>   -19.0154     0.0000    39.0000 </r>
       <r>   -18.8454     0.0000    39.0000 </r>
       <r>   -18.6754     0.0000    39.0000 </r>
       <r>   -18.5053     0.0000    39.0000 </r>
       <r>   -18.3353     0.0000    39.0000 </r>
       <r>   -18.1653     0.0000    39.0000 </r>
       <r>   -17.9953     0.0000    39.0000 </r>
       <r>   -17.8253     0.0000    39.0000 </r>
       <r>   -17.6552     0.0000    39.0000 </r>
       <r>   -17.4852     0.0000    39.0000 </r>
       <r>   -17.3152     0.0000    39.0000 </r>
       <r>   -17.1452     0.0000    39.0000 </r>
       <r>   -16.9752     0.0000    39.0000 </r>
       <r>   -16.8052     0.0000    39.0000 </r>
       <r>   -16.6351    -0.0000    39.0000 </r>
       <r>   -16.4651    -0.0000    39.0000 </r>
       <r>   -16.2951    -0.0000    39.0000 </r>
       <r>   -16.1251    -0.0000    39.0000 </r>
       <r>   -15.9551    -0.0000    39.0000 </r>
       <r>   -15.7850    -0.0166    38.9972 </r>
       <r>   -15.6150    -0.6750    38.8824 </r>
       <r>   -15.4450     5.7267    39.8561 </r>
       <r>   -15.2750    22.4107    43.6663 </r>
       <r>   -15.1050     2.4047    44.0752 </r>
       <r>   -14.9349    -0.4360    44.0010 </r>
       <r>   -14.7649    -0.0061    44.0000 </r>
       <r>   -14.5949    -0.0000    44.0000 </r>
       <r>   -14.4249    -0.0000    44.0000 </r>
       <r>   -14.2549    -0.0000    44.0000 </r>
       <r>   -14.0848     0.0000    44.0000 </r>
       <r>   -13.9148     0.0000    44.0000 </r>
       <r>   -13.7448     0.0000    44.0000 </r>
       <r>   -13.5748     0.0000    44.0000 </r>
       <r>   -13.4048     0.0000    44.0000 </r>
       <r>   -13.2348     0.0000    44.0000 </r>
       <r>   -13.0647     0.0000    44.0000 </r>
       <r>   -12.8947     0.0000    44.0000 </r>
       <r>   -12.7247     0.0000    44.0000 </r>
       <r>   -12.5547     0.0000    44.0000 </r>
       <r>   -12.3847     0.0000    44.0000 </r>
       <r>   -12.2146     0.0000    44.0000 </r>
       <r>   -12.0446     0.0000    44.0000 </r>
       <r>   -11.8746     0.0000    44.0000 </r>
       <r>   -11.7046     0.0000    44.0000 </r>
       <r>   -11.5346     0.0000    44.0000 </r>
       <r>   -11.3645     0.0000    44.0000 </r>
       <r>   -11.1945     0.0000    44.0000 </r>
       <r>   -11.0245     0.0000    44.0000 </r>
       <r>   -10.8545     0.0000    44.0000 </r>
       <r>   -10.6845     0.0000    44.0000 </r>
       <r>   -10.5144     0.0000    44.0000 </r>
       <r>   -10.3444     0.0000    44.0000 </r>
       <r>   -10.1744     0.0000    44.0000 </r>
       <r>   -10.0044     0.0000    44.0000 </r>
       <r>    -9.8344     0.0000    44.0000 </r>
       <r>    -9.6644     0.0000    44.0000 </r>
       <r>    -9.4943     0.0000    44.0000 </r>
       <r>    -9.3243     0.0000    44.0000 </r>
       <r>    -9.1543     0.0000    44.0000 </r>
       <r>    -8.9843     0.0000    44.0000 </r>
       <r>    -8.8143    -0.0000    44.0000 </r>
       <r>    -8.6442    -0.0000    44.0000 </r>
       <r>    -8.4742    -0.0000    44.0000 </r>
       <r>    -8.3042    -0.0000    44.0000 </r>
       <r>    -8.1342    -0.0000    44.0000 </r>
       <r>    -7.9642    -0.0001    44.0000 </r>
       <r>    -7.7941    -0.0253    43.9957 </r>
       <r>    -7.6241    -0.1276    43.9740 </r>
       <r>    -7.4541     3.3832    44.5492 </r>
       <r>    -7.2841     2.8080    45.0266 </r>
       <r>    -7.1141     0.3128    45.0798 </r>
       <r>    -6.9440     1.8328    45.3914 </r>
       <r>    -6.7740     1.0801    45.5750 </r>
       <r>    -6.6040     1.5810    45.8438 </r>
       <r>    -6.4340     2.5162    46.2716 </r>
       <r>    -6.2640     0.3356    46.3287 </r>
       <r>    -6.0940     2.3351    46.7257 </r>
       <r>    -5.9239     4.3292    47.4618 </r>
       <r>    -5.7539     3.2608    48.0162 </r>
       <r>    -5.5839     3.3068    48.5784 </r>
       <r>    -5.4139     2.9383    49.0779 </r>
       <r>    -5.2439     2.2077    49.4533 </r>
       <r>    -5.0738     6.0409    50.4803 </r>
       <r>    -4.9038     4.4790    51.2419 </r>
       <r>    -4.7338     5.3353    52.1490 </r>
       <r>    -4.5638     5.7331    53.1237 </r>
       <r>    -4.3938     7.6064    54.4170 </r>
       <r>    -4.2237     8.3988    55.8449 </r>
       <r>    -4.0537    13.2819    58.1031 </r>
       <r>    -3.8837    18.9112    61.3184 </r>
       <r>    -3.7137    28.3500    66.1384 </r>
       <r>    -3.5437    37.5717    72.5263 </r>
       <r>    -3.3736    36.3834    78.7122 </r>
       <r>    -3.2036    55.0055    88.0641 </r>
       <r>    -3.0336    55.8741    97.5638 </r>
       <r>    -2.8636    40.8234   104.5046 </r>
       <r>    -2.6936    45.0537   112.1646 </r>
       <r>    -2.5236    69.7595   124.0250 </r>
       <r>    -2.3535    76.8227   137.0863 </r>
       <r>    -2.1835    71.2865   149.2064 </r>
       <r>    -2.0135    71.1060   161.2958 </r>
       <r>    -1.8435    72.9526   173.6991 </r>
       <r>    -1.6735    73.6237   186.2165 </r>
       <r>    -1.5034    73.2194   198.6652 </r>
       <r>    -1.3334    70.0613   210.5770 </r>
       <r>    -1.1634    59.2872   220.6569 </r>
       <r>    -0.9934    44.6160   228.2425 </r>
       <r>    -0.8234    47.5108   236.3202 </r>
       <r>    -0.6533    61.2569   246.7351 </r>
       <r>    -0.4833    78.0186   259.9997 </r>
       <r>    -0.3133    94.0313   275.9868 </r>
       <r>    -0.1433    94.7397   292.0944 </r>
       <r>     0.0267    72.0283   304.3406 </r>
       <r>     0.1968    52.3646   313.2436 </r>
       <r>     0.3668    45.2095   320.9300 </r>
       <r>     0.5368    43.9453   328.4016 </r>
       <r>     0.7068    37.3135   334.7456 </r>
       <r>     0.8768    34.2203   340.5637 </r>
       <r>     1.0468    32.1260   346.0257 </r>
       <r>     1.2169    31.5201   351.3847 </r>
       <r>     1.3869    27.9220   356.1320 </r>
       <r>     1.5569    29.9020   361.2159 </r>
       <r>     1.7269    32.1248   366.6777 </r>
       <r>     1.8969    32.9125   372.2735 </r>
       <r>     2.0670    16.3585   375.0547 </r>
       <r>     2.2370    -0.1342   375.0319 </r>
       <r>     2.4070    -0.1860   375.0003 </r>
       <r>     2.5770    -0.0017   375.0000 </r>
       <r>     2.7470    -0.0000   375.0000 </r>
       <r>     2.9171    -0.0000   375.0000 </r>
       <r>     3.0871    -0.0000   375.0000 </r>
       <r>     3.2571     0.0000   375.0000 </r>
       <r>     3.4271     0.0000   375.0000 </r>
       <r>     3.5971     0.0000   375.0000 </r>
       <r>     3.7672     0.0000   375.0000 </r>
       <r>     3.9372     0.0000   375.0000 </r>
       <r>     4.1072     0.0000   375.0000 </r>
       <r>     4.2772     0.0000   375.0000 </r>
       <r>     4.4472     0.0000   375.0000 </r>
       <r>     4.6172     0.0000   375.0000 </r>
       <r>     4.7873     0.0000   375.0000 </r>
       <r>     4.9573     0.0000   375.0000 </r>
       <r>     5.1273     0.0000   375.0000 </r>
       <r>     5.2973     0.0000   375.0000 </r>
       <r>     5.4673     0.0000   375.0000 </r>
      </set>
      <set comment="spin 2">
       <r>   -45.5384     0.0000     0.0000 </r>
       <r>   -45.3684     0.0000     0.0000 </r>
       <r>   -45.1983     0.0000     0.0000 </r>
       <r>   -45.0283     0.0000     0.0000 </r>
       <r>   -44.8583     0.0000     0.0000 </r>
       <r>   -44.6883     0.0000     0.0000 </r>
       <r>   -44.5183    -0.0000    -0.0000 </r>
       <r>   -44.3482    -0.0000    -0.0000 </r>
       <r>   -44.1782    -0.0000    -0.0000 </r>
       <r>   -44.0082    -0.0000    -0.0000 </r>
       <r>   -43.8382    -0.0000    -0.0000 </r>
       <r>   -43.6682    -0.0008    -0.0001 </r>
       <r>   -43.4981    -0.1690    -0.0289 </r>
       <r>   -43.3281    -1.7379    -0.3244 </r>
       <r>   -43.1581    25.9278     4.0839 </r>
       <r>   -42.9881    69.0638    15.8260 </r>
       <r>   -42.8181    13.9829    18.2034 </r>
       <r>   -42.6481     8.8981    19.7162 </r>
       <r>   -42.4780    19.5669    23.0430 </r>
       <r>   -42.3080    17.5265    26.0228 </r>
       <r>   -42.1380     8.0345    27.3889 </r>
       <r>   -41.9680     8.9604    28.9123 </r>
       <r>   -41.7980     6.7872    30.0663 </r>
       <r>   -41.6279    -0.3422    30.0081 </r>
       <r>   -41.4579    -0.0473    30.0000 </r>
       <r>   -41.2879    -0.0002    30.0000 </r>
       <r>   -41.1179    -0.0000    30.0000 </r>
       <r>   -40.9479    -0.0014    29.9998 </r>
       <r>   -40.7778    -0.1390    29.9761 </r>
       <r>   -40.6078     0.4684    30.0558 </r>
       <r>   -40.4378     8.7626    31.5456 </r>
       <r>   -40.2678     8.1936    32.9386 </r>
       <r>   -40.0978     8.3275    34.3545 </r>
       <r>   -39.9277    12.3484    36.4539 </r>
       <r>   -39.7577     9.3189    38.0383 </r>
       <r>   -39.5877     4.5825    38.8175 </r>
       <r>   -39.4177     1.2327    39.0270 </r>
       <r>   -39.2477    -0.1557    39.0006 </r>
       <r>   -39.0777    -0.0034    39.0000 </r>
       <r>   -38.9076    -0.0000    39.0000 </r>
       <r>   -38.7376    -0.0000    39.0000 </r>
       <r>   -38.5676    -0.0000    39.0000 </r>
       <r>   -38.3976     0.0000    39.0000 </r>
       <r>   -38.2276     0.0000    39.0000 </r>
       <r>   -38.0575     0.0000    39.0000 </r>
       <r>   -37.8875     0.0000    39.0000 </r>
       <r>   -37.7175     0.0000    39.0000 </r>
       <r>   -37.5475     0.0000    39.0000 </r>
       <r>   -37.3775     0.0000    39.0000 </r>
       <r>   -37.2074     0.0000    39.0000 </r>
       <r>   -37.0374     0.0000    39.0000 </r>
       <r>   -36.8674     0.0000    39.0000 </r>
       <r>   -36.6974     0.0000    39.0000 </r>
       <r>   -36.5274     0.0000    39.0000 </r>
       <r>   -36.3573     0.0000    39.0000 </r>
       <r>   -36.1873     0.0000    39.0000 </r>
       <r>   -36.0173     0.0000    39.0000 </r>
       <r>   -35.8473     0.0000    39.0000 </r>
       <r>   -35.6773     0.0000    39.0000 </r>
       <r>   -35.5073     0.0000    39.0000 </r>
       <r>   -35.3372     0.0000    39.0000 </r>
       <r>   -35.1672     0.0000    39.0000 </r>
       <r>   -34.9972     0.0000    39.0000 </r>
       <r>   -34.8272     0.0000    39.0000 </r>
       <r>   -34.6572     0.0000    39.0000 </r>
       <r>   -34.4871     0.0000    39.0000 </r>
       <r>   -34.3171     0.0000    39.0000 </r>
       <r>   -34.1471     0.0000    39.0000 </r>
       <r>   -33.9771     0.0000    39.0000 </r>
       <r>   -33.8071     0.0000    39.0000 </r>
       <r>   -33.6370     0.0000    39.0000 </r>
       <r>   -33.4670     0.0000    39.0000 </r>
       <r>   -33.2970     0.0000    39.0000 </r>
       <r>   -33.1270     0.0000    39.0000 </r>
       <r>   -32.9570     0.0000    39.0000 </r>
       <r>   -32.7869     0.0000    39.0000 </r>
       <r>   -32.6169     0.0000    39.0000 </r>
       <r>   -32.4469     0.0000    39.0000 </r>
       <r>   -32.2769     0.0000    39.0000 </r>
       <r>   -32.1069     0.0000    39.0000 </r>
       <r>   -31.9369     0.0000    39.0000 </r>
       <r>   -31.7668     0.0000    39.0000 </r>
       <r>   -31.5968     0.0000    39.0000 </r>
       <r>   -31.4268     0.0000    39.0000 </r>
       <r>   -31.2568     0.0000    39.0000 </r>
       <r>   -31.0868     0.0000    39.0000 </r>
       <r>   -30.9167     0.0000    39.0000 </r>
       <r>   -30.7467     0.0000    39.0000 </r>
       <r>   -30.5767     0.0000    39.0000 </r>
       <r>   -30.4067     0.0000    39.0000 </r>
       <r>   -30.2367     0.0000    39.0000 </r>
       <r>   -30.0666     0.0000    39.0000 </r>
       <r>   -29.8966     0.0000    39.0000 </r>
       <r>   -29.7266     0.0000    39.0000 </r>
       <r>   -29.5566     0.0000    39.0000 </r>
       <r>   -29.3866     0.0000    39.0000 </r>
       <r>   -29.2165     0.0000    39.0000 </r>
       <r>   -29.0465     0.0000    39.0000 </r>
       <r>   -28.8765     0.0000    39.0000 </r>
       <r>   -28.7065     0.0000    39.0000 </r>
       <r>   -28.5365     0.0000    39.0000 </r>
       <r>   -28.3665     0.0000    39.0000 </r>
       <r>   -28.1964     0.0000    39.0000 </r>
       <r>   -28.0264     0.0000    39.0000 </r>
       <r>   -27.8564     0.0000    39.0000 </r>
       <r>   -27.6864     0.0000    39.0000 </r>
       <r>   -27.5164     0.0000    39.0000 </r>
       <r>   -27.3463     0.0000    39.0000 </r>
       <r>   -27.1763     0.0000    39.0000 </r>
       <r>   -27.0063     0.0000    39.0000 </r>
       <r>   -26.8363     0.0000    39.0000 </r>
       <r>   -26.6663     0.0000    39.0000 </r>
       <r>   -26.4962     0.0000    39.0000 </r>
       <r>   -26.3262     0.0000    39.0000 </r>
       <r>   -26.1562     0.0000    39.0000 </r>
       <r>   -25.9862     0.0000    39.0000 </r>
       <r>   -25.8162     0.0000    39.0000 </r>
       <r>   -25.6461     0.0000    39.0000 </r>
       <r>   -25.4761     0.0000    39.0000 </r>
       <r>   -25.3061     0.0000    39.0000 </r>
       <r>   -25.1361     0.0000    39.0000 </r>
       <r>   -24.9661     0.0000    39.0000 </r>
       <r>   -24.7961     0.0000    39.0000 </r>
       <r>   -24.6260     0.0000    39.0000 </r>
       <r>   -24.4560     0.0000    39.0000 </r>
       <r>   -24.2860     0.0000    39.0000 </r>
       <r>   -24.1160     0.0000    39.0000 </r>
       <r>   -23.9460     0.0000    39.0000 </r>
       <r>   -23.7759     0.0000    39.0000 </r>
       <r>   -23.6059     0.0000    39.0000 </r>
       <r>   -23.4359     0.0000    39.0000 </r>
       <r>   -23.2659     0.0000    39.0000 </r>
       <r>   -23.0959     0.0000    39.0000 </r>
       <r>   -22.9258     0.0000    39.0000 </r>
       <r>   -22.7558     0.0000    39.0000 </r>
       <r>   -22.5858     0.0000    39.0000 </r>
       <r>   -22.4158     0.0000    39.0000 </r>
       <r>   -22.2458     0.0000    39.0000 </r>
       <r>   -22.0757     0.0000    39.0000 </r>
       <r>   -21.9057     0.0000    39.0000 </r>
       <r>   -21.7357     0.0000    39.0000 </r>
       <r>   -21.5657     0.0000    39.0000 </r>
       <r>   -21.3957     0.0000    39.0000 </r>
       <r>   -21.2256     0.0000    39.0000 </r>
       <r>   -21.0556     0.0000    39.0000 </r>
       <r>   -20.8856     0.0000    39.0000 </r>
       <r>   -20.7156     0.0000    39.0000 </r>
       <r>   -20.5456     0.0000    39.0000 </r>
       <r>   -20.3756     0.0000    39.0000 </r>
       <r>   -20.2055     0.0000    39.0000 </r>
       <r>   -20.0355     0.0000    39.0000 </r>
       <r>   -19.8655     0.0000    39.0000 </r>
       <r>   -19.6955     0.0000    39.0000 </r>
       <r>   -19.5255     0.0000    39.0000 </r>
       <r>   -19.3554     0.0000    39.0000 </r>
       <r>   -19.1854     0.0000    39.0000 </r>
       <r>   -19.0154     0.0000    39.0000 </r>
       <r>   -18.8454     0.0000    39.0000 </r>
       <r>   -18.6754     0.0000    39.0000 </r>
       <r>   -18.5053     0.0000    39.0000 </r>
       <r>   -18.3353     0.0000    39.0000 </r>
       <r>   -18.1653     0.0000    39.0000 </r>
       <r>   -17.9953     0.0000    39.0000 </r>
       <r>   -17.8253     0.0000    39.0000 </r>
       <r>   -17.6552     0.0000    39.0000 </r>
       <r>   -17.4852     0.0000    39.0000 </r>
       <r>   -17.3152     0.0000    39.0000 </r>
       <r>   -17.1452     0.0000    39.0000 </r>
       <r>   -16.9752     0.0000    39.0000 </r>
       <r>   -16.8052    -0.0000    39.0000 </r>
       <r>   -16.6351    -0.0000    39.0000 </r>
       <r>   -16.4651    -0.0000    39.0000 </r>
       <r>   -16.2951    -0.0000    39.0000 </r>
       <r>   -16.1251    -0.0000    39.0000 </r>
       <r>   -15.9551    -0.0001    39.0000 </r>
       <r>   -15.7850    -0.0372    38.9937 </r>
       <r>   -15.6150    -0.8203    38.8542 </r>
       <r>   -15.4450     9.2712    40.4305 </r>
       <r>   -15.2750    20.6641    43.9438 </r>
       <r>   -15.1050     0.6056    44.0467 </r>
       <r>   -14.9349    -0.2726    44.0004 </r>
       <r>   -14.7649    -0.0022    44.0000 </r>
       <r>   -14.5949    -0.0000    44.0000 </r>
       <r>   -14.4249    -0.0000    44.0000 </r>
       <r>   -14.2549     0.0000    44.0000 </r>
       <r>   -14.0848     0.0000    44.0000 </r>
       <r>   -13.9148     0.0000    44.0000 </r>
       <r>   -13.7448     0.0000    44.0000 </r>
       <r>   -13.5748     0.0000    44.0000 </r>
       <r>   -13.4048     0.0000    44.0000 </r>
       <r>   -13.2348     0.0000    44.0000 </r>
       <r>   -13.0647     0.0000    44.0000 </r>
       <r>   -12.8947     0.0000    44.0000 </r>
       <r>   -12.7247     0.0000    44.0000 </r>
       <r>   -12.5547     0.0000    44.0000 </r>
       <r>   -12.3847     0.0000    44.0000 </r>
       <r>   -12.2146     0.0000    44.0000 </r>
       <r>   -12.0446     0.0000    44.0000 </r>
       <r>   -11.8746     0.0000    44.0000 </r>
       <r>   -11.7046     0.0000    44.0000 </r>
       <r>   -11.5346     0.0000    44.0000 </r>
       <r>   -11.3645     0.0000    44.0000 </r>
       <r>   -11.1945     0.0000    44.0000 </r>
       <r>   -11.0245     0.0000    44.0000 </r>
       <r>   -10.8545     0.0000    44.0000 </r>
       <r>   -10.6845     0.0000    44.0000 </r>
       <r>   -10.5144     0.0000    44.0000 </r>
       <r>   -10.3444     0.0000    44.0000 </r>
       <r>   -10.1744     0.0000    44.0000 </r>
       <r>   -10.0044     0.0000    44.0000 </r>
       <r>    -9.8344     0.0000    44.0000 </r>
       <r>    -9.6644     0.0000    44.0000 </r>
       <r>    -9.4943     0.0000    44.0000 </r>
       <r>    -9.3243     0.0000    44.0000 </r>
       <r>    -9.1543     0.0000    44.0000 </r>
       <r>    -8.9843     0.0000    44.0000 </r>
       <r>    -8.8143    -0.0000    44.0000 </r>
       <r>    -8.6442    -0.0000    44.0000 </r>
       <r>    -8.4742    -0.0000    44.0000 </r>
       <r>    -8.3042    -0.0000    44.0000 </r>
       <r>    -8.1342    -0.0000    44.0000 </r>
       <r>    -7.9642    -0.0001    44.0000 </r>
       <r>    -7.7941    -0.0306    43.9948 </r>
       <r>    -7.6241    -0.1061    43.9767 </r>
       <r>    -7.4541     3.7233    44.6098 </r>
       <r>    -7.2841     2.4818    45.0317 </r>
       <r>    -7.1141    -0.1351    45.0087 </r>
       <r>    -6.9440     1.0469    45.1867 </r>
       <r>    -6.7740     1.7922    45.4914 </r>
       <r>    -6.6040     0.6835    45.6077 </r>
       <r>    -6.4340     2.2686    45.9934 </r>
       <r>    -6.2640     1.8877    46.3143 </r>
       <r>    -6.0940     0.2269    46.3529 </r>
       <r>    -5.9239     2.7871    46.8268 </r>
       <r>    -5.7539     4.5220    47.5956 </r>
       <r>    -5.5839     2.4465    48.0115 </r>
       <r>    -5.4139     3.5973    48.6231 </r>
       <r>    -5.2439     2.8878    49.1141 </r>
       <r>    -5.0738     1.3462    49.3430 </r>
       <r>    -4.9038     5.6582    50.3050 </r>
       <r>    -4.7338     4.6446    51.0947 </r>
       <r>    -4.5638     3.7066    51.7249 </r>
       <r>    -4.3938     5.0905    52.5903 </r>
       <r>    -4.2237     3.7396    53.2261 </r>
       <r>    -4.0537     8.7908    54.7208 </r>
       <r>    -3.8837     6.6543    55.8521 </r>
       <r>    -3.7137     7.6382    57.1508 </r>
       <r>    -3.5437     5.7236    58.1239 </r>
       <r>    -3.3736     8.8426    59.6273 </r>
       <r>    -3.2036    11.4936    61.5814 </r>
       <r>    -3.0336    17.1484    64.4970 </r>
       <r>    -2.8636    20.3081    67.9497 </r>
       <r>    -2.6936    23.5636    71.9560 </r>
       <r>    -2.5236    18.0529    75.0253 </r>
       <r>    -2.3535    26.1939    79.4788 </r>
       <r>    -2.1835    32.9186    85.0756 </r>
       <r>    -2.0135    34.8808    91.0060 </r>
       <r>    -1.8435    38.5184    97.5549 </r>
       <r>    -1.6735    36.0889   103.6907 </r>
       <r>    -1.5034    31.9971   109.1308 </r>
       <r>    -1.3334    33.8401   114.8842 </r>
       <r>    -1.1634    43.6008   122.2972 </r>
       <r>    -0.9934    52.9945   131.3073 </r>
       <r>    -0.8234    58.4725   141.2487 </r>
       <r>    -0.6533    60.2413   151.4909 </r>
       <r>    -0.4833    63.9469   162.3631 </r>
       <r>    -0.3133    64.5670   173.3407 </r>
       <r>    -0.1433    63.2674   184.0974 </r>
       <r>     0.0267    56.2326   193.6580 </r>
       <r>     0.1968    46.4674   201.5583 </r>
       <r>     0.3668    36.6964   207.7974 </r>
       <r>     0.5368    32.6988   213.3568 </r>
       <r>     0.7068    33.3022   219.0188 </r>
       <r>     0.8768    34.6225   224.9053 </r>
       <r>     1.0468    38.4430   231.4414 </r>
       <r>     1.2169    46.5609   239.3576 </r>
       <r>     1.3869    52.0488   248.2069 </r>
       <r>     1.5569    54.8891   257.5391 </r>
       <r>     1.7269    61.6067   268.0134 </r>
       <r>     1.8969    73.8934   280.5767 </r>
       <r>     2.0670    85.2032   295.0629 </r>
       <r>     2.2370    91.5429   310.6269 </r>
       <r>     2.4070    89.3284   325.8144 </r>
       <r>     2.5770   100.4433   342.8917 </r>
       <r>     2.7470    87.5537   357.7775 </r>
       <r>     2.9171    59.8473   367.9527 </r>
       <r>     3.0871    36.7152   374.1950 </r>
       <r>     3.2571     5.4857   375.1276 </r>
       <r>     3.4271    -0.7181   375.0055 </r>
       <r>     3.5971    -0.0325   375.0000 </r>
       <r>     3.7672    -0.0001   375.0000 </r>
       <r>     3.9372    -0.0000   375.0000 </r>
       <r>     4.1072    -0.0000   375.0000 </r>
       <r>     4.2772     0.0000   375.0000 </r>
       <r>     4.4472     0.0000   375.0000 </r>
       <r>     4.6172     0.0000   375.0000 </r>
       <r>     4.7873     0.0000   375.0000 </r>
       <r>     4.9573     0.0000   375.0000 </r>
       <r>     5.1273     0.0000   375.0000 </r>
       <r>     5.2973     0.0000   375.0000 </r>
       <r>     5.4673     0.0000   375.0000 </r>
      </set>
     </set>
    </array>
   </total>
  </dos>
 </calculation>
 <structure name="finalpos" >
  <crystal>
   <varray name="basis" >
    <v>       8.50970000       0.00000000       0.00000000 </v>
    <v>      -0.00372597       8.53929919       0.00000000 </v>
    <v>       0.00000000       0.00000000      23.57140000 </v>
   </varray>
   <i name="volume">   1712.85996128 </i>
   <varray name="rec_basis" >
    <v>       0.11751296       0.00005127       0.00000000 </v>
    <v>       0.00000000       0.11710563       0.00000000 </v>
    <v>       0.00000000       0.00000000       0.04242429 </v>
   </varray>
  </crystal>
  <varray name="positions" >
   <v>       0.83310000       0.49871000       0.06001000 </v>
   <v>       0.83472000       0.83192000       0.06027000 </v>
   <v>       0.67686605       0.64480178       0.35952425 </v>
   <v>       0.00081000       0.66425000       0.00034000 </v>
   <v>       0.15895964       0.83122600       0.29931499 </v>
   <v>       0.66492016       0.33300276       0.36204185 </v>
   <v>       0.66559000       0.33138000       0.00044000 </v>
   <v>       0.49968000       0.83322000       0.06046000 </v>
   <v>       0.66721000       0.33321000       0.24067000 </v>
   <v>       0.50058000       0.49950000       0.18024000 </v>
   <v>       0.33595000       0.33196000       0.11912000 </v>
   <v>       0.33462000       0.33376000       0.24059000 </v>
   <v>       0.50033809       0.49901246       0.30035887 </v>
   <v>       0.00055000       0.33190000       0.12006000 </v>
   <v>       0.16752000       0.49945000       0.18065000 </v>
   <v>       0.00021000       0.33145000       0.00038000 </v>
   <v>       0.33510000       0.33170000       0.00029000 </v>
   <v>       0.01225534       0.33895308       0.36122447 </v>
   <v>       0.00077000       0.99959000       0.12036000 </v>
   <v>       0.16814000       0.16634000       0.18048000 </v>
   <v>       0.33405000       0.66593000       0.12095000 </v>
   <v>       0.50078000       0.83242000       0.18121000 </v>
   <v>       0.98638202       0.66600917       0.36093360 </v>
   <v>       0.99982000       0.33359000       0.24030000 </v>
   <v>       0.00025000       0.66569000       0.12051000 </v>
   <v>       0.16581000       0.83217000       0.18114000 </v>
   <v>       0.66566000       0.33123000       0.11970000 </v>
   <v>       0.83123565       0.83544258       0.30146086 </v>
   <v>       0.16595887       0.49870857       0.30063309 </v>
   <v>       0.16505338       0.16788096       0.30152737 </v>
   <v>       0.00161000       0.99891000       0.00024000 </v>
   <v>       0.99606349       0.99680561       0.36012972 </v>
   <v>       0.16807000       0.16539000       0.06004000 </v>
   <v>       0.50504231       0.83139024       0.30208621 </v>
   <v>       0.83476000       0.83303000       0.18132000 </v>
   <v>       0.66715000       0.66559000       0.00000000 </v>
   <v>       0.66719000       0.66640000       0.12032000 </v>
   <v>       0.83302000       0.49937000       0.17995000 </v>
   <v>       0.16769000       0.83389000       0.06029000 </v>
   <v>       0.50015627       0.16718008       0.30107168 </v>
   <v>       0.33289000       0.99824000       0.24130000 </v>
   <v>       0.66679000       0.99914000       0.24097000 </v>
   <v>       0.33466000       0.00023000       0.12082000 </v>
   <v>       0.66746000       0.99815000       0.00001000 </v>
   <v>       0.83670166       0.17152833       0.30165973 </v>
   <v>       0.83358000       0.16456000       0.06013000 </v>
   <v>       0.67330317       0.01568481       0.36000699 </v>
   <v>       0.83364000       0.16593000       0.18062000 </v>
   <v>       0.66653000       0.99972000       0.12044000 </v>
   <v>       0.33639151       0.33314577       0.35933827 </v>
   <v>       0.33487000       0.00167000       0.00066000 </v>
   <v>       0.32895531       0.99741858       0.36567118 </v>
   <v>       0.00122000       0.00217000       0.24080000 </v>
   <v>       0.16722000       0.50179000       0.05903000 </v>
   <v>       0.50000000       0.50344000       0.05949000 </v>
   <v>       0.49861000       0.16115000       0.05868000 </v>
   <v>       0.49968000       0.16444000       0.18182000 </v>
   <v>       0.83786951       0.50121686       0.29818783 </v>
   <v>       0.99722000       0.66135000       0.24151000 </v>
   <v>       0.33419000       0.66573000       0.24040000 </v>
   <v>       0.33414000       0.65855000       0.00278000 </v>
   <v>       0.32731087       0.66575681       0.36372397 </v>
   <v>       0.66923000       0.66337000       0.24097000 </v>
   <v>       0.53121595       0.82641995       0.43902266 </v>
  </varray>
  <varray name="selective"  type="logical" >
   <v type="logical" >  F  F  F </v>
   <v type="logical" >  F  F  F </v>
   <v type="logical" >  T  T  T </v>
   <v type="logical" >  F  F  F </v>
   <v type="logical" >  T  T  T </v>
   <v type="logical" >  T  T  T </v>
   <v type="logical" >  F  F  F </v>
   <v type="logical" >  F  F  F </v>
   <v type="logical" >  F  F  F </v>
   <v type="logical" >  F  F  F </v>
   <v type="logical" >  F  F  F </v>
   <v type="logical" >  F  F  F </v>
   <v type="logical" >  T  T  T </v>
   <v type="logical" >  F  F  F </v>
   <v type="logical" >  F  F  F </v>
   <v type="logical" >  F  F  F </v>
   <v type="logical" >  F  F  F </v>
   <v type="logical" >  T  T  T </v>
   <v type="logical" >  F  F  F </v>
   <v type="logical" >  F  F  F </v>
   <v type="logical" >  F  F  F </v>
   <v type="logical" >  F  F  F </v>
   <v type="logical" >  T  T  T </v>
   <v type="logical" >  F  F  F </v>
   <v type="logical" >  F  F  F </v>
   <v type="logical" >  F  F  F </v>
   <v type="logical" >  F  F  F </v>
   <v type="logical" >  T  T  T </v>
   <v type="logical" >  T  T  T </v>
   <v type="logical" >  T  T  T </v>
   <v type="logical" >  F  F  F </v>
   <v type="logical" >  T  T  T </v>
   <v type="logical" >  F  F  F </v>
   <v type="logical" >  T  T  T </v>
   <v type="logical" >  F  F  F </v>
   <v type="logical" >  F  F  F </v>
   <v type="logical" >  F  F  F </v>
   <v type="logical" >  F  F  F </v>
   <v type="logical" >  F  F  F </v>
   <v type="logical" >  T  T  T </v>
   <v type="logical" >  F  F  F </v>
   <v type="logical" >  F  F  F </v>
   <v type="logical" >  F  F  F </v>
   <v type="logical" >  F  F  F </v>
   <v type="logical" >  T  T  T </v>
   <v type="logical" >  F  F  F </v>
   <v type="logical" >  T  T  T </v>
   <v type="logical" >  F  F  F </v>
   <v type="logical" >  F  F  F </v>
   <v type="logical" >  T  T  T </v>
   <v type="logical" >  F  F  F </v>
   <v type="logical" >  T  T  T </v>
   <v type="logical" >  F  F  F </v>
   <v type="logical" >  F  F  F </v>
   <v type="logical" >  F  F  F </v>
   <v type="logical" >  F  F  F </v>
   <v type="logical" >  F  F  F </v>
   <v type="logical" >  T  T  T </v>
   <v type="logical" >  F  F  F </v>
   <v type="logical" >  F  F  F </v>
   <v type="logical" >  F  F  F </v>
   <v type="logical" >  T  T  T </v>
   <v type="logical" >  F  F  F </v>
   <v type="logical" >  T  T  T </v>
  </varray>
  <nose>
   <v>      -3.00000000       0.00000000       0.00010000       0.00010000 </v>
  </nose>
 </structure>
</modeling>
