INCAR-For-OPT                           
           1
     8.509700    0.000000    0.000000
    -0.003726    8.539299    0.000000
     0.000000    0.000000   23.571400
   Fe   Cr   Pb
    50    13     1
Direct configuration=     1
   0.83310000  0.49871000  0.06001000
   0.83472000  0.83192000  0.06027000
   0.66620395  0.65876600  0.35942343
   0.00081000  0.66425000  0.00034000
   0.15628782  0.82798810  0.29990847
   0.66016234  0.33627221  0.36029807
   0.66559000  0.33138000  0.00044000
   0.49968000  0.83322000  0.06046000
   0.66721000  0.33321000  0.24067000
   0.50058000  0.49950000  0.18024000
   0.33595000  0.33196000  0.11912000
   0.33462000  0.33376000  0.24059000
   0.49782991  0.50068227  0.30048299
   0.00055000  0.33190000  0.12006000
   0.16752000  0.49945000  0.18065000
   0.00021000  0.33145000  0.00038000
   0.33510000  0.33170000  0.00029000
   0.00882490  0.33318537  0.35982138
   0.00077000  0.99959000  0.12036000
   0.16814000  0.16634000  0.18048000
   0.33405000  0.66593000  0.12095000
   0.50078000  0.83242000  0.18121000
   0.99049149  0.66794346  0.35973695
   0.99982000  0.33359000  0.24030000
   0.00025000  0.66569000  0.12051000
   0.16581000  0.83217000  0.18114000
   0.66566000  0.33123000  0.11970000
   0.83235029  0.83723940  0.30196942
   0.16605191  0.49959756  0.30118640
   0.16620413  0.16866449  0.30173044
   0.00161000  0.99891000  0.00024000
   0.00562797  0.99845956  0.35990800
   0.16807000  0.16539000  0.06004000
   0.50689529  0.83264870  0.30220297
   0.83476000  0.83303000  0.18132000
   0.66715000  0.66559000  0.00000000
   0.66719000  0.66640000  0.12032000
   0.83302000  0.49937000  0.17995000
   0.16769000  0.83389000  0.06029000
   0.50137484  0.16683201  0.30237821
   0.33289000  0.99824000  0.24130000
   0.66679000  0.99914000  0.24097000
   0.33466000  0.00023000  0.12082000
   0.66746000  0.99815000  0.00001000
   0.83551716  0.16915522  0.30176196
   0.83358000  0.16456000  0.06013000
   0.67168130  0.00574619  0.36075125
   0.83364000  0.16593000  0.18062000
   0.66653000  0.99972000  0.12044000
   0.33555017  0.33182018  0.35957377
   0.33487000  0.00167000  0.00066000
   0.32828446  0.99577128  0.36126952
   0.00122000  0.00217000  0.24080000
   0.16722000  0.50179000  0.05903000
   0.50000000  0.50344000  0.05949000
   0.49861000  0.16115000  0.05868000
   0.49968000  0.16444000  0.18182000
   0.83463874  0.50475449  0.29945606
   0.99722000  0.66135000  0.24151000
   0.33419000  0.66573000  0.24040000
   0.33414000  0.65855000  0.00278000
   0.32981356  0.67067363  0.36802640
   0.66923000  0.66337000  0.24097000
   0.52679372  0.82997607  0.44396218
Direct configuration=     2
   0.83310000  0.49871000  0.06001000
   0.83472000  0.83192000  0.06027000
   0.66755886  0.65729984  0.35956260
   0.00081000  0.66425000  0.00034000
   0.15830091  0.82873726  0.29958308
   0.66032585  0.33619550  0.36048087
   0.66559000  0.33138000  0.00044000
   0.49968000  0.83322000  0.06046000
   0.66721000  0.33321000  0.24067000
   0.50058000  0.49950000  0.18024000
   0.33595000  0.33196000  0.11912000
   0.33462000  0.33376000  0.24059000
   0.49805472  0.50086136  0.30058943
   0.00055000  0.33190000  0.12006000
   0.16752000  0.49945000  0.18065000
   0.00021000  0.33145000  0.00038000
   0.33510000  0.33170000  0.00029000
   0.00876476  0.33359760  0.36003045
   0.00077000  0.99959000  0.12036000
   0.16814000  0.16634000  0.18048000
   0.33405000  0.66593000  0.12095000
   0.50078000  0.83242000  0.18121000
   0.98968551  0.66753500  0.35999938
   0.99982000  0.33359000  0.24030000
   0.00025000  0.66569000  0.12051000
   0.16581000  0.83217000  0.18114000
   0.66566000  0.33123000  0.11970000
   0.83260501  0.83693422  0.30185621
   0.16606823  0.49955910  0.30133273
   0.16602214  0.16826632  0.30130981
   0.00161000  0.99891000  0.00024000
   0.00432130  0.99849999  0.36005337
   0.16807000  0.16539000  0.06004000
   0.50557176  0.83214728  0.30189825
   0.83476000  0.83303000  0.18132000
   0.66715000  0.66559000  0.00000000
   0.66719000  0.66640000  0.12032000
   0.83302000  0.49937000  0.17995000
   0.16769000  0.83389000  0.06029000
   0.50112551  0.16656317  0.30180536
   0.33289000  0.99824000  0.24130000
   0.66679000  0.99914000  0.24097000
   0.33466000  0.00023000  0.12082000
   0.66746000  0.99815000  0.00001000
   0.83553243  0.16943222  0.30192568
   0.83358000  0.16456000  0.06013000
   0.67267336  0.00708959  0.36075854
   0.83364000  0.16593000  0.18062000
   0.66653000  0.99972000  0.12044000
   0.33557902  0.33219224  0.35970270
   0.33487000  0.00167000  0.00066000
   0.32894151  0.99588295  0.36213963
   0.00122000  0.00217000  0.24080000
   0.16722000  0.50179000  0.05903000
   0.50000000  0.50344000  0.05949000
   0.49861000  0.16115000  0.05868000
   0.49968000  0.16444000  0.18182000
   0.83484428  0.50463660  0.29923641
   0.99722000  0.66135000  0.24151000
   0.33419000  0.66573000  0.24040000
   0.33414000  0.65855000  0.00278000
   0.32894598  0.66935830  0.36752753
   0.66923000  0.66337000  0.24097000
   0.52647035  0.83071718  0.44370030
Direct configuration=     3
   0.83310000  0.49871000  0.06001000
   0.83472000  0.83192000  0.06027000
   0.67037316  0.65425449  0.35985166
   0.00081000  0.66425000  0.00034000
   0.16248228  0.83029334  0.29890722
   0.66066548  0.33603618  0.36086058
   0.66559000  0.33138000  0.00044000
   0.49968000  0.83322000  0.06046000
   0.66721000  0.33321000  0.24067000
   0.50058000  0.49950000  0.18024000
   0.33595000  0.33196000  0.11912000
   0.33462000  0.33376000  0.24059000
   0.49852168  0.50123334  0.30081052
   0.00055000  0.33190000  0.12006000
   0.16752000  0.49945000  0.18065000
   0.00021000  0.33145000  0.00038000
   0.33510000  0.33170000  0.00029000
   0.00863983  0.33445382  0.36046470
   0.00077000  0.99959000  0.12036000
   0.16814000  0.16634000  0.18048000
   0.33405000  0.66593000  0.12095000
   0.50078000  0.83242000  0.18121000
   0.98801141  0.66668661  0.36054449
   0.99982000  0.33359000  0.24030000
   0.00025000  0.66569000  0.12051000
   0.16581000  0.83217000  0.18114000
   0.66566000  0.33123000  0.11970000
   0.83313408  0.83630033  0.30162105
   0.16610211  0.49947924  0.30163668
   0.16564413  0.16743929  0.30043612
   0.00161000  0.99891000  0.00024000
   0.00160722  0.99858399  0.36035534
   0.16807000  0.16539000  0.06004000
   0.50282265  0.83110578  0.30126531
   0.83476000  0.83303000  0.18132000
   0.66715000  0.66559000  0.00000000
   0.66719000  0.66640000  0.12032000
   0.83302000  0.49937000  0.17995000
   0.16769000  0.83389000  0.06029000
   0.50060764  0.16600476  0.30061549
   0.33289000  0.99824000  0.24130000
   0.66679000  0.99914000  0.24097000
   0.33466000  0.00023000  0.12082000
   0.66746000  0.99815000  0.00001000
   0.83556415  0.17000757  0.30226574
   0.83358000  0.16456000  0.06013000
   0.67473395  0.00987998  0.36077366
   0.83364000  0.16593000  0.18062000
   0.66653000  0.99972000  0.12044000
   0.33563895  0.33296506  0.35997050
   0.33487000  0.00167000  0.00066000
   0.33030628  0.99611489  0.36394692
   0.00122000  0.00217000  0.24080000
   0.16722000  0.50179000  0.05903000
   0.50000000  0.50344000  0.05949000
   0.49861000  0.16115000  0.05868000
   0.49968000  0.16444000  0.18182000
   0.83527120  0.50439174  0.29878017
   0.99722000  0.66135000  0.24151000
   0.33419000  0.66573000  0.24040000
   0.33414000  0.65855000  0.00278000
   0.32714392  0.66662623  0.36649134
   0.66923000  0.66337000  0.24097000
   0.52579868  0.83225655  0.44315636
Direct configuration=     4
   0.83310000  0.49871000  0.06001000
   0.83472000  0.83192000  0.06027000
   0.67169105  0.65309186  0.36004845
   0.00081000  0.66425000  0.00034000
   0.16201572  0.83058281  0.29896089
   0.66046635  0.33542117  0.36107641
   0.66559000  0.33138000  0.00044000
   0.49968000  0.83322000  0.06046000
   0.66721000  0.33321000  0.24067000
   0.50058000  0.49950000  0.18024000
   0.33595000  0.33196000  0.11912000
   0.33462000  0.33376000  0.24059000
   0.49890915  0.50052486  0.30072898
   0.00055000  0.33190000  0.12006000
   0.16752000  0.49945000  0.18065000
   0.00021000  0.33145000  0.00038000
   0.33510000  0.33170000  0.00029000
   0.00940746  0.33479181  0.36058585
   0.00077000  0.99959000  0.12036000
   0.16814000  0.16634000  0.18048000
   0.33405000  0.66593000  0.12095000
   0.50078000  0.83242000  0.18121000
   0.98733353  0.66673883  0.36062704
   0.99982000  0.33359000  0.24030000
   0.00025000  0.66569000  0.12051000
   0.16581000  0.83217000  0.18114000
   0.66566000  0.33123000  0.11970000
   0.83311393  0.83618665  0.30161961
   0.16544780  0.49884768  0.30147761
   0.16537841  0.16756247  0.30078058
   0.00161000  0.99891000  0.00024000
   0.00047313  0.99809697  0.36026763
   0.16807000  0.16539000  0.06004000
   0.50332489  0.83074625  0.30137295
   0.83476000  0.83303000  0.18132000
   0.66715000  0.66559000  0.00000000
   0.66719000  0.66640000  0.12032000
   0.83302000  0.49937000  0.17995000
   0.16769000  0.83389000  0.06029000
   0.50070937  0.16638849  0.30077619
   0.33289000  0.99824000  0.24130000
   0.66679000  0.99914000  0.24097000
   0.33466000  0.00023000  0.12082000
   0.66746000  0.99815000  0.00001000
   0.83592452  0.17070567  0.30209371
   0.83358000  0.16456000  0.06013000
   0.67489257  0.01114915  0.36065997
   0.83364000  0.16593000  0.18062000
   0.66653000  0.99972000  0.12044000
   0.33579928  0.33282862  0.35978262
   0.33487000  0.00167000  0.00066000
   0.33063499  0.99690609  0.36478091
   0.00122000  0.00217000  0.24080000
   0.16722000  0.50179000  0.05903000
   0.50000000  0.50344000  0.05949000
   0.49861000  0.16115000  0.05868000
   0.49968000  0.16444000  0.18182000
   0.83569921  0.50378283  0.29861966
   0.99722000  0.66135000  0.24151000
   0.33419000  0.66573000  0.24040000
   0.33414000  0.65855000  0.00278000
   0.32696413  0.66603682  0.36611580
   0.66923000  0.66337000  0.24097000
   0.52572661  0.83244566  0.44246182
Direct configuration=     5
   0.83310000  0.49871000  0.06001000
   0.83472000  0.83192000  0.06027000
   0.67331091  0.65166284  0.36029033
   0.00081000  0.66425000  0.00034000
   0.16144226  0.83093860  0.29902686
   0.66022160  0.33466525  0.36134169
   0.66559000  0.33138000  0.00044000
   0.49968000  0.83322000  0.06046000
   0.66721000  0.33321000  0.24067000
   0.50058000  0.49950000  0.18024000
   0.33595000  0.33196000  0.11912000
   0.33462000  0.33376000  0.24059000
   0.49938539  0.49965406  0.30062876
   0.00055000  0.33190000  0.12006000
   0.16752000  0.49945000  0.18065000
   0.00021000  0.33145000  0.00038000
   0.33510000  0.33170000  0.00029000
   0.01035097  0.33520724  0.36073476
   0.00077000  0.99959000  0.12036000
   0.16814000  0.16634000  0.18048000
   0.33405000  0.66593000  0.12095000
   0.50078000  0.83242000  0.18121000
   0.98650033  0.66680302  0.36072851
   0.99982000  0.33359000  0.24030000
   0.00025000  0.66569000  0.12051000
   0.16581000  0.83217000  0.18114000
   0.66566000  0.33123000  0.11970000
   0.83308916  0.83604692  0.30161784
   0.16464357  0.49807141  0.30128209
   0.16505180  0.16771388  0.30120396
   0.00161000  0.99891000  0.00024000
   0.99907919  0.99749838  0.36015982
   0.16807000  0.16539000  0.06004000
   0.50394220  0.83030433  0.30150526
   0.83476000  0.83303000  0.18132000
   0.66715000  0.66559000  0.00000000
   0.66719000  0.66640000  0.12032000
   0.83302000  0.49937000  0.17995000
   0.16769000  0.83389000  0.06029000
   0.50083440  0.16686013  0.30097370
   0.33289000  0.99824000  0.24130000
   0.66679000  0.99914000  0.24097000
   0.33466000  0.00023000  0.12082000
   0.66746000  0.99815000  0.00001000
   0.83636745  0.17156373  0.30188225
   0.83358000  0.16456000  0.06013000
   0.67508752  0.01270911  0.36052024
   0.83364000  0.16593000  0.18062000
   0.66653000  0.99972000  0.12044000
   0.33599636  0.33266093  0.35955169
   0.33487000  0.00167000  0.00066000
   0.33103902  0.99787857  0.36580598
   0.00122000  0.00217000  0.24080000
   0.16722000  0.50179000  0.05903000
   0.50000000  0.50344000  0.05949000
   0.49861000  0.16115000  0.05868000
   0.49968000  0.16444000  0.18182000
   0.83622528  0.50303440  0.29842238
   0.99722000  0.66135000  0.24151000
   0.33419000  0.66573000  0.24040000
   0.33414000  0.65855000  0.00278000
   0.32674313  0.66531237  0.36565422
   0.66923000  0.66337000  0.24097000
   0.52563802  0.83267809  0.44160814
Direct configuration=     6
   0.83310000  0.49871000  0.06001000
   0.83472000  0.83192000  0.06027000
   0.67377300  0.65125518  0.36035933
   0.00081000  0.66425000  0.00034000
   0.16127867  0.83104010  0.29904568
   0.66015178  0.33444960  0.36141737
   0.66559000  0.33138000  0.00044000
   0.49968000  0.83322000  0.06046000
   0.66721000  0.33321000  0.24067000
   0.50058000  0.49950000  0.18024000
   0.33595000  0.33196000  0.11912000
   0.33462000  0.33376000  0.24059000
   0.49952125  0.49940564  0.30060017
   0.00055000  0.33190000  0.12006000
   0.16752000  0.49945000  0.18065000
   0.00021000  0.33145000  0.00038000
   0.33510000  0.33170000  0.00029000
   0.01062013  0.33532575  0.36077724
   0.00077000  0.99959000  0.12036000
   0.16814000  0.16634000  0.18048000
   0.33405000  0.66593000  0.12095000
   0.50078000  0.83242000  0.18121000
   0.98626264  0.66682133  0.36075745
   0.99982000  0.33359000  0.24030000
   0.00025000  0.66569000  0.12051000
   0.16581000  0.83217000  0.18114000
   0.66566000  0.33123000  0.11970000
   0.83308210  0.83600706  0.30161733
   0.16441415  0.49784997  0.30122631
   0.16495863  0.16775707  0.30132474
   0.00161000  0.99891000  0.00024000
   0.99868155  0.99732762  0.36012906
   0.16807000  0.16539000  0.06004000
   0.50411830  0.83017827  0.30154300
   0.83476000  0.83303000  0.18132000
   0.66715000  0.66559000  0.00000000
   0.66719000  0.66640000  0.12032000
   0.83302000  0.49937000  0.17995000
   0.16769000  0.83389000  0.06029000
   0.50087007  0.16699468  0.30103004
   0.33289000  0.99824000  0.24130000
   0.66679000  0.99914000  0.24097000
   0.33466000  0.00023000  0.12082000
   0.66746000  0.99815000  0.00001000
   0.83649381  0.17180850  0.30182193
   0.83358000  0.16456000  0.06013000
   0.67514313  0.01315412  0.36048038
   0.83364000  0.16593000  0.18062000
   0.66653000  0.99972000  0.12044000
   0.33605257  0.33261309  0.35948581
   0.33487000  0.00167000  0.00066000
   0.33115428  0.99815599  0.36609841
   0.00122000  0.00217000  0.24080000
   0.16722000  0.50179000  0.05903000
   0.50000000  0.50344000  0.05949000
   0.49861000  0.16115000  0.05868000
   0.49968000  0.16444000  0.18182000
   0.83637535  0.50282089  0.29836610
   0.99722000  0.66135000  0.24151000
   0.33419000  0.66573000  0.24040000
   0.33414000  0.65855000  0.00278000
   0.32668009  0.66510571  0.36552254
   0.66923000  0.66337000  0.24097000
   0.52561274  0.83274439  0.44136461
Direct configuration=     7
   0.83310000  0.49871000  0.06001000
   0.83472000  0.83192000  0.06027000
   0.67461540  0.65031635  0.36025959
   0.00081000  0.66425000  0.00034000
   0.16038368  0.83099320  0.29935946
   0.66035190  0.33403036  0.36161442
   0.66559000  0.33138000  0.00044000
   0.49968000  0.83322000  0.06046000
   0.66721000  0.33321000  0.24067000
   0.50058000  0.49950000  0.18024000
   0.33595000  0.33196000  0.11912000
   0.33462000  0.33376000  0.24059000
   0.49985410  0.49952816  0.30050877
   0.00055000  0.33190000  0.12006000
   0.16752000  0.49945000  0.18065000
   0.00021000  0.33145000  0.00038000
   0.33510000  0.33170000  0.00029000
   0.01095779  0.33572827  0.36100111
   0.00077000  0.99959000  0.12036000
   0.16814000  0.16634000  0.18048000
   0.33405000  0.66593000  0.12095000
   0.50078000  0.83242000  0.18121000
   0.98612093  0.66676721  0.36073079
   0.99982000  0.33359000  0.24030000
   0.00025000  0.66569000  0.12051000
   0.16581000  0.83217000  0.18114000
   0.66566000  0.33123000  0.11970000
   0.83209222  0.83598229  0.30151999
   0.16479434  0.49827943  0.30094102
   0.16534271  0.16740043  0.30146223
   0.00161000  0.99891000  0.00024000
   0.99837113  0.99693576  0.36014953
   0.16807000  0.16539000  0.06004000
   0.50485855  0.83083166  0.30197482
   0.83476000  0.83303000  0.18132000
   0.66715000  0.66559000  0.00000000
   0.66719000  0.66640000  0.12032000
   0.83302000  0.49937000  0.17995000
   0.16769000  0.83389000  0.06029000
   0.50070015  0.16663500  0.30115429
   0.33289000  0.99824000  0.24130000
   0.66679000  0.99914000  0.24097000
   0.33466000  0.00023000  0.12082000
   0.66746000  0.99815000  0.00001000
   0.83636755  0.17169449  0.30172221
   0.83358000  0.16456000  0.06013000
   0.67484115  0.01376913  0.36033805
   0.83364000  0.16593000  0.18062000
   0.66653000  0.99972000  0.12044000
   0.33623344  0.33260950  0.35949727
   0.33487000  0.00167000  0.00066000
   0.33029152  0.99895090  0.36602634
   0.00122000  0.00217000  0.24080000
   0.16722000  0.50179000  0.05903000
   0.50000000  0.50344000  0.05949000
   0.49861000  0.16115000  0.05868000
   0.49968000  0.16444000  0.18182000
   0.83624524  0.50261390  0.29847953
   0.99722000  0.66135000  0.24151000
   0.33419000  0.66573000  0.24040000
   0.33414000  0.65855000  0.00278000
   0.32687336  0.66499795  0.36526494
   0.66923000  0.66337000  0.24097000
   0.52653492  0.83184087  0.44092101
Direct configuration=     8
   0.83310000  0.49871000  0.06001000
   0.83472000  0.83192000  0.06027000
   0.67521473  0.64964840  0.36018863
   0.00081000  0.66425000  0.00034000
   0.15974694  0.83095983  0.29958270
   0.66049429  0.33373209  0.36175461
   0.66559000  0.33138000  0.00044000
   0.49968000  0.83322000  0.06046000
   0.66721000  0.33321000  0.24067000
   0.50058000  0.49950000  0.18024000
   0.33595000  0.33196000  0.11912000
   0.33462000  0.33376000  0.24059000
   0.50009091  0.49961533  0.30044374
   0.00055000  0.33190000  0.12006000
   0.16752000  0.49945000  0.18065000
   0.00021000  0.33145000  0.00038000
   0.33510000  0.33170000  0.00029000
   0.01119801  0.33601464  0.36116038
   0.00077000  0.99959000  0.12036000
   0.16814000  0.16634000  0.18048000
   0.33405000  0.66593000  0.12095000
   0.50078000  0.83242000  0.18121000
   0.98602011  0.66672869  0.36071183
   0.99982000  0.33359000  0.24030000
   0.00025000  0.66569000  0.12051000
   0.16581000  0.83217000  0.18114000
   0.66566000  0.33123000  0.11970000
   0.83138796  0.83596466  0.30145073
   0.16506483  0.49858497  0.30073804
   0.16561596  0.16714670  0.30156005
   0.00161000  0.99891000  0.00024000
   0.99815029  0.99665697  0.36016408
   0.16807000  0.16539000  0.06004000
   0.50538522  0.83129652  0.30228204
   0.83476000  0.83303000  0.18132000
   0.66715000  0.66559000  0.00000000
   0.66719000  0.66640000  0.12032000
   0.83302000  0.49937000  0.17995000
   0.16769000  0.83389000  0.06029000
   0.50057926  0.16637911  0.30124268
   0.33289000  0.99824000  0.24130000
   0.66679000  0.99914000  0.24097000
   0.33466000  0.00023000  0.12082000
   0.66746000  0.99815000  0.00001000
   0.83627772  0.17161338  0.30165127
   0.83358000  0.16456000  0.06013000
   0.67462631  0.01420668  0.36023680
   0.83364000  0.16593000  0.18062000
   0.66653000  0.99972000  0.12044000
   0.33636212  0.33260695  0.35950542
   0.33487000  0.00167000  0.00066000
   0.32967770  0.99951645  0.36597507
   0.00122000  0.00217000  0.24080000
   0.16722000  0.50179000  0.05903000
   0.50000000  0.50344000  0.05949000
   0.49861000  0.16115000  0.05868000
   0.49968000  0.16444000  0.18182000
   0.83615268  0.50246663  0.29856022
   0.99722000  0.66135000  0.24151000
   0.33419000  0.66573000  0.24040000
   0.33414000  0.65855000  0.00278000
   0.32701085  0.66492128  0.36508167
   0.66923000  0.66337000  0.24097000
   0.52719101  0.83119805  0.44060541
Direct configuration=     9
   0.83310000  0.49871000  0.06001000
   0.83472000  0.83192000  0.06027000
   0.67565103  0.64857202  0.36009666
   0.00081000  0.66425000  0.00034000
   0.15939590  0.83099294  0.29959262
   0.66092769  0.33351816  0.36187646
   0.66559000  0.33138000  0.00044000
   0.49968000  0.83322000  0.06046000
   0.66721000  0.33321000  0.24067000
   0.50058000  0.49950000  0.18024000
   0.33595000  0.33196000  0.11912000
   0.33462000  0.33376000  0.24059000
   0.50020146  0.49970677  0.30044175
   0.00055000  0.33190000  0.12006000
   0.16752000  0.49945000  0.18065000
   0.00021000  0.33145000  0.00038000
   0.33510000  0.33170000  0.00029000
   0.01172099  0.33662143  0.36107497
   0.00077000  0.99959000  0.12036000
   0.16814000  0.16634000  0.18048000
   0.33405000  0.66593000  0.12095000
   0.50078000  0.83242000  0.18121000
   0.98592696  0.66658151  0.36069935
   0.99982000  0.33359000  0.24030000
   0.00025000  0.66569000  0.12051000
   0.16581000  0.83217000  0.18114000
   0.66566000  0.33123000  0.11970000
   0.83128277  0.83582813  0.30142030
   0.16528807  0.49854451  0.30074439
   0.16510120  0.16766514  0.30143474
   0.00161000  0.99891000  0.00024000
   0.99769680  0.99643579  0.36020740
   0.16807000  0.16539000  0.06004000
   0.50516190  0.83186946  0.30247786
   0.83476000  0.83303000  0.18132000
   0.66715000  0.66559000  0.00000000
   0.66719000  0.66640000  0.12032000
   0.83302000  0.49937000  0.17995000
   0.16769000  0.83389000  0.06029000
   0.50034726  0.16667625  0.30109963
   0.33289000  0.99824000  0.24130000
   0.66679000  0.99914000  0.24097000
   0.33466000  0.00023000  0.12082000
   0.66746000  0.99815000  0.00001000
   0.83653894  0.17162435  0.30171874
   0.83358000  0.16456000  0.06013000
   0.67419637  0.01462437  0.36031487
   0.83364000  0.16593000  0.18062000
   0.66653000  0.99972000  0.12044000
   0.33647721  0.33291426  0.35952811
   0.33487000  0.00167000  0.00066000
   0.32904458  0.99921026  0.36585823
   0.00122000  0.00217000  0.24080000
   0.16722000  0.50179000  0.05903000
   0.50000000  0.50344000  0.05949000
   0.49861000  0.16115000  0.05868000
   0.49968000  0.16444000  0.18182000
   0.83648373  0.50193675  0.29857288
   0.99722000  0.66135000  0.24151000
   0.33419000  0.66573000  0.24040000
   0.33414000  0.65855000  0.00278000
   0.32737586  0.66517359  0.36486722
   0.66923000  0.66337000  0.24097000
   0.52825522  0.83014734  0.44013770
Direct configuration=    10
   0.83310000  0.49871000  0.06001000
   0.83472000  0.83192000  0.06027000
   0.67606360  0.64755418  0.36000970
   0.00081000  0.66425000  0.00034000
   0.15906395  0.83102426  0.29960201
   0.66133752  0.33331586  0.36199169
   0.66559000  0.33138000  0.00044000
   0.49968000  0.83322000  0.06046000
   0.66721000  0.33321000  0.24067000
   0.50058000  0.49950000  0.18024000
   0.33595000  0.33196000  0.11912000
   0.33462000  0.33376000  0.24059000
   0.50030600  0.49979323  0.30043988
   0.00055000  0.33190000  0.12006000
   0.16752000  0.49945000  0.18065000
   0.00021000  0.33145000  0.00038000
   0.33510000  0.33170000  0.00029000
   0.01221553  0.33719522  0.36099420
   0.00077000  0.99959000  0.12036000
   0.16814000  0.16634000  0.18048000
   0.33405000  0.66593000  0.12095000
   0.50078000  0.83242000  0.18121000
   0.98583888  0.66644233  0.36068755
   0.99982000  0.33359000  0.24030000
   0.00025000  0.66569000  0.12051000
   0.16581000  0.83217000  0.18114000
   0.66566000  0.33123000  0.11970000
   0.83118331  0.83569902  0.30139152
   0.16549916  0.49850624  0.30075039
   0.16461444  0.16815540  0.30131624
   0.00161000  0.99891000  0.00024000
   0.99726798  0.99622664  0.36024836
   0.16807000  0.16539000  0.06004000
   0.50495074  0.83241125  0.30266303
   0.83476000  0.83303000  0.18132000
   0.66715000  0.66559000  0.00000000
   0.66719000  0.66640000  0.12032000
   0.83302000  0.49937000  0.17995000
   0.16769000  0.83389000  0.06029000
   0.50012788  0.16695723  0.30096437
   0.33289000  0.99824000  0.24130000
   0.66679000  0.99914000  0.24097000
   0.33466000  0.00023000  0.12082000
   0.66746000  0.99815000  0.00001000
   0.83678596  0.17163473  0.30178254
   0.83358000  0.16456000  0.06013000
   0.67378981  0.01501934  0.36038870
   0.83364000  0.16593000  0.18062000
   0.66653000  0.99972000  0.12044000
   0.33658604  0.33320485  0.35954956
   0.33487000  0.00167000  0.00066000
   0.32844589  0.99892073  0.36574775
   0.00122000  0.00217000  0.24080000
   0.16722000  0.50179000  0.05903000
   0.50000000  0.50344000  0.05949000
   0.49861000  0.16115000  0.05868000
   0.49968000  0.16444000  0.18182000
   0.83679678  0.50143569  0.29858485
   0.99722000  0.66135000  0.24151000
   0.33419000  0.66573000  0.24040000
   0.33414000  0.65855000  0.00278000
   0.32772102  0.66541217  0.36466443
   0.66923000  0.66337000  0.24097000
   0.52926155  0.82915379  0.43969542
Direct configuration=    11
   0.83310000  0.49871000  0.06001000
   0.83472000  0.83192000  0.06027000
   0.67648948  0.64628738  0.35979128
   0.00081000  0.66425000  0.00034000
   0.15929671  0.83103607  0.29933362
   0.66194477  0.33312127  0.36203554
   0.66559000  0.33138000  0.00044000
   0.49968000  0.83322000  0.06046000
   0.66721000  0.33321000  0.24067000
   0.50058000  0.49950000  0.18024000
   0.33595000  0.33196000  0.11912000
   0.33462000  0.33376000  0.24059000
   0.50029530  0.49973340  0.30041256
   0.00055000  0.33190000  0.12006000
   0.16752000  0.49945000  0.18065000
   0.00021000  0.33145000  0.00038000
   0.33510000  0.33170000  0.00029000
   0.01250651  0.33785421  0.36100508
   0.00077000  0.99959000  0.12036000
   0.16814000  0.16634000  0.18048000
   0.33405000  0.66593000  0.12095000
   0.50078000  0.83242000  0.18121000
   0.98584167  0.66625752  0.36075620
   0.99982000  0.33359000  0.24030000
   0.00025000  0.66569000  0.12051000
   0.16581000  0.83217000  0.18114000
   0.66566000  0.33123000  0.11970000
   0.83123127  0.83562007  0.30149409
   0.16588561  0.49883686  0.30078189
   0.16468728  0.16805528  0.30126272
   0.00161000  0.99891000  0.00024000
   0.99656739  0.99623938  0.36027527
   0.16807000  0.16539000  0.06004000
   0.50487164  0.83220260  0.30237723
   0.83476000  0.83303000  0.18132000
   0.66715000  0.66559000  0.00000000
   0.66719000  0.66640000  0.12032000
   0.83302000  0.49937000  0.17995000
   0.16769000  0.83389000  0.06029000
   0.50001998  0.16736470  0.30099760
   0.33289000  0.99824000  0.24130000
   0.66679000  0.99914000  0.24097000
   0.33466000  0.00023000  0.12082000
   0.66746000  0.99815000  0.00001000
   0.83647838  0.17143775  0.30187899
   0.83358000  0.16456000  0.06013000
   0.67367029  0.01571602  0.36027824
   0.83364000  0.16593000  0.18062000
   0.66653000  0.99972000  0.12044000
   0.33675442  0.33348849  0.35952179
   0.33487000  0.00167000  0.00066000
   0.32799510  0.99862203  0.36568841
   0.00122000  0.00217000  0.24080000
   0.16722000  0.50179000  0.05903000
   0.50000000  0.50344000  0.05949000
   0.49861000  0.16115000  0.05868000
   0.49968000  0.16444000  0.18182000
   0.83728463  0.50112300  0.29842852
   0.99722000  0.66135000  0.24151000
   0.33419000  0.66573000  0.24040000
   0.33414000  0.65855000  0.00278000
   0.32765896  0.66557426  0.36438001
   0.66923000  0.66337000  0.24097000
   0.53012977  0.82816717  0.43942037
Direct configuration=    12
   0.83310000  0.49871000  0.06001000
   0.83472000  0.83192000  0.06027000
   0.67667510  0.64573522  0.35969608
   0.00081000  0.66425000  0.00034000
   0.15939817  0.83104122  0.29921664
   0.66220945  0.33303646  0.36205466
   0.66559000  0.33138000  0.00044000
   0.49968000  0.83322000  0.06046000
   0.66721000  0.33321000  0.24067000
   0.50058000  0.49950000  0.18024000
   0.33595000  0.33196000  0.11912000
   0.33462000  0.33376000  0.24059000
   0.50029063  0.49970732  0.30040066
   0.00055000  0.33190000  0.12006000
   0.16752000  0.49945000  0.18065000
   0.00021000  0.33145000  0.00038000
   0.33510000  0.33170000  0.00029000
   0.01263335  0.33814144  0.36100983
   0.00077000  0.99959000  0.12036000
   0.16814000  0.16634000  0.18048000
   0.33405000  0.66593000  0.12095000
   0.50078000  0.83242000  0.18121000
   0.98584288  0.66617697  0.36078612
   0.99982000  0.33359000  0.24030000
   0.00025000  0.66569000  0.12051000
   0.16581000  0.83217000  0.18114000
   0.66566000  0.33123000  0.11970000
   0.83125218  0.83558566  0.30153879
   0.16605405  0.49898097  0.30079561
   0.16471904  0.16801164  0.30123940
   0.00161000  0.99891000  0.00024000
   0.99626203  0.99624494  0.36028700
   0.16807000  0.16539000  0.06004000
   0.50483716  0.83211166  0.30225266
   0.83476000  0.83303000  0.18132000
   0.66715000  0.66559000  0.00000000
   0.66719000  0.66640000  0.12032000
   0.83302000  0.49937000  0.17995000
   0.16769000  0.83389000  0.06029000
   0.49997295  0.16754230  0.30101209
   0.33289000  0.99824000  0.24130000
   0.66679000  0.99914000  0.24097000
   0.33466000  0.00023000  0.12082000
   0.66746000  0.99815000  0.00001000
   0.83634432  0.17135189  0.30192103
   0.83358000  0.16456000  0.06013000
   0.67361819  0.01601968  0.36023010
   0.83364000  0.16593000  0.18062000
   0.66653000  0.99972000  0.12044000
   0.33682780  0.33361212  0.35950969
   0.33487000  0.00167000  0.00066000
   0.32779861  0.99849184  0.36566255
   0.00122000  0.00217000  0.24080000
   0.16722000  0.50179000  0.05903000
   0.50000000  0.50344000  0.05949000
   0.49861000  0.16115000  0.05868000
   0.49968000  0.16444000  0.18182000
   0.83749727  0.50098670  0.29836038
   0.99722000  0.66135000  0.24151000
   0.33419000  0.66573000  0.24040000
   0.33414000  0.65855000  0.00278000
   0.32763191  0.66564490  0.36425604
   0.66923000  0.66337000  0.24097000
   0.53050820  0.82773713  0.43930049
Direct configuration=    13
   0.83310000  0.49871000  0.06001000
   0.83472000  0.83192000  0.06027000
   0.67683072  0.64520368  0.35956656
   0.00081000  0.66425000  0.00034000
   0.15938303  0.83104587  0.29914353
   0.66291867  0.33298087  0.36210993
   0.66559000  0.33138000  0.00044000
   0.49968000  0.83322000  0.06046000
   0.66721000  0.33321000  0.24067000
   0.50058000  0.49950000  0.18024000
   0.33595000  0.33196000  0.11912000
   0.33462000  0.33376000  0.24059000
   0.50030078  0.49951028  0.30026714
   0.00055000  0.33190000  0.12006000
   0.16752000  0.49945000  0.18065000
   0.00021000  0.33145000  0.00038000
   0.33510000  0.33170000  0.00029000
   0.01264072  0.33843025  0.36108762
   0.00077000  0.99959000  0.12036000
   0.16814000  0.16634000  0.18048000
   0.33405000  0.66593000  0.12095000
   0.50078000  0.83242000  0.18121000
   0.98607040  0.66609306  0.36086763
   0.99982000  0.33359000  0.24030000
   0.00025000  0.66569000  0.12051000
   0.16581000  0.83217000  0.18114000
   0.66566000  0.33123000  0.11970000
   0.83116532  0.83551768  0.30155083
   0.16604653  0.49896314  0.30065827
   0.16483424  0.16787449  0.30136202
   0.00161000  0.99891000  0.00024000
   0.99594898  0.99636630  0.36024364
   0.16807000  0.16539000  0.06004000
   0.50500730  0.83164871  0.30202659
   0.83476000  0.83303000  0.18132000
   0.66715000  0.66559000  0.00000000
   0.66719000  0.66640000  0.12032000
   0.83302000  0.49937000  0.17995000
   0.16769000  0.83389000  0.06029000
   0.49990201  0.16728744  0.30107935
   0.33289000  0.99824000  0.24130000
   0.66679000  0.99914000  0.24097000
   0.33466000  0.00023000  0.12082000
   0.66746000  0.99815000  0.00001000
   0.83663028  0.17169188  0.30172041
   0.83358000  0.16456000  0.06013000
   0.67327428  0.01599570  0.36020823
   0.83364000  0.16593000  0.18062000
   0.66653000  0.99972000  0.12044000
   0.33676140  0.33364031  0.35949168
   0.33487000  0.00167000  0.00066000
   0.32811036  0.99812221  0.36567615
   0.00122000  0.00217000  0.24080000
   0.16722000  0.50179000  0.05903000
   0.50000000  0.50344000  0.05949000
   0.49861000  0.16115000  0.05868000
   0.49968000  0.16444000  0.18182000
   0.83786279  0.50091264  0.29820713
   0.99722000  0.66135000  0.24151000
   0.33419000  0.66573000  0.24040000
   0.33414000  0.65855000  0.00278000
   0.32746710  0.66596804  0.36405825
   0.66923000  0.66337000  0.24097000
   0.53088623  0.82726324  0.43914447
Direct configuration=    14
   0.83310000  0.49871000  0.06001000
   0.83472000  0.83192000  0.06027000
   0.67687940  0.64503741  0.35952604
   0.00081000  0.66425000  0.00034000
   0.15937830  0.83104733  0.29912066
   0.66314052  0.33296348  0.36212722
   0.66559000  0.33138000  0.00044000
   0.49968000  0.83322000  0.06046000
   0.66721000  0.33321000  0.24067000
   0.50058000  0.49950000  0.18024000
   0.33595000  0.33196000  0.11912000
   0.33462000  0.33376000  0.24059000
   0.50030396  0.49944865  0.30022538
   0.00055000  0.33190000  0.12006000
   0.16752000  0.49945000  0.18065000
   0.00021000  0.33145000  0.00038000
   0.33510000  0.33170000  0.00029000
   0.01264302  0.33852060  0.36111195
   0.00077000  0.99959000  0.12036000
   0.16814000  0.16634000  0.18048000
   0.33405000  0.66593000  0.12095000
   0.50078000  0.83242000  0.18121000
   0.98614158  0.66606681  0.36089313
   0.99982000  0.33359000  0.24030000
   0.00025000  0.66569000  0.12051000
   0.16581000  0.83217000  0.18114000
   0.66566000  0.33123000  0.11970000
   0.83113815  0.83549641  0.30155460
   0.16604418  0.49895756  0.30061531
   0.16487027  0.16783158  0.30140037
   0.00161000  0.99891000  0.00024000
   0.99585105  0.99640426  0.36023007
   0.16807000  0.16539000  0.06004000
   0.50506052  0.83150389  0.30195587
   0.83476000  0.83303000  0.18132000
   0.66715000  0.66559000  0.00000000
   0.66719000  0.66640000  0.12032000
   0.83302000  0.49937000  0.17995000
   0.16769000  0.83389000  0.06029000
   0.49987981  0.16720772  0.30110039
   0.33289000  0.99824000  0.24130000
   0.66679000  0.99914000  0.24097000
   0.33466000  0.00023000  0.12082000
   0.66746000  0.99815000  0.00001000
   0.83671973  0.17179824  0.30165765
   0.83358000  0.16456000  0.06013000
   0.67316670  0.01598820  0.36020139
   0.83364000  0.16593000  0.18062000
   0.66653000  0.99972000  0.12044000
   0.33674063  0.33364913  0.35948604
   0.33487000  0.00167000  0.00066000
   0.32820788  0.99800658  0.36568041
   0.00122000  0.00217000  0.24080000
   0.16722000  0.50179000  0.05903000
   0.50000000  0.50344000  0.05949000
   0.49861000  0.16115000  0.05868000
   0.49968000  0.16444000  0.18182000
   0.83797713  0.50088947  0.29815919
   0.99722000  0.66135000  0.24151000
   0.33419000  0.66573000  0.24040000
   0.33414000  0.65855000  0.00278000
   0.32741555  0.66606912  0.36399638
   0.66923000  0.66337000  0.24097000
   0.53100448  0.82711499  0.43909567
Direct configuration=    15
   0.83310000  0.49871000  0.06001000
   0.83472000  0.83192000  0.06027000
   0.67685711  0.64511354  0.35954459
   0.00081000  0.66425000  0.00034000
   0.15938047  0.83104666  0.29913113
   0.66303895  0.33297144  0.36211930
   0.66559000  0.33138000  0.00044000
   0.49968000  0.83322000  0.06046000
   0.66721000  0.33321000  0.24067000
   0.50058000  0.49950000  0.18024000
   0.33595000  0.33196000  0.11912000
   0.33462000  0.33376000  0.24059000
   0.50030250  0.49947687  0.30024450
   0.00055000  0.33190000  0.12006000
   0.16752000  0.49945000  0.18065000
   0.00021000  0.33145000  0.00038000
   0.33510000  0.33170000  0.00029000
   0.01264196  0.33847923  0.36110081
   0.00077000  0.99959000  0.12036000
   0.16814000  0.16634000  0.18048000
   0.33405000  0.66593000  0.12095000
   0.50078000  0.83242000  0.18121000
   0.98610899  0.66607883  0.36088146
   0.99982000  0.33359000  0.24030000
   0.00025000  0.66569000  0.12051000
   0.16581000  0.83217000  0.18114000
   0.66566000  0.33123000  0.11970000
   0.83115059  0.83550615  0.30155288
   0.16604525  0.49896012  0.30063498
   0.16485377  0.16785123  0.30138281
   0.00161000  0.99891000  0.00024000
   0.99589589  0.99638688  0.36023628
   0.16807000  0.16539000  0.06004000
   0.50503615  0.83157020  0.30198825
   0.83476000  0.83303000  0.18132000
   0.66715000  0.66559000  0.00000000
   0.66719000  0.66640000  0.12032000
   0.83302000  0.49937000  0.17995000
   0.16769000  0.83389000  0.06029000
   0.49988997  0.16724422  0.30109076
   0.33289000  0.99824000  0.24130000
   0.66679000  0.99914000  0.24097000
   0.33466000  0.00023000  0.12082000
   0.66746000  0.99815000  0.00001000
   0.83667877  0.17174954  0.30168639
   0.83358000  0.16456000  0.06013000
   0.67321596  0.01599163  0.36020452
   0.83364000  0.16593000  0.18062000
   0.66653000  0.99972000  0.12044000
   0.33675014  0.33364509  0.35948862
   0.33487000  0.00167000  0.00066000
   0.32816323  0.99805952  0.36567846
   0.00122000  0.00217000  0.24080000
   0.16722000  0.50179000  0.05903000
   0.50000000  0.50344000  0.05949000
   0.49861000  0.16115000  0.05868000
   0.49968000  0.16444000  0.18182000
   0.83792478  0.50090008  0.29818114
   0.99722000  0.66135000  0.24151000
   0.33419000  0.66573000  0.24040000
   0.33414000  0.65855000  0.00278000
   0.32743915  0.66602284  0.36402470
   0.66923000  0.66337000  0.24097000
   0.53095034  0.82718287  0.43911801
Direct configuration=    16
   0.83310000  0.49871000  0.06001000
   0.83472000  0.83192000  0.06027000
   0.67684392  0.64515861  0.35955558
   0.00081000  0.66425000  0.00034000
   0.15938175  0.83104627  0.29913733
   0.66297881  0.33297615  0.36211462
   0.66559000  0.33138000  0.00044000
   0.49968000  0.83322000  0.06046000
   0.66721000  0.33321000  0.24067000
   0.50058000  0.49950000  0.18024000
   0.33595000  0.33196000  0.11912000
   0.33462000  0.33376000  0.24059000
   0.50030164  0.49949358  0.30025582
   0.00055000  0.33190000  0.12006000
   0.16752000  0.49945000  0.18065000
   0.00021000  0.33145000  0.00038000
   0.33510000  0.33170000  0.00029000
   0.01264134  0.33845474  0.36109422
   0.00077000  0.99959000  0.12036000
   0.16814000  0.16634000  0.18048000
   0.33405000  0.66593000  0.12095000
   0.50078000  0.83242000  0.18121000
   0.98608970  0.66608595  0.36087454
   0.99982000  0.33359000  0.24030000
   0.00025000  0.66569000  0.12051000
   0.16581000  0.83217000  0.18114000
   0.66566000  0.33123000  0.11970000
   0.83115796  0.83551191  0.30155186
   0.16604589  0.49896163  0.30064663
   0.16484400  0.16786286  0.30137241
   0.00161000  0.99891000  0.00024000
   0.99592244  0.99637659  0.36023996
   0.16807000  0.16539000  0.06004000
   0.50502172  0.83160946  0.30200742
   0.83476000  0.83303000  0.18132000
   0.66715000  0.66559000  0.00000000
   0.66719000  0.66640000  0.12032000
   0.83302000  0.49937000  0.17995000
   0.16769000  0.83389000  0.06029000
   0.49989599  0.16726583  0.30108506
   0.33289000  0.99824000  0.24130000
   0.66679000  0.99914000  0.24097000
   0.33466000  0.00023000  0.12082000
   0.66746000  0.99815000  0.00001000
   0.83665452  0.17172071  0.30170340
   0.83358000  0.16456000  0.06013000
   0.67324512  0.01599367  0.36020638
   0.83364000  0.16593000  0.18062000
   0.66653000  0.99972000  0.12044000
   0.33675577  0.33364270  0.35949015
   0.33487000  0.00167000  0.00066000
   0.32813679  0.99809087  0.36567731
   0.00122000  0.00217000  0.24080000
   0.16722000  0.50179000  0.05903000
   0.50000000  0.50344000  0.05949000
   0.49861000  0.16115000  0.05868000
   0.49968000  0.16444000  0.18182000
   0.83789378  0.50090636  0.29819413
   0.99722000  0.66135000  0.24151000
   0.33419000  0.66573000  0.24040000
   0.33414000  0.65855000  0.00278000
   0.32745313  0.66599544  0.36404148
   0.66923000  0.66337000  0.24097000
   0.53091828  0.82722305  0.43913124
Direct configuration=    17
   0.83310000  0.49871000  0.06001000
   0.83472000  0.83192000  0.06027000
   0.67693294  0.64489230  0.35949126
   0.00081000  0.66425000  0.00034000
   0.15912502  0.83111743  0.29925076
   0.66383337  0.33297964  0.36209263
   0.66559000  0.33138000  0.00044000
   0.49968000  0.83322000  0.06046000
   0.66721000  0.33321000  0.24067000
   0.50058000  0.49950000  0.18024000
   0.33595000  0.33196000  0.11912000
   0.33462000  0.33376000  0.24059000
   0.50032276  0.49924619  0.30025851
   0.00055000  0.33190000  0.12006000
   0.16752000  0.49945000  0.18065000
   0.00021000  0.33145000  0.00038000
   0.33510000  0.33170000  0.00029000
   0.01253910  0.33867693  0.36114547
   0.00077000  0.99959000  0.12036000
   0.16814000  0.16634000  0.18048000
   0.33405000  0.66593000  0.12095000
   0.50078000  0.83242000  0.18121000
   0.98628670  0.66604216  0.36090516
   0.99982000  0.33359000  0.24030000
   0.00025000  0.66569000  0.12051000
   0.16581000  0.83217000  0.18114000
   0.66566000  0.33123000  0.11970000
   0.83117865  0.83552287  0.30152267
   0.16598126  0.49873883  0.30060385
   0.16492909  0.16790352  0.30149917
   0.00161000  0.99891000  0.00024000
   0.99585158  0.99654657  0.36013903
   0.16807000  0.16539000  0.06004000
   0.50505716  0.83145182  0.30202655
   0.83476000  0.83303000  0.18132000
   0.66715000  0.66559000  0.00000000
   0.66719000  0.66640000  0.12032000
   0.83302000  0.49937000  0.17995000
   0.16769000  0.83389000  0.06029000
   0.50001564  0.16705680  0.30110597
   0.33289000  0.99824000  0.24130000
   0.66679000  0.99914000  0.24097000
   0.33466000  0.00023000  0.12082000
   0.66746000  0.99815000  0.00001000
   0.83668872  0.17164519  0.30167942
   0.83358000  0.16456000  0.06013000
   0.67321278  0.01590878  0.36008308
   0.83364000  0.16593000  0.18062000
   0.66653000  0.99972000  0.12044000
   0.33658135  0.33351051  0.35942201
   0.33487000  0.00167000  0.00066000
   0.32862897  0.99768926  0.36568977
   0.00122000  0.00217000  0.24080000
   0.16722000  0.50179000  0.05903000
   0.50000000  0.50344000  0.05949000
   0.49861000  0.16115000  0.05868000
   0.49968000  0.16444000  0.18182000
   0.83783748  0.50113603  0.29822221
   0.99722000  0.66135000  0.24151000
   0.33419000  0.66573000  0.24040000
   0.33414000  0.65855000  0.00278000
   0.32734411  0.66605301  0.36388725
   0.66923000  0.66337000  0.24097000
   0.53104499  0.82689401  0.43906656
Direct configuration=    18
   0.83310000  0.49871000  0.06001000
   0.83472000  0.83192000  0.06027000
   0.67695897  0.64481445  0.35947246
   0.00081000  0.66425000  0.00034000
   0.15904998  0.83113823  0.29928392
   0.66408316  0.33298066  0.36208620
   0.66559000  0.33138000  0.00044000
   0.49968000  0.83322000  0.06046000
   0.66721000  0.33321000  0.24067000
   0.50058000  0.49950000  0.18024000
   0.33595000  0.33196000  0.11912000
   0.33462000  0.33376000  0.24059000
   0.50032893  0.49917388  0.30025930
   0.00055000  0.33190000  0.12006000
   0.16752000  0.49945000  0.18065000
   0.00021000  0.33145000  0.00038000
   0.33510000  0.33170000  0.00029000
   0.01250921  0.33874187  0.36116046
   0.00077000  0.99959000  0.12036000
   0.16814000  0.16634000  0.18048000
   0.33405000  0.66593000  0.12095000
   0.50078000  0.83242000  0.18121000
   0.98634429  0.66602936  0.36091411
   0.99982000  0.33359000  0.24030000
   0.00025000  0.66569000  0.12051000
   0.16581000  0.83217000  0.18114000
   0.66566000  0.33123000  0.11970000
   0.83118470  0.83552608  0.30151413
   0.16596237  0.49867370  0.30059135
   0.16495396  0.16791541  0.30153621
   0.00161000  0.99891000  0.00024000
   0.99583087  0.99659626  0.36010953
   0.16807000  0.16539000  0.06004000
   0.50506752  0.83140574  0.30203214
   0.83476000  0.83303000  0.18132000
   0.66715000  0.66559000  0.00000000
   0.66719000  0.66640000  0.12032000
   0.83302000  0.49937000  0.17995000
   0.16769000  0.83389000  0.06029000
   0.50005061  0.16699570  0.30111209
   0.33289000  0.99824000  0.24130000
   0.66679000  0.99914000  0.24097000
   0.33466000  0.00023000  0.12082000
   0.66746000  0.99815000  0.00001000
   0.83669872  0.17162311  0.30167241
   0.83358000  0.16456000  0.06013000
   0.67320333  0.01588396  0.36004704
   0.83364000  0.16593000  0.18062000
   0.66653000  0.99972000  0.12044000
   0.33653037  0.33347187  0.35940209
   0.33487000  0.00167000  0.00066000
   0.32877283  0.99757187  0.36569342
   0.00122000  0.00217000  0.24080000
   0.16722000  0.50179000  0.05903000
   0.50000000  0.50344000  0.05949000
   0.49861000  0.16115000  0.05868000
   0.49968000  0.16444000  0.18182000
   0.83782102  0.50120317  0.29823042
   0.99722000  0.66135000  0.24151000
   0.33419000  0.66573000  0.24040000
   0.33414000  0.65855000  0.00278000
   0.32731224  0.66606984  0.36384218
   0.66923000  0.66337000  0.24097000
   0.53108202  0.82679783  0.43904765
Direct configuration=    19
   0.83310000  0.49871000  0.06001000
   0.83472000  0.83192000  0.06027000
   0.67686605  0.64480178  0.35952425
   0.00081000  0.66425000  0.00034000
   0.15895964  0.83122600  0.29931499
   0.66492016  0.33300276  0.36204185
   0.66559000  0.33138000  0.00044000
   0.49968000  0.83322000  0.06046000
   0.66721000  0.33321000  0.24067000
   0.50058000  0.49950000  0.18024000
   0.33595000  0.33196000  0.11912000
   0.33462000  0.33376000  0.24059000
   0.50033809  0.49901246  0.30035887
   0.00055000  0.33190000  0.12006000
   0.16752000  0.49945000  0.18065000
   0.00021000  0.33145000  0.00038000
   0.33510000  0.33170000  0.00029000
   0.01225534  0.33895308  0.36122447
   0.00077000  0.99959000  0.12036000
   0.16814000  0.16634000  0.18048000
   0.33405000  0.66593000  0.12095000
   0.50078000  0.83242000  0.18121000
   0.98638202  0.66600917  0.36093360
   0.99982000  0.33359000  0.24030000
   0.00025000  0.66569000  0.12051000
   0.16581000  0.83217000  0.18114000
   0.66566000  0.33123000  0.11970000
   0.83123565  0.83544258  0.30146086
   0.16595887  0.49870857  0.30063309
   0.16505338  0.16788096  0.30152737
   0.00161000  0.99891000  0.00024000
   0.99606349  0.99680561  0.36012972
   0.16807000  0.16539000  0.06004000
   0.50504231  0.83139024  0.30208621
   0.83476000  0.83303000  0.18132000
   0.66715000  0.66559000  0.00000000
   0.66719000  0.66640000  0.12032000
   0.83302000  0.49937000  0.17995000
   0.16769000  0.83389000  0.06029000
   0.50015627  0.16718008  0.30107168
   0.33289000  0.99824000  0.24130000
   0.66679000  0.99914000  0.24097000
   0.33466000  0.00023000  0.12082000
   0.66746000  0.99815000  0.00001000
   0.83670166  0.17152833  0.30165973
   0.83358000  0.16456000  0.06013000
   0.67330317  0.01568481  0.36000699
   0.83364000  0.16593000  0.18062000
   0.66653000  0.99972000  0.12044000
   0.33639151  0.33314577  0.35933827
   0.33487000  0.00167000  0.00066000
   0.32895531  0.99741858  0.36567118
   0.00122000  0.00217000  0.24080000
   0.16722000  0.50179000  0.05903000
   0.50000000  0.50344000  0.05949000
   0.49861000  0.16115000  0.05868000
   0.49968000  0.16444000  0.18182000
   0.83786951  0.50121686  0.29818783
   0.99722000  0.66135000  0.24151000
   0.33419000  0.66573000  0.24040000
   0.33414000  0.65855000  0.00278000
   0.32731087  0.66575681  0.36372397
   0.66923000  0.66337000  0.24097000
   0.53121595  0.82641995  0.43902266
