  63  63   0   0
  0.2708641E+02  0.8497000E-09  0.8519200E-09  0.2357370E-08  0.5000000E-15
  1.000000000000000E-004
  CAR 
 ni3al                                   
      5.27432378    -45.71933596  301      0.91150156      1.00000000
    -45.719  0.0000E+00  0.0000E+00  0.0000E+00  0.0000E+00
    -45.549  0.0000E+00  0.0000E+00  0.0000E+00  0.0000E+00
    -45.379  0.0000E+00  0.0000E+00  0.0000E+00  0.0000E+00
    -45.209  0.0000E+00  0.0000E+00  0.0000E+00  0.0000E+00
    -45.039  0.0000E+00  0.0000E+00  0.0000E+00  0.0000E+00
    -44.869  0.0000E+00  0.0000E+00  0.0000E+00  0.0000E+00
    -44.699  0.0000E+00 -0.1767E-33  0.0000E+00 -0.3003E-34
    -44.529  0.0000E+00 -0.1488E-25  0.0000E+00 -0.2530E-26
    -44.360  0.0000E+00 -0.9590E-19  0.0000E+00 -0.1630E-19
    -44.190 -0.3092E-33 -0.4566E-13 -0.5256E-34 -0.7761E-14
    -44.020 -0.2353E-25 -0.1690E-08 -0.4000E-26 -0.2872E-09
    -43.850 -0.1354E-18 -0.4672E-05 -0.2302E-19 -0.7945E-06
    -43.680 -0.5652E-13 -0.8928E-03 -0.9607E-14 -0.1526E-03
    -43.510 -0.1781E-08 -0.3754E-02 -0.3028E-09 -0.7906E-03
    -43.340 -0.3981E-05  0.1055E+00 -0.6770E-06  0.1714E-01
    -43.170 -0.5473E-03  0.1603E+00 -0.9370E-04  0.4438E-01
    -43.000  0.4538E-03  0.1257E+00 -0.1656E-04  0.6574E-01
    -42.830  0.4374E-01  0.3069E-01  0.7418E-02  0.7096E-01
    -42.660  0.6055E-01  0.5665E-01  0.1771E-01  0.8059E-01
    -42.490  0.2263E-01  0.5415E-01  0.2156E-01  0.8979E-01
    -42.320  0.6384E-01  0.4935E-02  0.3241E-01  0.9063E-01
    -42.150  0.1002E+00  0.1521E-01  0.4943E-01  0.9322E-01
    -41.980  0.1244E+00  0.2918E-01  0.7057E-01  0.9818E-01
    -41.810  0.1929E+00  0.6492E-01  0.1034E+00  0.1092E+00
    -41.640  0.9322E-01  0.4666E-01  0.1192E+00  0.1171E+00
    -41.470  0.6306E-02  0.1602E-01  0.1203E+00  0.1199E+00
    -41.300 -0.1622E-02  0.1098E-02  0.1200E+00  0.1201E+00
    -41.130 -0.2694E-04 -0.3125E-03  0.1200E+00  0.1200E+00
    -40.960 -0.2648E-07 -0.3235E-05  0.1200E+00  0.1200E+00
    -40.790 -0.1506E-08 -0.1938E-08  0.1200E+00  0.1200E+00
    -40.620 -0.3500E-05 -0.3324E-06  0.1200E+00  0.1200E+00
    -40.450 -0.5080E-03 -0.9422E-04  0.1199E+00  0.1200E+00
    -40.280 -0.4617E-03 -0.7588E-03  0.1198E+00  0.1199E+00
    -40.110  0.4827E-01  0.1308E-01  0.1280E+00  0.1221E+00
    -39.940  0.6454E-01  0.2992E-01  0.1390E+00  0.1272E+00
    -39.770  0.7014E-02  0.1704E-01  0.1402E+00  0.1301E+00
    -39.600 -0.1160E-02 -0.1210E-02  0.1400E+00  0.1299E+00
    -39.430 -0.3239E-04  0.7164E-02  0.1400E+00  0.1311E+00
    -39.260 -0.5306E-07  0.4203E-01  0.1400E+00  0.1382E+00
    -39.090 -0.5991E-11  0.1172E-01  0.1400E+00  0.1402E+00
    -38.920 -0.4790E-16 -0.1181E-02  0.1400E+00  0.1400E+00
    -38.750  0.0000E+00 -0.5052E-04  0.1400E+00  0.1400E+00
    -38.580  0.0000E+00 -0.1057E-06  0.1400E+00  0.1400E+00
    -38.410  0.0000E+00 -0.1502E-10  0.1400E+00  0.1400E+00
    -38.240  0.0000E+00 -0.1524E-15  0.1400E+00  0.1400E+00
    -38.070  0.0000E+00  0.0000E+00  0.1400E+00  0.1400E+00
    -37.900  0.0000E+00  0.0000E+00  0.1400E+00  0.1400E+00
    -37.730  0.0000E+00  0.0000E+00  0.1400E+00  0.1400E+00
    -37.560  0.0000E+00  0.0000E+00  0.1400E+00  0.1400E+00
    -37.390  0.0000E+00  0.0000E+00  0.1400E+00  0.1400E+00
    -37.220  0.0000E+00  0.0000E+00  0.1400E+00  0.1400E+00
    -37.050  0.0000E+00  0.0000E+00  0.1400E+00  0.1400E+00
    -36.880  0.0000E+00  0.0000E+00  0.1400E+00  0.1400E+00
    -36.710  0.0000E+00  0.0000E+00  0.1400E+00  0.1400E+00
    -36.540  0.0000E+00  0.0000E+00  0.1400E+00  0.1400E+00
    -36.370  0.0000E+00  0.0000E+00  0.1400E+00  0.1400E+00
    -36.201  0.0000E+00  0.0000E+00  0.1400E+00  0.1400E+00
    -36.031  0.0000E+00  0.0000E+00  0.1400E+00  0.1400E+00
    -35.861  0.0000E+00  0.0000E+00  0.1400E+00  0.1400E+00
    -35.691  0.0000E+00  0.0000E+00  0.1400E+00  0.1400E+00
    -35.521  0.0000E+00  0.0000E+00  0.1400E+00  0.1400E+00
    -35.351  0.0000E+00  0.0000E+00  0.1400E+00  0.1400E+00
    -35.181  0.0000E+00  0.0000E+00  0.1400E+00  0.1400E+00
    -35.011  0.0000E+00  0.0000E+00  0.1400E+00  0.1400E+00
    -34.841  0.0000E+00  0.0000E+00  0.1400E+00  0.1400E+00
    -34.671  0.0000E+00  0.0000E+00  0.1400E+00  0.1400E+00
    -34.501  0.0000E+00  0.0000E+00  0.1400E+00  0.1400E+00
    -34.331  0.0000E+00  0.0000E+00  0.1400E+00  0.1400E+00
    -34.161  0.0000E+00  0.0000E+00  0.1400E+00  0.1400E+00
    -33.991  0.0000E+00  0.0000E+00  0.1400E+00  0.1400E+00
    -33.821  0.0000E+00  0.0000E+00  0.1400E+00  0.1400E+00
    -33.651  0.0000E+00  0.0000E+00  0.1400E+00  0.1400E+00
    -33.481  0.0000E+00  0.0000E+00  0.1400E+00  0.1400E+00
    -33.311  0.0000E+00  0.0000E+00  0.1400E+00  0.1400E+00
    -33.141  0.0000E+00  0.0000E+00  0.1400E+00  0.1400E+00
    -32.971  0.0000E+00  0.0000E+00  0.1400E+00  0.1400E+00
    -32.801  0.0000E+00  0.0000E+00  0.1400E+00  0.1400E+00
    -32.631  0.0000E+00  0.0000E+00  0.1400E+00  0.1400E+00
    -32.461  0.0000E+00  0.0000E+00  0.1400E+00  0.1400E+00
    -32.291  0.0000E+00  0.0000E+00  0.1400E+00  0.1400E+00
    -32.121  0.0000E+00  0.0000E+00  0.1400E+00  0.1400E+00
    -31.951  0.0000E+00  0.0000E+00  0.1400E+00  0.1400E+00
    -31.781  0.0000E+00  0.0000E+00  0.1400E+00  0.1400E+00
    -31.611  0.0000E+00  0.0000E+00  0.1400E+00  0.1400E+00
    -31.441  0.0000E+00  0.0000E+00  0.1400E+00  0.1400E+00
    -31.271  0.0000E+00  0.0000E+00  0.1400E+00  0.1400E+00
    -31.101  0.0000E+00  0.0000E+00  0.1400E+00  0.1400E+00
    -30.931  0.0000E+00  0.0000E+00  0.1400E+00  0.1400E+00
    -30.761  0.0000E+00  0.0000E+00  0.1400E+00  0.1400E+00
    -30.591  0.0000E+00  0.0000E+00  0.1400E+00  0.1400E+00
    -30.421  0.0000E+00  0.0000E+00  0.1400E+00  0.1400E+00
    -30.251  0.0000E+00  0.0000E+00  0.1400E+00  0.1400E+00
    -30.081  0.0000E+00  0.0000E+00  0.1400E+00  0.1400E+00
    -29.911  0.0000E+00  0.0000E+00  0.1400E+00  0.1400E+00
    -29.741  0.0000E+00  0.0000E+00  0.1400E+00  0.1400E+00
    -29.571  0.0000E+00  0.0000E+00  0.1400E+00  0.1400E+00
    -29.401  0.0000E+00  0.0000E+00  0.1400E+00  0.1400E+00
    -29.231  0.0000E+00  0.0000E+00  0.1400E+00  0.1400E+00
    -29.061  0.0000E+00  0.0000E+00  0.1400E+00  0.1400E+00
    -28.891  0.0000E+00  0.0000E+00  0.1400E+00  0.1400E+00
    -28.721  0.0000E+00  0.0000E+00  0.1400E+00  0.1400E+00
    -28.551  0.0000E+00  0.0000E+00  0.1400E+00  0.1400E+00
    -28.381  0.0000E+00  0.0000E+00  0.1400E+00  0.1400E+00
    -28.212  0.0000E+00  0.0000E+00  0.1400E+00  0.1400E+00
    -28.042  0.0000E+00  0.0000E+00  0.1400E+00  0.1400E+00
    -27.872  0.0000E+00  0.0000E+00  0.1400E+00  0.1400E+00
    -27.702  0.0000E+00  0.0000E+00  0.1400E+00  0.1400E+00
    -27.532  0.0000E+00  0.0000E+00  0.1400E+00  0.1400E+00
    -27.362  0.0000E+00  0.0000E+00  0.1400E+00  0.1400E+00
    -27.192  0.0000E+00  0.0000E+00  0.1400E+00  0.1400E+00
    -27.022  0.0000E+00  0.0000E+00  0.1400E+00  0.1400E+00
    -26.852  0.0000E+00  0.0000E+00  0.1400E+00  0.1400E+00
    -26.682  0.0000E+00  0.0000E+00  0.1400E+00  0.1400E+00
    -26.512  0.0000E+00  0.0000E+00  0.1400E+00  0.1400E+00
    -26.342  0.0000E+00  0.0000E+00  0.1400E+00  0.1400E+00
    -26.172  0.0000E+00  0.0000E+00  0.1400E+00  0.1400E+00
    -26.002  0.0000E+00  0.0000E+00  0.1400E+00  0.1400E+00
    -25.832  0.0000E+00  0.0000E+00  0.1400E+00  0.1400E+00
    -25.662  0.0000E+00  0.0000E+00  0.1400E+00  0.1400E+00
    -25.492  0.0000E+00  0.0000E+00  0.1400E+00  0.1400E+00
    -25.322  0.0000E+00  0.0000E+00  0.1400E+00  0.1400E+00
    -25.152  0.0000E+00  0.0000E+00  0.1400E+00  0.1400E+00
    -24.982  0.0000E+00  0.0000E+00  0.1400E+00  0.1400E+00
    -24.812  0.0000E+00  0.0000E+00  0.1400E+00  0.1400E+00
    -24.642  0.0000E+00  0.0000E+00  0.1400E+00  0.1400E+00
    -24.472  0.0000E+00  0.0000E+00  0.1400E+00  0.1400E+00
    -24.302  0.0000E+00  0.0000E+00  0.1400E+00  0.1400E+00
    -24.132  0.0000E+00  0.0000E+00  0.1400E+00  0.1400E+00
    -23.962  0.0000E+00  0.0000E+00  0.1400E+00  0.1400E+00
    -23.792  0.0000E+00  0.0000E+00  0.1400E+00  0.1400E+00
    -23.622  0.0000E+00  0.0000E+00  0.1400E+00  0.1400E+00
    -23.452  0.0000E+00  0.0000E+00  0.1400E+00  0.1400E+00
    -23.282  0.0000E+00  0.0000E+00  0.1400E+00  0.1400E+00
    -23.112  0.0000E+00  0.0000E+00  0.1400E+00  0.1400E+00
    -22.942  0.0000E+00  0.0000E+00  0.1400E+00  0.1400E+00
    -22.772  0.0000E+00  0.0000E+00  0.1400E+00  0.1400E+00
    -22.602  0.0000E+00  0.0000E+00  0.1400E+00  0.1400E+00
    -22.432  0.0000E+00  0.0000E+00  0.1400E+00  0.1400E+00
    -22.262  0.0000E+00  0.0000E+00  0.1400E+00  0.1400E+00
    -22.092  0.0000E+00  0.0000E+00  0.1400E+00  0.1400E+00
    -21.922  0.0000E+00  0.0000E+00  0.1400E+00  0.1400E+00
    -21.752  0.0000E+00  0.0000E+00  0.1400E+00  0.1400E+00
    -21.582  0.0000E+00  0.0000E+00  0.1400E+00  0.1400E+00
    -21.412  0.0000E+00  0.0000E+00  0.1400E+00  0.1400E+00
    -21.242  0.0000E+00  0.0000E+00  0.1400E+00  0.1400E+00
    -21.072  0.0000E+00  0.0000E+00  0.1400E+00  0.1400E+00
    -20.902  0.0000E+00  0.0000E+00  0.1400E+00  0.1400E+00
    -20.732  0.0000E+00  0.0000E+00  0.1400E+00  0.1400E+00
    -20.562  0.0000E+00  0.0000E+00  0.1400E+00  0.1400E+00
    -20.392  0.0000E+00  0.0000E+00  0.1400E+00  0.1400E+00
    -20.223  0.0000E+00  0.0000E+00  0.1400E+00  0.1400E+00
    -20.053  0.0000E+00  0.0000E+00  0.1400E+00  0.1400E+00
    -19.883  0.0000E+00  0.0000E+00  0.1400E+00  0.1400E+00
    -19.713  0.0000E+00  0.0000E+00  0.1400E+00  0.1400E+00
    -19.543  0.0000E+00  0.0000E+00  0.1400E+00  0.1400E+00
    -19.373  0.0000E+00  0.0000E+00  0.1400E+00  0.1400E+00
    -19.203  0.0000E+00  0.0000E+00  0.1400E+00  0.1400E+00
    -19.033  0.0000E+00  0.0000E+00  0.1400E+00  0.1400E+00
    -18.863  0.0000E+00  0.0000E+00  0.1400E+00  0.1400E+00
    -18.693  0.0000E+00  0.0000E+00  0.1400E+00  0.1400E+00
    -18.523  0.0000E+00  0.0000E+00  0.1400E+00  0.1400E+00
    -18.353  0.0000E+00  0.0000E+00  0.1400E+00  0.1400E+00
    -18.183  0.0000E+00  0.0000E+00  0.1400E+00  0.1400E+00
    -18.013  0.0000E+00  0.0000E+00  0.1400E+00  0.1400E+00
    -17.843  0.0000E+00  0.0000E+00  0.1400E+00  0.1400E+00
    -17.673  0.0000E+00  0.0000E+00  0.1400E+00  0.1400E+00
    -17.503  0.0000E+00  0.0000E+00  0.1400E+00  0.1400E+00
    -17.333  0.0000E+00  0.0000E+00  0.1400E+00  0.1400E+00
    -17.163  0.0000E+00  0.0000E+00  0.1400E+00  0.1400E+00
    -16.993  0.0000E+00  0.0000E+00  0.1400E+00  0.1400E+00
    -16.823  0.0000E+00  0.0000E+00  0.1400E+00  0.1400E+00
    -16.653  0.0000E+00  0.0000E+00  0.1400E+00  0.1400E+00
    -16.483  0.0000E+00  0.0000E+00  0.1400E+00  0.1400E+00
    -16.313  0.0000E+00  0.0000E+00  0.1400E+00  0.1400E+00
    -16.143  0.0000E+00  0.0000E+00  0.1400E+00  0.1400E+00
    -15.973  0.0000E+00  0.0000E+00  0.1400E+00  0.1400E+00
    -15.803  0.0000E+00  0.0000E+00  0.1400E+00  0.1400E+00
    -15.633  0.0000E+00  0.0000E+00  0.1400E+00  0.1400E+00
    -15.463  0.0000E+00  0.0000E+00  0.1400E+00  0.1400E+00
    -15.293  0.0000E+00  0.0000E+00  0.1400E+00  0.1400E+00
    -15.123  0.0000E+00  0.0000E+00  0.1400E+00  0.1400E+00
    -14.953  0.0000E+00  0.0000E+00  0.1400E+00  0.1400E+00
    -14.783  0.0000E+00  0.0000E+00  0.1400E+00  0.1400E+00
    -14.613  0.0000E+00  0.0000E+00  0.1400E+00  0.1400E+00
    -14.443  0.0000E+00  0.0000E+00  0.1400E+00  0.1400E+00
    -14.273  0.0000E+00  0.0000E+00  0.1400E+00  0.1400E+00
    -14.103  0.0000E+00  0.0000E+00  0.1400E+00  0.1400E+00
    -13.933  0.0000E+00  0.0000E+00  0.1400E+00  0.1400E+00
    -13.763  0.0000E+00  0.0000E+00  0.1400E+00  0.1400E+00
    -13.593  0.0000E+00  0.0000E+00  0.1400E+00  0.1400E+00
    -13.423  0.0000E+00  0.0000E+00  0.1400E+00  0.1400E+00
    -13.253  0.0000E+00  0.0000E+00  0.1400E+00  0.1400E+00
    -13.083  0.0000E+00  0.0000E+00  0.1400E+00  0.1400E+00
    -12.913  0.0000E+00  0.0000E+00  0.1400E+00  0.1400E+00
    -12.743  0.0000E+00  0.0000E+00  0.1400E+00  0.1400E+00
    -12.573  0.0000E+00  0.0000E+00  0.1400E+00  0.1400E+00
    -12.403  0.0000E+00  0.0000E+00  0.1400E+00  0.1400E+00
    -12.233  0.0000E+00  0.0000E+00  0.1400E+00  0.1400E+00
    -12.064  0.0000E+00  0.0000E+00  0.1400E+00  0.1400E+00
    -11.894  0.0000E+00  0.0000E+00  0.1400E+00  0.1400E+00
    -11.724  0.0000E+00  0.0000E+00  0.1400E+00  0.1400E+00
    -11.554  0.0000E+00  0.0000E+00  0.1400E+00  0.1400E+00
    -11.384  0.0000E+00  0.0000E+00  0.1400E+00  0.1400E+00
    -11.214  0.0000E+00  0.0000E+00  0.1400E+00  0.1400E+00
    -11.044  0.0000E+00  0.0000E+00  0.1400E+00  0.1400E+00
    -10.874  0.0000E+00  0.0000E+00  0.1400E+00  0.1400E+00
    -10.704  0.0000E+00  0.0000E+00  0.1400E+00  0.1400E+00
    -10.534  0.0000E+00  0.0000E+00  0.1400E+00  0.1400E+00
    -10.364  0.0000E+00  0.0000E+00  0.1400E+00  0.1400E+00
    -10.194  0.0000E+00  0.0000E+00  0.1400E+00  0.1400E+00
    -10.024  0.0000E+00  0.0000E+00  0.1400E+00  0.1400E+00
     -9.854  0.0000E+00  0.0000E+00  0.1400E+00  0.1400E+00
     -9.684  0.0000E+00  0.0000E+00  0.1400E+00  0.1400E+00
     -9.514  0.0000E+00  0.0000E+00  0.1400E+00  0.1400E+00
     -9.344  0.0000E+00  0.0000E+00  0.1400E+00  0.1400E+00
     -9.174  0.0000E+00  0.0000E+00  0.1400E+00  0.1400E+00
     -9.004  0.0000E+00  0.0000E+00  0.1400E+00  0.1400E+00
     -8.834  0.0000E+00  0.0000E+00  0.1400E+00  0.1400E+00
     -8.664  0.0000E+00  0.0000E+00  0.1400E+00  0.1400E+00
     -8.494 -0.2710E-32 -0.3065E-37  0.1400E+00  0.1400E+00
     -8.324 -0.1198E-24 -0.6076E-29  0.1400E+00  0.1400E+00
     -8.154 -0.3965E-18 -0.9045E-22  0.1400E+00  0.1400E+00
     -7.984 -0.9334E-13 -0.9737E-16  0.1400E+00  0.1400E+00
     -7.814 -0.1619E-08 -0.7803E-11  0.1400E+00  0.1400E+00
     -7.644 -0.1887E-05 -0.4405E-07  0.1400E+00  0.1400E+00
     -7.474 -0.1114E-03 -0.1569E-04  0.1400E+00  0.1400E+00
     -7.304  0.8212E-03 -0.1500E-03  0.1401E+00  0.1400E+00
     -7.134  0.3592E-02  0.2545E-02  0.1407E+00  0.1404E+00
     -6.964  0.4969E-02  0.2944E-02  0.1416E+00  0.1409E+00
     -6.794  0.5842E-02  0.7334E-02  0.1426E+00  0.1422E+00
     -6.624  0.3213E-02  0.3447E-02  0.1431E+00  0.1427E+00
     -6.454  0.4060E-02  0.3214E-02  0.1438E+00  0.1433E+00
     -6.284  0.9385E-02  0.6078E-02  0.1454E+00  0.1443E+00
     -6.114  0.1040E-01  0.8529E-02  0.1472E+00  0.1458E+00
     -5.944  0.1035E-01  0.1109E-01  0.1489E+00  0.1477E+00
     -5.774  0.4543E-02  0.7941E-02  0.1497E+00  0.1490E+00
     -5.604  0.1550E-01  0.5819E-02  0.1523E+00  0.1500E+00
     -5.434  0.1591E-01  0.1584E-01  0.1550E+00  0.1527E+00
     -5.264  0.1065E-01  0.1509E-01  0.1568E+00  0.1552E+00
     -5.094  0.5789E-02  0.9603E-02  0.1578E+00  0.1569E+00
     -4.924  0.1771E-01  0.4647E-02  0.1608E+00  0.1577E+00
     -4.754  0.2614E-01  0.1216E-01  0.1653E+00  0.1597E+00
     -4.584  0.2394E-01  0.2286E-01  0.1694E+00  0.1636E+00
     -4.414  0.1886E-01  0.2477E-01  0.1726E+00  0.1678E+00
     -4.244  0.3001E-01  0.1469E-01  0.1777E+00  0.1703E+00
     -4.075  0.4582E-01  0.1649E-01  0.1854E+00  0.1731E+00
     -3.905  0.6922E-01  0.2728E-01  0.1972E+00  0.1778E+00
     -3.735  0.1060E+00  0.2078E-01  0.2152E+00  0.1813E+00
     -3.565  0.1046E+00  0.3042E-01  0.2330E+00  0.1865E+00
     -3.395  0.1454E+00  0.3381E-01  0.2577E+00  0.1922E+00
     -3.225  0.1658E+00  0.5174E-01  0.2859E+00  0.2010E+00
     -3.055  0.1801E+00  0.5657E-01  0.3165E+00  0.2106E+00
     -2.885  0.1388E+00  0.7089E-01  0.3401E+00  0.2227E+00
     -2.715  0.1649E+00  0.7498E-01  0.3681E+00  0.2354E+00
     -2.545  0.2450E+00  0.7420E-01  0.4098E+00  0.2480E+00
     -2.375  0.2550E+00  0.7696E-01  0.4531E+00  0.2611E+00
     -2.205  0.2190E+00  0.1103E+00  0.4903E+00  0.2799E+00
     -2.035  0.2353E+00  0.1208E+00  0.5303E+00  0.3004E+00
     -1.865  0.2300E+00  0.1160E+00  0.5694E+00  0.3201E+00
     -1.695  0.2184E+00  0.1224E+00  0.6065E+00  0.3409E+00
     -1.525  0.2279E+00  0.1296E+00  0.6453E+00  0.3630E+00
     -1.355  0.2027E+00  0.1492E+00  0.6797E+00  0.3883E+00
     -1.185  0.1629E+00  0.1730E+00  0.7074E+00  0.4177E+00
     -1.015  0.1623E+00  0.1798E+00  0.7350E+00  0.4483E+00
     -0.845  0.1850E+00  0.1920E+00  0.7665E+00  0.4809E+00
     -0.675  0.2191E+00  0.2143E+00  0.8037E+00  0.5173E+00
     -0.505  0.2840E+00  0.2017E+00  0.8520E+00  0.5516E+00
     -0.335  0.3112E+00  0.2106E+00  0.9049E+00  0.5874E+00
     -0.165  0.2783E+00  0.1992E+00  0.9522E+00  0.6213E+00
      0.005  0.2107E+00  0.1690E+00  0.9880E+00  0.6500E+00
      0.175  0.1649E+00  0.1187E+00  0.1016E+01  0.6702E+00
      0.345  0.1517E+00  0.1130E+00  0.1042E+01  0.6894E+00
      0.515  0.1361E+00  0.1121E+00  0.1065E+01  0.7085E+00
      0.685  0.1255E+00  0.1278E+00  0.1086E+01  0.7302E+00
      0.855  0.1026E+00  0.1215E+00  0.1104E+01  0.7508E+00
      1.025  0.1011E+00  0.1345E+00  0.1121E+01  0.7737E+00
      1.195  0.1217E+00  0.1719E+00  0.1142E+01  0.8029E+00
      1.365  0.1215E+00  0.1719E+00  0.1162E+01  0.8321E+00
      1.535  0.1174E+00  0.2039E+00  0.1182E+01  0.8668E+00
      1.705  0.1268E+00  0.2306E+00  0.1204E+01  0.9060E+00
      1.875  0.1114E+00  0.2309E+00  0.1223E+01  0.9453E+00
      2.045  0.2611E-01  0.2954E+00  0.1227E+01  0.9955E+00
      2.215 -0.2437E-02  0.3210E+00  0.1227E+01  0.1050E+01
      2.385 -0.1619E-03  0.3255E+00  0.1227E+01  0.1105E+01
      2.555 -0.7086E-06  0.3100E+00  0.1227E+01  0.1158E+01
      2.725 -0.2851E-09  0.2315E+00  0.1227E+01  0.1197E+01
      2.895 -0.9707E-14  0.1445E+00  0.1227E+01  0.1222E+01
      3.065  0.0000E+00  0.3101E-01  0.1227E+01  0.1227E+01
      3.235  0.0000E+00 -0.3083E-02  0.1227E+01  0.1227E+01
      3.405  0.0000E+00 -0.1987E-03  0.1227E+01  0.1227E+01
      3.575  0.0000E+00 -0.7730E-06  0.1227E+01  0.1227E+01
      3.745  0.0000E+00 -0.2545E-09  0.1227E+01  0.1227E+01
      3.914  0.0000E+00 -0.6852E-14  0.1227E+01  0.1227E+01
      4.084  0.0000E+00  0.0000E+00  0.1227E+01  0.1227E+01
      4.254  0.0000E+00  0.0000E+00  0.1227E+01  0.1227E+01
      4.424  0.0000E+00  0.0000E+00  0.1227E+01  0.1227E+01
      4.594  0.0000E+00  0.0000E+00  0.1227E+01  0.1227E+01
      4.764  0.0000E+00  0.0000E+00  0.1227E+01  0.1227E+01
      4.934  0.0000E+00  0.0000E+00  0.1227E+01  0.1227E+01
      5.104  0.0000E+00  0.0000E+00  0.1227E+01  0.1227E+01
      5.274  0.0000E+00  0.0000E+00  0.1227E+01  0.1227E+01
