srun: ROUTE: split_hostlist: hl=b17r2n[15-16] tree_width 0
 running on    8 total cores
 distrk:  each k-point on    1 cores,    8 groups
 distr:  one band on    1 cores,    1 groups
 HIP runtime initialized ...    8 DCUs will be used
 Created    4 streams on each DCU
 vasp.6.3.2 27Jun22 (build Mar 15 2023 15:45:48) complex                        
  
 POSCAR found type information on POSCAR CrFe
 POSCAR found :  2 types and      63 ions
 Reading from existing POTCAR
 -----------------------------------------------------------------------------
|                                                                             |
|           W    W    AA    RRRRR   N    N  II  N    N   GGGG   !!!           |
|           W    W   A  A   R    R  NN   N  II  NN   N  G    G  !!!           |
|           W    W  A    A  R    R  N N  N  II  N N  N  G       !!!           |
|           W WW W  AAAAAA  RRRRR   N  N N  II  N  N N  G  GGG   !            |
|           WW  WW  A    A  R   R   N   NN  II  N   NN  G    G                |
|           W    W  A    A  R    R  N    N  II  N    N   GGGG   !!!           |
|                                                                             |
|     You use a magnetic or noncollinear calculation, but did not specify     |
|     the initial magnetic moment with the MAGMOM tag. Note that a            |
|     default of 1 will be used for all atoms. This ferromagnetic setup       |
|     may break the symmetry of the crystal, in particular it may rule        |
|     out finding an antiferromagnetic solution. Thence, we recommend         |
|     setting the initial magnetic moment manually or verifying carefully     |
|     that this magnetic setup is desired.                                    |
|                                                                             |
 -----------------------------------------------------------------------------

 scaLAPACK will be used selectively (only on CPU)
 -----------------------------------------------------------------------------
|                                                                             |
|           W    W    AA    RRRRR   N    N  II  N    N   GGGG   !!!           |
|           W    W   A  A   R    R  NN   N  II  NN   N  G    G  !!!           |
|           W    W  A    A  R    R  N N  N  II  N N  N  G       !!!           |
|           W WW W  AAAAAA  RRRRR   N  N N  II  N  N N  G  GGG   !            |
|           WW  WW  A    A  R   R   N   NN  II  N   NN  G    G                |
|           W    W  A    A  R    R  N    N  II  N    N   GGGG   !!!           |
|                                                                             |
|     For optimal performance we recommend to set                             |
|       NCORE = 2 up to number-of-cores-per-socket                            |
|     NCORE specifies how many cores store one orbital (NPAR=cpu/NCORE).      |
|     This setting can greatly improve the performance of VASP for DFT.       |
|     The default, NCORE=1 might be grossly inefficient on modern             |
|     multi-core architectures or massively parallel machines. Do your        |
|     own testing! More info at https://www.vasp.at/wiki/index.php/NCORE      |
|     Unfortunately you need to use the default for GW and RPA                |
|     calculations (for HF NCORE is supported but not extensively tested      |
|     yet).                                                                   |
|                                                                             |
 -----------------------------------------------------------------------------

 Reading from existing POTCAR
 LDA part: xc-table for Pade appr. of Perdew
 POSCAR found type information on POSCAR CrFe
 POSCAR found :  2 types and      63 ions
 Optimize memory usage for KPAR
 POSCAR, INCAR and KPOINTS ok, starting setup
 FFT: planning ... GRIDC
 FFT: planning ... GRID_SOFT
 FFT: planning ... GRID
 WAVECAR not read
 entering main loop
       N       E                     dE             d eps       ncg     rms          rms(c)
DAV:   1     0.543215875244E+04    0.54322E+04   -0.23861E+05 12512   0.143E+03
DAV:   2    -0.957790577803E+02   -0.55279E+04   -0.53323E+04 11776   0.420E+02
DAV:   3    -0.528371777966E+03   -0.43259E+03   -0.38268E+03 12096   0.159E+02
DAV:   4    -0.586545914258E+03   -0.58174E+02   -0.54372E+02 20968   0.441E+01
DAV:   5    -0.589763219949E+03   -0.32173E+01   -0.30482E+01 19448   0.982E+00    0.944E+01
RMM:   6    -0.690483586256E+03   -0.10072E+03   -0.28774E+02 15833   0.304E+01    0.135E+02
RMM:   7    -0.586040143071E+03    0.10444E+03   -0.52917E+01 12710   0.171E+01    0.105E+02
RMM:   8    -0.596661903705E+03   -0.10622E+02   -0.37759E+01 14999   0.102E+01    0.110E+02
RMM:   9    -0.543501109612E+03    0.53161E+02   -0.21944E+01 12797   0.118E+01    0.804E+01
RMM:  10    -0.512453683448E+03    0.31047E+02   -0.30359E+01 13423   0.137E+01    0.527E+01
RMM:  11    -0.501800036720E+03    0.10654E+02   -0.59560E+01 15978   0.181E+01    0.508E+01
RMM:  12    -0.495121289739E+03    0.66787E+01   -0.22888E+01 13059   0.118E+01    0.399E+01
RMM:  13    -0.494873847161E+03    0.24744E+00   -0.14007E+01 15161   0.541E+00    0.347E+01
RMM:  14    -0.495312415420E+03   -0.43857E+00   -0.41605E+00 17950   0.229E+00    0.350E+01
RMM:  15    -0.496360934937E+03   -0.10485E+01   -0.43795E+00 16180   0.334E+00    0.402E+01
RMM:  16    -0.496575548086E+03   -0.21461E+00   -0.20258E+00 18509   0.134E+00    0.403E+01
RMM:  17    -0.497608182412E+03   -0.10326E+01   -0.28981E+00 17248   0.302E+00    0.331E+01
RMM:  18    -0.501275704068E+03   -0.36675E+01   -0.70669E+00 19119   0.388E+00    0.276E+01
RMM:  19    -0.504007115670E+03   -0.27314E+01   -0.64826E+00 19194   0.341E+00    0.220E+01
RMM:  20    -0.505433294554E+03   -0.14262E+01   -0.31884E+00 17836   0.220E+00    0.201E+01
RMM:  21    -0.505632564813E+03   -0.19927E+00   -0.15515E+00 17359   0.148E+00    0.180E+01
RMM:  22    -0.505902075395E+03   -0.26951E+00   -0.10902E+00 17704   0.102E+00    0.179E+01
RMM:  23    -0.506009461137E+03   -0.10739E+00   -0.51553E-01 19415   0.544E-01    0.182E+01
RMM:  24    -0.505831647986E+03    0.17781E+00   -0.24181E-01 14920   0.711E-01    0.184E+01
RMM:  25    -0.505861147623E+03   -0.29500E-01   -0.18733E-01 18393   0.305E-01    0.185E+01
RMM:  26    -0.505929245357E+03   -0.68098E-01   -0.60254E-02 15342   0.225E-01    0.185E+01
RMM:  27    -0.506257746346E+03   -0.32850E+00   -0.68297E-01 20734   0.172E+00    0.178E+01
RMM:  28    -0.508057551984E+03   -0.17998E+01   -0.32141E+00 21330   0.308E+00    0.177E+01
RMM:  29    -0.508638118320E+03   -0.58057E+00   -0.15544E+00 20954   0.130E+00    0.195E+01
RMM:  30    -0.508416509530E+03    0.22161E+00   -0.35156E-01 20488   0.812E-01    0.207E+01
RMM:  31    -0.508046526499E+03    0.36998E+00   -0.42856E-01 20819   0.878E-01    0.218E+01
RMM:  32    -0.507910026742E+03    0.13650E+00   -0.37038E-01 19805   0.489E-01    0.221E+01
RMM:  33    -0.507771351988E+03    0.13867E+00   -0.75569E-02 17359   0.406E-01    0.212E+01
RMM:  34    -0.507505913811E+03    0.26544E+00   -0.11836E-01 18191   0.388E-01    0.206E+01
RMM:  35    -0.507433806538E+03    0.72107E-01   -0.17000E-01 18875   0.395E-01    0.205E+01
RMM:  36    -0.507516531851E+03   -0.82725E-01   -0.60141E-02 16900   0.301E-01    0.200E+01
RMM:  37    -0.507609102660E+03   -0.92571E-01   -0.85094E-02 18841   0.424E-01    0.191E+01
RMM:  38    -0.507618516129E+03   -0.94135E-02   -0.93251E-02 18868   0.335E-01    0.185E+01
RMM:  39    -0.507771568786E+03   -0.15305E+00   -0.87900E-02 19382   0.389E-01    0.179E+01
RMM:  40    -0.507874666038E+03   -0.10310E+00   -0.20364E-01 20478   0.531E-01    0.169E+01
RMM:  41    -0.507873263182E+03    0.14029E-02   -0.92063E-02 18294   0.218E-01    0.168E+01
RMM:  42    -0.507567162632E+03    0.30610E+00   -0.24807E-01 20700   0.774E-01    0.148E+01
RMM:  43    -0.507424347392E+03    0.14282E+00   -0.14950E-01 20019   0.350E-01    0.150E+01
RMM:  44    -0.507498861810E+03   -0.74514E-01   -0.58419E-02 17423   0.272E-01    0.155E+01
RMM:  45    -0.507486327379E+03    0.12534E-01   -0.50241E-02 16930   0.221E-01    0.150E+01
RMM:  46    -0.507542519045E+03   -0.56192E-01   -0.15961E-01 20606   0.579E-01    0.133E+01
RMM:  47    -0.507621835757E+03   -0.79317E-01   -0.13212E-01 20436   0.478E-01    0.141E+01
RMM:  48    -0.507758730019E+03   -0.13689E+00   -0.12296E-01 19842   0.323E-01    0.140E+01
RMM:  49    -0.507740521709E+03    0.18208E-01   -0.40358E-02 18412   0.146E-01    0.141E+01
RMM:  50    -0.508067911292E+03   -0.32739E+00   -0.34495E-01 20903   0.806E-01    0.126E+01
RMM:  51    -0.508250977078E+03   -0.18307E+00   -0.48305E-01 20814   0.733E-01    0.120E+01
RMM:  52    -0.508135553135E+03    0.11542E+00   -0.11497E-01 20647   0.467E-01    0.123E+01
RMM:  53    -0.508156053364E+03   -0.20500E-01   -0.90483E-02 20021   0.410E-01    0.117E+01
RMM:  54    -0.508159291062E+03   -0.32377E-02   -0.45631E-02 18703   0.133E-01    0.117E+01
RMM:  55    -0.508290434503E+03   -0.13114E+00   -0.53197E-02 20063   0.287E-01    0.115E+01
RMM:  56    -0.508265149644E+03    0.25285E-01   -0.44691E-01 21020   0.116E+00    0.140E+01
RMM:  57    -0.508286054696E+03   -0.20905E-01   -0.12836E-01 20209   0.251E-01    0.142E+01
RMM:  58    -0.508760419773E+03   -0.47437E+00   -0.64288E-01 21110   0.123E+00    0.123E+01
RMM:  59    -0.508631339604E+03    0.12908E+00   -0.79692E-01 21147   0.106E+00    0.107E+01
RMM:  60    -0.508586392149E+03    0.44947E-01   -0.26291E-01 20909   0.654E-01    0.968E+00
RMM:  61    -0.508557156486E+03    0.29236E-01   -0.19681E-01 20880   0.569E-01    0.881E+00
RMM:  62    -0.508543090531E+03    0.14066E-01   -0.42648E-01 21040   0.864E-01    0.750E+00
RMM:  63    -0.508489621221E+03    0.53469E-01   -0.44210E-01 20929   0.747E-01    0.696E+00
RMM:  64    -0.508477679382E+03    0.11942E-01   -0.16368E-01 20573   0.384E-01    0.689E+00
RMM:  65    -0.508379250348E+03    0.98429E-01   -0.16308E-01 20892   0.561E-01    0.572E+00
RMM:  66    -0.508304551201E+03    0.74699E-01   -0.22269E-01 20848   0.514E-01    0.494E+00
RMM:  67    -0.508317037684E+03   -0.12486E-01   -0.65261E-02 19909   0.203E-01    0.483E+00
RMM:  68    -0.508320164372E+03   -0.31267E-02   -0.24524E-02 18056   0.150E-01    0.444E+00
RMM:  69    -0.508306481001E+03    0.13683E-01   -0.39567E-02 20238   0.262E-01    0.373E+00
RMM:  70    -0.508293776510E+03    0.12704E-01   -0.43461E-02 20546   0.277E-01    0.296E+00
RMM:  71    -0.508298899518E+03   -0.51230E-02   -0.27838E-02 20266   0.219E-01    0.260E+00
RMM:  72    -0.508300293275E+03   -0.13938E-02   -0.22027E-02 19486   0.160E-01    0.219E+00
RMM:  73    -0.508295484699E+03    0.48086E-02   -0.14711E-02 18573   0.126E-01    0.179E+00
RMM:  74    -0.508296273284E+03   -0.78858E-03   -0.64183E-03 17997   0.650E-02    0.173E+00
RMM:  75    -0.508295217851E+03    0.10554E-02   -0.30428E-03 17517   0.372E-02    0.175E+00
RMM:  76    -0.508302370869E+03   -0.71530E-02   -0.12703E-02 20414   0.163E-01    0.138E+00
RMM:  77    -0.508302587286E+03   -0.21642E-03   -0.55247E-03 18408   0.578E-02    0.138E+00
RMM:  78    -0.508302530841E+03    0.56444E-04   -0.18410E-03 18029   0.334E-02    0.138E+00
RMM:  79    -0.508302566447E+03   -0.35606E-04   -0.12479E-03 15028   0.212E-02    0.138E+00
RMM:  80    -0.508304340525E+03   -0.17741E-02   -0.14628E-03 19457   0.567E-02    0.126E+00
RMM:  81    -0.508306254204E+03   -0.19137E-02   -0.34403E-03 20089   0.757E-02    0.116E+00
RMM:  82    -0.508307219237E+03   -0.96503E-03   -0.18389E-03 19760   0.541E-02    0.111E+00
RMM:  83    -0.508308887305E+03   -0.16681E-02   -0.20341E-03 19947   0.589E-02    0.111E+00
RMM:  84    -0.508310568895E+03   -0.16816E-02   -0.24252E-03 19634   0.502E-02    0.116E+00
RMM:  85    -0.508313095355E+03   -0.25265E-02   -0.33481E-03 20175   0.704E-02    0.124E+00
RMM:  86    -0.508317733134E+03   -0.46378E-02   -0.98460E-03 20643   0.120E-01    0.141E+00
RMM:  87    -0.508318320294E+03   -0.58716E-03   -0.21716E-03 19118   0.430E-02    0.143E+00
RMM:  88    -0.508317226650E+03    0.10936E-02   -0.16366E-03 19477   0.529E-02    0.135E+00
RMM:  89    -0.508316847657E+03    0.37899E-03   -0.48539E-04 16222   0.274E-02    0.137E+00
RMM:  90    -0.508316962287E+03   -0.11463E-03   -0.31669E-04 14018   0.177E-02    0.141E+00
RMM:  91    -0.508316085410E+03    0.87688E-03   -0.12159E-03 19548   0.527E-02    0.135E+00
RMM:  92    -0.508317577459E+03   -0.14920E-02   -0.81391E-04 19607   0.461E-02    0.130E+00
RMM:  93    -0.508317809666E+03   -0.23221E-03   -0.19090E-03 19968   0.613E-02    0.120E+00
RMM:  94    -0.508318695180E+03   -0.88551E-03   -0.50643E-03 20432   0.102E-01    0.115E+00
RMM:  95    -0.508321421901E+03   -0.27267E-02   -0.17452E-02 21061   0.179E-01    0.134E+00
RMM:  96    -0.508326826007E+03   -0.54041E-02   -0.54399E-03 20098   0.916E-02    0.142E+00
RMM:  97    -0.508325170029E+03    0.16560E-02   -0.30918E-03 19957   0.754E-02    0.126E+00
RMM:  98    -0.508325501173E+03   -0.33114E-03   -0.59092E-03 20139   0.895E-02    0.129E+00
RMM:  99    -0.508324532826E+03    0.96835E-03   -0.21839E-03 19412   0.462E-02    0.121E+00
RMM: 100    -0.508323499560E+03    0.10333E-02   -0.11138E-03 19644   0.490E-02    0.112E+00
RMM: 101    -0.508324152338E+03   -0.65278E-03   -0.10875E-03 19622   0.440E-02    0.107E+00
RMM: 102    -0.508323446856E+03    0.70548E-03   -0.82470E-04 18914   0.346E-02    0.103E+00
RMM: 103    -0.508322678237E+03    0.76862E-03   -0.98226E-04 19155   0.324E-02    0.956E-01
RMM: 104    -0.508322481951E+03    0.19629E-03   -0.65509E-04 17659   0.263E-02    0.929E-01
RMM: 105    -0.508321308097E+03    0.11739E-02   -0.11649E-03 19666   0.478E-02    0.820E-01
RMM: 106    -0.508320143735E+03    0.11644E-02   -0.18382E-03 19756   0.473E-02    0.700E-01
RMM: 107    -0.508319918846E+03    0.22489E-03   -0.81142E-04 18307   0.290E-02    0.610E-01
RMM: 108    -0.508318956218E+03    0.96263E-03   -0.13966E-03 19780   0.496E-02    0.488E-01
RMM: 109    -0.508318529947E+03    0.42627E-03   -0.15711E-03 19302   0.381E-02    0.454E-01
RMM: 110    -0.508318479323E+03    0.50624E-04   -0.51688E-04 16535   0.216E-02    0.426E-01
RMM: 111    -0.508318344124E+03    0.13520E-03   -0.33935E-04 15860   0.234E-02    0.396E-01
RMM: 112    -0.508317989568E+03    0.35456E-03   -0.62906E-04 19128   0.324E-02    0.375E-01
RMM: 113    -0.508318002561E+03   -0.12993E-04   -0.30558E-04 14992   0.166E-02    0.362E-01
RMM: 114    -0.508318003895E+03   -0.13332E-05   -0.24441E-04 14974   0.201E-02    0.346E-01
RMM: 115    -0.508318005806E+03   -0.19117E-05   -0.21987E-04 13570   0.155E-02    0.349E-01
RMM: 116    -0.508318023885E+03   -0.18079E-04   -0.19973E-04 15452   0.188E-02    0.355E-01
RMM: 117    -0.508318139953E+03   -0.11607E-03   -0.15807E-04 12447   0.150E-02    0.354E-01
RMM: 118    -0.508318218446E+03   -0.78492E-04   -0.57384E-05  9262   0.112E-02    0.344E-01
RMM: 119    -0.508318278388E+03   -0.59942E-04   -0.49373E-05  9146   0.959E-03    0.342E-01
RMM: 120    -0.508318427458E+03   -0.14907E-03   -0.87283E-05 11247   0.138E-02    0.338E-01
RMM: 121    -0.508318661691E+03   -0.23423E-03   -0.24194E-04 16831   0.210E-02    0.352E-01
RMM: 122    -0.508318782817E+03   -0.12113E-03   -0.99899E-05 11592   0.143E-02    0.344E-01
RMM: 123    -0.508318820699E+03   -0.37882E-04   -0.51257E-05  8967   0.971E-03    0.342E-01
RMM: 124    -0.508318834428E+03   -0.13729E-04   -0.17148E-05  7747   0.779E-03    0.341E-01
RMM: 125    -0.508318845991E+03   -0.11564E-04   -0.11655E-05  7545   0.668E-03    0.341E-01
RMM: 126    -0.508318846132E+03   -0.14003E-06   -0.63797E-06  7315   0.557E-03
   1 F= -.50831885E+03 E0= -.50832525E+03  d E =-.508319E+03  mag=   101.9400
 curvature:   0.00 expect dE= 0.000E+00 dE for cont linesearch  0.000E+00
 trial: gam= 0.00000 g(F)=  0.256E+00 g(S)=  0.000E+00 ort = 0.000E+00 (trialstep = 0.100E+01)
 search vector abs. value=  0.256E+00
 bond charge predicted
       N       E                     dE             d eps       ncg     rms          rms(c)
DAV:   1    -0.507686943854E+03    0.63190E+00   -0.59762E+01 13640   0.198E+01    0.537E+00
RMM:   2    -0.508458094707E+03   -0.77115E+00   -0.56207E+00 13422   0.481E+00    0.666E+00
RMM:   3    -0.508825850422E+03   -0.36776E+00   -0.12032E+00 18500   0.184E+00    0.977E+00
RMM:   4    -0.508444228540E+03    0.38162E+00   -0.14207E-01 14101   0.694E-01    0.285E+00
RMM:   5    -0.508483432294E+03   -0.39204E-01   -0.72205E-02 16870   0.366E-01    0.235E+00
RMM:   6    -0.508502531726E+03   -0.19099E-01   -0.33884E-02 16031   0.261E-01    0.200E+00
RMM:   7    -0.508522303728E+03   -0.19772E-01   -0.20217E-02 15221   0.214E-01    0.158E+00
RMM:   8    -0.508529802011E+03   -0.74983E-02   -0.13320E-02 16140   0.160E-01    0.132E+00
RMM:   9    -0.508534328148E+03   -0.45261E-02   -0.70816E-03 16738   0.970E-02    0.146E+00
RMM:  10    -0.508536278501E+03   -0.19504E-02   -0.32670E-03 18459   0.538E-02    0.149E+00
RMM:  11    -0.508528947971E+03    0.73305E-02   -0.25413E-03 14694   0.796E-02    0.142E+00
RMM:  12    -0.508527565556E+03    0.13824E-02   -0.16612E-03 15887   0.442E-02    0.143E+00
RMM:  13    -0.508526113798E+03    0.14518E-02   -0.81809E-04 16194   0.296E-02    0.136E+00
RMM:  14    -0.508517613900E+03    0.84999E-02   -0.82652E-03 20030   0.120E-01    0.101E+00
RMM:  15    -0.508516600170E+03    0.10137E-02   -0.49672E-03 18660   0.635E-02    0.990E-01
RMM:  16    -0.508517364743E+03   -0.76457E-03   -0.89125E-04 15552   0.378E-02    0.974E-01
RMM:  17    -0.508521249895E+03   -0.38852E-02   -0.26115E-03 19022   0.803E-02    0.102E+00
RMM:  18    -0.508521616985E+03   -0.36709E-03   -0.79342E-04 16138   0.280E-02    0.105E+00
RMM:  19    -0.508519000103E+03    0.26169E-02   -0.14010E-03 19242   0.600E-02    0.954E-01
RMM:  20    -0.508512966813E+03    0.60333E-02   -0.85036E-03 20044   0.122E-01    0.653E-01
RMM:  21    -0.508511907046E+03    0.10598E-02   -0.73609E-03 19809   0.853E-02    0.513E-01
RMM:  22    -0.508512613340E+03   -0.70629E-03   -0.12865E-03 17861   0.380E-02    0.470E-01
RMM:  23    -0.508513335660E+03   -0.72232E-03   -0.99345E-04 18220   0.482E-02    0.368E-01
RMM:  24    -0.508513438276E+03   -0.10262E-03   -0.19029E-03 19033   0.525E-02    0.301E-01
RMM:  25    -0.508513624835E+03   -0.18656E-03   -0.64529E-04 15817   0.223E-02    0.311E-01
RMM:  26    -0.508513532974E+03    0.91861E-04   -0.19692E-04 12020   0.146E-02    0.313E-01
RMM:  27    -0.508513585434E+03   -0.52460E-04   -0.14060E-04 10028   0.102E-02    0.319E-01
RMM:  28    -0.508513288893E+03    0.29654E-03   -0.50345E-04 17992   0.295E-02    0.292E-01
RMM:  29    -0.508513317920E+03   -0.29027E-04   -0.11690E-03 18891   0.387E-02    0.241E-01
RMM:  30    -0.508513362449E+03   -0.44529E-04   -0.48833E-04 17022   0.290E-02    0.181E-01
RMM:  31    -0.508513335099E+03    0.27349E-04   -0.30680E-04 16620   0.235E-02    0.150E-01
RMM:  32    -0.508513384572E+03   -0.49473E-04   -0.62680E-04 18596   0.334E-02    0.107E-01
RMM:  33    -0.508513463222E+03   -0.78650E-04   -0.18916E-04 14625   0.231E-02    0.818E-02
RMM:  34    -0.508513492966E+03   -0.29744E-04   -0.12015E-04 11830   0.143E-02    0.764E-02
RMM:  35    -0.508513513230E+03   -0.20264E-04   -0.63817E-05 10187   0.123E-02    0.649E-02
RMM:  36    -0.508513509152E+03    0.40775E-05   -0.83267E-05 11858   0.150E-02
   2 F= -.50851351E+03 E0= -.50852043E+03  d E =-.194663E+00  mag=   101.9484
 trial-energy change:   -0.194663  1 .order   -0.189880   -0.256440   -0.123319
 step:   1.6801(harm=  1.9264)  dis= 0.05273  next Energy=  -508.556946 (dE=-0.238E+00)
 bond charge predicted
       N       E                     dE             d eps       ncg     rms          rms(c)
DAV:   1    -0.508179154683E+03    0.33436E+00   -0.27485E+01 13224   0.136E+01    0.342E+00
RMM:   2    -0.508605222711E+03   -0.42607E+00   -0.26801E+00 13274   0.326E+00    0.559E+00
RMM:   3    -0.508578142088E+03    0.27081E-01   -0.54310E-01 17553   0.121E+00    0.418E+00
RMM:   4    -0.508538475595E+03    0.39666E-01   -0.55398E-02 14774   0.459E-01    0.197E+00
RMM:   5    -0.508549169445E+03   -0.10694E-01   -0.24934E-02 16471   0.246E-01    0.175E+00
RMM:   6    -0.508562165900E+03   -0.12996E-01   -0.11001E-02 15847   0.154E-01    0.136E+00
RMM:   7    -0.508574190608E+03   -0.12025E-01   -0.91208E-03 14328   0.147E-01    0.115E+00
RMM:   8    -0.508578608423E+03   -0.44178E-02   -0.63163E-03 15817   0.108E-01    0.116E+00
RMM:   9    -0.508580346478E+03   -0.17381E-02   -0.24936E-03 17166   0.536E-02    0.122E+00
RMM:  10    -0.508581093000E+03   -0.74652E-03   -0.10933E-03 18666   0.298E-02    0.124E+00
RMM:  11    -0.508575081671E+03    0.60113E-02   -0.24658E-03 16761   0.761E-02    0.120E+00
RMM:  12    -0.508576354497E+03   -0.12728E-02   -0.31187E-04 13824   0.278E-02    0.118E+00
RMM:  13    -0.508584154994E+03   -0.78005E-02   -0.45933E-03 19215   0.997E-02    0.124E+00
RMM:  14    -0.508581607073E+03    0.25479E-02   -0.46167E-04 13730   0.397E-02    0.123E+00
RMM:  15    -0.508566473994E+03    0.15133E-01   -0.18875E-02 19924   0.193E-01    0.109E+00
RMM:  16    -0.508563203240E+03    0.32708E-02   -0.12112E-02 19693   0.106E-01    0.889E-01
RMM:  17    -0.508561903301E+03    0.12999E-02   -0.44130E-03 19469   0.637E-02    0.711E-01
RMM:  18    -0.508557618726E+03    0.42846E-02   -0.11068E-02 19943   0.132E-01    0.549E-01
RMM:  19    -0.508556078024E+03    0.15407E-02   -0.13791E-02 19827   0.121E-01    0.491E-01
RMM:  20    -0.508557054519E+03   -0.97650E-03   -0.25991E-03 18272   0.450E-02    0.483E-01
RMM:  21    -0.508557824004E+03   -0.76948E-03   -0.56596E-04 14525   0.262E-02    0.478E-01
RMM:  22    -0.508559263745E+03   -0.14397E-02   -0.15984E-03 18911   0.565E-02    0.520E-01
RMM:  23    -0.508559237604E+03    0.26140E-04   -0.27898E-04 14642   0.196E-02    0.525E-01
RMM:  24    -0.508561225374E+03   -0.19878E-02   -0.39606E-03 19581   0.851E-02    0.520E-01
RMM:  25    -0.508561381869E+03   -0.15649E-03   -0.93122E-04 17132   0.287E-02    0.532E-01
RMM:  26    -0.508562019312E+03   -0.63744E-03   -0.11395E-03 18391   0.441E-02    0.519E-01
RMM:  27    -0.508558637141E+03    0.33822E-02   -0.30191E-03 19608   0.879E-02    0.398E-01
RMM:  28    -0.508557717531E+03    0.91961E-03   -0.35523E-03 19480   0.652E-02    0.327E-01
RMM:  29    -0.508558527582E+03   -0.81005E-03   -0.77164E-04 18594   0.429E-02    0.295E-01
RMM:  30    -0.508558233082E+03    0.29450E-03   -0.82765E-04 18536   0.340E-02    0.267E-01
RMM:  31    -0.508558483731E+03   -0.25065E-03   -0.15810E-04 13400   0.170E-02    0.263E-01
RMM:  32    -0.508558423893E+03    0.59838E-04   -0.11672E-04 11937   0.140E-02    0.262E-01
RMM:  33    -0.508558493266E+03   -0.69372E-04   -0.35864E-05  9208   0.962E-03    0.259E-01
RMM:  34    -0.508558218921E+03    0.27434E-03   -0.98064E-05 11508   0.150E-02    0.248E-01
RMM:  35    -0.508557442233E+03    0.77669E-03   -0.12273E-03 18923   0.444E-02    0.205E-01
RMM:  36    -0.508557327908E+03    0.11433E-03   -0.70569E-04 17109   0.254E-02    0.175E-01
RMM:  37    -0.508557241328E+03    0.86580E-04   -0.28164E-04 15319   0.206E-02    0.154E-01
RMM:  38    -0.508557175995E+03    0.65333E-04   -0.24766E-04 14735   0.180E-02    0.134E-01
RMM:  39    -0.508557196947E+03   -0.20952E-04   -0.69745E-05  9953   0.991E-03    0.126E-01
RMM:  40    -0.508557149810E+03    0.47137E-04   -0.57485E-05  9918   0.104E-02    0.118E-01
RMM:  41    -0.508557048527E+03    0.10128E-03   -0.12044E-04 12167   0.137E-02    0.112E-01
RMM:  42    -0.508557046710E+03    0.18166E-05   -0.35051E-05  8942   0.870E-03
   3 F= -.50855705E+03 E0= -.50856488E+03  d E =-.238201E+00  mag=   102.1748
 curvature:  -0.90 expect dE=-0.144E-01 dE for cont linesearch -0.410E-06
 trial: gam= 0.06154 g(F)=  0.161E-01 g(S)=  0.000E+00 ort = 0.343E-03 (trialstep = 0.114E+01)
 search vector abs. value=  0.171E-01
 bond charge predicted
       N       E                     dE             d eps       ncg     rms          rms(c)
DAV:   1    -0.508505819271E+03    0.51229E-01   -0.53804E+00 12792   0.592E+00    0.148E+00
RMM:   2    -0.508569872300E+03   -0.64053E-01   -0.45116E-01 12655   0.145E+00    0.213E+00
RMM:   3    -0.508614650856E+03   -0.44779E-01   -0.10973E-01 18290   0.550E-01    0.318E+00
RMM:   4    -0.508565782862E+03    0.48868E-01   -0.11254E-02 12338   0.255E-01    0.100E+00
RMM:   5    -0.508569298049E+03   -0.35152E-02   -0.42245E-03 14720   0.124E-01    0.797E-01
RMM:   6    -0.508570886122E+03   -0.15881E-02   -0.17345E-03 13420   0.805E-02    0.540E-01
RMM:   7    -0.508573062350E+03   -0.21762E-02   -0.19427E-03 12528   0.834E-02    0.300E-01
RMM:   8    -0.508572998030E+03    0.64320E-04   -0.77223E-04 15726   0.472E-02    0.209E-01
RMM:   9    -0.508572963720E+03    0.34310E-04   -0.20210E-04 14722   0.191E-02    0.191E-01
RMM:  10    -0.508572926100E+03    0.37621E-04   -0.13190E-04 12738   0.174E-02    0.167E-01
RMM:  11    -0.508572927253E+03   -0.11530E-05   -0.18305E-04 13609   0.220E-02    0.171E-01
RMM:  12    -0.508572948147E+03   -0.20895E-04   -0.13172E-04 12695   0.168E-02    0.176E-01
RMM:  13    -0.508572940643E+03    0.75048E-05   -0.28339E-05  8570   0.836E-03
   4 F= -.50857294E+03 E0= -.50858087E+03  d E =-.158939E-01  mag=   102.1275
 trial-energy change:   -0.015894  1 .order   -0.015960   -0.018340   -0.013579
 step:   4.3768(harm=  4.3768)  dis= 0.04131  next Energy=  -508.592376 (dE=-0.353E-01)
 bond charge predicted
       N       E                     dE             d eps       ncg     rms          rms(c)
DAV:   1    -0.508046520591E+03    0.52643E+00   -0.43940E+01 12840   0.169E+01    0.450E+00
RMM:   2    -0.508698051534E+03   -0.65153E+00   -0.37544E+00 13389   0.441E+00    0.812E+00
RMM:   3    -0.508925309464E+03   -0.22726E+00   -0.93212E-01 18644   0.168E+00    0.886E+00
RMM:   4    -0.508529001716E+03    0.39631E+00   -0.90433E-02 12619   0.686E-01    0.283E+00
RMM:   5    -0.508560648936E+03   -0.31647E-01   -0.41664E-02 15160   0.355E-01    0.253E+00
RMM:   6    -0.508567800322E+03   -0.71514E-02   -0.17363E-02 14784   0.228E-01    0.158E+00
RMM:   7    -0.508588391711E+03   -0.20591E-01   -0.15978E-02 13982   0.218E-01    0.106E+00
RMM:   8    -0.508588970356E+03   -0.57864E-03   -0.76408E-03 15910   0.140E-01    0.721E-01
RMM:   9    -0.508589236108E+03   -0.26575E-03   -0.29170E-03 16697   0.749E-02    0.733E-01
RMM:  10    -0.508589139955E+03    0.96153E-04   -0.15790E-03 17156   0.484E-02    0.675E-01
RMM:  11    -0.508589251785E+03   -0.11183E-03   -0.87188E-04 17846   0.301E-02    0.681E-01
RMM:  12    -0.508589234807E+03    0.16978E-04   -0.31727E-04 16338   0.167E-02    0.688E-01
RMM:  13    -0.508589255375E+03   -0.20568E-04   -0.19639E-04 13838   0.178E-02    0.697E-01
RMM:  14    -0.508588747135E+03    0.50824E-03   -0.49605E-04 17440   0.392E-02    0.723E-01
RMM:  15    -0.508587726296E+03    0.10208E-02   -0.89892E-04 19477   0.509E-02    0.853E-01
RMM:  16    -0.508587238975E+03    0.48732E-03   -0.54346E-04 17251   0.301E-02    0.893E-01
RMM:  17    -0.508586849675E+03    0.38930E-03   -0.56752E-04 17546   0.314E-02    0.850E-01
RMM:  18    -0.508586753026E+03    0.96648E-04   -0.78182E-04 18148   0.358E-02    0.774E-01
RMM:  19    -0.508586815858E+03   -0.62832E-04   -0.31606E-04 14305   0.171E-02    0.744E-01
RMM:  20    -0.508586798591E+03    0.17267E-04   -0.76699E-05  9841   0.110E-02    0.768E-01
RMM:  21    -0.508586824654E+03   -0.26063E-04   -0.46649E-05  8979   0.781E-03    0.761E-01
RMM:  22    -0.508586708714E+03    0.11594E-03   -0.63938E-05 10393   0.134E-02    0.813E-01
RMM:  23    -0.508586642787E+03    0.65926E-04   -0.55139E-05  9746   0.975E-03    0.830E-01
RMM:  24    -0.508586583880E+03    0.58907E-04   -0.87613E-05 11607   0.159E-02    0.747E-01
RMM:  25    -0.508586519777E+03    0.64103E-04   -0.35145E-04 17015   0.310E-02    0.600E-01
RMM:  26    -0.508586609077E+03   -0.89300E-04   -0.24664E-04 15251   0.205E-02    0.543E-01
RMM:  27    -0.508586907143E+03   -0.29807E-03   -0.38710E-04 17256   0.300E-02    0.425E-01
RMM:  28    -0.508587177285E+03   -0.27014E-03   -0.38339E-04 15900   0.226E-02    0.378E-01
RMM:  29    -0.508587095209E+03    0.82076E-04   -0.49076E-05  9668   0.105E-02    0.369E-01
RMM:  30    -0.508587365032E+03   -0.26982E-03   -0.27307E-04 14668   0.229E-02    0.339E-01
RMM:  31    -0.508587690205E+03   -0.32517E-03   -0.50970E-04 16574   0.244E-02    0.342E-01
RMM:  32    -0.508587198624E+03    0.49158E-03   -0.30834E-04 14418   0.281E-02    0.319E-01
RMM:  33    -0.508587619169E+03   -0.42054E-03   -0.17057E-04 13157   0.229E-02    0.305E-01
RMM:  34    -0.508588326241E+03   -0.70707E-03   -0.13354E-03 18457   0.449E-02    0.286E-01
RMM:  35    -0.508587887481E+03    0.43876E-03   -0.22223E-04 13165   0.280E-02    0.293E-01
RMM:  36    -0.508588882770E+03   -0.99529E-03   -0.16562E-03 18817   0.555E-02    0.282E-01
RMM:  37    -0.508589694099E+03   -0.81133E-03   -0.23687E-03 18860   0.460E-02    0.300E-01
RMM:  38    -0.508588709690E+03    0.98441E-03   -0.10233E-03 17158   0.504E-02    0.299E-01
RMM:  39    -0.508588654198E+03    0.55492E-04   -0.17243E-04 12434   0.136E-02    0.294E-01
RMM:  40    -0.508589611821E+03   -0.95762E-03   -0.10982E-03 18049   0.462E-02    0.293E-01
RMM:  41    -0.508591200830E+03   -0.15890E-02   -0.54879E-03 19479   0.855E-02    0.294E-01
RMM:  42    -0.508589463289E+03    0.17375E-02   -0.26280E-03 19252   0.860E-02    0.321E-01
RMM:  43    -0.508587868368E+03    0.15949E-02   -0.52849E-03 19375   0.793E-02    0.311E-01
RMM:  44    -0.508582551527E+03    0.53168E-02   -0.52305E-02 19882   0.274E-01    0.284E-01
RMM:  45    -0.508585242320E+03   -0.26908E-02   -0.10817E-02 19299   0.905E-02    0.246E-01
RMM:  46    -0.508585518903E+03   -0.27658E-03   -0.29351E-03 18543   0.566E-02    0.231E-01
RMM:  47    -0.508585657478E+03   -0.13857E-03   -0.27550E-02 19736   0.236E-01    0.150E-01
RMM:  48    -0.508588429236E+03   -0.27718E-02   -0.18787E-02 19518   0.121E-01    0.194E-01
RMM:  49    -0.508590905201E+03   -0.24760E-02   -0.21964E-02 19744   0.170E-01    0.203E-01
RMM:  50    -0.508593476644E+03   -0.25714E-02   -0.56948E-02 20016   0.250E-01    0.244E-01
RMM:  51    -0.508595842801E+03   -0.23662E-02   -0.13498E-02 19386   0.887E-02    0.280E-01
RMM:  52    -0.508596232015E+03   -0.38921E-03   -0.15785E-03 17123   0.365E-02    0.290E-01
RMM:  53    -0.508596319551E+03   -0.87537E-04   -0.79765E-04 14232   0.181E-02    0.302E-01
RMM:  54    -0.508596120371E+03    0.19918E-03   -0.59419E-04 16151   0.341E-02    0.319E-01
RMM:  55    -0.508595944011E+03    0.17636E-03   -0.36119E-04 14910   0.204E-02    0.335E-01
RMM:  56    -0.508595600740E+03    0.34327E-03   -0.72698E-04 17912   0.323E-02    0.348E-01
RMM:  57    -0.508595685646E+03   -0.84906E-04   -0.10116E-04 11361   0.136E-02    0.325E-01
RMM:  58    -0.508595298752E+03    0.38689E-03   -0.69115E-04 17283   0.322E-02    0.342E-01
RMM:  59    -0.508595293761E+03    0.49907E-05   -0.20484E-04 12815   0.125E-02    0.331E-01
RMM:  60    -0.508595683771E+03   -0.39001E-03   -0.35645E-04 14741   0.271E-02    0.300E-01
RMM:  61    -0.508595882512E+03   -0.19874E-03   -0.31471E-04 14790   0.191E-02    0.294E-01
RMM:  62    -0.508595969933E+03   -0.87421E-04   -0.80113E-05 10216   0.980E-03    0.289E-01
RMM:  63    -0.508596300761E+03   -0.33083E-03   -0.13044E-03 18728   0.455E-02    0.269E-01
RMM:  64    -0.508596373253E+03   -0.72491E-04   -0.31249E-04 14125   0.153E-02    0.277E-01
RMM:  65    -0.508596402343E+03   -0.29090E-04   -0.86774E-05 10365   0.103E-02    0.280E-01
RMM:  66    -0.508596426545E+03   -0.24202E-04   -0.11296E-04 10987   0.100E-02    0.280E-01
RMM:  67    -0.508596562342E+03   -0.13580E-03   -0.36746E-03 19370   0.785E-02    0.260E-01
RMM:  68    -0.508596715505E+03   -0.15316E-03   -0.17202E-03 18108   0.316E-02    0.266E-01
RMM:  69    -0.508596535001E+03    0.18050E-03   -0.23403E-03 18869   0.633E-02    0.298E-01
RMM:  70    -0.508595731408E+03    0.80359E-03   -0.54395E-03 19419   0.826E-02    0.339E-01
RMM:  71    -0.508594271154E+03    0.14603E-02   -0.10590E-02 19477   0.100E-01    0.373E-01
RMM:  72    -0.508591907821E+03    0.23633E-02   -0.13615E-02 19552   0.120E-01    0.406E-01
RMM:  73    -0.508591674934E+03    0.23289E-03   -0.46819E-03 19035   0.519E-02    0.374E-01
RMM:  74    -0.508592362628E+03   -0.68769E-03   -0.47777E-04 15575   0.284E-02    0.344E-01
RMM:  75    -0.508592757093E+03   -0.39447E-03   -0.34451E-04 15003   0.239E-02    0.334E-01
RMM:  76    -0.508591884423E+03    0.87267E-03   -0.85804E-04 16945   0.435E-02    0.362E-01
RMM:  77    -0.508589498508E+03    0.23859E-02   -0.91965E-03 19482   0.109E-01    0.379E-01
RMM:  78    -0.508588107851E+03    0.13907E-02   -0.10335E-02 19437   0.892E-02    0.346E-01
RMM:  79    -0.508586438237E+03    0.16696E-02   -0.90109E-03 19507   0.985E-02    0.327E-01
RMM:  80    -0.508584114094E+03    0.23241E-02   -0.35446E-02 19781   0.196E-01    0.293E-01
RMM:  81    -0.508585098223E+03   -0.98413E-03   -0.84812E-03 19296   0.742E-02    0.263E-01
RMM:  82    -0.508585072433E+03    0.25789E-04   -0.11092E-03 16838   0.326E-02    0.270E-01
RMM:  83    -0.508585318684E+03   -0.24625E-03   -0.18631E-03 17733   0.397E-02    0.260E-01
RMM:  84    -0.508585528238E+03   -0.20955E-03   -0.11356E-03 17187   0.302E-02    0.248E-01
RMM:  85    -0.508585981849E+03   -0.45361E-03   -0.42985E-03 19372   0.741E-02    0.312E-01
RMM:  86    -0.508585364126E+03    0.61772E-03   -0.68295E-04 15853   0.428E-02    0.294E-01
RMM:  87    -0.508582847982E+03    0.25161E-02   -0.16768E-01 20134   0.529E-01    0.146E-01
RMM:  88    -0.508590518282E+03   -0.76703E-02   -0.31493E-02 19441   0.153E-01    0.113E-01
RMM:  89    -0.508590877960E+03   -0.35968E-03   -0.49895E-03 19001   0.745E-02    0.170E-01
RMM:  90    -0.508591025364E+03   -0.14740E-03   -0.18403E-03 16444   0.318E-02    0.191E-01
RMM:  91    -0.508590829278E+03    0.19609E-03   -0.36801E-04 12574   0.185E-02    0.210E-01
RMM:  92    -0.508589788599E+03    0.10407E-02   -0.96160E-04 17974   0.447E-02    0.237E-01
RMM:  93    -0.508588399751E+03    0.13888E-02   -0.39966E-03 19358   0.708E-02    0.236E-01
RMM:  94    -0.508587123177E+03    0.12766E-02   -0.54102E-03 19324   0.740E-02    0.211E-01
RMM:  95    -0.508585915154E+03    0.12080E-02   -0.75716E-03 19498   0.890E-02    0.172E-01
RMM:  96    -0.508586360464E+03   -0.44531E-03   -0.93091E-04 17343   0.318E-02    0.154E-01
RMM:  97    -0.508587217270E+03   -0.85681E-03   -0.17271E-03 18862   0.598E-02    0.152E-01
RMM:  98    -0.508586764927E+03    0.45234E-03   -0.43003E-04 15252   0.394E-02    0.167E-01
RMM:  99    -0.508585798938E+03    0.96599E-03   -0.40585E-03 19350   0.776E-02    0.159E-01
RMM: 100    -0.508585439492E+03    0.35945E-03   -0.75361E-03 19411   0.839E-02    0.122E-01
RMM: 101    -0.508585661145E+03   -0.22165E-03   -0.30130E-03 18924   0.444E-02    0.114E-01
RMM: 102    -0.508585745007E+03   -0.83862E-04   -0.63884E-04 16764   0.274E-02    0.120E-01
RMM: 103    -0.508585708758E+03    0.36248E-04   -0.15130E-04 11533   0.158E-02    0.125E-01
RMM: 104    -0.508585714591E+03   -0.58327E-05   -0.86661E-05  9674   0.831E-03
   5 F= -.50858571E+03 E0= -.50859422E+03  d E =-.286679E-01  mag=   101.8404
 curvature:  -2.32 expect dE=-0.356E-01 dE for cont linesearch -0.165E-02
 ZBRENT: interpolating
 opt :   3.6442  next Energy=  -508.586993 (dE=-0.299E-01)
 bond charge predicted
       N       E                     dE             d eps       ncg     rms          rms(c)
DAV:   1    -0.508559333127E+03    0.26376E-01   -0.22495E+00 13000   0.382E+00    0.934E-01
RMM:   2    -0.508583087777E+03   -0.23755E-01   -0.18361E-01 12580   0.935E-01    0.113E+00
RMM:   3    -0.508603808651E+03   -0.20721E-01   -0.45244E-02 17960   0.350E-01    0.202E+00
RMM:   4    -0.508584412623E+03    0.19396E-01   -0.46861E-03 12204   0.171E-01    0.660E-01
RMM:   5    -0.508585957821E+03   -0.15452E-02   -0.18393E-03 14679   0.829E-02    0.529E-01
RMM:   6    -0.508586597965E+03   -0.64014E-03   -0.75038E-04 13029   0.535E-02    0.351E-01
RMM:   7    -0.508587514751E+03   -0.91679E-03   -0.84350E-04 12584   0.558E-02    0.198E-01
RMM:   8    -0.508587582550E+03   -0.67798E-04   -0.39642E-04 15366   0.323E-02    0.197E-01
RMM:   9    -0.508587601587E+03   -0.19037E-04   -0.11947E-04 12146   0.147E-02    0.193E-01
RMM:  10    -0.508587632618E+03   -0.31031E-04   -0.87328E-05 10699   0.130E-02    0.189E-01
RMM:  11    -0.508587693587E+03   -0.60968E-04   -0.13511E-04 12636   0.160E-02    0.184E-01
RMM:  12    -0.508587783303E+03   -0.89716E-04   -0.13026E-04 12019   0.143E-02    0.196E-01
RMM:  13    -0.508587731194E+03    0.52108E-04   -0.20492E-05  8087   0.884E-03    0.194E-01
RMM:  14    -0.508587724935E+03    0.62588E-05   -0.86191E-06  7251   0.488E-03
   6 F= -.50858772E+03 E0= -.50859603E+03  d E =-.306782E-01  mag=   101.7901
 curvature:  -1.80 expect dE=-0.229E-01 dE for cont linesearch -0.774E-04
 trial: gam= 0.88380 g(F)=  0.127E-01 g(S)=  0.000E+00 ort =-0.859E-03 (trialstep = 0.114E+01)
 search vector abs. value=  0.246E-01
 bond charge predicted
       N       E                     dE             d eps       ncg     rms          rms(c)
DAV:   1    -0.508429204388E+03    0.15853E+00   -0.91683E+00 15336   0.910E+00    0.206E+00
RMM:   2    -0.508633327688E+03   -0.20412E+00   -0.13783E+00 12970   0.190E+00    0.379E+00
RMM:   3    -0.508677466807E+03   -0.44139E-01   -0.27521E-01 14202   0.764E-01    0.416E+00
RMM:   4    -0.508593093397E+03    0.84373E-01   -0.26694E-02 13039   0.375E-01    0.125E+00
RMM:   5    -0.508594128084E+03   -0.10347E-02   -0.91106E-03 17300   0.165E-01    0.813E-01
RMM:   6    -0.508598653694E+03   -0.45256E-02   -0.43393E-03 16620   0.838E-02    0.950E-01
RMM:   7    -0.508600662799E+03   -0.20091E-02   -0.28181E-03 15317   0.776E-02    0.671E-01
RMM:   8    -0.508602087768E+03   -0.14250E-02   -0.21025E-03 15814   0.610E-02    0.615E-01
RMM:   9    -0.508602696031E+03   -0.60826E-03   -0.10616E-03 16599   0.367E-02    0.600E-01
RMM:  10    -0.508602924189E+03   -0.22816E-03   -0.40530E-04 16778   0.188E-02    0.617E-01
RMM:  11    -0.508600686392E+03    0.22378E-02   -0.12738E-03 17482   0.536E-02    0.584E-01
RMM:  12    -0.508600153137E+03    0.53325E-03   -0.95722E-04 16568   0.312E-02    0.588E-01
RMM:  13    -0.508599849695E+03    0.30344E-03   -0.40038E-04 14717   0.179E-02    0.568E-01
RMM:  14    -0.508599523018E+03    0.32668E-03   -0.64445E-04 18099   0.406E-02    0.501E-01
RMM:  15    -0.508599478003E+03    0.45015E-04   -0.14128E-04 13133   0.121E-02    0.498E-01
RMM:  16    -0.508599669468E+03   -0.19146E-03   -0.27992E-05  8543   0.816E-03    0.500E-01
RMM:  17    -0.508600230094E+03   -0.56063E-03   -0.15154E-04 12756   0.158E-02    0.511E-01
RMM:  18    -0.508600654664E+03   -0.42457E-03   -0.17966E-04 13467   0.151E-02    0.522E-01
RMM:  19    -0.508599737542E+03    0.91712E-03   -0.19676E-04 13436   0.225E-02    0.509E-01
RMM:  20    -0.508599416227E+03    0.32132E-03   -0.14408E-04 12043   0.133E-02    0.498E-01
RMM:  21    -0.508597274211E+03    0.21420E-02   -0.19385E-03 19296   0.575E-02    0.429E-01
RMM:  22    -0.508594388306E+03    0.28859E-02   -0.76895E-03 19656   0.101E-01    0.355E-01
RMM:  23    -0.508593402494E+03    0.98581E-03   -0.64326E-03 19513   0.760E-02    0.304E-01
RMM:  24    -0.508592930719E+03    0.47177E-03   -0.29845E-03 19478   0.540E-02    0.265E-01
RMM:  25    -0.508591631158E+03    0.12996E-02   -0.58241E-03 19679   0.912E-02    0.246E-01
RMM:  26    -0.508591476434E+03    0.15472E-03   -0.40087E-03 19344   0.542E-02    0.217E-01
RMM:  27    -0.508591744049E+03   -0.26762E-03   -0.46760E-04 15597   0.194E-02    0.212E-01
RMM:  28    -0.508591581667E+03    0.16238E-03   -0.48288E-04 15763   0.232E-02    0.213E-01
RMM:  29    -0.508592042288E+03   -0.46062E-03   -0.43365E-04 15383   0.345E-02    0.187E-01
RMM:  30    -0.508592592484E+03   -0.55020E-03   -0.22763E-03 19310   0.610E-02    0.192E-01
RMM:  31    -0.508592677684E+03   -0.85200E-04   -0.36573E-04 15480   0.192E-02    0.190E-01
RMM:  32    -0.508592947434E+03   -0.26975E-03   -0.39196E-04 17409   0.297E-02    0.193E-01
RMM:  33    -0.508592503571E+03    0.44386E-03   -0.59388E-04 18199   0.423E-02    0.187E-01
RMM:  34    -0.508592512167E+03   -0.85966E-05   -0.18690E-04 13683   0.134E-02    0.187E-01
RMM:  35    -0.508592384028E+03    0.12814E-03   -0.13035E-04 13174   0.169E-02    0.190E-01
RMM:  36    -0.508592403686E+03   -0.19658E-04   -0.41542E-05  9571   0.101E-02    0.182E-01
RMM:  37    -0.508591944535E+03    0.45915E-03   -0.86397E-04 18364   0.387E-02    0.185E-01
RMM:  38    -0.508591872331E+03    0.72204E-04   -0.68791E-04 17310   0.275E-02    0.190E-01
RMM:  39    -0.508591727818E+03    0.14451E-03   -0.54456E-04 18326   0.295E-02    0.198E-01
RMM:  40    -0.508591377798E+03    0.35002E-03   -0.12493E-03 18730   0.403E-02    0.206E-01
RMM:  41    -0.508591356068E+03    0.21730E-04   -0.55180E-04 15981   0.216E-02    0.184E-01
RMM:  42    -0.508591333926E+03    0.22142E-04   -0.16437E-04 13643   0.168E-02    0.151E-01
RMM:  43    -0.508591265673E+03    0.68253E-04   -0.16283E-04 13067   0.140E-02    0.146E-01
RMM:  44    -0.508590977425E+03    0.28825E-03   -0.68960E-04 17474   0.316E-02    0.151E-01
RMM:  45    -0.508590891728E+03    0.85697E-04   -0.47554E-04 15514   0.204E-02    0.152E-01
RMM:  46    -0.508590906700E+03   -0.14971E-04   -0.70664E-05  9598   0.873E-03    0.148E-01
RMM:  47    -0.508590900278E+03    0.64218E-05   -0.30419E-05  8534   0.677E-03
   7 F= -.50859090E+03 E0= -.50859914E+03  d E =-.317534E-02  mag=   102.3501
 trial-energy change:   -0.003175  1 .order   -0.005023   -0.013650    0.003604
 step:   0.7349(harm=  0.9031)  dis= 0.00566  next Energy=  -508.591626 (dE=-0.390E-02)
 bond charge predicted
       N       E                     dE             d eps       ncg     rms          rms(c)
DAV:   1    -0.508569469563E+03    0.21437E-01   -0.11850E+00 15560   0.325E+00    0.648E-01
RMM:   2    -0.508589480164E+03   -0.20011E-01   -0.17732E-01 12366   0.654E-01    0.736E-01
RMM:   3    -0.508602869898E+03   -0.13390E-01   -0.33733E-02 14536   0.252E-01    0.157E+00
RMM:   4    -0.508590901964E+03    0.11968E-01   -0.28566E-03 12094   0.131E-01    0.374E-01
RMM:   5    -0.508591255960E+03   -0.35400E-03   -0.92601E-04 16122   0.567E-02    0.271E-01
RMM:   6    -0.508591759900E+03   -0.50394E-03   -0.33411E-04 14810   0.284E-02    0.270E-01
RMM:   7    -0.508591931823E+03   -0.17192E-03   -0.28111E-04 12892   0.304E-02    0.152E-01
RMM:   8    -0.508591959225E+03   -0.27403E-04   -0.16913E-04 12920   0.227E-02    0.111E-01
RMM:   9    -0.508591956966E+03    0.22587E-05   -0.62537E-05 10313   0.129E-02
   8 F= -.50859196E+03 E0= -.50860019E+03  d E =-.423203E-02  mag=   102.3926
 curvature:  -0.47 expect dE=-0.494E-02 dE for cont linesearch -0.108E-03
 ZBRENT: interpolating
 opt :   0.6125  next Energy=  -508.592103 (dE=-0.438E-02)
 bond charge predicted
       N       E                     dE             d eps       ncg     rms          rms(c)
DAV:   1    -0.508590122216E+03    0.18370E-02   -0.10821E-01 15856   0.983E-01    0.227E-01
RMM:   2    -0.508595144395E+03   -0.50222E-02   -0.16826E-02 13032   0.203E-01    0.797E-01
RMM:   3    -0.508592297729E+03    0.28467E-02   -0.31770E-03 12055   0.929E-02    0.316E-01
RMM:   4    -0.508592103407E+03    0.19432E-03   -0.32014E-04 13667   0.382E-02    0.179E-01
RMM:   5    -0.508592100574E+03    0.28331E-05   -0.87264E-05 11952   0.157E-02
   9 F= -.50859210E+03 E0= -.50860032E+03  d E =-.437564E-02  mag=   102.3994
 curvature:  -0.63 expect dE=-0.696E-02 dE for cont linesearch -0.372E-04
 trial: gam= 1.01551 g(F)=  0.111E-01 g(S)=  0.000E+00 ort =-0.121E-02 (trialstep = 0.750E+00)
 search vector abs. value=  0.340E-01
 bond charge predicted
       N       E                     dE             d eps       ncg     rms          rms(c)
DAV:   1    -0.508547107727E+03    0.44996E-01   -0.42634E+00 12192   0.498E+00    0.131E+00
RMM:   2    -0.508594698474E+03   -0.47591E-01   -0.33183E-01 12432   0.128E+00    0.185E+00
RMM:   3    -0.508623721240E+03   -0.29023E-01   -0.75895E-02 18566   0.467E-01    0.263E+00
RMM:   4    -0.508591364860E+03    0.32356E-01   -0.81535E-03 12213   0.223E-01    0.931E-01
RMM:   5    -0.508594240736E+03   -0.28759E-02   -0.34339E-03 14811   0.112E-01    0.750E-01
RMM:   6    -0.508596097346E+03   -0.18566E-02   -0.15354E-03 13169   0.755E-02    0.478E-01
RMM:   7    -0.508597185187E+03   -0.10878E-02   -0.13069E-03 12943   0.703E-02    0.245E-01
RMM:   8    -0.508597298669E+03   -0.11348E-03   -0.65551E-04 15345   0.417E-02    0.246E-01
RMM:   9    -0.508597333478E+03   -0.34809E-04   -0.18794E-04 14279   0.186E-02    0.251E-01
RMM:  10    -0.508597358691E+03   -0.25213E-04   -0.10292E-04 11474   0.138E-02    0.255E-01
RMM:  11    -0.508597389670E+03   -0.30979E-04   -0.68970E-05 10268   0.116E-02    0.258E-01
RMM:  12    -0.508597410092E+03   -0.20423E-04   -0.34746E-05  8955   0.966E-03    0.260E-01
RMM:  13    -0.508597321121E+03    0.88971E-04   -0.14790E-05  7697   0.841E-03    0.234E-01
RMM:  14    -0.508597169178E+03    0.15194E-03   -0.13831E-04 13501   0.177E-02    0.186E-01
RMM:  15    -0.508597143163E+03    0.26014E-04   -0.16333E-04 14552   0.193E-02    0.160E-01
RMM:  16    -0.508597178135E+03   -0.34971E-04   -0.61701E-05 10372   0.126E-02    0.148E-01
RMM:  17    -0.508597248574E+03   -0.70439E-04   -0.11563E-04 12770   0.167E-02    0.130E-01
RMM:  18    -0.508597296302E+03   -0.47728E-04   -0.10883E-04 11942   0.143E-02    0.126E-01
RMM:  19    -0.508597304265E+03   -0.79634E-05   -0.24152E-05  8543   0.818E-03
  10 F= -.50859730E+03 E0= -.50860546E+03  d E =-.520369E-02  mag=   102.4932
 trial-energy change:   -0.005204  1 .order   -0.004827   -0.007372   -0.002283
 step:   0.9639(harm=  1.0860)  dis= 0.01075  next Energy=  -508.597639 (dE=-0.554E-02)
 bond charge predicted
       N       E                     dE             d eps       ncg     rms          rms(c)
DAV:   1    -0.508593537448E+03    0.37589E-02   -0.34838E-01 12288   0.143E+00    0.386E-01
RMM:   2    -0.508596567187E+03   -0.30297E-02   -0.26992E-02 12267   0.362E-01    0.340E-01
RMM:   3    -0.508598847493E+03   -0.22803E-02   -0.57495E-03 17125   0.125E-01    0.597E-01
RMM:   4    -0.508598053679E+03    0.79381E-03   -0.85612E-04 12288   0.694E-02    0.485E-01
RMM:   5    -0.508597644490E+03    0.40919E-03   -0.30774E-04 14094   0.376E-02    0.283E-01
RMM:   6    -0.508597708012E+03   -0.63521E-04   -0.16945E-04 13085   0.238E-02    0.157E-01
RMM:   7    -0.508597873087E+03   -0.16507E-03   -0.13382E-04 12609   0.206E-02    0.156E-01
RMM:   8    -0.508597910263E+03   -0.37177E-04   -0.59659E-05 10451   0.126E-02    0.155E-01
RMM:   9    -0.508597937866E+03   -0.27603E-04   -0.32095E-05  8731   0.101E-02    0.164E-01
RMM:  10    -0.508597914045E+03    0.23821E-04   -0.94838E-06  7259   0.758E-03    0.166E-01
RMM:  11    -0.508597925450E+03   -0.11405E-04   -0.59364E-06  7050   0.458E-03    0.165E-01
RMM:  12    -0.508597924421E+03    0.10290E-05   -0.32983E-06  6847   0.433E-03
  11 F= -.50859792E+03 E0= -.50860604E+03  d E =-.582385E-02  mag=   102.5089
 curvature:  -1.63 expect dE=-0.138E-01 dE for cont linesearch -0.112E-03
 trial: gam= 0.02692 g(F)=  0.847E-02 g(S)=  0.000E+00 ort = 0.153E-02 (trialstep = 0.793E+00)
 search vector abs. value=  0.858E-02
 bond charge predicted
       N       E                     dE             d eps       ncg     rms          rms(c)
DAV:   1    -0.508578078688E+03    0.19847E-01   -0.14780E+00 13968   0.339E+00    0.745E-01
RMM:   2    -0.508598275544E+03   -0.20197E-01   -0.19580E-01 12231   0.758E-01    0.553E-01
RMM:   3    -0.508603953755E+03   -0.56782E-02   -0.36098E-02 15214   0.260E-01    0.611E-01
RMM:   4    -0.508608572898E+03   -0.46191E-02   -0.41665E-03 14362   0.128E-01    0.119E+00
RMM:   5    -0.508604328146E+03    0.42448E-02   -0.11616E-03 14595   0.677E-02    0.673E-01
RMM:   6    -0.508604718431E+03   -0.39028E-03   -0.56517E-04 15202   0.343E-02    0.602E-01
RMM:   7    -0.508606119068E+03   -0.14006E-02   -0.86072E-04 14960   0.393E-02    0.623E-01
RMM:   8    -0.508606330622E+03   -0.21155E-03   -0.65429E-04 14938   0.307E-02    0.574E-01
RMM:   9    -0.508606981774E+03   -0.65115E-03   -0.57213E-04 15508   0.289E-02    0.613E-01
RMM:  10    -0.508606616408E+03    0.36537E-03   -0.97002E-05 10755   0.159E-02    0.609E-01
RMM:  11    -0.508607466978E+03   -0.85057E-03   -0.16090E-03 18248   0.541E-02    0.489E-01
RMM:  12    -0.508607487748E+03   -0.20770E-04   -0.40995E-04 14463   0.187E-02    0.500E-01
RMM:  13    -0.508606534696E+03    0.95305E-03   -0.23572E-04 14591   0.232E-02    0.421E-01
RMM:  14    -0.508605730723E+03    0.80397E-03   -0.67047E-04 17295   0.335E-02    0.413E-01
RMM:  15    -0.508604894646E+03    0.83608E-03   -0.16883E-03 19075   0.464E-02    0.462E-01
RMM:  16    -0.508604425240E+03    0.46941E-03   -0.81712E-04 16888   0.258E-02    0.443E-01
RMM:  17    -0.508604405957E+03    0.19283E-04   -0.80268E-05 10541   0.105E-02    0.440E-01
RMM:  18    -0.508604596071E+03   -0.19011E-03   -0.28090E-05  8712   0.900E-03    0.434E-01
RMM:  19    -0.508603844022E+03    0.75205E-03   -0.50222E-04 16868   0.319E-02    0.459E-01
RMM:  20    -0.508603744512E+03    0.99509E-04   -0.23109E-04 13006   0.126E-02    0.452E-01
RMM:  21    -0.508604054617E+03   -0.31010E-03   -0.52800E-05  9792   0.117E-02    0.450E-01
RMM:  22    -0.508604263912E+03   -0.20930E-03   -0.65663E-05 10498   0.108E-02    0.444E-01
RMM:  23    -0.508604404346E+03   -0.14043E-03   -0.62088E-05  9894   0.854E-03    0.442E-01
RMM:  24    -0.508604308170E+03    0.96176E-04   -0.98430E-06  7223   0.681E-03    0.448E-01
RMM:  25    -0.508604850545E+03   -0.54237E-03   -0.33558E-04 15028   0.252E-02    0.418E-01
RMM:  26    -0.508605600564E+03   -0.75002E-03   -0.10382E-03 17763   0.345E-02    0.402E-01
RMM:  27    -0.508606603762E+03   -0.10032E-02   -0.19190E-03 18727   0.463E-02    0.366E-01
RMM:  28    -0.508608571698E+03   -0.19679E-02   -0.98347E-03 19630   0.114E-01    0.265E-01
RMM:  29    -0.508609778864E+03   -0.12072E-02   -0.12124E-02 19719   0.104E-01    0.192E-01
RMM:  30    -0.508610001225E+03   -0.22236E-03   -0.11169E-03 17942   0.333E-02    0.186E-01
RMM:  31    -0.508610355001E+03   -0.35378E-03   -0.38936E-03 19474   0.805E-02    0.797E-02
RMM:  32    -0.508610563070E+03   -0.20807E-03   -0.19343E-03 18445   0.355E-02    0.609E-02
RMM:  33    -0.508610601711E+03   -0.38641E-04   -0.24691E-04 13347   0.186E-02    0.546E-02
RMM:  34    -0.508610626008E+03   -0.24297E-04   -0.97529E-04 17555   0.351E-02    0.428E-02
RMM:  35    -0.508610649266E+03   -0.23258E-04   -0.26046E-04 13486   0.148E-02    0.412E-02
RMM:  36    -0.508610664380E+03   -0.15114E-04   -0.37722E-05  8825   0.958E-03    0.330E-02
RMM:  37    -0.508610657129E+03    0.72510E-05   -0.78263E-05 10556   0.126E-02
  12 F= -.50861066E+03 E0= -.50861880E+03  d E =-.127327E-01  mag=   103.1324
 ZBRENT: can't locate minimum, use default step
 trial-energy change:   -0.012733  1 .order   -0.010523   -0.006746   -0.014300
 step:   3.1703(harm=  3.1703)  dis= 0.04509  next Energy=  -508.685340 (dE=-0.874E-01)
 bond charge predicted
       N       E                     dE             d eps       ncg     rms          rms(c)
DAV:   1    -0.508419045403E+03    0.19162E+00   -0.13780E+01 13720   0.101E+01    0.225E+00
RMM:   2    -0.508621599775E+03   -0.20255E+00   -0.17073E+00 12677   0.234E+00    0.292E+00
RMM:   3    -0.508672616424E+03   -0.51017E-01   -0.32715E-01 16680   0.834E-01    0.312E+00
RMM:   4    -0.508643131227E+03    0.29485E-01   -0.34430E-02 13809   0.381E-01    0.199E+00
RMM:   5    -0.508646235998E+03   -0.31048E-02   -0.14638E-02 16702   0.193E-01    0.180E+00
RMM:   6    -0.508643583343E+03    0.26527E-02   -0.58217E-03 14812   0.114E-01    0.112E+00
RMM:   7    -0.508653293260E+03   -0.97099E-02   -0.67080E-03 15042   0.118E-01    0.110E+00
RMM:   8    -0.508655564308E+03   -0.22710E-02   -0.55960E-03 15346   0.985E-02    0.104E+00
RMM:   9    -0.508655814233E+03   -0.24993E-03   -0.23460E-03 16225   0.591E-02    0.959E-01
RMM:  10    -0.508656766517E+03   -0.95228E-03   -0.16852E-03 16161   0.444E-02    0.912E-01
RMM:  11    -0.508657865826E+03   -0.10993E-02   -0.56522E-03 16422   0.934E-02    0.631E-01
RMM:  12    -0.508658140362E+03   -0.27454E-03   -0.59631E-03 17088   0.808E-02    0.401E-01
RMM:  13    -0.508658263909E+03   -0.12355E-03   -0.13369E-03 16424   0.364E-02    0.336E-01
RMM:  14    -0.508658460771E+03   -0.19686E-03   -0.10028E-03 15513   0.428E-02    0.290E-01
RMM:  15    -0.508658459137E+03    0.16344E-05   -0.67019E-04 15074   0.281E-02    0.236E-01
RMM:  16    -0.508658444607E+03    0.14530E-04   -0.20064E-04 13605   0.170E-02    0.209E-01
RMM:  17    -0.508658573246E+03   -0.12864E-03   -0.18491E-04 13513   0.185E-02    0.200E-01
RMM:  18    -0.508658608950E+03   -0.35704E-04   -0.67700E-05  9819   0.100E-02    0.208E-01
RMM:  19    -0.508658542604E+03    0.66346E-04   -0.31530E-05  8862   0.104E-02    0.188E-01
RMM:  20    -0.508658401227E+03    0.14138E-03   -0.17779E-04 14077   0.202E-02    0.117E-01
RMM:  21    -0.508658418679E+03   -0.17452E-04   -0.24895E-04 15351   0.214E-02    0.703E-02
RMM:  22    -0.508658440349E+03   -0.21670E-04   -0.39330E-05  9186   0.902E-03    0.621E-02
RMM:  23    -0.508658439461E+03    0.88732E-06   -0.38432E-05  8879   0.111E-02
  13 F= -.50865844E+03 E0= -.50866712E+03  d E =-.605150E-01  mag=   103.8409
 curvature:  -2.03 expect dE=-0.119E+00 dE for cont linesearch -0.103E+00
 ZBRENT: increasing intervall
 opt :   7.9258  next Energy=  -508.771260 (dE=-0.173E+00)
 bond charge predicted
       N       E                     dE             d eps       ncg     rms          rms(c)
DAV:   1    -0.507840077020E+03    0.81836E+00   -0.58693E+01 13408   0.198E+01    0.507E+00
RMM:   2    -0.508655578646E+03   -0.81550E+00   -0.65450E+00 12863   0.496E+00    0.634E+00
RMM:   3    -0.508952279827E+03   -0.29670E+00   -0.12782E+00 18026   0.176E+00    0.781E+00
RMM:   4    -0.508693927230E+03    0.25835E+00   -0.16811E-01 13625   0.776E-01    0.388E+00
RMM:   5    -0.508726317464E+03   -0.32390E-01   -0.81229E-02 16355   0.415E-01    0.356E+00
RMM:   6    -0.508702763538E+03    0.23554E-01   -0.32006E-02 14924   0.259E-01    0.197E+00
RMM:   7    -0.508732324293E+03   -0.29561E-01   -0.23042E-02 15774   0.214E-01    0.157E+00
RMM:   8    -0.508742072619E+03   -0.97483E-02   -0.16941E-02 15766   0.178E-01    0.137E+00
RMM:   9    -0.508742650345E+03   -0.57773E-03   -0.82933E-03 16189   0.119E-01    0.114E+00
RMM:  10    -0.508743012060E+03   -0.36172E-03   -0.38098E-03 16777   0.703E-02    0.105E+00
RMM:  11    -0.508741834683E+03    0.11774E-02   -0.35790E-03 15512   0.816E-02    0.703E-01
RMM:  12    -0.508741543108E+03    0.29157E-03   -0.55304E-03 16249   0.101E-01    0.406E-01
RMM:  13    -0.508741728090E+03   -0.18498E-03   -0.26879E-03 16300   0.570E-02    0.340E-01
RMM:  14    -0.508741916082E+03   -0.18799E-03   -0.78294E-04 16389   0.351E-02    0.305E-01
RMM:  15    -0.508742085412E+03   -0.16933E-03   -0.43244E-04 15470   0.274E-02    0.286E-01
RMM:  16    -0.508742210012E+03   -0.12460E-03   -0.21536E-04 13346   0.147E-02    0.299E-01
RMM:  17    -0.508742093473E+03    0.11654E-03   -0.56779E-05  9528   0.107E-02    0.292E-01
RMM:  18    -0.508741998170E+03    0.95303E-04   -0.42146E-05  9130   0.895E-03    0.283E-01
RMM:  19    -0.508741856815E+03    0.14135E-03   -0.80382E-05 11229   0.124E-02    0.258E-01
RMM:  20    -0.508741803198E+03    0.53617E-04   -0.24869E-04 16609   0.260E-02    0.189E-01
RMM:  21    -0.508741759458E+03    0.43740E-04   -0.33828E-04 17204   0.257E-02    0.113E-01
RMM:  22    -0.508741787877E+03   -0.28419E-04   -0.20142E-04 14416   0.173E-02    0.783E-02
RMM:  23    -0.508741814761E+03   -0.26884E-04   -0.46598E-05  9420   0.113E-02    0.647E-02
RMM:  24    -0.508741826121E+03   -0.11359E-04   -0.38084E-05  9032   0.109E-02    0.486E-02
RMM:  25    -0.508741833491E+03   -0.73701E-05   -0.18376E-05  7938   0.806E-03
  14 F= -.50874183E+03 E0= -.50875252E+03  d E =-.143909E+00  mag=   104.5960
 curvature:  -2.22 expect dE=-0.815E-01 dE for cont linesearch -0.374E-01
 ZBRENT: increasing intervall
 opt :  17.4367  next Energy=  -508.771811 (dE=-0.174E+00)
 bond charge predicted
       N       E                     dE             d eps       ncg     rms          rms(c)
DAV:   1    -0.505273982603E+03    0.34678E+01   -0.25809E+02 13352   0.380E+01    0.977E+00
RMM:   2    -0.508798122336E+03   -0.35241E+01   -0.26300E+01 13026   0.103E+01    0.137E+01
RMM:   3    -0.509246601193E+03   -0.44848E+00   -0.39832E+00 18133   0.354E+00    0.141E+01
RMM:   4    -0.508443781632E+03    0.80282E+00   -0.58884E-01 14083   0.137E+00    0.667E+00
RMM:   5    -0.508539985908E+03   -0.96204E-01   -0.26756E-01 15516   0.751E-01    0.560E+00
RMM:   6    -0.508575954601E+03   -0.35969E-01   -0.14173E-01 15085   0.531E-01    0.385E+00
RMM:   7    -0.508647739880E+03   -0.71785E-01   -0.66103E-02 15497   0.374E-01    0.300E+00
RMM:   8    -0.508709080681E+03   -0.61341E-01   -0.55747E-02 15227   0.362E-01    0.247E+00
RMM:   9    -0.508707599800E+03    0.14809E-02   -0.30802E-02 14966   0.287E-01    0.127E+00
RMM:  10    -0.508707825554E+03   -0.22575E-03   -0.12859E-02 16907   0.152E-01    0.108E+00
RMM:  11    -0.508706792825E+03    0.10327E-02   -0.50496E-03 16971   0.867E-02    0.926E-01
RMM:  12    -0.508704181856E+03    0.26110E-02   -0.68811E-03 14883   0.135E-01    0.634E-01
RMM:  13    -0.508703655370E+03    0.52649E-03   -0.45703E-03 15034   0.874E-02    0.576E-01
RMM:  14    -0.508704111083E+03   -0.45571E-03   -0.18564E-03 16559   0.499E-02    0.547E-01
RMM:  15    -0.508704678525E+03   -0.56744E-03   -0.83540E-04 15693   0.418E-02    0.537E-01
RMM:  16    -0.508705269106E+03   -0.59058E-03   -0.58809E-04 15734   0.293E-02    0.576E-01
RMM:  17    -0.508704951199E+03    0.31791E-03   -0.14171E-04 12699   0.150E-02    0.553E-01
RMM:  18    -0.508703193452E+03    0.17577E-02   -0.17934E-03 19594   0.643E-02    0.346E-01
RMM:  19    -0.508703219295E+03   -0.25843E-04   -0.95073E-04 17833   0.327E-02    0.281E-01
RMM:  20    -0.508703433780E+03   -0.21448E-03   -0.25149E-04 14710   0.256E-02    0.232E-01
RMM:  21    -0.508703518625E+03   -0.84845E-04   -0.36161E-04 16502   0.313E-02    0.166E-01
RMM:  22    -0.508703531037E+03   -0.12412E-04   -0.28355E-04 14787   0.224E-02    0.143E-01
RMM:  23    -0.508703549911E+03   -0.18874E-04   -0.93496E-05 11432   0.141E-02    0.139E-01
RMM:  24    -0.508703570662E+03   -0.20752E-04   -0.43906E-05  8966   0.102E-02    0.140E-01
RMM:  25    -0.508703574011E+03   -0.33490E-05   -0.15583E-05  7814   0.764E-03
  15 F= -.50870357E+03 E0= -.50871689E+03  d E =-.105650E+00  mag=   105.1621
 curvature:  -1.78 expect dE=-0.241E+00 dE for cont linesearch -0.937E-01
 ZBRENT: bracketing found
 ZBRENT: interpolating
 opt :  11.3624  next Energy=  -508.762484 (dE=-0.165E+00)
 bond charge predicted
       N       E                     dE             d eps       ncg     rms          rms(c)
DAV:   1    -0.507222111309E+03    0.14815E+01   -0.10970E+02 13632   0.244E+01    0.804E+00
RMM:   2    -0.508386818536E+03   -0.11647E+01   -0.11008E+01 13205   0.581E+00    0.546E+00
RMM:   3    -0.508978283822E+03   -0.59147E+00   -0.19528E+00 18889   0.204E+00    0.850E+00
RMM:   4    -0.508832296578E+03    0.14599E+00   -0.33724E-01 15242   0.892E-01    0.607E+00
RMM:   5    -0.508722688162E+03    0.10961E+00   -0.11424E-01 14798   0.540E-01    0.255E+00
RMM:   6    -0.508737804771E+03   -0.15117E-01   -0.59172E-02 16509   0.307E-01    0.212E+00
RMM:   7    -0.508750191628E+03   -0.12387E-01   -0.29910E-02 16507   0.210E-01    0.185E+00
RMM:   8    -0.508760166542E+03   -0.99749E-02   -0.16893E-02 16149   0.169E-01    0.119E+00
RMM:   9    -0.508766253790E+03   -0.60872E-02   -0.12382E-02 15939   0.146E-01    0.830E-01
RMM:  10    -0.508765975486E+03    0.27830E-03   -0.55994E-03 16682   0.877E-02    0.643E-01
RMM:  11    -0.508765994690E+03   -0.19204E-04   -0.24128E-03 17957   0.495E-02    0.614E-01
RMM:  12    -0.508765965588E+03    0.29102E-04   -0.12266E-03 18497   0.317E-02    0.592E-01
RMM:  13    -0.508766009511E+03   -0.43923E-04   -0.61452E-04 16521   0.268E-02    0.594E-01
RMM:  14    -0.508766063752E+03   -0.54241E-04   -0.39992E-04 14514   0.178E-02    0.592E-01
RMM:  15    -0.508766013262E+03    0.50491E-04   -0.11996E-04 10710   0.114E-02    0.597E-01
RMM:  16    -0.508766654789E+03   -0.64153E-03   -0.31216E-04 15898   0.221E-02    0.633E-01
RMM:  17    -0.508766368328E+03    0.28646E-03   -0.89163E-05 10352   0.132E-02    0.611E-01
RMM:  18    -0.508765093460E+03    0.12749E-02   -0.72405E-04 19387   0.438E-02    0.483E-01
RMM:  19    -0.508764413332E+03    0.68013E-03   -0.19134E-03 20011   0.615E-02    0.328E-01
RMM:  20    -0.508764468329E+03   -0.54997E-04   -0.95228E-04 19482   0.405E-02    0.269E-01
RMM:  21    -0.508764592719E+03   -0.12439E-03   -0.20711E-04 14738   0.226E-02    0.223E-01
RMM:  22    -0.508764742562E+03   -0.14984E-03   -0.15699E-04 13713   0.196E-02    0.219E-01
RMM:  23    -0.508764779683E+03   -0.37121E-04   -0.78064E-05 10156   0.106E-02    0.222E-01
RMM:  24    -0.508764630645E+03    0.14904E-03   -0.55389E-05  9829   0.132E-02    0.188E-01
RMM:  25    -0.508764517333E+03    0.11331E-03   -0.21417E-04 14766   0.196E-02    0.153E-01
RMM:  26    -0.508764553516E+03   -0.36183E-04   -0.64515E-05 10251   0.122E-02    0.129E-01
RMM:  27    -0.508764559252E+03   -0.57368E-05   -0.11643E-04 12674   0.181E-02    0.741E-02
RMM:  28    -0.508764561794E+03   -0.25417E-05   -0.11174E-04 12000   0.150E-02    0.555E-02
RMM:  29    -0.508764572204E+03   -0.10410E-04   -0.27548E-05  8334   0.885E-03    0.491E-02
RMM:  30    -0.508764574866E+03   -0.26615E-05   -0.16912E-05  7588   0.826E-03
  16 F= -.50876457E+03 E0= -.50877650E+03  d E =-.166650E+00  mag=   104.9102
 curvature:  -0.39 expect dE=-0.139E-01 dE for cont linesearch -0.408E-04
 trial: gam= 4.00852 g(F)=  0.354E-01 g(S)=  0.000E+00 ort = 0.944E-03 (trialstep = 0.138E+00)
 search vector abs. value=  0.181E+00
 bond charge predicted
       N       E                     dE             d eps       ncg     rms          rms(c)
DAV:   1    -0.508745070077E+03    0.19502E-01   -0.15345E+00 15944   0.305E+00    0.671E-01
RMM:   2    -0.508764507201E+03   -0.19437E-01   -0.18764E-01 12080   0.598E-01    0.434E-01
RMM:   3    -0.508771291617E+03   -0.67844E-02   -0.32139E-02 14836   0.198E-01    0.735E-01
RMM:   4    -0.508769041248E+03    0.22504E-02   -0.23648E-03 13137   0.921E-02    0.437E-01
RMM:   5    -0.508769166780E+03   -0.12553E-03   -0.78786E-04 16300   0.455E-02    0.285E-01
RMM:   6    -0.508769234875E+03   -0.68094E-04   -0.31809E-04 13519   0.294E-02    0.197E-01
RMM:   7    -0.508769494358E+03   -0.25948E-03   -0.30490E-04 13470   0.270E-02    0.924E-02
RMM:   8    -0.508769493436E+03    0.92162E-06   -0.10910E-04 12080   0.139E-02    0.787E-02
RMM:   9    -0.508769490802E+03    0.26345E-05   -0.29178E-05  8715   0.946E-03
  17 F= -.50876949E+03 E0= -.50878162E+03  d E =-.491594E-02  mag=   104.9429
 ZBRENT: can't locate minimum, use default step
 trial-energy change:   -0.004916  1 .order   -0.004979   -0.005406   -0.004551
 step:   0.5515(harm=  0.8717)  dis= 0.04571  next Energy=  -508.781666 (dE=-0.171E-01)
 bond charge predicted
       N       E                     dE             d eps       ncg     rms          rms(c)
DAV:   1    -0.508577178598E+03    0.19231E+00   -0.14216E+01 15824   0.911E+00    0.202E+00
RMM:   2    -0.508735773423E+03   -0.15859E+00   -0.15198E+00 12148   0.181E+00    0.147E+00
RMM:   3    -0.508856977329E+03   -0.12120E+00   -0.28265E-01 16288   0.631E-01    0.390E+00
RMM:   4    -0.508770763017E+03    0.86214E-01   -0.27121E-02 12730   0.334E-01    0.130E+00
RMM:   5    -0.508776553190E+03   -0.57902E-02   -0.12428E-02 16624   0.156E-01    0.101E+00
RMM:   6    -0.508775413611E+03    0.11396E-02   -0.46249E-03 14389   0.100E-01    0.641E-01
RMM:   7    -0.508778283025E+03   -0.28694E-02   -0.29402E-03 15862   0.753E-02    0.359E-01
RMM:   8    -0.508778866374E+03   -0.58335E-03   -0.17093E-03 15535   0.517E-02    0.266E-01
RMM:   9    -0.508778847314E+03    0.19060E-04   -0.65072E-04 16615   0.306E-02    0.220E-01
RMM:  10    -0.508778858379E+03   -0.11065E-04   -0.30260E-04 15540   0.211E-02    0.207E-01
RMM:  11    -0.508778798783E+03    0.59596E-04   -0.19663E-04 13406   0.178E-02    0.167E-01
RMM:  12    -0.508778767699E+03    0.31083E-04   -0.14699E-04 12160   0.164E-02    0.140E-01
RMM:  13    -0.508778767370E+03    0.32980E-06   -0.95810E-05 11107   0.144E-02
  18 F= -.50877877E+03 E0= -.50879155E+03  d E =-.141925E-01  mag=   105.0356
 curvature:  -1.63 expect dE=-0.682E-01 dE for cont linesearch -0.173E-02
 ZBRENT: increasing intervall
 opt :   1.3788  next Energy=  -508.774403 (dE=-0.983E-02)
 bond charge predicted
       N       E                     dE             d eps       ncg     rms          rms(c)
DAV:   1    -0.507989646868E+03    0.78912E+00   -0.57566E+01 15712   0.180E+01    0.473E+00
RMM:   2    -0.508580987177E+03   -0.59134E+00   -0.55162E+00 12513   0.366E+00    0.383E+00
RMM:   3    -0.509329516719E+03   -0.74853E+00   -0.13837E+00 16757   0.138E+00    0.103E+01
RMM:   4    -0.508740911602E+03    0.58861E+00   -0.17126E-01 12805   0.786E-01    0.296E+00
RMM:   5    -0.508769840051E+03   -0.28928E-01   -0.86257E-02 16165   0.372E-01    0.234E+00
RMM:   6    -0.508753857572E+03    0.15982E-01   -0.30236E-02 14770   0.234E-01    0.146E+00
RMM:   7    -0.508764809109E+03   -0.10952E-01   -0.15389E-02 17140   0.145E-01    0.109E+00
RMM:   8    -0.508772337784E+03   -0.75287E-02   -0.98530E-03 15890   0.127E-01    0.873E-01
RMM:   9    -0.508772801847E+03   -0.46406E-03   -0.45279E-03 15897   0.906E-02    0.521E-01
RMM:  10    -0.508773535200E+03   -0.73335E-03   -0.22540E-03 16987   0.590E-02    0.540E-01
RMM:  11    -0.508773577682E+03   -0.42482E-04   -0.11329E-03 18084   0.337E-02    0.525E-01
RMM:  12    -0.508773609356E+03   -0.31674E-04   -0.45014E-04 17173   0.183E-02    0.535E-01
RMM:  13    -0.508773664005E+03   -0.54648E-04   -0.22027E-04 13800   0.161E-02    0.533E-01
RMM:  14    -0.508773742168E+03   -0.78164E-04   -0.12595E-04 11430   0.107E-02    0.549E-01
RMM:  15    -0.508773642149E+03    0.10002E-03   -0.41320E-05  8936   0.927E-03    0.539E-01
RMM:  16    -0.508773260885E+03    0.38126E-03   -0.10844E-04 12098   0.157E-02    0.478E-01
RMM:  17    -0.508772434201E+03    0.82668E-03   -0.11361E-03 19634   0.494E-02    0.289E-01
RMM:  18    -0.508772323151E+03    0.11105E-03   -0.92718E-04 19532   0.415E-02    0.195E-01
RMM:  19    -0.508772375565E+03   -0.52414E-04   -0.37313E-04 17056   0.246E-02    0.154E-01
RMM:  20    -0.508772417976E+03   -0.42411E-04   -0.13154E-04 11755   0.142E-02    0.143E-01
RMM:  21    -0.508772465092E+03   -0.47116E-04   -0.65724E-05  9801   0.116E-02    0.146E-01
RMM:  22    -0.508772486937E+03   -0.21845E-04   -0.33647E-05  8614   0.904E-03    0.146E-01
RMM:  23    -0.508772462336E+03    0.24602E-04   -0.14459E-05  7751   0.746E-03    0.144E-01
RMM:  24    -0.508772444865E+03    0.17471E-04   -0.73359E-06  7345   0.485E-03    0.139E-01
RMM:  25    -0.508772407074E+03    0.37791E-04   -0.35578E-05  8827   0.971E-03    0.117E-01
RMM:  26    -0.508772423621E+03   -0.16547E-04   -0.91010E-05 11294   0.153E-02    0.916E-02
RMM:  27    -0.508772427207E+03   -0.35857E-05   -0.55138E-05  9817   0.122E-02
  19 F= -.50877243E+03 E0= -.50878626E+03  d E =-.785234E-02  mag=   105.2224
 curvature:   4.10 expect dE= 0.304E+00 dE for cont linesearch  0.181E-01
 ZBRENT: bracketing found
 ZBRENT: interpolating
 opt :   0.8238  next Energy=  -508.780655 (dE=-0.161E-01)
 bond charge predicted
       N       E                     dE             d eps       ncg     rms          rms(c)
DAV:   1    -0.508401277077E+03    0.37115E+00   -0.25938E+01 15800   0.120E+01    0.306E+00
RMM:   2    -0.508674015595E+03   -0.27274E+00   -0.26233E+00 12505   0.236E+00    0.207E+00
RMM:   3    -0.508765260195E+03   -0.91245E-01   -0.69998E-01 17265   0.795E-01    0.177E+00
RMM:   4    -0.508836172754E+03   -0.70913E-01   -0.66559E-02 16187   0.354E-01    0.355E+00
RMM:   5    -0.508770009353E+03    0.66163E-01   -0.19792E-02 13435   0.249E-01    0.103E+00
RMM:   6    -0.508777656856E+03   -0.76475E-02   -0.11192E-02 16186   0.139E-01    0.948E-01
RMM:   7    -0.508778770540E+03   -0.11137E-02   -0.57384E-03 15732   0.949E-02    0.646E-01
RMM:   8    -0.508780820342E+03   -0.20498E-02   -0.35562E-03 15144   0.803E-02    0.390E-01
RMM:   9    -0.508780483845E+03    0.33650E-03   -0.20053E-03 16596   0.483E-02    0.242E-01
RMM:  10    -0.508780475380E+03    0.84641E-05   -0.66378E-04 17558   0.277E-02    0.210E-01
RMM:  11    -0.508780452053E+03    0.23327E-04   -0.39550E-04 15375   0.189E-02    0.193E-01
RMM:  12    -0.508780447603E+03    0.44501E-05   -0.15267E-04 11989   0.122E-02    0.189E-01
RMM:  13    -0.508780456594E+03   -0.89911E-05   -0.71580E-05  9106   0.911E-03
  20 F= -.50878046E+03 E0= -.50879360E+03  d E =-.158817E-01  mag=   105.1399
 curvature:  -0.43 expect dE=-0.215E-01 dE for cont linesearch -0.127E-04
 trial: gam= 0.41701 g(F)=  0.502E-01 g(S)=  0.000E+00 ort =-0.232E-02 (trialstep = 0.275E+00)
 search vector abs. value=  0.797E-01
 bond charge predicted
       N       E                     dE             d eps       ncg     rms          rms(c)
DAV:   1    -0.508763329278E+03    0.17118E-01   -0.22544E+00 14168   0.359E+00    0.848E-01
RMM:   2    -0.508786005590E+03   -0.22676E-01   -0.21065E-01 12732   0.766E-01    0.655E-01
RMM:   3    -0.508816081295E+03   -0.30076E-01   -0.54680E-02 16675   0.300E-01    0.208E+00
RMM:   4    -0.508791449245E+03    0.24632E-01   -0.42528E-03 12054   0.155E-01    0.447E-01
RMM:   5    -0.508792733197E+03   -0.12840E-02   -0.13014E-03 13359   0.746E-02    0.383E-01
RMM:   6    -0.508793176224E+03   -0.44303E-03   -0.80451E-04 14996   0.454E-02    0.270E-01
RMM:   7    -0.508793715995E+03   -0.53977E-03   -0.39292E-04 13997   0.323E-02    0.259E-01
RMM:   8    -0.508793745792E+03   -0.29797E-04   -0.18944E-04 13499   0.215E-02    0.262E-01
RMM:   9    -0.508793735380E+03    0.10411E-04   -0.55752E-05  9555   0.947E-03    0.257E-01
RMM:  10    -0.508793632299E+03    0.10308E-03   -0.39926E-05  9109   0.119E-02    0.242E-01
RMM:  11    -0.508793530452E+03    0.10185E-03   -0.95856E-05 11494   0.130E-02    0.216E-01
RMM:  12    -0.508793545513E+03   -0.15061E-04   -0.18438E-05  7998   0.813E-03    0.215E-01
RMM:  13    -0.508793552446E+03   -0.69336E-05   -0.60167E-06  7030   0.570E-03
  21 F= -.50879355E+03 E0= -.50880690E+03  d E =-.130959E-01  mag=   105.1717
 ZBRENT: can't locate minimum, use default step
 trial-energy change:   -0.013096  1 .order   -0.013132   -0.013550   -0.012714
 step:   1.1002(harm=  4.4582)  dis= 0.04885  next Energy=  -508.890266 (dE=-0.110E+00)
 bond charge predicted
       N       E                     dE             d eps       ncg     rms          rms(c)
DAV:   1    -0.508554094043E+03    0.23945E+00   -0.20427E+01 13984   0.108E+01    0.254E+00
RMM:   2    -0.508753858704E+03   -0.19976E+00   -0.18699E+00 13048   0.235E+00    0.187E+00
RMM:   3    -0.509001438037E+03   -0.24758E+00   -0.47631E-01 17737   0.895E-01    0.588E+00
RMM:   4    -0.508809645190E+03    0.19179E+00   -0.43079E-02 12488   0.440E-01    0.139E+00
RMM:   5    -0.508819028466E+03   -0.93833E-02   -0.16268E-02 14793   0.227E-01    0.112E+00
RMM:   6    -0.508820881943E+03   -0.18535E-02   -0.80564E-03 15667   0.133E-01    0.795E-01
RMM:   7    -0.508826506104E+03   -0.56242E-02   -0.41579E-03 14703   0.968E-02    0.699E-01
RMM:   8    -0.508826366516E+03    0.13959E-03   -0.24200E-03 15121   0.724E-02    0.579E-01
RMM:   9    -0.508826007332E+03    0.35918E-03   -0.10686E-03 16363   0.416E-02    0.421E-01
RMM:  10    -0.508826145811E+03   -0.13848E-03   -0.49442E-04 16831   0.241E-02    0.441E-01
RMM:  11    -0.508826029147E+03    0.11666E-03   -0.18895E-04 13285   0.158E-02    0.438E-01
RMM:  12    -0.508825845335E+03    0.18381E-03   -0.15384E-04 12034   0.154E-02    0.413E-01
RMM:  13    -0.508825761569E+03    0.83765E-04   -0.82556E-05 10410   0.110E-02    0.390E-01
RMM:  14    -0.508825434273E+03    0.32730E-03   -0.20424E-04 14825   0.210E-02    0.322E-01
RMM:  15    -0.508825295239E+03    0.13903E-03   -0.16452E-04 13668   0.171E-02    0.287E-01
RMM:  16    -0.508825045794E+03    0.24945E-03   -0.31667E-04 16157   0.273E-02    0.212E-01
RMM:  17    -0.508824889785E+03    0.15601E-03   -0.68758E-04 19140   0.409E-02    0.123E-01
RMM:  18    -0.508824943649E+03   -0.53864E-04   -0.21653E-04 13956   0.201E-02    0.118E-01
RMM:  19    -0.508824962513E+03   -0.18864E-04   -0.46168E-05  8956   0.999E-03    0.123E-01
RMM:  20    -0.508824936519E+03    0.25994E-04   -0.19061E-05  8077   0.777E-03    0.119E-01
RMM:  21    -0.508824908504E+03    0.28015E-04   -0.15554E-05  7824   0.645E-03    0.112E-01
RMM:  22    -0.508824899618E+03    0.88862E-05   -0.15817E-05  7787   0.705E-03
  22 F= -.50882490E+03 E0= -.50883886E+03  d E =-.444430E-01  mag=   105.1971
 curvature:  -1.28 expect dE=-0.303E-01 dE for cont linesearch -0.160E-01
 ZBRENT: increasing intervall
 opt :   2.7506  next Energy=  -508.852818 (dE=-0.724E-01)
 bond charge predicted
       N       E                     dE             d eps       ncg     rms          rms(c)
DAV:   1    -0.507792800092E+03    0.10321E+01   -0.82259E+01 13864   0.213E+01    0.599E+00
RMM:   2    -0.508538071570E+03   -0.74527E+00   -0.69574E+00 13199   0.485E+00    0.450E+00
RMM:   3    -0.509551759339E+03   -0.10137E+01   -0.20250E+00 18711   0.185E+00    0.119E+01
RMM:   4    -0.508837878555E+03    0.71388E+00   -0.26675E-01 12946   0.925E-01    0.386E+00
RMM:   5    -0.508825580787E+03    0.12298E-01   -0.86603E-02 14846   0.465E-01    0.200E+00
RMM:   6    -0.508836242604E+03   -0.10662E-01   -0.44817E-02 16496   0.259E-01    0.178E+00
RMM:   7    -0.508843767557E+03   -0.75250E-02   -0.19109E-02 15899   0.178E-01    0.141E+00
RMM:   8    -0.508851462524E+03   -0.76950E-02   -0.11481E-02 16111   0.138E-01    0.957E-01
RMM:   9    -0.508855244644E+03   -0.37821E-02   -0.71323E-03 15714   0.113E-01    0.840E-01
RMM:  10    -0.508854534559E+03    0.71008E-03   -0.32701E-03 15575   0.802E-02    0.518E-01
RMM:  11    -0.508854333559E+03    0.20100E-03   -0.16486E-03 17359   0.462E-02    0.467E-01
RMM:  12    -0.508854150961E+03    0.18260E-03   -0.77846E-04 17905   0.306E-02    0.427E-01
RMM:  13    -0.508853888139E+03    0.26282E-03   -0.66965E-04 15496   0.360E-02    0.374E-01
RMM:  14    -0.508853942721E+03   -0.54581E-04   -0.11523E-03 16869   0.512E-02    0.340E-01
RMM:  15    -0.508854214062E+03   -0.27134E-03   -0.37193E-04 14723   0.215E-02    0.346E-01
RMM:  16    -0.508854264094E+03   -0.50033E-04   -0.10665E-04 11466   0.119E-02    0.354E-01
RMM:  17    -0.508854050597E+03    0.21350E-03   -0.73815E-05 11027   0.151E-02    0.334E-01
RMM:  18    -0.508853579137E+03    0.47146E-03   -0.44923E-04 17430   0.304E-02    0.244E-01
RMM:  19    -0.508853469164E+03    0.10997E-03   -0.63363E-04 18210   0.293E-02    0.188E-01
RMM:  20    -0.508853548221E+03   -0.79058E-04   -0.13917E-04 12852   0.168E-02    0.162E-01
RMM:  21    -0.508853595511E+03   -0.47290E-04   -0.10389E-04 12414   0.170E-02    0.120E-01
RMM:  22    -0.508853628894E+03   -0.33383E-04   -0.84649E-05 11261   0.141E-02    0.110E-01
RMM:  23    -0.508853635581E+03   -0.66869E-05   -0.23920E-05  8306   0.858E-03
  23 F= -.50885364E+03 E0= -.50886833E+03  d E =-.731790E-01  mag=   105.3039
 curvature:  -2.23 expect dE=-0.235E-01 dE for cont linesearch -0.257E-03
 ZBRENT: extrapolating
 opt :   2.9258  next Energy=  -508.853901 (dE=-0.734E-01)
 bond charge predicted
       N       E                     dE             d eps       ncg     rms          rms(c)
DAV:   1    -0.508841500185E+03    0.12129E-01   -0.92304E-01 14080   0.229E+00    0.555E-01
RMM:   2    -0.508850354387E+03   -0.88542E-02   -0.82091E-02 12615   0.488E-01    0.420E-01
RMM:   3    -0.508864017406E+03   -0.13663E-01   -0.25773E-02 16785   0.195E-01    0.138E+00
RMM:   4    -0.508853091348E+03    0.10926E-01   -0.19703E-03 11799   0.104E-01    0.289E-01
RMM:   5    -0.508853659536E+03   -0.56819E-03   -0.51622E-04 13146   0.478E-02    0.244E-01
RMM:   6    -0.508853863174E+03   -0.20364E-03   -0.31418E-04 14713   0.281E-02    0.198E-01
RMM:   7    -0.508854175044E+03   -0.31187E-03   -0.18055E-04 12706   0.203E-02    0.216E-01
RMM:   8    -0.508854185762E+03   -0.10718E-04   -0.50502E-05  9440   0.105E-02    0.217E-01
RMM:   9    -0.508854155745E+03    0.30017E-04   -0.25321E-05  8232   0.106E-02    0.224E-01
RMM:  10    -0.508853970487E+03    0.18526E-03   -0.11653E-04 12052   0.154E-02    0.164E-01
RMM:  11    -0.508853936051E+03    0.34437E-04   -0.68238E-05 10285   0.119E-02    0.128E-01
RMM:  12    -0.508853928114E+03    0.79362E-05   -0.34617E-05  8636   0.907E-03
  24 F= -.50885393E+03 E0= -.50886870E+03  d E =-.734715E-01  mag=   105.2939
 curvature:  -2.31 expect dE=-0.259E-01 dE for cont linesearch -0.408E-04
 trial: gam= 0.09953 g(F)=  0.112E-01 g(S)=  0.000E+00 ort = 0.119E-02 (trialstep = 0.805E+00)
 search vector abs. value=  0.123E-01
 bond charge predicted
       N       E                     dE             d eps       ncg     rms          rms(c)
DAV:   1    -0.508846688126E+03    0.72479E-02   -0.17151E+00 11752   0.264E+00    0.806E-01
RMM:   2    -0.508855706555E+03   -0.90184E-02   -0.68279E-02 12172   0.660E-01    0.646E-01
RMM:   3    -0.508876392430E+03   -0.20686E-01   -0.17957E-02 19140   0.242E-01    0.178E+00
RMM:   4    -0.508859396538E+03    0.16996E-01   -0.27248E-03 11891   0.125E-01    0.461E-01
RMM:   5    -0.508861424588E+03   -0.20281E-02   -0.13702E-03 12521   0.828E-02    0.399E-01
RMM:   6    -0.508861486265E+03   -0.61678E-04   -0.10173E-03 13245   0.616E-02    0.173E-01
RMM:   7    -0.508861597513E+03   -0.11125E-03   -0.35623E-04 14275   0.334E-02    0.167E-01
RMM:   8    -0.508861588345E+03    0.91675E-05   -0.10403E-04 12043   0.159E-02    0.155E-01
RMM:   9    -0.508861574152E+03    0.14193E-04   -0.39700E-05  9094   0.110E-02    0.147E-01
RMM:  10    -0.508861568342E+03    0.58096E-05   -0.31970E-05  8498   0.101E-02
  25 F= -.50886157E+03 E0= -.50887632E+03  d E =-.764023E-02  mag=   105.3396
 trial-energy change:   -0.007640  1 .order   -0.007842   -0.009138   -0.006546
 step:   2.8387(harm=  2.8387)  dis= 0.02049  next Energy=  -508.870035 (dE=-0.161E-01)
 bond charge predicted
       N       E                     dE             d eps       ncg     rms          rms(c)
DAV:   1    -0.508772671756E+03    0.88902E-01   -0.10928E+01 11712   0.664E+00    0.206E+00
RMM:   2    -0.508830777589E+03   -0.58106E-01   -0.43784E-01 12293   0.170E+00    0.165E+00
RMM:   3    -0.508963585914E+03   -0.13281E+00   -0.11967E-01 19232   0.619E-01    0.456E+00
RMM:   4    -0.508853828213E+03    0.10976E+00   -0.17091E-02 12104   0.311E-01    0.117E+00
RMM:   5    -0.508867469655E+03   -0.13641E-01   -0.90437E-03 13079   0.204E-01    0.104E+00
RMM:   6    -0.508867744647E+03   -0.27499E-03   -0.62341E-03 13483   0.155E-01    0.458E-01
RMM:   7    -0.508869011390E+03   -0.12667E-02   -0.25014E-03 14624   0.856E-02    0.509E-01
RMM:   8    -0.508868854603E+03    0.15679E-03   -0.75057E-04 15946   0.406E-02    0.472E-01
RMM:   9    -0.508868750192E+03    0.10441E-03   -0.32851E-04 14732   0.231E-02    0.447E-01
RMM:  10    -0.508868753220E+03   -0.30278E-05   -0.13025E-04 12079   0.122E-02    0.450E-01
RMM:  11    -0.508868560192E+03    0.19303E-03   -0.46850E-05  9077   0.107E-02    0.420E-01
RMM:  12    -0.508868330119E+03    0.23007E-03   -0.10433E-04 12126   0.144E-02    0.397E-01
RMM:  13    -0.508867659240E+03    0.67088E-03   -0.66652E-04 18790   0.352E-02    0.289E-01
RMM:  14    -0.508867274211E+03    0.38503E-03   -0.86256E-04 19654   0.478E-02    0.196E-01
RMM:  15    -0.508867223853E+03    0.50358E-04   -0.32209E-04 16626   0.288E-02    0.156E-01
RMM:  16    -0.508867231539E+03   -0.76855E-05   -0.13182E-04 12968   0.187E-02    0.108E-01
RMM:  17    -0.508867261546E+03   -0.30007E-04   -0.15759E-04 14166   0.225E-02    0.759E-02
RMM:  18    -0.508867274054E+03   -0.12508E-04   -0.36492E-05  8708   0.911E-03    0.727E-02
RMM:  19    -0.508867275698E+03   -0.16442E-05   -0.15401E-05  7750   0.843E-03
  26 F= -.50886728E+03 E0= -.50888203E+03  d E =-.133476E-01  mag=   105.3291
 curvature:  -1.53 expect dE=-0.658E-02 dE for cont linesearch -0.390E-03
 ZBRENT: interpolating
 opt :   2.4758  next Energy=  -508.867596 (dE=-0.137E-01)
 bond charge predicted
       N       E                     dE             d eps       ncg     rms          rms(c)
DAV:   1    -0.508864649199E+03    0.26249E-02   -0.34929E-01 11952   0.119E+00    0.364E-01
RMM:   2    -0.508866501865E+03   -0.18527E-02   -0.13797E-02 12126   0.295E-01    0.299E-01
RMM:   3    -0.508870280196E+03   -0.37783E-02   -0.35721E-03 18506   0.108E-01    0.773E-01
RMM:   4    -0.508867260041E+03    0.30202E-02   -0.56838E-04 11560   0.577E-02    0.249E-01
RMM:   5    -0.508867557728E+03   -0.29769E-03   -0.20630E-04 11852   0.357E-02    0.183E-01
RMM:   6    -0.508867693697E+03   -0.13597E-03   -0.24049E-04 13520   0.267E-02    0.116E-01
RMM:   7    -0.508867726498E+03   -0.32801E-04   -0.70440E-05 11226   0.143E-02    0.116E-01
RMM:   8    -0.508867731527E+03   -0.50297E-05   -0.17934E-05  7951   0.798E-03
  27 F= -.50886773E+03 E0= -.50888250E+03  d E =-.138034E-01  mag=   105.3237
 curvature:  -1.26 expect dE=-0.393E-02 dE for cont linesearch -0.716E-05
 trial: gam= 0.30814 g(F)=  0.312E-02 g(S)=  0.000E+00 ort =-0.264E-03 (trialstep = 0.114E+01)
 search vector abs. value=  0.412E-02
 bond charge predicted
       N       E                     dE             d eps       ncg     rms          rms(c)
DAV:   1    -0.508852251041E+03    0.15475E-01   -0.15045E+00 12552   0.293E+00    0.764E-01
RMM:   2    -0.508864863128E+03   -0.12612E-01   -0.11096E-01 12590   0.706E-01    0.554E-01
RMM:   3    -0.508874167368E+03   -0.93042E-02   -0.23793E-02 16691   0.247E-01    0.102E+00
RMM:   4    -0.508869581693E+03    0.45857E-02   -0.25894E-03 12558   0.124E-01    0.467E-01
RMM:   5    -0.508870508068E+03   -0.92638E-03   -0.99641E-04 14454   0.658E-02    0.297E-01
RMM:   6    -0.508870732536E+03   -0.22447E-03   -0.56305E-04 13915   0.427E-02    0.250E-01
RMM:   7    -0.508870841963E+03   -0.10943E-03   -0.22696E-04 14191   0.256E-02    0.192E-01
RMM:   8    -0.508870857350E+03   -0.15387E-04   -0.66378E-05 10478   0.101E-02    0.200E-01
RMM:   9    -0.508870715220E+03    0.14213E-03   -0.58924E-05 10110   0.137E-02    0.172E-01
RMM:  10    -0.508870638795E+03    0.76425E-04   -0.11767E-04 12222   0.141E-02    0.134E-01
RMM:  11    -0.508870638528E+03    0.26693E-06   -0.50205E-05  9684   0.108E-02
  28 F= -.50887064E+03 E0= -.50888543E+03  d E =-.290700E-02  mag=   105.3352
 trial-energy change:   -0.002907  1 .order   -0.003000   -0.003466   -0.002533
 step:   4.2334(harm=  4.2334)  dis= 0.02215  next Energy=  -508.874171 (dE=-0.644E-02)
 bond charge predicted
       N       E                     dE             d eps       ncg     rms          rms(c)
DAV:   1    -0.508736829288E+03    0.13381E+00   -0.11104E+01 12544   0.796E+00    0.207E+00
RMM:   2    -0.508829198094E+03   -0.92369E-01   -0.80675E-01 12614   0.193E+00    0.151E+00
RMM:   3    -0.508871739569E+03   -0.42541E-01   -0.17346E-01 16289   0.660E-01    0.177E+00
RMM:   4    -0.508873576829E+03   -0.18373E-02   -0.19900E-02 13748   0.319E-01    0.172E+00
RMM:   5    -0.508870737654E+03    0.28392E-02   -0.72259E-03 15131   0.168E-01    0.700E-01
RMM:   6    -0.508874220615E+03   -0.34830E-02   -0.45950E-03 14504   0.115E-01    0.624E-01
RMM:   7    -0.508873660295E+03    0.56032E-03   -0.17792E-03 12565   0.856E-02    0.308E-01
RMM:   8    -0.508873688480E+03   -0.28185E-04   -0.93498E-04 16061   0.441E-02    0.286E-01
RMM:   9    -0.508873594125E+03    0.94355E-04   -0.30841E-04 15185   0.231E-02    0.283E-01
RMM:  10    -0.508873472589E+03    0.12154E-03   -0.26059E-04 14268   0.258E-02    0.243E-01
RMM:  11    -0.508873494624E+03   -0.22035E-04   -0.21799E-04 13664   0.205E-02    0.260E-01
RMM:  12    -0.508873484566E+03    0.10058E-04   -0.49606E-05  9534   0.973E-03    0.262E-01
RMM:  13    -0.508873455071E+03    0.29495E-04   -0.19251E-05  7773   0.808E-03    0.258E-01
RMM:  14    -0.508873362844E+03    0.92227E-04   -0.21837E-05  7858   0.994E-03    0.245E-01
RMM:  15    -0.508873179864E+03    0.18298E-03   -0.20369E-04 14602   0.253E-02    0.248E-01
RMM:  16    -0.508873129686E+03    0.50178E-04   -0.10127E-04 12738   0.195E-02    0.265E-01
RMM:  17    -0.508873131653E+03   -0.19677E-05   -0.83676E-05 11692   0.187E-02
  29 F= -.50887313E+03 E0= -.50888796E+03  d E =-.540013E-02  mag=   105.3650
 curvature:  -2.87 expect dE=-0.209E-02 dE for cont linesearch -0.152E-03
 ZBRENT: interpolating
 opt :   3.6965  next Energy=  -508.873257 (dE=-0.553E-02)
 bond charge predicted
       N       E                     dE             d eps       ncg     rms          rms(c)
DAV:   1    -0.508869334774E+03    0.37949E-02   -0.33456E-01 12720   0.138E+00    0.447E-01
RMM:   2    -0.508872143709E+03   -0.28089E-02   -0.24121E-02 12516   0.336E-01    0.372E-01
RMM:   3    -0.508875773555E+03   -0.36298E-02   -0.65415E-03 17648   0.125E-01    0.761E-01
RMM:   4    -0.508873193641E+03    0.25799E-02   -0.65640E-04 11793   0.612E-02    0.364E-01
RMM:   5    -0.508873413654E+03   -0.22001E-03   -0.20214E-04 13081   0.322E-02    0.308E-01
RMM:   6    -0.508873769251E+03   -0.35560E-03   -0.25150E-04 14176   0.253E-02    0.312E-01
RMM:   7    -0.508873948207E+03   -0.17896E-03   -0.12241E-04 12281   0.148E-02    0.335E-01
RMM:   8    -0.508873890953E+03    0.57254E-04   -0.31995E-05  8493   0.109E-02    0.338E-01
RMM:   9    -0.508873512727E+03    0.37823E-03   -0.21251E-04 15264   0.235E-02    0.260E-01
RMM:  10    -0.508873303114E+03    0.20961E-03   -0.45688E-04 17167   0.271E-02    0.191E-01
RMM:  11    -0.508873271753E+03    0.31360E-04   -0.14996E-04 12700   0.145E-02    0.157E-01
RMM:  12    -0.508873256736E+03    0.15018E-04   -0.56143E-05  9747   0.151E-02    0.129E-01
RMM:  13    -0.508873218652E+03    0.38083E-04   -0.13452E-04 12758   0.199E-02    0.874E-02
RMM:  14    -0.508873212828E+03    0.58242E-05   -0.87480E-05 11442   0.164E-02
  30 F= -.50887321E+03 E0= -.50888802E+03  d E =-.548130E-02  mag=   105.3803
 curvature:  -2.37 expect dE=-0.125E-02 dE for cont linesearch -0.720E-05
 ZBRENT: interpolating
 opt :   3.5354  next Energy=  -508.873222 (dE=-0.549E-02)
 bond charge predicted
       N       E                     dE             d eps       ncg     rms          rms(c)
DAV:   1    -0.508872859116E+03    0.35954E-03   -0.30139E-02 12720   0.415E-01    0.131E-01
RMM:   2    -0.508873573584E+03   -0.71447E-03   -0.22484E-03 13047   0.103E-01    0.280E-01
RMM:   3    -0.508873191256E+03    0.38233E-03   -0.52077E-04 14647   0.422E-02    0.142E-01
RMM:   4    -0.508873194534E+03   -0.32781E-05   -0.70801E-05 10537   0.172E-02
  31 F= -.50887319E+03 E0= -.50888799E+03  d E =-.546301E-02  mag=   105.3867
 curvature:  -3.11 expect dE=-0.172E-02 dE for cont linesearch -0.209E-03
 ZBRENT: interpolating
 opt :   3.6683  next Energy=  -508.873214 (dE=-0.548E-02)
 bond charge predicted
       N       E                     dE             d eps       ncg     rms          rms(c)
DAV:   1    -0.508873047067E+03    0.14419E-03   -0.20491E-02 12632   0.343E-01    0.977E-02
RMM:   2    -0.508873619782E+03   -0.57272E-03   -0.15173E-03 13395   0.869E-02    0.264E-01
RMM:   3    -0.508873278320E+03    0.34146E-03   -0.37316E-04 13837   0.376E-02    0.124E-01
RMM:   4    -0.508873248507E+03    0.29813E-04   -0.48083E-05  9599   0.157E-02    0.877E-02
RMM:   5    -0.508873259928E+03   -0.11421E-04   -0.12186E-05  7548   0.766E-03    0.907E-02
RMM:   6    -0.508873237543E+03    0.22385E-04   -0.38738E-06  6558   0.487E-03    0.859E-02
RMM:   7    -0.508873216101E+03    0.21442E-04   -0.49061E-06  6539   0.422E-03    0.761E-02
RMM:   8    -0.508873196528E+03    0.19573E-04   -0.12724E-05  7119   0.540E-03    0.583E-02
RMM:   9    -0.508873202814E+03   -0.62861E-05   -0.40302E-05  9122   0.927E-03
  32 F= -.50887320E+03 E0= -.50888801E+03  d E =-.547129E-02  mag=   105.3603
 curvature:  -0.02 expect dE=-0.120E-04 dE for cont linesearch -0.161E-07
 trial: gam= 0.16410 g(F)=  0.510E-03 g(S)=  0.000E+00 ort =-0.531E-04 (trialstep = 0.165E+01)
 search vector abs. value=  0.604E-03
 bond charge predicted
       N       E                     dE             d eps       ncg     rms          rms(c)
DAV:   1    -0.508868758103E+03    0.44384E-02   -0.43330E-01 12336   0.154E+00    0.404E-01
RMM:   2    -0.508872164331E+03   -0.34062E-02   -0.29595E-02 12508   0.376E-01    0.298E-01
RMM:   3    -0.508873894526E+03   -0.17302E-02   -0.63587E-03 16175   0.130E-01    0.360E-01
RMM:   4    -0.508874240600E+03   -0.34607E-03   -0.85190E-04 12851   0.668E-02    0.425E-01
RMM:   5    -0.508873604315E+03    0.63628E-03   -0.30774E-04 13659   0.378E-02    0.174E-01
RMM:   6    -0.508873798766E+03   -0.19445E-03   -0.15163E-04 12563   0.240E-02    0.879E-02
RMM:   7    -0.508873838656E+03   -0.39890E-04   -0.81788E-05 11479   0.162E-02    0.709E-02
RMM:   8    -0.508873831193E+03    0.74625E-05   -0.21003E-05  7668   0.956E-03
  33 F= -.50887383E+03 E0= -.50888864E+03  d E =-.628380E-03  mag=   105.3700
 trial-energy change:   -0.000628  1 .order   -0.000649   -0.000825   -0.000474
 step:   3.8597(harm=  3.8597)  dis= 0.00716  next Energy=  -508.874171 (dE=-0.968E-03)
 bond charge predicted
       N       E                     dE             d eps       ncg     rms          rms(c)
DAV:   1    -0.508864859380E+03    0.89793E-02   -0.78586E-01 12328   0.207E+00    0.539E-01
RMM:   2    -0.508870987252E+03   -0.61279E-02   -0.53371E-02 12559   0.504E-01    0.405E-01
RMM:   3    -0.508874577140E+03   -0.35899E-02   -0.11369E-02 16484   0.175E-01    0.601E-01
RMM:   4    -0.508873970645E+03    0.60649E-03   -0.14472E-03 12851   0.881E-02    0.441E-01
RMM:   5    -0.508873826824E+03    0.14382E-03   -0.62309E-04 13615   0.529E-02    0.266E-01
RMM:   6    -0.508873941334E+03   -0.11451E-03   -0.29465E-04 12459   0.371E-02    0.143E-01
RMM:   7    -0.508874008030E+03   -0.66696E-04   -0.19790E-04 13342   0.248E-02    0.116E-01
RMM:   8    -0.508873997591E+03    0.10439E-04   -0.57347E-05 10279   0.127E-02    0.966E-02
RMM:   9    -0.508873996987E+03    0.60427E-06   -0.24332E-05  8110   0.955E-03
  34 F= -.50887400E+03 E0= -.50888880E+03  d E =-.794173E-03  mag=   105.3870
 curvature:  -2.32 expect dE=-0.675E-03 dE for cont linesearch -0.455E-05
 trial: gam= 0.66606 g(F)=  0.291E-03 g(S)=  0.000E+00 ort =-0.344E-04 (trialstep = 0.209E+01)
 search vector abs. value=  0.513E-03
 bond charge predicted
       N       E                     dE             d eps       ncg     rms          rms(c)
DAV:   1    -0.508866941704E+03    0.70559E-02   -0.61078E-01 12488   0.187E+00    0.486E-01
RMM:   2    -0.508871799882E+03   -0.48582E-02   -0.39990E-02 12601   0.440E-01    0.398E-01
RMM:   3    -0.508880082948E+03   -0.82831E-02   -0.13144E-02 18031   0.171E-01    0.109E+00
RMM:   4    -0.508873593902E+03    0.64890E-02   -0.12136E-03 11707   0.836E-02    0.282E-01
RMM:   5    -0.508874084216E+03   -0.49031E-03   -0.40384E-04 13471   0.410E-02    0.225E-01
RMM:   6    -0.508874339666E+03   -0.25545E-03   -0.27165E-04 13718   0.278E-02    0.183E-01
RMM:   7    -0.508874469082E+03   -0.12942E-03   -0.14510E-04 12585   0.184E-02    0.180E-01
RMM:   8    -0.508874472411E+03   -0.33284E-05   -0.41341E-05  9362   0.102E-02
  35 F= -.50887447E+03 E0= -.50888927E+03  d E =-.475424E-03  mag=   105.4001
 trial-energy change:   -0.000475  1 .order   -0.000381   -0.000559   -0.000204
 step:   2.5014(harm=  3.2886)  dis= 0.00431  next Energy=  -508.874493 (dE=-0.496E-03)
 bond charge predicted
       N       E                     dE             d eps       ncg     rms          rms(c)
DAV:   1    -0.508874076351E+03    0.39273E-03   -0.23728E-02 12680   0.371E-01    0.190E-01
RMM:   2    -0.508874399207E+03   -0.32286E-03   -0.16336E-03 13945   0.956E-02    0.199E-01
RMM:   3    -0.508874703234E+03   -0.30403E-03   -0.63320E-04 16685   0.418E-02    0.281E-01
RMM:   4    -0.508874375371E+03    0.32786E-03   -0.60862E-05 10190   0.192E-02    0.179E-01
RMM:   5    -0.508874403124E+03   -0.27754E-04   -0.19127E-05  7767   0.919E-03    0.174E-01
RMM:   6    -0.508874401522E+03    0.16026E-05   -0.55542E-06  6847   0.605E-03
  36 F= -.50887440E+03 E0= -.50888919E+03  d E =-.404535E-03  mag=   105.4052
 curvature:  -1.80 expect dE=-0.231E-03 dE for cont linesearch -0.410E-05
 ZBRENT: interpolating
 opt :   2.3942  next Energy=  -508.874403 (dE=-0.406E-03)
 bond charge predicted
       N       E                     dE             d eps       ncg     rms          rms(c)
DAV:   1    -0.508874395833E+03    0.72915E-05   -0.16153E-03 13504   0.971E-02    0.168E-01
RMM:   2    -0.508874519584E+03   -0.12375E-03   -0.13088E-04 11942   0.264E-02    0.194E-01
RMM:   3    -0.508874510348E+03    0.92363E-05   -0.54623E-05  9086   0.153E-02
  37 F= -.50887451E+03 E0= -.50888930E+03  d E =-.513361E-03  mag=   105.4097
 curvature:  -0.80 expect dE=-0.119E-03 dE for cont linesearch -0.983E-05
 ZBRENT: interpolating
 opt :   2.4690  next Energy=  -508.874402 (dE=-0.405E-03)
 bond charge predicted
       N       E                     dE             d eps       ncg     rms          rms(c)
DAV:   1    -0.508874458225E+03    0.61359E-04   -0.82863E-04 17544   0.859E-02    0.179E-01
RMM:   2    -0.508875018267E+03   -0.56004E-03   -0.18799E-04 13160   0.281E-02    0.328E-01
RMM:   3    -0.508874524397E+03    0.49387E-03   -0.62241E-05  9983   0.220E-02    0.188E-01
RMM:   4    -0.508874527752E+03   -0.33548E-05   -0.25935E-05  8226   0.751E-03
  38 F= -.50887453E+03 E0= -.50888930E+03  d E =-.530765E-03  mag=   105.3990
 curvature:  -0.05 expect dE=-0.629E-05 dE for cont linesearch -0.612E-08
 trial: gam= 0.02745 g(F)=  0.139E-03 g(S)=  0.000E+00 ort = 0.833E-05 (trialstep = 0.216E+01)
 search vector abs. value=  0.140E-03
 bond charge predicted
       N       E                     dE             d eps       ncg     rms          rms(c)
DAV:   1    -0.508873475514E+03    0.10489E-02   -0.13170E-01 11552   0.673E-01    0.281E-01
RMM:   2    -0.508874061419E+03   -0.58591E-03   -0.34454E-03 11883   0.167E-01    0.242E-01
RMM:   3    -0.508876197170E+03   -0.21358E-02   -0.12520E-03 17529   0.631E-02    0.573E-01
RMM:   4    -0.508874369486E+03    0.18277E-02   -0.24263E-04 11401   0.377E-02    0.190E-01
RMM:   5    -0.508874695757E+03   -0.32627E-03   -0.22519E-04 12743   0.228E-02    0.220E-01
RMM:   6    -0.508874715948E+03   -0.20191E-04   -0.76851E-05 11037   0.134E-02    0.203E-01
RMM:   7    -0.508874693136E+03    0.22812E-04   -0.17429E-05  7958   0.794E-03    0.202E-01
RMM:   8    -0.508874558726E+03    0.13441E-03   -0.57604E-05 10151   0.129E-02    0.172E-01
RMM:   9    -0.508874435497E+03    0.12323E-03   -0.33245E-04 16072   0.236E-02    0.113E-01
RMM:  10    -0.508874441283E+03   -0.57860E-05   -0.14910E-04 12688   0.138E-02    0.947E-02
RMM:  11    -0.508874437567E+03    0.37166E-05   -0.23701E-05  8186   0.100E-02
  39 F= -.50887444E+03 E0= -.50888924E+03  d E =0.901851E-04  mag=   105.3919
 trial-energy change:    0.000090  1 .order   -0.000182   -0.000302   -0.000062
 step:   2.7263(harm=  2.7263)  dis= 0.00160  next Energy=  -508.874718 (dE=-0.190E-03)
 reached required accuracy - stopping structural energy minimisation
 PROFILE, used timers:     296
