System = ni3al
PREC = Accurate
EDIFF = 1E-5
ISTART = 0
ICHARG = 2
LREAL = Auto
NSW = 0
ISIF = 2
IBRION = -1
ISMEAR = -5
SIGMA = 0.1
ENCUT = 450
ALGO = Normal
LMAXMIX = 4
AMIN = 0.01
NELM = 150
LCHARG = .T.
LWAVE = .T.
ISPIN = 2
NCORE = 4
#KPAR = 10
LELF = .T.
LDIPOL  = .TRUE.
IDIPOL  = 3
AMIX    = 0.05      ! 进一步降低混合幅度
BMIX    = 0.0001
IMIX    = 4

