Generated by VASPKIT code               
   1.00000000000000     
     8.5392999648999997    0.0000000000000000    0.0000000000000000
     0.0135247189000000    8.5058896306000005    0.0000000000000000
     0.0000000000000000    0.0000000000000000   23.5338993073000005
   Cr   Fe   Pb
    14    49     1
Selective dynamics
Direct
  0.0021800000000027  0.9986699999999971  0.2416600000000031   F   F   F
  0.0030199999999994  0.3336100000000002  0.0005700000000033   F   F   F
  0.0099145328027575  0.3374335220043862  0.3624103499156012   T   T   T
  0.1621700000000033  0.4943099999999987  0.0598099999999988   F   F   F
  0.1649200000000022  0.8355400000000017  0.0602700000000027   F   F   F
  0.4946486349531526  0.5034134039965742  0.3001078628399152   T   T   T
  0.5044699999999978  0.4965400000000031  0.0603199999999973   F   F   F
  0.5051399999999973  0.1623700000000028  0.1816699999999969   F   F   F
  0.6613600000000019  0.0006500000000003  0.2402200000000008   F   F   F
  0.6660299999999992  0.9979900000000015  0.0004700000000000   F   F   F
  0.6597539954472057 -0.0124108436029415  0.3639117146668787   T   T   T
  0.6598899999999972  0.3395000000000010  0.0003099999999989   F   F   F
  0.6633514943771930  0.3351989590654536  0.3657658432381889   T   T   T
  0.6635199999999983  0.9993499999999997  0.1216200000000001   F   F   F
  0.1707043023300342  0.1641335262597521  0.3035711919256998   T   T   T
  0.9999699999999976  0.3320500000000024  0.2416600000000031   F   F   F
  0.1675297038780818  0.5016520322844725  0.3031954872538676   T   T   T
  0.0001299999999986  0.6649299999999982  0.2414300000000011   F   F   F
  0.1656142780541647  0.8326064002650320  0.3031403588160836   T   T   T
  0.9985399999999984  0.0004800000000031  0.0000000000000000   F   F   F
  0.0002392487776387  0.9966042885145192  0.3603812540729558   T   T   T
  0.1655000000000015  0.1649999999999991  0.0604999999999976   F   F   F
  0.0010600000000025  0.6666200000000018  0.0005700000000033   F   F   F
  0.9935054545083326  0.6623511720866365  0.3604164944147310   T   T   T
  0.9992999999999981  0.9993600000000029  0.1207399999999978   F   F   F
  0.1668499999999966  0.1653799999999990  0.1810499999999990   F   F   F
  0.9993600000000029  0.3316099999999977  0.1208299999999980   F   F   F
  0.1654399999999967  0.4981200000000001  0.1809299999999965   F   F   F
  0.0003999999999991  0.6653599999999997  0.1205700000000007   F   F   F
  0.1662699999999973  0.8320300000000032  0.1810299999999998   F   F   F
  0.3335999999999970  0.9973099999999988  0.2411600000000007   F   F   F
  0.4999128520146978  0.1674406630560328  0.3038963336364425   T   T   T
  0.3325099999999992  0.3324399999999983  0.2411499999999975   F   F   F
  0.3324300000000022  0.6641100000000009  0.2413499999999971   F   F   F
  0.4968136344501434  0.8317726546440952  0.3023976992735053   T   T   T
  0.3340600000000009  0.9984999999999999  0.0006199999999978   F   F   F
  0.3386887664400389  0.0016055231677465  0.3607557675735016   T   T   T
  0.5011200000000002  0.1646599999999978  0.0604900000000015   F   F   F
  0.3330600000000032  0.3325999999999993  0.0006500000000003   F   F   F
  0.3376454388358694  0.3331850370103164  0.3600543467025493   T   T   T
  0.3327900000000028  0.6619099999999989  0.0010300000000001   F   F   F
  0.3294871594231240  0.6699509821249848  0.3607417648502825   T   T   T
  0.5000000000000000  0.8311599999999970  0.0606000000000009   F   F   F
  0.3333599999999990  0.9985399999999984  0.1208900000000028   F   F   F
  0.3325900000000033  0.3328199999999981  0.1201500000000024   F   F   F
  0.4995800000000017  0.4977900000000020  0.1807599999999994   F   F   F
  0.3319199999999967  0.6632999999999996  0.1202499999999986   F   F   F
  0.4997200000000035  0.8301700000000025  0.1808100000000010   F   F   F
  0.8306295606447383  0.1635884192136132  0.3050296713117627   T   T   T
  0.6653200000000012  0.3323200000000028  0.2413700000000034   F   F   F
  0.8305167766350385  0.4978200387122548  0.3033314957446819   T   T   T
  0.6662299999999988  0.6653400000000005  0.2412399999999977   F   F   F
  0.8324551147061696  0.8313618313911277  0.3026207179298747   T   T   T
  0.8317800000000020  0.1660899999999970  0.0600600000000000   F   F   F
  0.8342400000000012  0.4992400000000004  0.0602000000000018   F   F   F
  0.6667500000000004  0.6669699999999992  0.0003400000000013   F   F   F
  0.6648663866127793  0.6622319543485176  0.3594116629041614   T   T   T
  0.8329099999999983  0.8338699999999974  0.0606700000000018   F   F   F
  0.8346900000000019  0.1658899999999974  0.1816200000000023   F   F   F
  0.6668099999999981  0.3315899999999985  0.1207199999999986   F   F   F
  0.8327900000000028  0.4985100000000031  0.1813500000000019   F   F   F
  0.6670900000000017  0.6650199999999984  0.1208099999999988   F   F   F
  0.8333700000000022  0.8339599999999976  0.1814299999999989   F   F   F
  0.8408743107352542  0.1595397175122875  0.4448039864279737   T   T   T
 
  0.00000000E+00  0.00000000E+00  0.00000000E+00
  0.00000000E+00  0.00000000E+00  0.00000000E+00
  0.00000000E+00  0.00000000E+00  0.00000000E+00
  0.00000000E+00  0.00000000E+00  0.00000000E+00
  0.00000000E+00  0.00000000E+00  0.00000000E+00
  0.00000000E+00  0.00000000E+00  0.00000000E+00
  0.00000000E+00  0.00000000E+00  0.00000000E+00
  0.00000000E+00  0.00000000E+00  0.00000000E+00
  0.00000000E+00  0.00000000E+00  0.00000000E+00
  0.00000000E+00  0.00000000E+00  0.00000000E+00
  0.00000000E+00  0.00000000E+00  0.00000000E+00
  0.00000000E+00  0.00000000E+00  0.00000000E+00
  0.00000000E+00  0.00000000E+00  0.00000000E+00
  0.00000000E+00  0.00000000E+00  0.00000000E+00
  0.00000000E+00  0.00000000E+00  0.00000000E+00
  0.00000000E+00  0.00000000E+00  0.00000000E+00
  0.00000000E+00  0.00000000E+00  0.00000000E+00
  0.00000000E+00  0.00000000E+00  0.00000000E+00
  0.00000000E+00  0.00000000E+00  0.00000000E+00
  0.00000000E+00  0.00000000E+00  0.00000000E+00
  0.00000000E+00  0.00000000E+00  0.00000000E+00
  0.00000000E+00  0.00000000E+00  0.00000000E+00
  0.00000000E+00  0.00000000E+00  0.00000000E+00
  0.00000000E+00  0.00000000E+00  0.00000000E+00
  0.00000000E+00  0.00000000E+00  0.00000000E+00
  0.00000000E+00  0.00000000E+00  0.00000000E+00
  0.00000000E+00  0.00000000E+00  0.00000000E+00
  0.00000000E+00  0.00000000E+00  0.00000000E+00
  0.00000000E+00  0.00000000E+00  0.00000000E+00
  0.00000000E+00  0.00000000E+00  0.00000000E+00
  0.00000000E+00  0.00000000E+00  0.00000000E+00
  0.00000000E+00  0.00000000E+00  0.00000000E+00
  0.00000000E+00  0.00000000E+00  0.00000000E+00
  0.00000000E+00  0.00000000E+00  0.00000000E+00
  0.00000000E+00  0.00000000E+00  0.00000000E+00
  0.00000000E+00  0.00000000E+00  0.00000000E+00
  0.00000000E+00  0.00000000E+00  0.00000000E+00
  0.00000000E+00  0.00000000E+00  0.00000000E+00
  0.00000000E+00  0.00000000E+00  0.00000000E+00
  0.00000000E+00  0.00000000E+00  0.00000000E+00
  0.00000000E+00  0.00000000E+00  0.00000000E+00
  0.00000000E+00  0.00000000E+00  0.00000000E+00
  0.00000000E+00  0.00000000E+00  0.00000000E+00
  0.00000000E+00  0.00000000E+00  0.00000000E+00
  0.00000000E+00  0.00000000E+00  0.00000000E+00
  0.00000000E+00  0.00000000E+00  0.00000000E+00
  0.00000000E+00  0.00000000E+00  0.00000000E+00
  0.00000000E+00  0.00000000E+00  0.00000000E+00
  0.00000000E+00  0.00000000E+00  0.00000000E+00
  0.00000000E+00  0.00000000E+00  0.00000000E+00
  0.00000000E+00  0.00000000E+00  0.00000000E+00
  0.00000000E+00  0.00000000E+00  0.00000000E+00
  0.00000000E+00  0.00000000E+00  0.00000000E+00
  0.00000000E+00  0.00000000E+00  0.00000000E+00
  0.00000000E+00  0.00000000E+00  0.00000000E+00
  0.00000000E+00  0.00000000E+00  0.00000000E+00
  0.00000000E+00  0.00000000E+00  0.00000000E+00
  0.00000000E+00  0.00000000E+00  0.00000000E+00
  0.00000000E+00  0.00000000E+00  0.00000000E+00
  0.00000000E+00  0.00000000E+00  0.00000000E+00
  0.00000000E+00  0.00000000E+00  0.00000000E+00
  0.00000000E+00  0.00000000E+00  0.00000000E+00
  0.00000000E+00  0.00000000E+00  0.00000000E+00
  0.00000000E+00  0.00000000E+00  0.00000000E+00
