srun: ROUTE: split_hostlist: hl=b03r3n04 tree_width 0
 running on    4 total cores
 distrk:  each k-point on    1 cores,    4 groups
 distr:  one band on    1 cores,    1 groups
 HIP runtime initialized ...    4 DCUs will be used
 Created    4 streams on each DCU
 vasp.6.3.2 27Jun22 (build Mar 15 2023 15:45:48) complex                        
  
 POSCAR found type information on POSCAR CrFePb
 POSCAR found :  3 types and      64 ions
 Reading from existing POTCAR
 -----------------------------------------------------------------------------
|                                                                             |
|           W    W    AA    RRRRR   N    N  II  N    N   GGGG   !!!           |
|           W    W   A  A   R    R  NN   N  II  NN   N  G    G  !!!           |
|           W    W  A    A  R    R  N N  N  II  N N  N  G       !!!           |
|           W WW W  AAAAAA  RRRRR   N  N N  II  N  N N  G  GGG   !            |
|           WW  WW  A    A  R   R   N   NN  II  N   NN  G    G                |
|           W    W  A    A  R    R  N    N  II  N    N   GGGG   !!!           |
|                                                                             |
|     You use a magnetic or noncollinear calculation, but did not specify     |
|     the initial magnetic moment with the MAGMOM tag. Note that a            |
|     default of 1 will be used for all atoms. This ferromagnetic setup       |
|     may break the symmetry of the crystal, in particular it may rule        |
|     out finding an antiferromagnetic solution. Thence, we recommend         |
|     setting the initial magnetic moment manually or verifying carefully     |
|     that this magnetic setup is desired.                                    |
|                                                                             |
 -----------------------------------------------------------------------------

 scaLAPACK will be used selectively (only on CPU)
 Reading from existing POTCAR
 LDA part: xc-table for Pade appr. of Perdew
 POSCAR found type information on POSCAR CrFePb
 POSCAR found :  3 types and      64 ions
 Optimize memory usage for KPAR
 POSCAR, INCAR and KPOINTS ok, starting setup
 FFT: planning ... GRIDC
 FFT: planning ... GRID_SOFT
 FFT: planning ... GRID
 WAVECAR not read
 WARNING: chargedensity file is incomplete
 WARNING: random wavefunctions but no delay for mixing, default for NELMDL
 entering main loop
       N       E                     dE             d eps       ncg     rms          rms(c)
DAV:   1     0.571097202311E+04    0.57110E+04   -0.24455E+05 12720   0.145E+03
DAV:   2    -0.554571733343E+02   -0.57664E+04   -0.55675E+04 12032   0.426E+02
DAV:   3    -0.525330640717E+03   -0.46987E+03   -0.41588E+03 12416   0.164E+02
DAV:   4    -0.587112934833E+03   -0.61782E+02   -0.57703E+02 21200   0.457E+01
DAV:   5    -0.590638387734E+03   -0.35255E+01   -0.33439E+01 19896   0.109E+01    0.924E+01
DAV:   6    -0.655576876743E+03   -0.64938E+02   -0.21648E+02 21656   0.656E+01    0.141E+02
DAV:   7    -0.555271935901E+03    0.10030E+03   -0.13506E+02 21952   0.600E+01    0.802E+01
DAV:   8    -0.677284175946E+03   -0.12201E+03   -0.90736E+01 21872   0.720E+01    0.146E+02
DAV:   9    -0.545074747517E+03    0.13221E+03   -0.91857E+01 21752   0.674E+01    0.822E+01
DAV:  10    -0.510644084737E+03    0.34431E+02   -0.14861E+02 19400   0.463E+01    0.573E+01
DAV:  11    -0.501528042704E+03    0.91160E+01   -0.60683E+01 16800   0.300E+01    0.400E+01
DAV:  12    -0.500970912506E+03    0.55713E+00   -0.11971E+01 17728   0.145E+01    0.356E+01
DAV:  13    -0.501178031072E+03   -0.20712E+00   -0.16368E+00 17520   0.411E+00    0.358E+01
DAV:  14    -0.501154372260E+03    0.23659E-01   -0.17324E-01 19808   0.945E-01    0.359E+01
DAV:  15    -0.502063973548E+03   -0.90960E+00   -0.60648E-01 21824   0.321E+00    0.359E+01
DAV:  16    -0.502707417963E+03   -0.64344E+00   -0.20221E+00 20840   0.545E+00    0.338E+01
DAV:  17    -0.505244753967E+03   -0.25373E+01   -0.32660E+00 20032   0.623E+00    0.318E+01
DAV:  18    -0.507471313896E+03   -0.22266E+01   -0.38095E+00 19888   0.763E+00    0.295E+01
DAV:  19    -0.508402025965E+03   -0.93071E+00   -0.10513E+00 19440   0.327E+00    0.289E+01
DAV:  20    -0.508842266228E+03   -0.44024E+00   -0.32667E-01 19896   0.217E+00    0.287E+01
DAV:  21    -0.509222761293E+03   -0.38050E+00   -0.36508E-01 20192   0.231E+00    0.267E+01
DAV:  22    -0.509691011939E+03   -0.46825E+00   -0.46965E-01 20568   0.262E+00    0.240E+01
DAV:  23    -0.510427236226E+03   -0.73622E+00   -0.12363E+00 20616   0.440E+00    0.202E+01
DAV:  24    -0.510998985616E+03   -0.57175E+00   -0.12366E+00 21032   0.433E+00    0.172E+01
DAV:  25    -0.511653089591E+03   -0.65410E+00   -0.12162E+00 21152   0.387E+00    0.144E+01
DAV:  26    -0.512174953674E+03   -0.52186E+00   -0.87020E-01 20616   0.298E+00    0.139E+01
DAV:  27    -0.512522770579E+03   -0.34782E+00   -0.58244E-01 19792   0.222E+00    0.128E+01
DAV:  28    -0.512918545028E+03   -0.39577E+00   -0.61408E-01 21264   0.211E+00    0.119E+01
DAV:  29    -0.513222246664E+03   -0.30370E+00   -0.80674E-01 20424   0.235E+00    0.106E+01
DAV:  30    -0.513285307686E+03   -0.63061E-01   -0.79618E-01 20568   0.304E+00    0.764E+00
DAV:  31    -0.513304736343E+03   -0.19429E-01   -0.27315E-01 19640   0.160E+00    0.686E+00
DAV:  32    -0.513305218942E+03   -0.48260E-03   -0.10755E-01 18480   0.133E+00    0.597E+00
DAV:  33    -0.513333080674E+03   -0.27862E-01   -0.15212E-01 20600   0.141E+00    0.511E+00
DAV:  34    -0.513372855909E+03   -0.39775E-01   -0.10255E-01 20176   0.114E+00    0.481E+00
DAV:  35    -0.513415719371E+03   -0.42863E-01   -0.76395E-02 20352   0.853E-01    0.465E+00
DAV:  36    -0.513425498884E+03   -0.97795E-02   -0.35775E-02 19880   0.667E-01    0.419E+00
DAV:  37    -0.513461960502E+03   -0.36462E-01   -0.85353E-02 20200   0.849E-01    0.371E+00
DAV:  38    -0.513505638910E+03   -0.43678E-01   -0.98829E-02 20768   0.866E-01    0.316E+00
DAV:  39    -0.513536966014E+03   -0.31327E-01   -0.11208E-01 20248   0.795E-01    0.254E+00
DAV:  40    -0.513538438839E+03   -0.14728E-02   -0.57419E-02 20416   0.782E-01    0.193E+00
DAV:  41    -0.513540659857E+03   -0.22210E-02   -0.26107E-02 19704   0.584E-01    0.155E+00
DAV:  42    -0.513538849414E+03    0.18104E-02   -0.19492E-02 20400   0.466E-01    0.124E+00
DAV:  43    -0.513541690525E+03   -0.28411E-02   -0.15369E-02 20720   0.384E-01    0.102E+00
DAV:  44    -0.513541550086E+03    0.14044E-03   -0.15100E-02 19776   0.346E-01    0.839E-01
DAV:  45    -0.513542402180E+03   -0.85209E-03   -0.79907E-03 19560   0.283E-01    0.627E-01
DAV:  46    -0.513542135536E+03    0.26664E-03   -0.46300E-03 21168   0.237E-01    0.463E-01
DAV:  47    -0.513542608732E+03   -0.47320E-03   -0.67332E-03 20192   0.236E-01    0.354E-01
DAV:  48    -0.513542949993E+03   -0.34126E-03   -0.15376E-03 19952   0.147E-01    0.328E-01
DAV:  49    -0.513543234289E+03   -0.28430E-03   -0.70859E-04 19816   0.859E-02    0.300E-01
DAV:  50    -0.513543230505E+03    0.37840E-05   -0.78696E-04 21056   0.117E-01    0.191E-01
DAV:  51    -0.513543271471E+03   -0.40967E-04   -0.45185E-04 20008   0.808E-02    0.136E-01
DAV:  52    -0.513543222614E+03    0.48857E-04   -0.19146E-04 18768   0.588E-02    0.105E-01
DAV:  53    -0.513543263659E+03   -0.41045E-04   -0.13093E-04 16640   0.390E-02    0.815E-02
DAV:  54    -0.513543283001E+03   -0.19342E-04   -0.57597E-05 12840   0.254E-02    0.603E-02
DAV:  55    -0.513543307155E+03   -0.24154E-04   -0.54271E-05 13400   0.198E-02    0.493E-02
DAV:  56    -0.513543316281E+03   -0.91260E-05   -0.26984E-05  9104   0.195E-02
   1 F= -.51354332E+03 E0= -.51354697E+03  d E =-.513543E+03  mag=   105.6792
 curvature:   0.00 expect dE= 0.000E+00 dE for cont linesearch  0.000E+00
 trial: gam= 0.00000 g(F)=  0.315E+00 g(S)=  0.000E+00 ort = 0.000E+00 (trialstep = 0.100E+01)
 search vector abs. value=  0.315E+00
 bond charge predicted
       N       E                     dE             d eps       ncg     rms          rms(c)
DAV:   1    -0.512118703904E+03    0.14246E+01   -0.11956E+02 15144   0.295E+01    0.811E+00
DAV:   2    -0.513711897807E+03   -0.15932E+01   -0.14518E+01 13464   0.749E+00    0.633E+00
DAV:   3    -0.516345356974E+03   -0.26335E+01   -0.63796E+00 22176   0.142E+01    0.194E+01
DAV:   4    -0.513682212527E+03    0.26631E+01   -0.45265E+00 22744   0.121E+01    0.339E+00
DAV:   5    -0.513726912637E+03   -0.44700E-01   -0.20275E-01 19208   0.161E+00    0.244E+00
DAV:   6    -0.513774461716E+03   -0.47549E-01   -0.78021E-02 21200   0.113E+00    0.256E+00
DAV:   7    -0.513781865605E+03   -0.74039E-02   -0.65232E-02 19528   0.153E+00    0.164E+00
DAV:   8    -0.513780002712E+03    0.18629E-02   -0.25456E-02 19104   0.859E-01    0.821E-01
DAV:   9    -0.513780412342E+03   -0.40963E-03   -0.64282E-03 19256   0.313E-01    0.651E-01
DAV:  10    -0.513780101387E+03    0.31096E-03   -0.13908E-03 18568   0.176E-01    0.570E-01
DAV:  11    -0.513779578194E+03    0.52319E-03   -0.84360E-04 20216   0.145E-01    0.474E-01
DAV:  12    -0.513778866163E+03    0.71203E-03   -0.17405E-03 19920   0.161E-01    0.332E-01
DAV:  13    -0.513778757768E+03    0.10839E-03   -0.98215E-04 18056   0.104E-01    0.282E-01
DAV:  14    -0.513778796005E+03   -0.38237E-04   -0.37683E-04 19112   0.784E-02    0.230E-01
DAV:  15    -0.513778929660E+03   -0.13365E-03   -0.41978E-04 18856   0.676E-02    0.163E-01
DAV:  16    -0.513778960588E+03   -0.30928E-04   -0.13839E-04 17112   0.564E-02    0.116E-01
DAV:  17    -0.513778963038E+03   -0.24498E-05   -0.37185E-05  9960   0.302E-02
   2 F= -.51377896E+03 E0= -.51378289E+03  d E =-.235647E+00  mag=   105.5418
 trial-energy change:   -0.235647  1 .order   -0.237186   -0.315268   -0.159103
 step:   2.1687(harm=  2.0188)  dis= 0.10525  next Energy=  -513.869477 (dE=-0.326E+00)
 bond charge predicted
       N       E                     dE             d eps       ncg     rms          rms(c)
DAV:   1    -0.511616368151E+03    0.21626E+01   -0.16312E+02 15176   0.343E+01    0.105E+01
DAV:   2    -0.513809494637E+03   -0.21931E+01   -0.19809E+01 14016   0.894E+00    0.792E+00
DAV:   3    -0.518385439362E+03   -0.45759E+01   -0.94769E+00 22464   0.185E+01    0.255E+01
DAV:   4    -0.513736712703E+03    0.46487E+01   -0.69542E+00 22760   0.159E+01    0.412E+00
DAV:   5    -0.513800404657E+03   -0.63692E-01   -0.34564E-01 19184   0.196E+00    0.295E+00
DAV:   6    -0.513840946945E+03   -0.40542E-01   -0.10691E-01 21120   0.142E+00    0.296E+00
DAV:   7    -0.513866821237E+03   -0.25874E-01   -0.66361E-02 19856   0.151E+00    0.212E+00
DAV:   8    -0.513871172616E+03   -0.43514E-02   -0.36263E-02 18448   0.102E+00    0.111E+00
DAV:   9    -0.513872694003E+03   -0.15214E-02   -0.99638E-03 19720   0.410E-01    0.836E-01
DAV:  10    -0.513872425708E+03    0.26829E-03   -0.32771E-03 19816   0.283E-01    0.720E-01
DAV:  11    -0.513871813004E+03    0.61270E-03   -0.13377E-03 19720   0.191E-01    0.617E-01
DAV:  12    -0.513870909926E+03    0.90308E-03   -0.30644E-03 19520   0.194E-01    0.437E-01
DAV:  13    -0.513870696289E+03    0.21364E-03   -0.18435E-03 17664   0.157E-01    0.339E-01
DAV:  14    -0.513870688492E+03    0.77972E-05   -0.68031E-04 19888   0.112E-01    0.292E-01
DAV:  15    -0.513871110635E+03   -0.42214E-03   -0.89784E-04 21232   0.113E-01    0.298E-01
DAV:  16    -0.513871133352E+03   -0.22717E-04   -0.41334E-04 17912   0.886E-02    0.214E-01
DAV:  17    -0.513870990518E+03    0.14283E-03   -0.31023E-04 16592   0.879E-02    0.119E-01
DAV:  18    -0.513871016504E+03   -0.25986E-04   -0.16652E-04 17456   0.454E-02    0.101E-01
DAV:  19    -0.513871062476E+03   -0.45972E-04   -0.66537E-05 12272   0.305E-02    0.101E-01
DAV:  20    -0.513871065890E+03   -0.34147E-05   -0.95634E-05 15400   0.484E-02
   3 F= -.51387107E+03 E0= -.51387631E+03  d E =-.327750E+00  mag=   105.3858
 curvature:  -0.99 expect dE=-0.421E-01 dE for cont linesearch -0.230E-05
 trial: gam= 0.13805 g(F)=  0.427E-01 g(S)=  0.000E+00 ort =-0.857E-03 (trialstep = 0.123E+01)
 search vector abs. value=  0.484E-01
 bond charge predicted
       N       E                     dE             d eps       ncg     rms          rms(c)
DAV:   1    -0.513664537434E+03    0.20653E+00   -0.18846E+01 13360   0.117E+01    0.256E+00
DAV:   2    -0.513898199581E+03   -0.23366E+00   -0.20514E+00 12928   0.324E+00    0.249E+00
DAV:   3    -0.514060659575E+03   -0.16246E+00   -0.76773E-01 21032   0.422E+00    0.524E+00
DAV:   4    -0.513891211963E+03    0.16945E+00   -0.43843E-01 22272   0.308E+00    0.137E+00
DAV:   5    -0.513909280243E+03   -0.18068E-01   -0.23391E-02 19232   0.664E-01    0.106E+00
DAV:   6    -0.513917343914E+03   -0.80637E-02   -0.99369E-03 19336   0.434E-01    0.854E-01
DAV:   7    -0.513914505326E+03    0.28386E-02   -0.11138E-02 20024   0.600E-01    0.435E-01
DAV:   8    -0.513914329266E+03    0.17606E-03   -0.14406E-03 19288   0.192E-01    0.346E-01
DAV:   9    -0.513914318384E+03    0.10882E-04   -0.56456E-04 16728   0.818E-02    0.315E-01
DAV:  10    -0.513914341528E+03   -0.23144E-04   -0.92873E-04 21376   0.128E-01    0.270E-01
DAV:  11    -0.513914430811E+03   -0.89284E-04   -0.11030E-03 19120   0.100E-01    0.232E-01
DAV:  12    -0.513914417373E+03    0.13439E-04   -0.39939E-04 19272   0.726E-02    0.179E-01
DAV:  13    -0.513914435765E+03   -0.18392E-04   -0.24816E-04 19960   0.604E-02    0.114E-01
DAV:  14    -0.513914521640E+03   -0.85875E-04   -0.17561E-04 15072   0.524E-02    0.103E-01
DAV:  15    -0.513914559945E+03   -0.38306E-04   -0.17203E-04 16672   0.415E-02    0.794E-02
DAV:  16    -0.513914555151E+03    0.47940E-05   -0.43412E-05 10104   0.316E-02
   4 F= -.51391456E+03 E0= -.51392033E+03  d E =-.434893E-01  mag=   105.2352
 trial-energy change:   -0.043489  1 .order   -0.042631   -0.052491   -0.032770
 step:   2.5626(harm=  3.2837)  dis= 0.05212  next Energy=  -513.933277 (dE=-0.622E-01)
 bond charge predicted
       N       E                     dE             d eps       ncg     rms          rms(c)
DAV:   1    -0.513648411111E+03    0.26615E+00   -0.21854E+01 13328   0.126E+01    0.278E+00
DAV:   2    -0.513917680841E+03   -0.26927E+00   -0.23667E+00 12816   0.352E+00    0.265E+00
DAV:   3    -0.514115670025E+03   -0.19799E+00   -0.89467E-01 21056   0.459E+00    0.570E+00
DAV:   4    -0.513912425988E+03    0.20324E+00   -0.53711E-01 22448   0.342E+00    0.149E+00
DAV:   5    -0.513932540242E+03   -0.20114E-01   -0.27723E-02 19264   0.723E-01    0.113E+00
DAV:   6    -0.513943612705E+03   -0.11072E-01   -0.12962E-02 20528   0.557E-01    0.101E+00
DAV:   7    -0.513939079616E+03    0.45331E-02   -0.15402E-02 19880   0.717E-01    0.468E-01
DAV:   8    -0.513938983632E+03    0.95985E-04   -0.21367E-03 19072   0.207E-01    0.369E-01
DAV:   9    -0.513938931691E+03    0.51940E-04   -0.61316E-04 16344   0.871E-02    0.337E-01
DAV:  10    -0.513938909277E+03    0.22414E-04   -0.97427E-04 21672   0.131E-01    0.289E-01
DAV:  11    -0.513939051323E+03   -0.14205E-03   -0.12439E-03 18904   0.109E-01    0.248E-01
DAV:  12    -0.513939014333E+03    0.36989E-04   -0.42726E-04 19160   0.783E-02    0.192E-01
DAV:  13    -0.513939015412E+03   -0.10789E-05   -0.25513E-04 19936   0.602E-02    0.125E-01
DAV:  14    -0.513939104165E+03   -0.88752E-04   -0.22581E-04 14928   0.619E-02    0.105E-01
DAV:  15    -0.513939158770E+03   -0.54605E-04   -0.19875E-04 16272   0.393E-02    0.883E-02
DAV:  16    -0.513939144399E+03    0.14371E-04   -0.42637E-05 10312   0.329E-02    0.604E-02
DAV:  17    -0.513939147655E+03   -0.32567E-05   -0.37619E-05  9808   0.214E-02
   5 F= -.51393915E+03 E0= -.51394547E+03  d E =-.680818E-01  mag=   105.0982
 curvature:  -1.64 expect dE=-0.189E-01 dE for cont linesearch -0.256E-02
 ZBRENT: extrapolating
 opt :   3.2104  next Energy=  -513.941967 (dE=-0.709E-01)
 bond charge predicted
       N       E                     dE             d eps       ncg     rms          rms(c)
DAV:   1    -0.513873399781E+03    0.65745E-01   -0.51877E+00 13440   0.615E+00    0.133E+00
DAV:   2    -0.513935501587E+03   -0.62102E-01   -0.55757E-01 12680   0.163E+00    0.117E+00
DAV:   3    -0.513986644210E+03   -0.51143E-01   -0.20608E-01 20816   0.216E+00    0.285E+00
DAV:   4    -0.513935465852E+03    0.51178E-01   -0.13797E-01 22576   0.169E+00    0.714E-01
DAV:   5    -0.513941330899E+03   -0.58650E-02   -0.65509E-03 19272   0.342E-01    0.497E-01
DAV:   6    -0.513943057179E+03   -0.17263E-02   -0.26034E-03 19936   0.273E-01    0.428E-01
DAV:   7    -0.513942174272E+03    0.88291E-03   -0.28163E-03 19744   0.307E-01    0.196E-01
DAV:   8    -0.513942203692E+03   -0.29420E-04   -0.35960E-04 18544   0.716E-02    0.175E-01
DAV:   9    -0.513942203168E+03    0.52397E-06   -0.10290E-04 15352   0.412E-02    0.156E-01
DAV:  10    -0.513942233039E+03   -0.29871E-04   -0.34242E-04 17952   0.797E-02    0.138E-01
DAV:  11    -0.513942237054E+03   -0.40153E-05   -0.26909E-04 18016   0.456E-02    0.120E-01
DAV:  12    -0.513942208991E+03    0.28063E-04   -0.75506E-05 13080   0.393E-02    0.788E-02
DAV:  13    -0.513942233731E+03   -0.24740E-04   -0.10691E-04 14448   0.370E-02    0.513E-02
DAV:  14    -0.513942256223E+03   -0.22492E-04   -0.63531E-05 13224   0.183E-02    0.493E-02
DAV:  15    -0.513942258107E+03   -0.18841E-05   -0.12578E-05  7280   0.183E-02
   6 F= -.51394226E+03 E0= -.51394877E+03  d E =-.711922E-01  mag=   105.0433
 curvature:  -1.80 expect dE=-0.267E-01 dE for cont linesearch -0.841E-06
 trial: gam= 0.33686 g(F)=  0.148E-01 g(S)=  0.000E+00 ort =-0.150E-03 (trialstep = 0.163E+01)
 search vector abs. value=  0.202E-01
 bond charge predicted
       N       E                     dE             d eps       ncg     rms          rms(c)
DAV:   1    -0.513771521093E+03    0.17074E+00   -0.15383E+01 13984   0.101E+01    0.216E+00
DAV:   2    -0.513935213187E+03   -0.16369E+00   -0.15383E+00 12520   0.250E+00    0.145E+00
DAV:   3    -0.514013239745E+03   -0.78027E-01   -0.22958E-01 22520   0.215E+00    0.331E+00
DAV:   4    -0.513946768841E+03    0.66471E-01   -0.21798E-01 22816   0.216E+00    0.122E+00
DAV:   5    -0.513956717658E+03   -0.99488E-02   -0.13042E-02 18976   0.498E-01    0.660E-01
DAV:   6    -0.513960357783E+03   -0.36401E-02   -0.58269E-03 18368   0.347E-01    0.367E-01
DAV:   7    -0.513960472060E+03   -0.11428E-03   -0.14953E-03 19352   0.220E-01    0.303E-01
DAV:   8    -0.513960277708E+03    0.19435E-03   -0.75441E-04 19360   0.162E-01    0.250E-01
DAV:   9    -0.513960236917E+03    0.40791E-04   -0.26842E-04 18632   0.648E-02    0.218E-01
DAV:  10    -0.513960152079E+03    0.84838E-04   -0.49926E-04 19488   0.827E-02    0.151E-01
DAV:  11    -0.513960187962E+03   -0.35882E-04   -0.40173E-04 19200   0.721E-02    0.149E-01
DAV:  12    -0.513960170381E+03    0.17580E-04   -0.11977E-04 16072   0.442E-02    0.119E-01
DAV:  13    -0.513960190741E+03   -0.20360E-04   -0.19809E-04 13352   0.667E-02    0.782E-02
DAV:  14    -0.513960257315E+03   -0.66574E-04   -0.17678E-04 17808   0.314E-02    0.930E-02
DAV:  15    -0.513960239454E+03    0.17862E-04   -0.34184E-05  8944   0.318E-02    0.624E-02
DAV:  16    -0.513960231562E+03    0.78917E-05   -0.46367E-05  7872   0.308E-02
   7 F= -.51396023E+03 E0= -.51396719E+03  d E =-.179735E-01  mag=   104.9463
 trial-energy change:   -0.017973  1 .order   -0.017735   -0.024076   -0.011394
 step:   2.8514(harm=  3.0926)  dis= 0.02057  next Energy=  -513.964607 (dE=-0.223E-01)
 bond charge predicted
       N       E                     dE             d eps       ncg     rms          rms(c)
DAV:   1    -0.513859389479E+03    0.10085E+00   -0.86658E+00 13952   0.754E+00    0.161E+00
DAV:   2    -0.513950989499E+03   -0.91600E-01   -0.86101E-01 12520   0.187E+00    0.108E+00
DAV:   3    -0.513993986056E+03   -0.42997E-01   -0.12716E-01 22472   0.159E+00    0.246E+00
DAV:   4    -0.513957627931E+03    0.36358E-01   -0.12324E-01 22624   0.161E+00    0.918E-01
DAV:   5    -0.513963636230E+03   -0.60083E-02   -0.81305E-03 19280   0.405E-01    0.471E-01
DAV:   6    -0.513965410997E+03   -0.17748E-02   -0.35810E-03 18952   0.315E-01    0.299E-01
DAV:   7    -0.513965341129E+03    0.69869E-04   -0.12011E-03 19104   0.212E-01    0.221E-01
DAV:   8    -0.513965265664E+03    0.75465E-04   -0.38027E-04 18888   0.103E-01    0.181E-01
DAV:   9    -0.513965244168E+03    0.21495E-04   -0.16428E-04 17976   0.426E-02    0.161E-01
DAV:  10    -0.513965201515E+03    0.42653E-04   -0.28905E-04 19192   0.688E-02    0.108E-01
DAV:  11    -0.513965235873E+03   -0.34358E-04   -0.19305E-04 15976   0.524E-02    0.114E-01
DAV:  12    -0.513965228543E+03    0.73301E-05   -0.76001E-05 14264   0.325E-02
   8 F= -.51396523E+03 E0= -.51397247E+03  d E =-.229704E-01  mag=   104.8871
 curvature:  -2.06 expect dE=-0.976E-02 dE for cont linesearch -0.158E-03
 ZBRENT: extrapolating
 opt :   3.1168  next Energy=  -513.965394 (dE=-0.231E-01)
 bond charge predicted
       N       E                     dE             d eps       ncg     rms          rms(c)
DAV:   1    -0.513960391621E+03    0.48443E-02   -0.40989E-01 13896   0.164E+00    0.360E-01
DAV:   2    -0.513965067300E+03   -0.46757E-02   -0.40855E-02 12608   0.433E-01    0.372E-01
DAV:   3    -0.513967366027E+03   -0.22987E-02   -0.14380E-02 18480   0.586E-01    0.665E-01
DAV:   4    -0.513964856279E+03    0.25097E-02   -0.71232E-03 20568   0.378E-01    0.189E-01
DAV:   5    -0.513965186173E+03   -0.32989E-03   -0.33925E-04 19984   0.892E-02    0.159E-01
DAV:   6    -0.513965371874E+03   -0.18570E-03   -0.39392E-04 19992   0.117E-01    0.138E-01
DAV:   7    -0.513965322679E+03    0.49195E-04   -0.24623E-04 17312   0.819E-02    0.603E-02
DAV:   8    -0.513965332108E+03   -0.94291E-05   -0.31148E-05  9592   0.211E-02
   9 F= -.51396533E+03 E0= -.51397261E+03  d E =-.230740E-01  mag=   104.8760
 curvature:  -2.15 expect dE=-0.117E-01 dE for cont linesearch -0.335E-06
 trial: gam= 0.31403 g(F)=  0.544E-02 g(S)=  0.000E+00 ort =-0.561E-04 (trialstep = 0.193E+01)
 search vector abs. value=  0.740E-02
 bond charge predicted
       N       E                     dE             d eps       ncg     rms          rms(c)
DAV:   1    -0.513913100944E+03    0.52222E-01   -0.67274E+00 12552   0.534E+00    0.142E+00
DAV:   2    -0.513959629606E+03   -0.46529E-01   -0.40616E-01 12664   0.147E+00    0.104E+00
DAV:   3    -0.513966590307E+03   -0.69607E-02   -0.14119E-02 18704   0.418E-01    0.877E-01
DAV:   4    -0.514001861773E+03   -0.35271E-01   -0.10272E-01 22640   0.145E+00    0.224E+00
DAV:   5    -0.513972658514E+03    0.29203E-01   -0.11044E-01 22328   0.148E+00    0.585E-01
DAV:   6    -0.513973621430E+03   -0.96292E-03   -0.58148E-03 20080   0.309E-01    0.211E-01
DAV:   7    -0.513973678996E+03   -0.57566E-04   -0.84122E-04 17640   0.103E-01    0.198E-01
DAV:   8    -0.513973612679E+03    0.66317E-04   -0.22360E-04 14824   0.895E-02    0.170E-01
DAV:   9    -0.513973543483E+03    0.69195E-04   -0.10096E-04 16624   0.503E-02    0.144E-01
DAV:  10    -0.513973495516E+03    0.47967E-04   -0.22179E-04 18376   0.653E-02    0.133E-01
DAV:  11    -0.513973405731E+03    0.89785E-04   -0.25693E-04 18704   0.647E-02    0.780E-02
DAV:  12    -0.513973400677E+03    0.50534E-05   -0.79665E-05 14296   0.323E-02
  10 F= -.51397340E+03 E0= -.51398080E+03  d E =-.806857E-02  mag=   104.8561
 trial-energy change:   -0.008069  1 .order   -0.008252   -0.010443   -0.006060
 step:   4.5903(harm=  4.5903)  dis= 0.03413  next Energy=  -513.977773 (dE=-0.124E-01)
 bond charge predicted
       N       E                     dE             d eps       ncg     rms          rms(c)
DAV:   1    -0.513859921834E+03    0.11348E+00   -0.12856E+01 12528   0.740E+00    0.198E+00
DAV:   2    -0.513950602694E+03   -0.90681E-01   -0.79413E-01 12672   0.206E+00    0.145E+00
DAV:   3    -0.513972408959E+03   -0.21806E-01   -0.50212E-02 20624   0.961E-01    0.170E+00
DAV:   4    -0.513978900807E+03   -0.64918E-02   -0.12155E-01 21320   0.159E+00    0.177E+00
DAV:   5    -0.513976442252E+03    0.24586E-02   -0.65758E-02 22104   0.114E+00    0.731E-01
DAV:   6    -0.513977319354E+03   -0.87710E-03   -0.91571E-03 18624   0.422E-01    0.288E-01
DAV:   7    -0.513977428950E+03   -0.10960E-03   -0.14974E-03 14016   0.137E-01    0.266E-01
DAV:   8    -0.513977378837E+03    0.50113E-04   -0.28155E-04 17368   0.753E-02    0.236E-01
DAV:   9    -0.513977269925E+03    0.10891E-03   -0.49162E-04 20672   0.116E-01    0.210E-01
DAV:  10    -0.513977122718E+03    0.14721E-03   -0.30745E-04 20200   0.861E-02    0.166E-01
DAV:  11    -0.513977040866E+03    0.81851E-04   -0.27653E-04 17992   0.596E-02    0.129E-01
DAV:  12    -0.513977004122E+03    0.36744E-04   -0.12355E-04 16072   0.498E-02    0.911E-02
DAV:  13    -0.513977035940E+03   -0.31818E-04   -0.11464E-04 16952   0.364E-02    0.649E-02
DAV:  14    -0.513977053550E+03   -0.17609E-04   -0.34853E-05 10600   0.241E-02    0.547E-02
DAV:  15    -0.513977048295E+03    0.52546E-05   -0.10381E-05  6824   0.159E-02
  11 F= -.51397705E+03 E0= -.51398458E+03  d E =-.117162E-01  mag=   104.8400
 curvature:  -3.13 expect dE=-0.829E-02 dE for cont linesearch -0.636E-04
 trial: gam= 0.52972 g(F)=  0.265E-02 g(S)=  0.000E+00 ort =-0.388E-03 (trialstep = 0.246E+01)
 search vector abs. value=  0.431E-02
 bond charge predicted
       N       E                     dE             d eps       ncg     rms          rms(c)
DAV:   1    -0.513934792212E+03    0.42261E-01   -0.62856E+00 12208   0.440E+00    0.132E+00
DAV:   2    -0.513969046772E+03   -0.34255E-01   -0.28000E-01 13296   0.128E+00    0.110E+00
DAV:   3    -0.514018226060E+03   -0.49179E-01   -0.15915E-01 20912   0.187E+00    0.272E+00
DAV:   4    -0.513974287696E+03    0.43938E-01   -0.14403E-01 22656   0.172E+00    0.834E-01
DAV:   5    -0.513980393610E+03   -0.61059E-02   -0.75447E-03 21648   0.420E-01    0.590E-01
DAV:   6    -0.513981175025E+03   -0.78142E-03   -0.67578E-03 20496   0.474E-01    0.384E-01
DAV:   7    -0.513980583946E+03    0.59108E-03   -0.25983E-03 18640   0.254E-01    0.174E-01
DAV:   8    -0.513980614528E+03   -0.30581E-04   -0.35549E-04 15736   0.628E-02    0.168E-01
DAV:   9    -0.513980579641E+03    0.34887E-04   -0.95766E-05 13504   0.410E-02    0.146E-01
DAV:  10    -0.513980471573E+03    0.10807E-03   -0.39860E-04 18576   0.662E-02    0.863E-02
DAV:  11    -0.513980463998E+03    0.75747E-05   -0.88464E-05 13544   0.293E-02
  12 F= -.51398046E+03 E0= -.51398803E+03  d E =-.341570E-02  mag=   104.8532
 trial-energy change:   -0.003416  1 .order   -0.003656   -0.006007   -0.001305
 step:   3.7383(harm=  3.1418)  dis= 0.02603  next Energy=  -513.980769 (dE=-0.372E-02)
 bond charge predicted
       N       E                     dE             d eps       ncg     rms          rms(c)
DAV:   1    -0.513968493780E+03    0.11978E-01   -0.17030E+00 12208   0.229E+00    0.685E-01
DAV:   2    -0.513977569530E+03   -0.90758E-02   -0.71592E-02 14056   0.681E-01    0.639E-01
DAV:   3    -0.513986229518E+03   -0.86600E-02   -0.38002E-02 20168   0.932E-01    0.122E+00
DAV:   4    -0.513978650580E+03    0.75789E-02   -0.28858E-02 22016   0.759E-01    0.427E-01
DAV:   5    -0.513980229752E+03   -0.15792E-02   -0.21072E-03 21232   0.219E-01    0.297E-01
DAV:   6    -0.513980468451E+03   -0.23870E-03   -0.15968E-03 20480   0.234E-01    0.235E-01
DAV:   7    -0.513980241505E+03    0.22695E-03   -0.86765E-04 18360   0.148E-01    0.111E-01
DAV:   8    -0.513980258581E+03   -0.17076E-04   -0.11055E-04 14608   0.356E-02    0.108E-01
DAV:   9    -0.513980238345E+03    0.20236E-04   -0.38212E-05 10976   0.271E-02    0.855E-02
DAV:  10    -0.513980229456E+03    0.88896E-05   -0.21353E-04 17672   0.459E-02    0.571E-02
DAV:  11    -0.513980224801E+03    0.46546E-05   -0.31831E-05  8896   0.253E-02
  13 F= -.51398022E+03 E0= -.51398781E+03  d E =-.317651E-02  mag=   104.8592
 curvature:  -0.65 expect dE=-0.960E-03 dE for cont linesearch -0.679E-04
 ZBRENT: interpolating
 opt :   3.0251  next Energy=  -513.980614 (dE=-0.357E-02)
 bond charge predicted
       N       E                     dE             d eps       ncg     rms          rms(c)
DAV:   1    -0.513976919407E+03    0.33100E-02   -0.53080E-01 12208   0.128E+00    0.379E-01
DAV:   2    -0.513979485501E+03   -0.25661E-02   -0.20966E-02 12696   0.346E-01    0.290E-01
DAV:   3    -0.513982141441E+03   -0.26559E-02   -0.65616E-03 22136   0.368E-01    0.596E-01
DAV:   4    -0.513980196257E+03    0.19452E-02   -0.87390E-03 22096   0.415E-01    0.262E-01
DAV:   5    -0.513980624950E+03   -0.42869E-03   -0.75522E-04 20568   0.129E-01    0.164E-01
DAV:   6    -0.513980573553E+03    0.51396E-04   -0.43162E-04 19696   0.124E-01    0.658E-02
DAV:   7    -0.513980570752E+03    0.28012E-05   -0.99381E-05 13632   0.427E-02
  14 F= -.51398057E+03 E0= -.51398813E+03  d E =-.352246E-02  mag=   104.8570
 curvature:  -1.45 expect dE=-0.140E-02 dE for cont linesearch -0.275E-04
 ZBRENT: interpolating
 opt :   2.8268  next Energy=  -513.980599 (dE=-0.355E-02)
 bond charge predicted
       N       E                     dE             d eps       ncg     rms          rms(c)
DAV:   1    -0.513980309553E+03    0.26400E-03   -0.40924E-02 12080   0.355E-01    0.113E-01
DAV:   2    -0.513980542052E+03   -0.23250E-03   -0.17044E-03 14576   0.114E-01    0.129E-01
DAV:   3    -0.513980601077E+03   -0.59025E-04   -0.76881E-04 17032   0.137E-01    0.152E-01
DAV:   4    -0.513980534250E+03    0.66827E-04   -0.34638E-04  9776   0.896E-02    0.785E-02
DAV:   5    -0.513980567111E+03   -0.32861E-04   -0.53361E-05 10720   0.470E-02    0.642E-02
DAV:   6    -0.513980570972E+03   -0.38614E-05   -0.64111E-05 13584   0.335E-02
  15 F= -.51398057E+03 E0= -.51398814E+03  d E =-.352268E-02  mag=   104.8555
 curvature:  -1.49 expect dE=-0.127E-02 dE for cont linesearch -0.203E-06
 trial: gam= 0.23428 g(F)=  0.853E-03 g(S)=  0.000E+00 ort =-0.242E-04 (trialstep = 0.253E+01)
 search vector abs. value=  0.108E-02
 bond charge predicted
       N       E                     dE             d eps       ncg     rms          rms(c)
DAV:   1    -0.513957732607E+03    0.22835E-01   -0.21162E+00 14064   0.361E+00    0.757E-01
DAV:   2    -0.513979781767E+03   -0.22049E-01   -0.20094E-01 12480   0.891E-01    0.632E-01
DAV:   3    -0.513998048322E+03   -0.18267E-01   -0.70995E-02 20632   0.125E+00    0.168E+00
DAV:   4    -0.513979971707E+03    0.18077E-01   -0.49890E-02 22688   0.100E+00    0.399E-01
DAV:   5    -0.513982029172E+03   -0.20575E-02   -0.26804E-03 20216   0.225E-01    0.320E-01
DAV:   6    -0.513982357577E+03   -0.32840E-03   -0.86617E-04 18344   0.128E-01    0.194E-01
DAV:   7    -0.513982198308E+03    0.15927E-03   -0.59007E-04 19912   0.127E-01    0.946E-02
DAV:   8    -0.513982205051E+03   -0.67426E-05   -0.97653E-05 14880   0.426E-02
  16 F= -.51398221E+03 E0= -.51398980E+03  d E =-.163408E-02  mag=   104.8463
 trial-energy change:   -0.001634  1 .order   -0.001758   -0.002146   -0.001370
 step:   6.9996(harm=  6.9996)  dis= 0.02284  next Energy=  -513.983537 (dE=-0.297E-02)
 bond charge predicted
       N       E                     dE             d eps       ncg     rms          rms(c)
DAV:   1    -0.513905332510E+03    0.76866E-01   -0.65738E+00 14064   0.637E+00    0.134E+00
DAV:   2    -0.513973645359E+03   -0.68313E-01   -0.63469E-01 12520   0.154E+00    0.984E-01
DAV:   3    -0.514032715182E+03   -0.59070E-01   -0.19212E-01 21920   0.202E+00    0.294E+00
DAV:   4    -0.513975894502E+03    0.56821E-01   -0.15047E-01 22784   0.176E+00    0.720E-01
DAV:   5    -0.513981514786E+03   -0.56203E-02   -0.61960E-03 19440   0.326E-01    0.533E-01
DAV:   6    -0.513983738829E+03   -0.22240E-02   -0.31708E-03 20648   0.315E-01    0.492E-01
DAV:   7    -0.513982570956E+03    0.11679E-02   -0.31209E-03 19760   0.318E-01    0.217E-01
DAV:   8    -0.513982545153E+03    0.25804E-04   -0.49926E-04 18736   0.851E-02    0.178E-01
DAV:   9    -0.513982522202E+03    0.22950E-04   -0.15407E-04 15184   0.467E-02    0.161E-01
DAV:  10    -0.513982435561E+03    0.86642E-04   -0.40612E-04 20000   0.757E-02    0.106E-01
DAV:  11    -0.513982443446E+03   -0.78855E-05   -0.23651E-04 18160   0.455E-02    0.975E-02
DAV:  12    -0.513982438182E+03    0.52639E-05   -0.43697E-05 11048   0.279E-02
  17 F= -.51398244E+03 E0= -.51399019E+03  d E =-.186721E-02  mag=   104.8168
 curvature:  -4.45 expect dE=-0.408E-02 dE for cont linesearch -0.338E-03
 ZBRENT: interpolating
 opt :   5.4536  next Energy=  -513.982659 (dE=-0.209E-02)
 bond charge predicted
       N       E                     dE             d eps       ncg     rms          rms(c)
DAV:   1    -0.513973638179E+03    0.88053E-02   -0.78725E-01 14024   0.220E+00    0.452E-01
DAV:   2    -0.513981678775E+03   -0.80406E-02   -0.74657E-02 12280   0.523E-01    0.328E-01
DAV:   3    -0.513988066096E+03   -0.63873E-02   -0.20570E-02 21896   0.656E-01    0.978E-01
DAV:   4    -0.513981959071E+03    0.61070E-02   -0.17307E-02 22400   0.577E-01    0.246E-01
DAV:   5    -0.513982699869E+03   -0.74080E-03   -0.79013E-04 18800   0.116E-01    0.166E-01
DAV:   6    -0.513982875311E+03   -0.17544E-03   -0.29709E-04 19736   0.969E-02    0.139E-01
DAV:   7    -0.513982770047E+03    0.10526E-03   -0.30061E-04 18760   0.984E-02    0.533E-02
DAV:   8    -0.513982773752E+03   -0.37048E-05   -0.30031E-05 10232   0.222E-02
  18 F= -.51398277E+03 E0= -.51399049E+03  d E =-.220278E-02  mag=   104.8190
 curvature:  -2.91 expect dE=-0.159E-02 dE for cont linesearch -0.521E-04
 ZBRENT: interpolating
 opt :   4.2946  next Energy=  -513.982871 (dE=-0.230E-02)
 bond charge predicted
       N       E                     dE             d eps       ncg     rms          rms(c)
DAV:   1    -0.513977655730E+03    0.51143E-02   -0.44317E-01 13952   0.166E+00    0.338E-01
DAV:   2    -0.513982081672E+03   -0.44259E-02   -0.41609E-02 12312   0.389E-01    0.237E-01
DAV:   3    -0.513983461132E+03   -0.13795E-02   -0.42663E-03 22272   0.284E-01    0.446E-01
DAV:   4    -0.513982409861E+03    0.10513E-02   -0.45070E-03 21208   0.300E-01    0.220E-01
DAV:   5    -0.513982702113E+03   -0.29225E-03   -0.60354E-04 19312   0.116E-01    0.112E-01
DAV:   6    -0.513982730499E+03   -0.28386E-04   -0.22309E-04 18944   0.786E-02    0.777E-02
DAV:   7    -0.513982718381E+03    0.12117E-04   -0.59230E-05 13256   0.460E-02    0.574E-02
DAV:   8    -0.513982714255E+03    0.41268E-05   -0.17190E-05  7536   0.223E-02
  19 F= -.51398271E+03 E0= -.51399039E+03  d E =-.214328E-02  mag=   104.8228
 curvature:  -5.42 expect dE=-0.179E-02 dE for cont linesearch -0.974E-05
 trial: gam= 0.35275 g(F)=  0.330E-03 g(S)=  0.000E+00 ort = 0.440E-04 (trialstep = 0.289E+01)
 search vector abs. value=  0.495E-03
 bond charge predicted
       N       E                     dE             d eps       ncg     rms          rms(c)
DAV:   1    -0.513972971905E+03    0.97465E-02   -0.11912E+00 13280   0.230E+00    0.519E-01
DAV:   2    -0.513982153778E+03   -0.91819E-02   -0.82202E-02 12584   0.642E-01    0.465E-01
DAV:   3    -0.513989454045E+03   -0.73003E-02   -0.31078E-02 19984   0.838E-01    0.109E+00
DAV:   4    -0.513982274219E+03    0.71798E-02   -0.22339E-02 21400   0.659E-01    0.295E-01
DAV:   5    -0.513983118877E+03   -0.84466E-03   -0.10400E-03 19040   0.144E-01    0.214E-01
DAV:   6    -0.513983502186E+03   -0.38331E-03   -0.78400E-04 20584   0.165E-01    0.210E-01
DAV:   7    -0.513983303727E+03    0.19846E-03   -0.62615E-04 19096   0.132E-01    0.667E-02
DAV:   8    -0.513983315085E+03   -0.11358E-04   -0.77982E-05 14096   0.286E-02    0.589E-02
DAV:   9    -0.513983315008E+03    0.77154E-07   -0.13619E-05  8072   0.161E-02
  20 F= -.51398332E+03 E0= -.51399102E+03  d E =-.600753E-03  mag=   104.8066
 trial-energy change:   -0.000601  1 .order   -0.000657   -0.000996   -0.000318
 step:   4.2363(harm=  4.2363)  dis= 0.01219  next Energy=  -513.983445 (dE=-0.731E-03)
 bond charge predicted
       N       E                     dE             d eps       ncg     rms          rms(c)
DAV:   1    -0.513981079053E+03    0.22360E-02   -0.26202E-01 13168   0.108E+00    0.242E-01
DAV:   2    -0.513982934451E+03   -0.18554E-02   -0.17406E-02 12304   0.277E-01    0.171E-01
DAV:   3    -0.513983101617E+03   -0.16717E-03   -0.54394E-04 19264   0.769E-02    0.146E-01
DAV:   4    -0.513983792473E+03   -0.69086E-03   -0.19509E-03 17368   0.205E-01    0.319E-01
DAV:   5    -0.513983212522E+03    0.57995E-03   -0.20554E-03 12704   0.203E-01    0.131E-01
DAV:   6    -0.513983298254E+03   -0.85732E-04   -0.14988E-04 16744   0.590E-02    0.784E-02
DAV:   7    -0.513983284223E+03    0.14031E-04   -0.93051E-05 13440   0.450E-02    0.469E-02
DAV:   8    -0.513983285969E+03   -0.17454E-05   -0.18731E-05  7448   0.138E-02
  21 F= -.51398329E+03 E0= -.51399101E+03  d E =-.571714E-03  mag=   104.7987
 curvature:  -3.04 expect dE=-0.104E-02 dE for cont linesearch -0.120E-04
 trial: gam= 1.37709 g(F)=  0.343E-03 g(S)=  0.000E+00 ort =-0.442E-04 (trialstep = 0.135E+01)
 search vector abs. value=  0.116E-02
 bond charge predicted
       N       E                     dE             d eps       ncg     rms          rms(c)
DAV:   1    -0.513977658997E+03    0.56252E-02   -0.66988E-01 14200   0.178E+00    0.350E-01
DAV:   2    -0.513983136952E+03   -0.54780E-02   -0.50099E-02 12360   0.450E-01    0.325E-01
DAV:   3    -0.513986294892E+03   -0.31579E-02   -0.14872E-02 19712   0.576E-01    0.723E-01
DAV:   4    -0.513983058422E+03    0.32365E-02   -0.92377E-03 21488   0.430E-01    0.193E-01
DAV:   5    -0.513983435811E+03   -0.37739E-03   -0.46514E-04 19000   0.936E-02    0.154E-01
DAV:   6    -0.513983621962E+03   -0.18615E-03   -0.25975E-04 19800   0.895E-02    0.149E-01
DAV:   7    -0.513983513121E+03    0.10884E-03   -0.31035E-04 18384   0.998E-02    0.590E-02
DAV:   8    -0.513983517536E+03   -0.44152E-05   -0.35322E-05 10456   0.239E-02
  22 F= -.51398352E+03 E0= -.51399124E+03  d E =-.231567E-03  mag=   104.7911
 trial-energy change:   -0.000232  1 .order   -0.000308   -0.000380   -0.000237
 step:   3.5897(harm=  3.5897)  dis= 0.01701  next Energy=  -513.983792 (dE=-0.506E-03)
 bond charge predicted
       N       E                     dE             d eps       ncg     rms          rms(c)
DAV:   1    -0.513966791212E+03    0.16722E-01   -0.18550E+00 14288   0.297E+00    0.584E-01
DAV:   2    -0.513981653887E+03   -0.14863E-01   -0.14209E-01 12456   0.704E-01    0.385E-01
DAV:   3    -0.513984205615E+03   -0.25517E-02   -0.82347E-03 22104   0.369E-01    0.593E-01
DAV:   4    -0.513982732116E+03    0.14735E-02   -0.84654E-03 21448   0.418E-01    0.364E-01
DAV:   5    -0.513983331029E+03   -0.59891E-03   -0.11489E-03 20400   0.153E-01    0.224E-01
DAV:   6    -0.513983567313E+03   -0.23628E-03   -0.71431E-04 20592   0.152E-01    0.154E-01
DAV:   7    -0.513983496950E+03    0.70363E-04   -0.33351E-04 19016   0.104E-01    0.924E-02
DAV:   8    -0.513983494493E+03    0.24574E-05   -0.58471E-05 13304   0.287E-02
  23 F= -.51398349E+03 E0= -.51399123E+03  d E =-.208524E-03  mag=   104.7799
 curvature:  -7.38 expect dE=-0.222E-02 dE for cont linesearch -0.474E-06
 trial: gam= 0.18449 g(F)=  0.301E-03 g(S)=  0.000E+00 ort = 0.863E-05 (trialstep = 0.180E+01)
 search vector abs. value=  0.344E-03
 bond charge predicted
       N       E                     dE             d eps       ncg     rms          rms(c)
DAV:   1    -0.513980698012E+03    0.27989E-02   -0.27570E-01 12712   0.126E+00    0.312E-01
DAV:   2    -0.513983172133E+03   -0.24741E-02   -0.22518E-02 12448   0.334E-01    0.237E-01
DAV:   3    -0.513985317499E+03   -0.21454E-02   -0.64507E-03 21752   0.363E-01    0.568E-01
DAV:   4    -0.513983429020E+03    0.18885E-02   -0.68116E-03 21560   0.366E-01    0.206E-01
DAV:   5    -0.513983706811E+03   -0.27779E-03   -0.54059E-04 19688   0.119E-01    0.140E-01
DAV:   6    -0.513983754024E+03   -0.47213E-04   -0.26361E-04 19488   0.943E-02    0.818E-02
DAV:   7    -0.513983755124E+03   -0.11002E-05   -0.75656E-05 14584   0.484E-02
  24 F= -.51398376E+03 E0= -.51399150E+03  d E =-.260631E-03  mag=   104.7822
 trial-energy change:   -0.000261  1 .order   -0.000330   -0.000544   -0.000116
 step:   2.2815(harm=  2.2815)  dis= 0.00412  next Energy=  -513.983840 (dE=-0.346E-03)
 reached required accuracy - stopping structural energy minimisation
 PROFILE, used timers:     231
