  63  63   0   0
  0.2718825E+02  0.8509700E-09  0.8539300E-09  0.2357140E-08  0.5000000E-15
  1.000000000000000E-004
  CAR 
 ni3al                                   
      5.12955201    -45.74714789  301      0.82750673      1.00000000
    -45.747  0.0000E+00  0.0000E+00  0.0000E+00  0.0000E+00
    -45.578  0.0000E+00  0.0000E+00  0.0000E+00  0.0000E+00
    -45.408  0.0000E+00  0.0000E+00  0.0000E+00  0.0000E+00
    -45.238  0.0000E+00  0.0000E+00  0.0000E+00  0.0000E+00
    -45.069  0.0000E+00  0.0000E+00  0.0000E+00  0.0000E+00
    -44.899  0.0000E+00  0.0000E+00  0.0000E+00  0.0000E+00
    -44.730  0.0000E+00 -0.2031E-33  0.0000E+00 -0.3445E-34
    -44.560  0.0000E+00 -0.1480E-25  0.0000E+00 -0.2511E-26
    -44.390  0.0000E+00 -0.8188E-19  0.0000E+00 -0.1389E-19
    -44.221 -0.6133E-35 -0.3294E-13 -0.1040E-35 -0.5586E-14
    -44.051 -0.7565E-27 -0.1006E-08 -0.1283E-27 -0.1706E-09
    -43.882 -0.7165E-20 -0.2233E-05 -0.1215E-20 -0.3789E-06
    -43.712 -0.5018E-14 -0.3453E-03 -0.8509E-15 -0.5894E-04
    -43.542 -0.2702E-09 -0.2059E-02 -0.4582E-10 -0.4082E-03
    -43.373 -0.1057E-05  0.3535E-01 -0.1793E-06  0.5586E-02
    -43.203 -0.2678E-03  0.1614E+00 -0.4560E-04  0.3296E-01
    -43.034 -0.1290E-02  0.1219E+00 -0.2643E-03  0.5363E-01
    -42.864  0.3505E-01  0.5224E-01  0.5680E-02  0.6249E-01
    -42.695  0.2731E-01  0.7153E-01  0.1031E-01  0.7462E-01
    -42.525 -0.2899E-02  0.7419E-01  0.9820E-02  0.8720E-01
    -42.355  0.1434E-01  0.8288E-01  0.1225E-01  0.1013E+00
    -42.186  0.6214E-01  0.3355E-01  0.2279E-01  0.1069E+00
    -42.016  0.1955E+00  0.6733E-01  0.5595E-01  0.1184E+00
    -41.847  0.1806E+00  0.1126E-01  0.8657E-01  0.1203E+00
    -41.677  0.8541E-01 -0.1589E-02  0.1011E+00  0.1200E+00
    -41.507 -0.5644E-02 -0.3786E-04  0.1001E+00  0.1200E+00
    -41.338 -0.5556E-03 -0.4981E-07  0.1000E+00  0.1200E+00
    -41.168 -0.4096E-03 -0.4578E-11  0.9993E-01  0.1200E+00
    -40.999  0.8697E-04 -0.3273E-16  0.9995E-01  0.1200E+00
    -40.829  0.3668E-01 -0.5423E-29  0.1062E+00  0.1200E+00
    -40.659  0.2245E-01 -0.9816E-22  0.1100E+00  0.1200E+00
    -40.490  0.1649E-01 -0.1310E-15  0.1128E+00  0.1200E+00
    -40.320  0.6069E-01 -0.1351E-10  0.1231E+00  0.1200E+00
    -40.151  0.3892E-01 -0.1025E-06  0.1297E+00  0.1200E+00
    -39.981  0.2667E-02 -0.5361E-04  0.1301E+00  0.1200E+00
    -39.812 -0.6590E-03 -0.1278E-02  0.1300E+00  0.1198E+00
    -39.642 -0.1171E-04  0.1306E-01  0.1300E+00  0.1220E+00
    -39.472 -0.1212E-07  0.3916E-01  0.1300E+00  0.1286E+00
    -39.303 -0.8674E-12  0.9089E-02  0.1300E+00  0.1302E+00
    -39.133 -0.4364E-17 -0.9614E-03  0.1300E+00  0.1300E+00
    -38.964  0.0000E+00 -0.4395E-04  0.1300E+00  0.1300E+00
    -38.794  0.0000E+00 -0.9377E-07  0.1300E+00  0.1300E+00
    -38.624  0.0000E+00 -0.1339E-10  0.1300E+00  0.1300E+00
    -38.455  0.0000E+00 -0.1353E-15  0.1300E+00  0.1300E+00
    -38.285  0.0000E+00  0.0000E+00  0.1300E+00  0.1300E+00
    -38.116  0.0000E+00  0.0000E+00  0.1300E+00  0.1300E+00
    -37.946  0.0000E+00  0.0000E+00  0.1300E+00  0.1300E+00
    -37.776  0.0000E+00  0.0000E+00  0.1300E+00  0.1300E+00
    -37.607  0.0000E+00  0.0000E+00  0.1300E+00  0.1300E+00
    -37.437  0.0000E+00  0.0000E+00  0.1300E+00  0.1300E+00
    -37.268  0.0000E+00  0.0000E+00  0.1300E+00  0.1300E+00
    -37.098  0.0000E+00  0.0000E+00  0.1300E+00  0.1300E+00
    -36.929  0.0000E+00  0.0000E+00  0.1300E+00  0.1300E+00
    -36.759  0.0000E+00  0.0000E+00  0.1300E+00  0.1300E+00
    -36.589  0.0000E+00  0.0000E+00  0.1300E+00  0.1300E+00
    -36.420  0.0000E+00  0.0000E+00  0.1300E+00  0.1300E+00
    -36.250  0.0000E+00  0.0000E+00  0.1300E+00  0.1300E+00
    -36.081  0.0000E+00  0.0000E+00  0.1300E+00  0.1300E+00
    -35.911  0.0000E+00  0.0000E+00  0.1300E+00  0.1300E+00
    -35.741  0.0000E+00  0.0000E+00  0.1300E+00  0.1300E+00
    -35.572  0.0000E+00  0.0000E+00  0.1300E+00  0.1300E+00
    -35.402  0.0000E+00  0.0000E+00  0.1300E+00  0.1300E+00
    -35.233  0.0000E+00  0.0000E+00  0.1300E+00  0.1300E+00
    -35.063  0.0000E+00  0.0000E+00  0.1300E+00  0.1300E+00
    -34.893  0.0000E+00  0.0000E+00  0.1300E+00  0.1300E+00
    -34.724  0.0000E+00  0.0000E+00  0.1300E+00  0.1300E+00
    -34.554  0.0000E+00  0.0000E+00  0.1300E+00  0.1300E+00
    -34.385  0.0000E+00  0.0000E+00  0.1300E+00  0.1300E+00
    -34.215  0.0000E+00  0.0000E+00  0.1300E+00  0.1300E+00
    -34.046  0.0000E+00  0.0000E+00  0.1300E+00  0.1300E+00
    -33.876  0.0000E+00  0.0000E+00  0.1300E+00  0.1300E+00
    -33.706  0.0000E+00  0.0000E+00  0.1300E+00  0.1300E+00
    -33.537  0.0000E+00  0.0000E+00  0.1300E+00  0.1300E+00
    -33.367  0.0000E+00  0.0000E+00  0.1300E+00  0.1300E+00
    -33.198  0.0000E+00  0.0000E+00  0.1300E+00  0.1300E+00
    -33.028  0.0000E+00  0.0000E+00  0.1300E+00  0.1300E+00
    -32.858  0.0000E+00  0.0000E+00  0.1300E+00  0.1300E+00
    -32.689  0.0000E+00  0.0000E+00  0.1300E+00  0.1300E+00
    -32.519  0.0000E+00  0.0000E+00  0.1300E+00  0.1300E+00
    -32.350  0.0000E+00  0.0000E+00  0.1300E+00  0.1300E+00
    -32.180  0.0000E+00  0.0000E+00  0.1300E+00  0.1300E+00
    -32.010  0.0000E+00  0.0000E+00  0.1300E+00  0.1300E+00
    -31.841  0.0000E+00  0.0000E+00  0.1300E+00  0.1300E+00
    -31.671  0.0000E+00  0.0000E+00  0.1300E+00  0.1300E+00
    -31.502  0.0000E+00  0.0000E+00  0.1300E+00  0.1300E+00
    -31.332  0.0000E+00  0.0000E+00  0.1300E+00  0.1300E+00
    -31.162  0.0000E+00  0.0000E+00  0.1300E+00  0.1300E+00
    -30.993  0.0000E+00  0.0000E+00  0.1300E+00  0.1300E+00
    -30.823  0.0000E+00  0.0000E+00  0.1300E+00  0.1300E+00
    -30.654  0.0000E+00  0.0000E+00  0.1300E+00  0.1300E+00
    -30.484  0.0000E+00  0.0000E+00  0.1300E+00  0.1300E+00
    -30.315  0.0000E+00  0.0000E+00  0.1300E+00  0.1300E+00
    -30.145  0.0000E+00  0.0000E+00  0.1300E+00  0.1300E+00
    -29.975  0.0000E+00  0.0000E+00  0.1300E+00  0.1300E+00
    -29.806  0.0000E+00  0.0000E+00  0.1300E+00  0.1300E+00
    -29.636  0.0000E+00  0.0000E+00  0.1300E+00  0.1300E+00
    -29.467  0.0000E+00  0.0000E+00  0.1300E+00  0.1300E+00
    -29.297  0.0000E+00  0.0000E+00  0.1300E+00  0.1300E+00
    -29.127  0.0000E+00  0.0000E+00  0.1300E+00  0.1300E+00
    -28.958  0.0000E+00  0.0000E+00  0.1300E+00  0.1300E+00
    -28.788  0.0000E+00  0.0000E+00  0.1300E+00  0.1300E+00
    -28.619  0.0000E+00  0.0000E+00  0.1300E+00  0.1300E+00
    -28.449  0.0000E+00  0.0000E+00  0.1300E+00  0.1300E+00
    -28.279  0.0000E+00  0.0000E+00  0.1300E+00  0.1300E+00
    -28.110  0.0000E+00  0.0000E+00  0.1300E+00  0.1300E+00
    -27.940  0.0000E+00  0.0000E+00  0.1300E+00  0.1300E+00
    -27.771  0.0000E+00  0.0000E+00  0.1300E+00  0.1300E+00
    -27.601  0.0000E+00  0.0000E+00  0.1300E+00  0.1300E+00
    -27.432  0.0000E+00  0.0000E+00  0.1300E+00  0.1300E+00
    -27.262  0.0000E+00  0.0000E+00  0.1300E+00  0.1300E+00
    -27.092  0.0000E+00  0.0000E+00  0.1300E+00  0.1300E+00
    -26.923  0.0000E+00  0.0000E+00  0.1300E+00  0.1300E+00
    -26.753  0.0000E+00  0.0000E+00  0.1300E+00  0.1300E+00
    -26.584  0.0000E+00  0.0000E+00  0.1300E+00  0.1300E+00
    -26.414  0.0000E+00  0.0000E+00  0.1300E+00  0.1300E+00
    -26.244  0.0000E+00  0.0000E+00  0.1300E+00  0.1300E+00
    -26.075  0.0000E+00  0.0000E+00  0.1300E+00  0.1300E+00
    -25.905  0.0000E+00  0.0000E+00  0.1300E+00  0.1300E+00
    -25.736  0.0000E+00  0.0000E+00  0.1300E+00  0.1300E+00
    -25.566  0.0000E+00  0.0000E+00  0.1300E+00  0.1300E+00
    -25.396  0.0000E+00  0.0000E+00  0.1300E+00  0.1300E+00
    -25.227  0.0000E+00  0.0000E+00  0.1300E+00  0.1300E+00
    -25.057  0.0000E+00  0.0000E+00  0.1300E+00  0.1300E+00
    -24.888  0.0000E+00  0.0000E+00  0.1300E+00  0.1300E+00
    -24.718  0.0000E+00  0.0000E+00  0.1300E+00  0.1300E+00
    -24.549  0.0000E+00  0.0000E+00  0.1300E+00  0.1300E+00
    -24.379  0.0000E+00  0.0000E+00  0.1300E+00  0.1300E+00
    -24.209  0.0000E+00  0.0000E+00  0.1300E+00  0.1300E+00
    -24.040  0.0000E+00  0.0000E+00  0.1300E+00  0.1300E+00
    -23.870  0.0000E+00  0.0000E+00  0.1300E+00  0.1300E+00
    -23.701  0.0000E+00  0.0000E+00  0.1300E+00  0.1300E+00
    -23.531  0.0000E+00  0.0000E+00  0.1300E+00  0.1300E+00
    -23.361  0.0000E+00  0.0000E+00  0.1300E+00  0.1300E+00
    -23.192  0.0000E+00  0.0000E+00  0.1300E+00  0.1300E+00
    -23.022  0.0000E+00  0.0000E+00  0.1300E+00  0.1300E+00
    -22.853  0.0000E+00  0.0000E+00  0.1300E+00  0.1300E+00
    -22.683  0.0000E+00  0.0000E+00  0.1300E+00  0.1300E+00
    -22.513  0.0000E+00  0.0000E+00  0.1300E+00  0.1300E+00
    -22.344  0.0000E+00  0.0000E+00  0.1300E+00  0.1300E+00
    -22.174  0.0000E+00  0.0000E+00  0.1300E+00  0.1300E+00
    -22.005  0.0000E+00  0.0000E+00  0.1300E+00  0.1300E+00
    -21.835  0.0000E+00  0.0000E+00  0.1300E+00  0.1300E+00
    -21.666  0.0000E+00  0.0000E+00  0.1300E+00  0.1300E+00
    -21.496  0.0000E+00  0.0000E+00  0.1300E+00  0.1300E+00
    -21.326  0.0000E+00  0.0000E+00  0.1300E+00  0.1300E+00
    -21.157  0.0000E+00  0.0000E+00  0.1300E+00  0.1300E+00
    -20.987  0.0000E+00  0.0000E+00  0.1300E+00  0.1300E+00
    -20.818  0.0000E+00  0.0000E+00  0.1300E+00  0.1300E+00
    -20.648  0.0000E+00  0.0000E+00  0.1300E+00  0.1300E+00
    -20.478  0.0000E+00  0.0000E+00  0.1300E+00  0.1300E+00
    -20.309  0.0000E+00  0.0000E+00  0.1300E+00  0.1300E+00
    -20.139  0.0000E+00  0.0000E+00  0.1300E+00  0.1300E+00
    -19.970  0.0000E+00  0.0000E+00  0.1300E+00  0.1300E+00
    -19.800  0.0000E+00  0.0000E+00  0.1300E+00  0.1300E+00
    -19.630  0.0000E+00  0.0000E+00  0.1300E+00  0.1300E+00
    -19.461  0.0000E+00  0.0000E+00  0.1300E+00  0.1300E+00
    -19.291  0.0000E+00  0.0000E+00  0.1300E+00  0.1300E+00
    -19.122  0.0000E+00  0.0000E+00  0.1300E+00  0.1300E+00
    -18.952  0.0000E+00  0.0000E+00  0.1300E+00  0.1300E+00
    -18.782  0.0000E+00  0.0000E+00  0.1300E+00  0.1300E+00
    -18.613  0.0000E+00  0.0000E+00  0.1300E+00  0.1300E+00
    -18.443  0.0000E+00  0.0000E+00  0.1300E+00  0.1300E+00
    -18.274  0.0000E+00  0.0000E+00  0.1300E+00  0.1300E+00
    -18.104  0.0000E+00  0.0000E+00  0.1300E+00  0.1300E+00
    -17.935  0.0000E+00  0.0000E+00  0.1300E+00  0.1300E+00
    -17.765  0.0000E+00  0.0000E+00  0.1300E+00  0.1300E+00
    -17.595  0.0000E+00  0.0000E+00  0.1300E+00  0.1300E+00
    -17.426  0.0000E+00  0.0000E+00  0.1300E+00  0.1300E+00
    -17.256  0.0000E+00  0.0000E+00  0.1300E+00  0.1300E+00
    -17.087  0.0000E+00  0.0000E+00  0.1300E+00  0.1300E+00
    -16.917  0.0000E+00  0.0000E+00  0.1300E+00  0.1300E+00
    -16.747  0.0000E+00  0.0000E+00  0.1300E+00  0.1300E+00
    -16.578  0.0000E+00  0.0000E+00  0.1300E+00  0.1300E+00
    -16.408  0.0000E+00  0.0000E+00  0.1300E+00  0.1300E+00
    -16.239  0.0000E+00  0.0000E+00  0.1300E+00  0.1300E+00
    -16.069  0.0000E+00  0.0000E+00  0.1300E+00  0.1300E+00
    -15.899  0.0000E+00  0.0000E+00  0.1300E+00  0.1300E+00
    -15.730  0.0000E+00  0.0000E+00  0.1300E+00  0.1300E+00
    -15.560  0.0000E+00  0.0000E+00  0.1300E+00  0.1300E+00
    -15.391  0.0000E+00  0.0000E+00  0.1300E+00  0.1300E+00
    -15.221  0.0000E+00  0.0000E+00  0.1300E+00  0.1300E+00
    -15.052  0.0000E+00  0.0000E+00  0.1300E+00  0.1300E+00
    -14.882  0.0000E+00  0.0000E+00  0.1300E+00  0.1300E+00
    -14.712  0.0000E+00  0.0000E+00  0.1300E+00  0.1300E+00
    -14.543  0.0000E+00  0.0000E+00  0.1300E+00  0.1300E+00
    -14.373  0.0000E+00  0.0000E+00  0.1300E+00  0.1300E+00
    -14.204  0.0000E+00  0.0000E+00  0.1300E+00  0.1300E+00
    -14.034  0.0000E+00  0.0000E+00  0.1300E+00  0.1300E+00
    -13.864  0.0000E+00  0.0000E+00  0.1300E+00  0.1300E+00
    -13.695  0.0000E+00  0.0000E+00  0.1300E+00  0.1300E+00
    -13.525  0.0000E+00  0.0000E+00  0.1300E+00  0.1300E+00
    -13.356  0.0000E+00  0.0000E+00  0.1300E+00  0.1300E+00
    -13.186  0.0000E+00  0.0000E+00  0.1300E+00  0.1300E+00
    -13.016  0.0000E+00  0.0000E+00  0.1300E+00  0.1300E+00
    -12.847  0.0000E+00  0.0000E+00  0.1300E+00  0.1300E+00
    -12.677  0.0000E+00  0.0000E+00  0.1300E+00  0.1300E+00
    -12.508  0.0000E+00  0.0000E+00  0.1300E+00  0.1300E+00
    -12.338  0.0000E+00  0.0000E+00  0.1300E+00  0.1300E+00
    -12.169  0.0000E+00  0.0000E+00  0.1300E+00  0.1300E+00
    -11.999  0.0000E+00  0.0000E+00  0.1300E+00  0.1300E+00
    -11.829  0.0000E+00  0.0000E+00  0.1300E+00  0.1300E+00
    -11.660  0.0000E+00  0.0000E+00  0.1300E+00  0.1300E+00
    -11.490  0.0000E+00  0.0000E+00  0.1300E+00  0.1300E+00
    -11.321  0.0000E+00  0.0000E+00  0.1300E+00  0.1300E+00
    -11.151  0.0000E+00  0.0000E+00  0.1300E+00  0.1300E+00
    -10.981  0.0000E+00  0.0000E+00  0.1300E+00  0.1300E+00
    -10.812  0.0000E+00  0.0000E+00  0.1300E+00  0.1300E+00
    -10.642  0.0000E+00  0.0000E+00  0.1300E+00  0.1300E+00
    -10.473  0.0000E+00  0.0000E+00  0.1300E+00  0.1300E+00
    -10.303  0.0000E+00  0.0000E+00  0.1300E+00  0.1300E+00
    -10.133  0.0000E+00  0.0000E+00  0.1300E+00  0.1300E+00
     -9.964  0.0000E+00  0.0000E+00  0.1300E+00  0.1300E+00
     -9.794  0.0000E+00  0.0000E+00  0.1300E+00  0.1300E+00
     -9.625  0.0000E+00  0.0000E+00  0.1300E+00  0.1300E+00
     -9.455  0.0000E+00  0.0000E+00  0.1300E+00  0.1300E+00
     -9.286  0.0000E+00  0.0000E+00  0.1300E+00  0.1300E+00
     -9.116  0.0000E+00  0.0000E+00  0.1300E+00  0.1300E+00
     -8.946  0.0000E+00  0.0000E+00  0.1300E+00  0.1300E+00
     -8.777  0.0000E+00  0.0000E+00  0.1300E+00  0.1300E+00
     -8.607 -0.6302E-36  0.0000E+00  0.1300E+00  0.1300E+00
     -8.438 -0.8153E-28 -0.3844E-33  0.1300E+00  0.1300E+00
     -8.268 -0.8009E-21 -0.2135E-25  0.1300E+00  0.1300E+00
     -8.098 -0.5732E-15 -0.8987E-19  0.1300E+00  0.1300E+00
     -7.929 -0.3090E-10 -0.2732E-13  0.1300E+00  0.1300E+00
     -7.759 -0.1176E-06 -0.6212E-09  0.1300E+00  0.1300E+00
     -7.590 -0.2772E-04 -0.9724E-06  0.1300E+00  0.1300E+00
     -7.420 -0.8226E-04 -0.8360E-04  0.1300E+00  0.1300E+00
     -7.250  0.3035E-02  0.4636E-03  0.1305E+00  0.1301E+00
     -7.081  0.3088E-02  0.3646E-02  0.1310E+00  0.1307E+00
     -6.911  0.7608E-02  0.4117E-02  0.1323E+00  0.1314E+00
     -6.742  0.3161E-02  0.6658E-02  0.1328E+00  0.1325E+00
     -6.572  0.3145E-02  0.3078E-02  0.1334E+00  0.1330E+00
     -6.402  0.7955E-02  0.3243E-02  0.1347E+00  0.1336E+00
     -6.233  0.9562E-02  0.8634E-02  0.1364E+00  0.1350E+00
     -6.063  0.1223E-01  0.9857E-02  0.1384E+00  0.1367E+00
     -5.894  0.4896E-02  0.1120E-01  0.1393E+00  0.1386E+00
     -5.724  0.1083E-01  0.4014E-02  0.1411E+00  0.1393E+00
     -5.555  0.1725E-01  0.1198E-01  0.1440E+00  0.1413E+00
     -5.385  0.1293E-01  0.1588E-01  0.1462E+00  0.1440E+00
     -5.215  0.7016E-02  0.1296E-01  0.1474E+00  0.1462E+00
     -5.046  0.1128E-01  0.6916E-02  0.1493E+00  0.1474E+00
     -4.876  0.2333E-01  0.5905E-02  0.1533E+00  0.1484E+00
     -4.707  0.2674E-01  0.1964E-01  0.1578E+00  0.1517E+00
     -4.537  0.1896E-01  0.2524E-01  0.1610E+00  0.1560E+00
     -4.367  0.2513E-01  0.2005E-01  0.1653E+00  0.1594E+00
     -4.198  0.3751E-01  0.1190E-01  0.1716E+00  0.1614E+00
     -4.028  0.5930E-01  0.2484E-01  0.1817E+00  0.1656E+00
     -3.859  0.9807E-01  0.2114E-01  0.1983E+00  0.1692E+00
     -3.689  0.1058E+00  0.2537E-01  0.2163E+00  0.1735E+00
     -3.519  0.1355E+00  0.2856E-01  0.2393E+00  0.1784E+00
     -3.350  0.1700E+00  0.3945E-01  0.2681E+00  0.1851E+00
     -3.180  0.1793E+00  0.4918E-01  0.2985E+00  0.1934E+00
     -3.011  0.1503E+00  0.6203E-01  0.3240E+00  0.2039E+00
     -2.841  0.1463E+00  0.7425E-01  0.3488E+00  0.2165E+00
     -2.672  0.2176E+00  0.7120E-01  0.3857E+00  0.2286E+00
     -2.502  0.2586E+00  0.7388E-01  0.4295E+00  0.2411E+00
     -2.332  0.2336E+00  0.1057E+00  0.4692E+00  0.2590E+00
     -2.163  0.2395E+00  0.1309E+00  0.5098E+00  0.2812E+00
     -1.993  0.2459E+00  0.1208E+00  0.5515E+00  0.3017E+00
     -1.824  0.2361E+00  0.1233E+00  0.5915E+00  0.3226E+00
     -1.654  0.2389E+00  0.1179E+00  0.6320E+00  0.3426E+00
     -1.484  0.2378E+00  0.1185E+00  0.6724E+00  0.3627E+00
     -1.315  0.1904E+00  0.1538E+00  0.7047E+00  0.3888E+00
     -1.145  0.1501E+00  0.1710E+00  0.7301E+00  0.4178E+00
     -0.976  0.1556E+00  0.1938E+00  0.7565E+00  0.4507E+00
     -0.806  0.2008E+00  0.2041E+00  0.7906E+00  0.4853E+00
     -0.636  0.2529E+00  0.2142E+00  0.8334E+00  0.5216E+00
     -0.467  0.3089E+00  0.2189E+00  0.8858E+00  0.5588E+00
     -0.297  0.3135E+00  0.2006E+00  0.9390E+00  0.5928E+00
     -0.128  0.2409E+00  0.1865E+00  0.9799E+00  0.6244E+00
      0.042  0.1722E+00  0.1575E+00  0.1009E+01  0.6511E+00
      0.211  0.1390E+00  0.1305E+00  0.1033E+01  0.6732E+00
      0.381  0.1386E+00  0.1282E+00  0.1056E+01  0.6950E+00
      0.551  0.1238E+00  0.1190E+00  0.1077E+01  0.7152E+00
      0.720  0.1070E+00  0.1133E+00  0.1095E+01  0.7344E+00
      0.890  0.1044E+00  0.1248E+00  0.1113E+01  0.7555E+00
      1.059  0.9666E-01  0.1586E+00  0.1129E+01  0.7824E+00
      1.229  0.9123E-01  0.1594E+00  0.1145E+01  0.8095E+00
      1.399  0.9208E-01  0.1584E+00  0.1160E+01  0.8363E+00
      1.568  0.9819E-01  0.1949E+00  0.1177E+01  0.8694E+00
      1.738  0.1066E+00  0.2386E+00  0.1195E+01  0.9098E+00
      1.907  0.9522E-01  0.2856E+00  0.1211E+01  0.9583E+00
      2.077  0.3375E-01  0.3262E+00  0.1217E+01  0.1014E+01
      2.247 -0.2129E-02  0.2945E+00  0.1217E+01  0.1064E+01
      2.416 -0.2554E-03  0.3262E+00  0.1217E+01  0.1119E+01
      2.586 -0.1192E-05  0.3208E+00  0.1217E+01  0.1173E+01
      2.755 -0.4312E-09  0.2016E+00  0.1217E+01  0.1207E+01
      2.925 -0.1285E-13  0.5912E-01  0.1217E+01  0.1217E+01
      3.094  0.0000E+00 -0.4266E-02  0.1217E+01  0.1217E+01
      3.264  0.0000E+00 -0.4496E-03  0.1217E+01  0.1217E+01
      3.434  0.0000E+00 -0.1967E-05  0.1217E+01  0.1217E+01
      3.603  0.0000E+00 -0.6362E-09  0.1217E+01  0.1217E+01
      3.773  0.0000E+00 -0.1610E-13  0.1217E+01  0.1217E+01
      3.942  0.0000E+00  0.0000E+00  0.1217E+01  0.1217E+01
      4.112  0.0000E+00  0.0000E+00  0.1217E+01  0.1217E+01
      4.282  0.0000E+00  0.0000E+00  0.1217E+01  0.1217E+01
      4.451  0.0000E+00  0.0000E+00  0.1217E+01  0.1217E+01
      4.621  0.0000E+00  0.0000E+00  0.1217E+01  0.1217E+01
      4.790  0.0000E+00  0.0000E+00  0.1217E+01  0.1217E+01
      4.960  0.0000E+00  0.0000E+00  0.1217E+01  0.1217E+01
      5.130  0.0000E+00  0.0000E+00  0.1217E+01  0.1217E+01
