srun: ROUTE: split_hostlist: hl=b06r2n[00-01] tree_width 0
 running on    8 total cores
 distrk:  each k-point on    1 cores,    8 groups
 distr:  one band on    1 cores,    1 groups
 HIP runtime initialized ...    8 DCUs will be used
 Created    4 streams on each DCU
 vasp.6.3.2 27Jun22 (build Mar 15 2023 15:45:48) complex                        
  
 POSCAR found type information on POSCAR CrFe
 POSCAR found :  2 types and      63 ions
 Reading from existing POTCAR
 -----------------------------------------------------------------------------
|                                                                             |
|           W    W    AA    RRRRR   N    N  II  N    N   GGGG   !!!           |
|           W    W   A  A   R    R  NN   N  II  NN   N  G    G  !!!           |
|           W    W  A    A  R    R  N N  N  II  N N  N  G       !!!           |
|           W WW W  AAAAAA  RRRRR   N  N N  II  N  N N  G  GGG   !            |
|           WW  WW  A    A  R   R   N   NN  II  N   NN  G    G                |
|           W    W  A    A  R    R  N    N  II  N    N   GGGG   !!!           |
|                                                                             |
|     You use a magnetic or noncollinear calculation, but did not specify     |
|     the initial magnetic moment with the MAGMOM tag. Note that a            |
|     default of 1 will be used for all atoms. This ferromagnetic setup       |
|     may break the symmetry of the crystal, in particular it may rule        |
|     out finding an antiferromagnetic solution. Thence, we recommend         |
|     setting the initial magnetic moment manually or verifying carefully     |
|     that this magnetic setup is desired.                                    |
|                                                                             |
 -----------------------------------------------------------------------------

 scaLAPACK will be used selectively (only on CPU)
 -----------------------------------------------------------------------------
|                                                                             |
|           W    W    AA    RRRRR   N    N  II  N    N   GGGG   !!!           |
|           W    W   A  A   R    R  NN   N  II  NN   N  G    G  !!!           |
|           W    W  A    A  R    R  N N  N  II  N N  N  G       !!!           |
|           W WW W  AAAAAA  RRRRR   N  N N  II  N  N N  G  GGG   !            |
|           WW  WW  A    A  R   R   N   NN  II  N   NN  G    G                |
|           W    W  A    A  R    R  N    N  II  N    N   GGGG   !!!           |
|                                                                             |
|     For optimal performance we recommend to set                             |
|       NCORE = 2 up to number-of-cores-per-socket                            |
|     NCORE specifies how many cores store one orbital (NPAR=cpu/NCORE).      |
|     This setting can greatly improve the performance of VASP for DFT.       |
|     The default, NCORE=1 might be grossly inefficient on modern             |
|     multi-core architectures or massively parallel machines. Do your        |
|     own testing! More info at https://www.vasp.at/wiki/index.php/NCORE      |
|     Unfortunately you need to use the default for GW and RPA                |
|     calculations (for HF NCORE is supported but not extensively tested      |
|     yet).                                                                   |
|                                                                             |
 -----------------------------------------------------------------------------

 Reading from existing POTCAR
 LDA part: xc-table for Pade appr. of Perdew
 POSCAR found type information on POSCAR CrFe
 POSCAR found :  2 types and      63 ions
 Optimize memory usage for KPAR
 POSCAR, INCAR and KPOINTS ok, starting setup
 FFT: planning ... GRIDC
 FFT: planning ... GRID_SOFT
 FFT: planning ... GRID
 WAVECAR not read
 entering main loop
       N       E                     dE             d eps       ncg     rms          rms(c)
DAV:   1     0.534970322788E+04    0.53497E+04   -0.23606E+05 12400   0.143E+03
DAV:   2    -0.923763324560E+02   -0.54421E+04   -0.52502E+04 11680   0.417E+02
DAV:   3    -0.523533106939E+03   -0.43116E+03   -0.38023E+03 12160   0.158E+02
DAV:   4    -0.583203226836E+03   -0.59670E+02   -0.55502E+02 20816   0.447E+01
DAV:   5    -0.586744907285E+03   -0.35417E+01   -0.33459E+01 19192   0.104E+01    0.947E+01
DAV:   6    -0.690378188657E+03   -0.10363E+03   -0.31260E+02 21312   0.821E+01    0.151E+02
DAV:   7    -0.596070341631E+03    0.94308E+02   -0.20294E+02 21840   0.860E+01    0.118E+02
DAV:   8    -0.576830355941E+03    0.19240E+02   -0.10666E+02 21488   0.670E+01    0.107E+02
DAV:   9    -0.530434751537E+03    0.46396E+02   -0.72009E+01 20112   0.446E+01    0.718E+01
DAV:  10    -0.506964724410E+03    0.23470E+02   -0.66901E+01 18344   0.305E+01    0.508E+01
DAV:  11    -0.497597952877E+03    0.93668E+01   -0.54659E+01 16528   0.270E+01    0.457E+01
DAV:  12    -0.494909304178E+03    0.26886E+01   -0.13683E+01 17696   0.169E+01    0.371E+01
DAV:  13    -0.494694366306E+03    0.21494E+00   -0.30773E+00 16808   0.688E+00    0.343E+01
DAV:  14    -0.494751255904E+03   -0.56890E-01   -0.49520E-01 14712   0.237E+00    0.346E+01
DAV:  15    -0.495211269761E+03   -0.46001E+00   -0.17235E+00 21624   0.488E+00    0.376E+01
DAV:  16    -0.495807921539E+03   -0.59665E+00   -0.26925E-01 20136   0.195E+00    0.383E+01
DAV:  17    -0.496689878868E+03   -0.88196E+00   -0.46860E-01 19992   0.244E+00    0.363E+01
DAV:  18    -0.498606804760E+03   -0.19169E+01   -0.13691E+00 20056   0.407E+00    0.337E+01
DAV:  19    -0.501781068156E+03   -0.31743E+01   -0.34399E+00 19784   0.667E+00    0.311E+01
DAV:  20    -0.503313783314E+03   -0.15327E+01   -0.21293E+00 20304   0.618E+00    0.292E+01
DAV:  21    -0.505129763044E+03   -0.18160E+01   -0.21082E+00 20584   0.579E+00    0.288E+01
DAV:  22    -0.506476996221E+03   -0.13472E+01   -0.14001E+00 20080   0.438E+00    0.271E+01
DAV:  23    -0.507442751309E+03   -0.96576E+00   -0.22562E+00 19960   0.497E+00    0.227E+01
DAV:  24    -0.508243335255E+03   -0.80058E+00   -0.41880E+00 19760   0.627E+00    0.195E+01
DAV:  25    -0.508019517720E+03    0.22382E+00   -0.11313E+00 19600   0.449E+00    0.168E+01
DAV:  26    -0.508051295350E+03   -0.31778E-01   -0.54327E-01 18496   0.310E+00    0.147E+01
DAV:  27    -0.507889706357E+03    0.16159E+00   -0.90596E-01 20512   0.341E+00    0.114E+01
DAV:  28    -0.507723940975E+03    0.16577E+00   -0.87405E-01 18760   0.271E+00    0.113E+01
DAV:  29    -0.507873644204E+03   -0.14970E+00   -0.27942E-01 17808   0.226E+00    0.120E+01
DAV:  30    -0.508198709577E+03   -0.32507E+00   -0.25891E-01 19488   0.186E+00    0.111E+01
DAV:  31    -0.508408949220E+03   -0.21024E+00   -0.19905E-01 19176   0.144E+00    0.104E+01
DAV:  32    -0.508510298080E+03   -0.10135E+00   -0.84677E-02 19024   0.938E-01    0.103E+01
DAV:  33    -0.508707420471E+03   -0.19712E+00   -0.23491E-01 19344   0.162E+00    0.995E+00
DAV:  34    -0.508828731700E+03   -0.12131E+00   -0.22563E-01 17960   0.131E+00    0.941E+00
DAV:  35    -0.508835708261E+03   -0.69766E-02   -0.16103E-01 18712   0.145E+00    0.779E+00
DAV:  36    -0.508795932897E+03    0.39775E-01   -0.17611E-01 19080   0.146E+00    0.608E+00
DAV:  37    -0.508776368028E+03    0.19565E-01   -0.21089E-01 19664   0.128E+00    0.513E+00
DAV:  38    -0.508809503105E+03   -0.33135E-01   -0.76630E-02 19536   0.835E-01    0.505E+00
DAV:  39    -0.508805636187E+03    0.38669E-02   -0.18934E-02 19976   0.539E-01    0.481E+00
DAV:  40    -0.508811663102E+03   -0.60269E-02   -0.16513E-02 19816   0.384E-01    0.447E+00
DAV:  41    -0.508803509374E+03    0.81537E-02   -0.11917E-01 19024   0.104E+00    0.359E+00
DAV:  42    -0.508805948155E+03   -0.24388E-02   -0.24639E-02 18576   0.466E-01    0.324E+00
DAV:  43    -0.508801631644E+03    0.43165E-02   -0.37940E-02 18208   0.478E-01    0.263E+00
DAV:  44    -0.508799244149E+03    0.23875E-02   -0.57061E-02 18400   0.691E-01    0.225E+00
DAV:  45    -0.508808911495E+03   -0.96673E-02   -0.20156E-02 19880   0.375E-01    0.176E+00
DAV:  46    -0.508820611594E+03   -0.11700E-01   -0.23273E-02 20104   0.480E-01    0.137E+00
DAV:  47    -0.508827034784E+03   -0.64232E-02   -0.21411E-02 19784   0.359E-01    0.103E+00
DAV:  48    -0.508827565179E+03   -0.53039E-03   -0.61678E-03 19360   0.265E-01    0.800E-01
DAV:  49    -0.508829908082E+03   -0.23429E-02   -0.77074E-03 19736   0.215E-01    0.660E-01
DAV:  50    -0.508830064676E+03   -0.15659E-03   -0.61372E-03 19960   0.279E-01    0.592E-01
DAV:  51    -0.508830986158E+03   -0.92148E-03   -0.51633E-03 19136   0.225E-01    0.504E-01
DAV:  52    -0.508832375353E+03   -0.13892E-02   -0.59855E-03 20160   0.192E-01    0.467E-01
DAV:  53    -0.508832977328E+03   -0.60197E-03   -0.32900E-03 19576   0.142E-01    0.370E-01
DAV:  54    -0.508833250748E+03   -0.27342E-03   -0.98276E-04 20136   0.969E-02    0.304E-01
DAV:  55    -0.508833437343E+03   -0.18660E-03   -0.24224E-03 19664   0.131E-01    0.182E-01
DAV:  56    -0.508833543939E+03   -0.10660E-03   -0.62399E-04 19112   0.891E-02    0.182E-01
DAV:  57    -0.508833572257E+03   -0.28317E-04   -0.39297E-04 18912   0.761E-02    0.113E-01
DAV:  58    -0.508833596197E+03   -0.23940E-04   -0.27081E-04 19112   0.487E-02    0.880E-02
DAV:  59    -0.508833602031E+03   -0.58338E-05   -0.90503E-05 14168   0.360E-02
   1 F= -.50883360E+03 E0= -.50883172E+03  d E =-.508834E+03  mag=   107.6642
 curvature:   0.00 expect dE= 0.000E+00 dE for cont linesearch  0.000E+00
 trial: gam= 0.00000 g(F)=  0.157E+00 g(S)=  0.000E+00 ort = 0.000E+00 (trialstep = 0.100E+01)
 search vector abs. value=  0.157E+00
 bond charge predicted
       N       E                     dE             d eps       ncg     rms          rms(c)
DAV:   1    -0.508567886463E+03    0.26571E+00   -0.37612E+01 12128   0.130E+01    0.392E+00
DAV:   2    -0.509012253415E+03   -0.44437E+00   -0.29225E+00 16400   0.466E+00    0.603E+00
DAV:   3    -0.509020032667E+03   -0.77793E-02   -0.15198E+00 16760   0.642E+00    0.594E+00
DAV:   4    -0.508895440481E+03    0.12459E+00   -0.44266E-01 18840   0.321E+00    0.234E+00
DAV:   5    -0.508926194696E+03   -0.30754E-01   -0.57628E-02 17704   0.127E+00    0.204E+00
DAV:   6    -0.508963978435E+03   -0.37784E-01   -0.43702E-02 19208   0.119E+00    0.213E+00
DAV:   7    -0.508954120902E+03    0.98575E-02   -0.31022E-02 19080   0.904E-01    0.774E-01
DAV:   8    -0.508953747343E+03    0.37356E-03   -0.72299E-03 19712   0.310E-01    0.516E-01
DAV:   9    -0.508953920615E+03   -0.17327E-03   -0.18656E-03 13584   0.160E-01    0.484E-01
DAV:  10    -0.508953429065E+03    0.49155E-03   -0.94516E-04 18800   0.114E-01    0.364E-01
DAV:  11    -0.508952945715E+03    0.48335E-03   -0.15112E-03 18112   0.124E-01    0.255E-01
DAV:  12    -0.508952862820E+03    0.82895E-04   -0.72715E-04 18880   0.126E-01    0.231E-01
DAV:  13    -0.508952885535E+03   -0.22715E-04   -0.30059E-04 17416   0.669E-02    0.168E-01
DAV:  14    -0.508952939094E+03   -0.53559E-04   -0.16338E-04 17912   0.470E-02    0.103E-01
DAV:  15    -0.508952954686E+03   -0.15592E-04   -0.36158E-05 11088   0.300E-02    0.826E-02
DAV:  16    -0.508952958335E+03   -0.36494E-05   -0.17554E-05  7592   0.199E-02
   2 F= -.50895296E+03 E0= -.50895228E+03  d E =-.119356E+00  mag=   107.6928
 trial-energy change:   -0.119356  1 .order   -0.118647   -0.157015   -0.080279
 step:   1.9443(harm=  2.0462)  dis= 0.05544  next Energy=  -508.991459 (dE=-0.158E+00)
 bond charge predicted
       N       E                     dE             d eps       ncg     rms          rms(c)
DAV:   1    -0.508652254230E+03    0.30070E+00   -0.33712E+01 12115   0.122E+01    0.370E+00
DAV:   2    -0.509080754905E+03   -0.42850E+00   -0.26506E+00 17168   0.465E+00    0.610E+00
DAV:   3    -0.509021971702E+03    0.58783E-01   -0.14167E+00 16864   0.618E+00    0.509E+00
DAV:   4    -0.508942737070E+03    0.79235E-01   -0.30150E-01 18008   0.271E+00    0.222E+00
DAV:   5    -0.508968687266E+03   -0.25950E-01   -0.44806E-02 17360   0.118E+00    0.188E+00
DAV:   6    -0.509000832480E+03   -0.32145E-01   -0.35266E-02 18992   0.107E+00    0.173E+00
DAV:   7    -0.508994280902E+03    0.65516E-02   -0.21477E-02 19328   0.752E-01    0.664E-01
DAV:   8    -0.508994270010E+03    0.10893E-04   -0.46261E-03 19200   0.250E-01    0.479E-01
DAV:   9    -0.508994329124E+03   -0.59114E-04   -0.12698E-03 13976   0.139E-01    0.449E-01
DAV:  10    -0.508993942977E+03    0.38615E-03   -0.75839E-04 18216   0.995E-02    0.338E-01
DAV:  11    -0.508993520976E+03    0.42200E-03   -0.12750E-03 17952   0.106E-01    0.236E-01
DAV:  12    -0.508993498984E+03    0.21992E-04   -0.66199E-04 18888   0.124E-01    0.226E-01
DAV:  13    -0.508993568197E+03   -0.69213E-04   -0.31724E-04 17192   0.630E-02    0.169E-01
DAV:  14    -0.508993569798E+03   -0.16007E-05   -0.14318E-04 17760   0.529E-02    0.949E-02
DAV:  15    -0.508993580574E+03   -0.10776E-04   -0.38349E-05 11152   0.270E-02    0.710E-02
DAV:  16    -0.508993586689E+03   -0.61150E-05   -0.17605E-05  7896   0.169E-02
   3 F= -.50899359E+03 E0= -.50899356E+03  d E =-.159985E+00  mag=   107.5992
 curvature:  -1.01 expect dE=-0.157E-01 dE for cont linesearch -0.935E-04
 ZBRENT: extrapolating
 opt :   1.9913  next Energy=  -508.993676 (dE=-0.160E+00)
 bond charge predicted
       N       E                     dE             d eps       ncg     rms          rms(c)
DAV:   1    -0.508992847392E+03    0.73318E-03   -0.83498E-02 12228   0.606E-01    0.187E-01
DAV:   2    -0.508993930048E+03   -0.10827E-02   -0.67221E-03 17936   0.243E-01    0.323E-01
DAV:   3    -0.508993712085E+03    0.21796E-03   -0.37979E-03 17776   0.307E-01    0.253E-01
DAV:   4    -0.508993549310E+03    0.16277E-03   -0.77576E-04 16584   0.138E-01    0.123E-01
DAV:   5    -0.508993613660E+03   -0.64350E-04   -0.10455E-04 14776   0.641E-02    0.907E-02
DAV:   6    -0.508993702404E+03   -0.88744E-04   -0.83614E-05 13928   0.464E-02    0.758E-02
DAV:   7    -0.508993690412E+03    0.11992E-04   -0.40194E-05  7600   0.344E-02    0.367E-02
DAV:   8    -0.508993693893E+03   -0.34812E-05   -0.14853E-05  7600   0.123E-02
   4 F= -.50899369E+03 E0= -.50899367E+03  d E =-.160092E+00  mag=   107.5922
 curvature:  -0.97 expect dE=-0.156E-01 dE for cont linesearch -0.326E-05
 trial: gam= 0.09779 g(F)=  0.161E-01 g(S)=  0.000E+00 ort = 0.726E-03 (trialstep = 0.120E+01)
 search vector abs. value=  0.177E-01
 bond charge predicted
       N       E                     dE             d eps       ncg     rms          rms(c)
DAV:   1    -0.508887769757E+03    0.10592E+00   -0.88041E+00 14074   0.766E+00    0.170E+00
DAV:   2    -0.508998482760E+03   -0.11071E+00   -0.10163E+00 12492   0.184E+00    0.146E+00
DAV:   3    -0.509088869832E+03   -0.90387E-01   -0.32688E-01 21184   0.276E+00    0.395E+00
DAV:   4    -0.509000238632E+03    0.88631E-01   -0.28118E-01 22048   0.233E+00    0.979E-01
DAV:   5    -0.509006560670E+03   -0.63220E-02   -0.79635E-03 21384   0.474E-01    0.809E-01
DAV:   6    -0.509010903646E+03   -0.43430E-02   -0.70193E-03 19648   0.501E-01    0.546E-01
DAV:   7    -0.509010930348E+03   -0.26702E-04   -0.45573E-03 18816   0.348E-01    0.196E-01
DAV:   8    -0.509010974271E+03   -0.43923E-04   -0.65321E-04 14120   0.892E-02    0.176E-01
DAV:   9    -0.509010936534E+03    0.37736E-04   -0.12759E-04 15576   0.514E-02    0.159E-01
DAV:  10    -0.509010836947E+03    0.99588E-04   -0.13637E-04 17504   0.404E-02    0.115E-01
DAV:  11    -0.509010766532E+03    0.70415E-04   -0.19702E-04 17384   0.528E-02    0.832E-02
DAV:  12    -0.509010755144E+03    0.11387E-04   -0.60128E-05 11488   0.268E-02    0.700E-02
DAV:  13    -0.509010755908E+03   -0.76327E-06   -0.19446E-05  7144   0.166E-02
   5 F= -.50901076E+03 E0= -.50901107E+03  d E =-.170620E-01  mag=   107.6492
 ZBRENT: can't locate minimum, use default step
 trial-energy change:   -0.017062  1 .order   -0.017242   -0.019354   -0.015129
 step:   4.7930(harm=  5.4883)  dis= 0.06466  next Energy=  -509.038018 (dE=-0.443E-01)
 bond charge predicted
       N       E                     dE             d eps       ncg     rms          rms(c)
DAV:   1    -0.507927870942E+03    0.10829E+01   -0.79600E+01 13920   0.228E+01    0.595E+00
DAV:   2    -0.508921056230E+03   -0.99319E+00   -0.89132E+00 13162   0.593E+00    0.509E+00
DAV:   3    -0.510052527469E+03   -0.11315E+01   -0.34200E+00 21536   0.994E+00    0.133E+01
DAV:   4    -0.508954426731E+03    0.10981E+01   -0.25591E+00 22056   0.846E+00    0.337E+00
DAV:   5    -0.508980150016E+03   -0.25723E-01   -0.80739E-02 20512   0.152E+00    0.251E+00
DAV:   6    -0.509005864564E+03   -0.25715E-01   -0.50847E-02 18174   0.133E+00    0.197E+00
DAV:   7    -0.509034300434E+03   -0.28436E-01   -0.34733E-02 18568   0.925E-01    0.923E-01
DAV:   8    -0.509035697259E+03   -0.13968E-02   -0.96366E-03 17384   0.417E-01    0.611E-01
DAV:   9    -0.509035321951E+03    0.37531E-03   -0.29443E-03 19096   0.270E-01    0.503E-01
DAV:  10    -0.509035140117E+03    0.18183E-03   -0.70783E-04 18432   0.108E-01    0.471E-01
DAV:  11    -0.509034389707E+03    0.75041E-03   -0.91327E-04 18552   0.141E-01    0.349E-01
DAV:  12    -0.509033785785E+03    0.60392E-03   -0.14376E-03 18400   0.124E-01    0.238E-01
DAV:  13    -0.509033755877E+03    0.29907E-04   -0.58961E-04 18736   0.839E-02    0.227E-01
DAV:  14    -0.509033717726E+03    0.38151E-04   -0.21875E-04 17544   0.569E-02    0.167E-01
DAV:  15    -0.509033706466E+03    0.11261E-04   -0.24228E-04 17832   0.696E-02    0.101E-01
DAV:  16    -0.509033738252E+03   -0.31786E-04   -0.77515E-05 13856   0.293E-02    0.958E-02
DAV:  17    -0.509033741491E+03   -0.32396E-05   -0.30388E-05  9024   0.324E-02
   6 F= -.50903374E+03 E0= -.50903489E+03  d E =-.400476E-01  mag=   107.7709
 curvature:  -2.93 expect dE=-0.175E-01 dE for cont linesearch -0.356E-04
 trial: gam= 0.33249 g(F)=  0.597E-02 g(S)=  0.000E+00 ort = 0.464E-03 (trialstep = 0.192E+01)
 search vector abs. value=  0.823E-02
 bond charge predicted
       N       E                     dE             d eps       ncg     rms          rms(c)
DAV:   1    -0.508914938480E+03    0.11880E+00   -0.94847E+00 13110   0.798E+00    0.181E+00
DAV:   2    -0.509022875837E+03   -0.10794E+00   -0.99509E-01 12320   0.188E+00    0.132E+00
DAV:   3    -0.509121726078E+03   -0.98850E-01   -0.28406E-01 21808   0.255E+00    0.400E+00
DAV:   4    -0.509028894072E+03    0.92832E-01   -0.28820E-01 22104   0.237E+00    0.999E-01
DAV:   5    -0.509040805050E+03   -0.11911E-01   -0.13509E-02 19446   0.550E-01    0.673E-01
DAV:   6    -0.509042288491E+03   -0.14834E-02   -0.55104E-03 19376   0.450E-01    0.455E-01
DAV:   7    -0.509041866623E+03    0.42187E-03   -0.21856E-03 19296   0.279E-01    0.222E-01
DAV:   8    -0.509041847048E+03    0.19575E-04   -0.57308E-04 18384   0.103E-01    0.198E-01
DAV:   9    -0.509041791864E+03    0.55184E-04   -0.19733E-04 13416   0.614E-02    0.169E-01
DAV:  10    -0.509041672710E+03    0.11915E-03   -0.32096E-04 19088   0.759E-02    0.131E-01
DAV:  11    -0.509041616914E+03    0.55796E-04   -0.15024E-04 16664   0.402E-02    0.102E-01
DAV:  12    -0.509041608699E+03    0.82149E-05   -0.42124E-05 10376   0.276E-02
   7 F= -.50904161E+03 E0= -.50904308E+03  d E =-.786721E-02  mag=   107.8244
 trial-energy change:   -0.007867  1 .order   -0.008156   -0.011736   -0.004576
 step:   3.1427(harm=  3.1427)  dis= 0.02588  next Energy=  -509.043360 (dE=-0.962E-02)
 bond charge predicted
       N       E                     dE             d eps       ncg     rms          rms(c)
DAV:   1    -0.508990777867E+03    0.50839E-01   -0.38804E+00 13144   0.511E+00    0.115E+00
DAV:   2    -0.509034445799E+03   -0.43668E-01   -0.40690E-01 12320   0.118E+00    0.787E-01
DAV:   3    -0.509039383452E+03   -0.49377E-02   -0.13513E-02 21008   0.409E-01    0.782E-01
DAV:   4    -0.509046398019E+03   -0.70146E-02   -0.35703E-02 21760   0.908E-01    0.126E+00
DAV:   5    -0.509041928374E+03    0.44696E-02   -0.24858E-02 21720   0.721E-01    0.531E-01
DAV:   6    -0.509042533481E+03   -0.60511E-03   -0.28758E-03 20544   0.310E-01    0.213E-01
DAV:   7    -0.509042581653E+03   -0.48171E-04   -0.80021E-04 17792   0.126E-01    0.150E-01
DAV:   8    -0.509042566769E+03    0.14883E-04   -0.11493E-04 14208   0.458E-02    0.136E-01
DAV:   9    -0.509042542342E+03    0.24427E-04   -0.35945E-05  9488   0.259E-02    0.121E-01
DAV:  10    -0.509042501172E+03    0.41171E-04   -0.14993E-04 17312   0.392E-02    0.815E-02
DAV:  11    -0.509042489999E+03    0.11173E-04   -0.59821E-05 10704   0.326E-02    0.622E-02
DAV:  12    -0.509042495206E+03   -0.52069E-05   -0.39476E-05 10912   0.176E-02
   8 F= -.50904250E+03 E0= -.50904415E+03  d E =-.875371E-02  mag=   107.8461
 curvature:  -2.11 expect dE=-0.363E-02 dE for cont linesearch -0.411E-04
 ZBRENT: interpolating
 opt :   2.9668  next Energy=  -509.042530 (dE=-0.879E-02)
 bond charge predicted
       N       E                     dE             d eps       ncg     rms          rms(c)
DAV:   1    -0.509041509196E+03    0.98080E-03   -0.79600E-02 13100   0.730E-01    0.161E-01
DAV:   2    -0.509042739155E+03   -0.12300E-02   -0.91794E-03 16832   0.238E-01    0.266E-01
DAV:   3    -0.509042599609E+03    0.13955E-03   -0.26294E-03 19192   0.258E-01    0.206E-01
DAV:   4    -0.509042480119E+03    0.11949E-03   -0.50486E-04 14128   0.115E-01    0.924E-02
DAV:   5    -0.509042586528E+03   -0.10641E-03   -0.92141E-05 15464   0.481E-02    0.700E-02
DAV:   6    -0.509042592740E+03   -0.62119E-05   -0.60930E-05 12976   0.526E-02
   9 F= -.50904259E+03 E0= -.50904425E+03  d E =-.885125E-02  mag=   107.8417
 curvature:  -1.81 expect dE=-0.276E-02 dE for cont linesearch -0.947E-05
 trial: gam= 0.32043 g(F)=  0.152E-02 g(S)=  0.000E+00 ort =-0.208E-03 (trialstep = 0.213E+01)
 search vector abs. value=  0.224E-02
 bond charge predicted
       N       E                     dE             d eps       ncg     rms          rms(c)
DAV:   1    -0.509025013842E+03    0.17573E-01   -0.21350E+00 11937   0.297E+00    0.985E-01
DAV:   2    -0.509038068375E+03   -0.13055E-01   -0.93614E-02 12326   0.746E-01    0.815E-01
DAV:   3    -0.509067560131E+03   -0.29492E-01   -0.86660E-02 20336   0.143E+00    0.224E+00
DAV:   4    -0.509041458089E+03    0.26102E-01   -0.81701E-02 21528   0.134E+00    0.586E-01
DAV:   5    -0.509044952341E+03   -0.34943E-02   -0.53415E-03 20952   0.356E-01    0.432E-01
DAV:   6    -0.509045123033E+03   -0.17069E-03   -0.20064E-03 19640   0.286E-01    0.247E-01
DAV:   7    -0.509044984722E+03    0.13831E-03   -0.67182E-04 16656   0.125E-01    0.135E-01
DAV:   8    -0.509044969157E+03    0.15565E-04   -0.12901E-04 15200   0.417E-02    0.110E-01
DAV:   9    -0.509044958554E+03    0.10603E-04   -0.73334E-05 13560   0.327E-02    0.895E-02
DAV:  10    -0.509044935879E+03    0.22675E-04   -0.78089E-05 15504   0.318E-02    0.660E-02
DAV:  11    -0.509044926549E+03    0.93295E-05   -0.29933E-05  9024   0.232E-02
  10 F= -.50904493E+03 E0= -.50904685E+03  d E =-.233381E-02  mag=   107.8480
 trial-energy change:   -0.002334  1 .order   -0.002495   -0.003102   -0.001888
 step:   5.4365(harm=  5.4365)  dis= 0.01952  next Energy=  -509.046556 (dE=-0.396E-02)
 bond charge predicted
       N       E                     dE             d eps       ncg     rms          rms(c)
DAV:   1    -0.508997250882E+03    0.47685E-01   -0.51663E+00 11908   0.461E+00    0.154E+00
DAV:   2    -0.509028149687E+03   -0.30899E-01   -0.22717E-01 12288   0.115E+00    0.119E+00
DAV:   3    -0.509075529174E+03   -0.47379E-01   -0.11012E-01 20888   0.161E+00    0.268E+00
DAV:   4    -0.509039641612E+03    0.35888E-01   -0.14144E-01 21704   0.178E+00    0.104E+00
DAV:   5    -0.509045599701E+03   -0.59581E-02   -0.15746E-02 21272   0.614E-01    0.702E-01
DAV:   6    -0.509045800077E+03   -0.20038E-03   -0.49157E-03 19488   0.435E-01    0.277E-01
DAV:   7    -0.509045796824E+03    0.32523E-05   -0.12067E-03 15176   0.145E-01    0.219E-01
DAV:   8    -0.509045752735E+03    0.44089E-04   -0.16511E-04 17216   0.494E-02    0.190E-01
DAV:   9    -0.509045688917E+03    0.63818E-04   -0.15762E-04 17720   0.449E-02    0.152E-01
DAV:  10    -0.509045601925E+03    0.86992E-04   -0.20472E-04 18176   0.551E-02    0.113E-01
DAV:  11    -0.509045574038E+03    0.27887E-04   -0.81156E-05 15360   0.362E-02    0.906E-02
DAV:  12    -0.509045570894E+03    0.31439E-05   -0.42322E-05 10976   0.245E-02
  11 F= -.50904557E+03 E0= -.50904789E+03  d E =-.297815E-02  mag=   107.8477
 curvature:  -4.17 expect dE=-0.363E-02 dE for cont linesearch -0.952E-04
 ZBRENT: interpolating
 opt :   4.7650  next Energy=  -509.045647 (dE=-0.305E-02)
 bond charge predicted
       N       E                     dE             d eps       ncg     rms          rms(c)
DAV:   1    -0.509043771952E+03    0.18021E-02   -0.21356E-01 11899   0.937E-01    0.309E-01
DAV:   2    -0.509045036476E+03   -0.12645E-02   -0.93254E-03 12310   0.235E-01    0.238E-01
DAV:   3    -0.509045534340E+03   -0.49786E-03   -0.61346E-04 19800   0.118E-01    0.230E-01
DAV:   4    -0.509046689898E+03   -0.11556E-02   -0.47587E-03 20712   0.333E-01    0.456E-01
DAV:   5    -0.509045715836E+03    0.97406E-03   -0.33337E-03 15696   0.272E-01    0.140E-01
DAV:   6    -0.509045782675E+03   -0.66839E-04   -0.26634E-04 18944   0.791E-02    0.577E-02
DAV:   7    -0.509045777321E+03    0.53542E-05   -0.67809E-05 12744   0.382E-02
  12 F= -.50904578E+03 E0= -.50904803E+03  d E =-.318458E-02  mag=   107.8449
 curvature:  -3.32 expect dE=-0.247E-02 dE for cont linesearch -0.669E-04
 ZBRENT: bisectioning
 opt :   3.4461  next Energy=  -509.046039 (dE=-0.345E-02)
 bond charge predicted
       N       E                     dE             d eps       ncg     rms          rms(c)
DAV:   1    -0.509038024296E+03    0.77584E-02   -0.82091E-01 11916   0.184E+00    0.610E-01
DAV:   2    -0.509042964759E+03   -0.49405E-02   -0.35978E-02 12296   0.473E-01    0.498E-01
DAV:   3    -0.509052571496E+03   -0.96067E-02   -0.25796E-02 20944   0.796E-01    0.125E+00
DAV:   4    -0.509044498412E+03    0.80731E-02   -0.30475E-02 21784   0.809E-01    0.431E-01
DAV:   5    -0.509045452121E+03   -0.95371E-03   -0.19012E-03 20936   0.228E-01    0.276E-01
DAV:   6    -0.509045759100E+03   -0.30698E-03   -0.10794E-03 19371   0.190E-01    0.157E-01
DAV:   7    -0.509045694215E+03    0.64886E-04   -0.31594E-04 15800   0.834E-02    0.962E-02
DAV:   8    -0.509045678107E+03    0.16108E-04   -0.37375E-05  9272   0.285E-02    0.807E-02
DAV:   9    -0.509045665102E+03    0.13005E-04   -0.58614E-05 12040   0.201E-02    0.687E-02
DAV:  10    -0.509045637191E+03    0.27911E-04   -0.75519E-05 15576   0.291E-02    0.421E-02
DAV:  11    -0.509045635191E+03    0.19997E-05   -0.14089E-05  7080   0.156E-02
  13 F= -.50904564E+03 E0= -.50904772E+03  d E =-.304245E-02  mag=   107.8461
 curvature: -13.02 expect dE=-0.627E-02 dE for cont linesearch -0.320E-03
 ZBRENT: interpolating
 opt :   4.1386  next Energy=  -509.045844 (dE=-0.325E-02)
 bond charge predicted
       N       E                     dE             d eps       ncg     rms          rms(c)
DAV:   1    -0.509043655448E+03    0.19817E-02   -0.22658E-01 11884   0.965E-01    0.319E-01
DAV:   2    -0.509045007609E+03   -0.13522E-02   -0.98858E-03 12248   0.241E-01    0.250E-01
DAV:   3    -0.509047457502E+03   -0.24499E-02   -0.59804E-03 20888   0.379E-01    0.618E-01
DAV:   4    -0.509045489040E+03    0.19685E-02   -0.73390E-03 20832   0.406E-01    0.220E-01
DAV:   5    -0.509045735838E+03   -0.24680E-03   -0.61250E-04 18584   0.126E-01    0.138E-01
DAV:   6    -0.509045797070E+03   -0.61232E-04   -0.23903E-04 18720   0.887E-02    0.590E-02
DAV:   7    -0.509045790794E+03    0.62757E-05   -0.56274E-05 12048   0.343E-02
  14 F= -.50904579E+03 E0= -.50904794E+03  d E =-.319805E-02  mag=   107.8472
 curvature:  -2.70 expect dE=-0.143E-02 dE for cont linesearch -0.225E-04
 ZBRENT: interpolating
 opt :   4.3838  next Energy=  -509.045808 (dE=-0.321E-02)
 bond charge predicted
       N       E                     dE             d eps       ncg     rms          rms(c)
DAV:   1    -0.509045529732E+03    0.26734E-03   -0.28319E-02 11864   0.342E-01    0.118E-01
DAV:   2    -0.509045698023E+03   -0.16829E-03   -0.12638E-03 12510   0.894E-02    0.956E-02
DAV:   3    -0.509045765319E+03   -0.67296E-04   -0.10558E-04 11880   0.559E-02    0.104E-01
DAV:   4    -0.509045897184E+03   -0.13186E-03   -0.62733E-04  9152   0.123E-01    0.169E-01
DAV:   5    -0.509045775249E+03    0.12193E-03   -0.43154E-04  9480   0.108E-01    0.604E-02
DAV:   6    -0.509045795290E+03   -0.20040E-04   -0.47492E-05 12027   0.313E-02    0.320E-02
DAV:   7    -0.509045797078E+03   -0.17887E-05   -0.31223E-05  8360   0.141E-02
  15 F= -.50904580E+03 E0= -.50904799E+03  d E =-.320434E-02  mag=   107.8475
 curvature:  -2.01 expect dE=-0.117E-02 dE for cont linesearch -0.387E-05
 trial: gam= 0.24719 g(F)=  0.581E-03 g(S)=  0.000E+00 ort = 0.656E-04 (trialstep = 0.258E+01)
 search vector abs. value=  0.750E-03
 bond charge predicted
       N       E                     dE             d eps       ncg     rms          rms(c)
DAV:   1    -0.509038007477E+03    0.77878E-02   -0.10130E+00 11822   0.192E+00    0.694E-01
DAV:   2    -0.509044448255E+03   -0.64408E-02   -0.35571E-02 16232   0.591E-01    0.761E-01
DAV:   3    -0.509047913755E+03   -0.34655E-02   -0.28753E-02 18368   0.886E-01    0.101E+00
DAV:   4    -0.509045234370E+03    0.26794E-02   -0.15755E-02 21216   0.597E-01    0.441E-01
DAV:   5    -0.509046188425E+03   -0.95405E-03   -0.16829E-03 20784   0.247E-01    0.273E-01
DAV:   6    -0.509046788720E+03   -0.60030E-03   -0.12663E-03 18643   0.197E-01    0.198E-01
DAV:   7    -0.509046659189E+03    0.12953E-03   -0.39645E-04 16152   0.105E-01    0.107E-01
DAV:   8    -0.509046646079E+03    0.13110E-04   -0.71070E-05 10632   0.362E-02    0.872E-02
DAV:   9    -0.509046639312E+03    0.67662E-05   -0.69813E-05 13216   0.283E-02
  16 F= -.50904664E+03 E0= -.50904886E+03  d E =-.842234E-03  mag=   107.8602
 trial-energy change:   -0.000842  1 .order   -0.000934   -0.001540   -0.000327
 step:   3.2728(harm=  3.2728)  dis= 0.00894  next Energy=  -509.046775 (dE=-0.978E-03)
 bond charge predicted
       N       E                     dE             d eps       ncg     rms          rms(c)
DAV:   1    -0.509045990115E+03    0.65596E-03   -0.73016E-02 11712   0.523E-01    0.193E-01
DAV:   2    -0.509046374106E+03   -0.38399E-03   -0.24609E-03 13376   0.138E-01    0.179E-01
DAV:   3    -0.509046992505E+03   -0.61840E-03   -0.23443E-03 19024   0.247E-01    0.344E-01
DAV:   4    -0.509046485648E+03    0.50686E-03   -0.19076E-03 12720   0.208E-01    0.124E-01
DAV:   5    -0.509046585074E+03   -0.99426E-04   -0.14995E-04 15904   0.644E-02    0.876E-02
DAV:   6    -0.509046613480E+03   -0.28405E-04   -0.10451E-04 15000   0.602E-02    0.609E-02
DAV:   7    -0.509046609895E+03    0.35845E-05   -0.20741E-05  7816   0.250E-02
  17 F= -.50904661E+03 E0= -.50904885E+03  d E =-.812817E-03  mag=   107.8609
 curvature:  -2.06 expect dE=-0.418E-03 dE for cont linesearch -0.850E-05
 ZBRENT: interpolating
 opt :   3.0608  next Energy=  -509.046616 (dE=-0.819E-03)
 bond charge predicted
       N       E                     dE             d eps       ncg     rms          rms(c)
DAV:   1    -0.509046562102E+03    0.51378E-04   -0.68890E-03 11714   0.159E-01    0.681E-02
DAV:   2    -0.509046600544E+03   -0.38442E-04   -0.23214E-04 12665   0.420E-02    0.564E-02
DAV:   3    -0.509046711549E+03   -0.11100E-03   -0.27232E-04  8832   0.847E-02    0.136E-01
DAV:   4    -0.509046611716E+03    0.99833E-04   -0.32658E-04  8440   0.893E-02    0.522E-02
DAV:   5    -0.509046621159E+03   -0.94432E-05   -0.16261E-05  8048   0.256E-02
  18 F= -.50904662E+03 E0= -.50904887E+03  d E =-.824081E-03  mag=   107.8596
 curvature:  -1.43 expect dE=-0.268E-03 dE for cont linesearch -0.540E-05
 ZBRENT: interpolating
 opt :   3.1645  next Energy=  -509.046624 (dE=-0.827E-03)
 bond charge predicted
       N       E                     dE             d eps       ncg     rms          rms(c)
DAV:   1    -0.509046603972E+03    0.77440E-05   -0.16123E-03 11699   0.781E-02    0.363E-02
DAV:   2    -0.509046636070E+03   -0.32099E-04   -0.11236E-04 10616   0.464E-02    0.734E-02
DAV:   3    -0.509046608343E+03    0.27727E-04   -0.95813E-05  7952   0.528E-02    0.339E-02
DAV:   4    -0.509046615568E+03   -0.72248E-05   -0.10661E-05  7496   0.949E-03
  19 F= -.50904662E+03 E0= -.50904885E+03  d E =-.818490E-03  mag=   107.8598
 curvature:  -0.73 expect dE=-0.154E-03 dE for cont linesearch -0.141E-04
 ZBRENT: interpolating
 opt :   3.0926  next Energy=  -509.046622 (dE=-0.825E-03)
 bond charge predicted
       N       E                     dE             d eps       ncg     rms          rms(c)
DAV:   1    -0.509046618172E+03   -0.98286E-05   -0.78091E-04 11677   0.556E-02    0.227E-02
DAV:   2    -0.509046625474E+03   -0.73025E-05   -0.32621E-05  7840   0.234E-02
  20 F= -.50904663E+03 E0= -.50904887E+03  d E =-.828396E-03  mag=   107.8595
 curvature:  -0.04 expect dE=-0.842E-05 dE for cont linesearch -0.286E-07
 trial: gam= 0.31908 g(F)=  0.193E-03 g(S)=  0.000E+00 ort = 0.222E-04 (trialstep = 0.268E+01)
 search vector abs. value=  0.283E-03
 bond charge predicted
       N       E                     dE             d eps       ncg     rms          rms(c)
DAV:   1    -0.509041810467E+03    0.48077E-02   -0.46894E-01 12384   0.161E+00    0.442E-01
DAV:   2    -0.509045886739E+03   -0.40763E-02   -0.31340E-02 12784   0.420E-01    0.430E-01
DAV:   3    -0.509048804542E+03   -0.29178E-02   -0.14183E-02 18768   0.619E-01    0.769E-01
DAV:   4    -0.509046193138E+03    0.26114E-02   -0.87912E-03 20720   0.443E-01    0.238E-01
DAV:   5    -0.509047053320E+03   -0.86018E-03   -0.10706E-03 20310   0.160E-01    0.196E-01
DAV:   6    -0.509046980863E+03    0.72457E-04   -0.34266E-04 19160   0.119E-01    0.124E-01
DAV:   7    -0.509046939261E+03    0.41602E-04   -0.14602E-04 14368   0.605E-02    0.576E-02
DAV:   8    -0.509046946093E+03   -0.68315E-05   -0.39315E-05 10336   0.199E-02
  21 F= -.50904695E+03 E0= -.50904923E+03  d E =-.320619E-03  mag=   107.8506
 trial-energy change:   -0.000321  1 .order   -0.000392   -0.000536   -0.000248
 step:   4.9802(harm=  4.9802)  dis= 0.00924  next Energy=  -509.047123 (dE=-0.498E-03)
 reached required accuracy - stopping structural energy minimisation
 PROFILE, used timers:     231
