ni3al                                   
           1
     8.509700    0.000000    0.000000
    -0.003726    8.539299    0.000000
     0.000000    0.000000   23.571400
   Cr   Fe
    13    50
Direct configuration=     1
   0.33487000  0.00167000  0.00066000
   0.33426000  0.00325000  0.36151000
   0.00122000  0.00217000  0.24080000
   0.16722000  0.50179000  0.05903000
   0.50000000  0.50344000  0.05949000
   0.49861000  0.16115000  0.05868000
   0.49968000  0.16444000  0.18182000
   0.83521000  0.50531000  0.29983000
   0.99722000  0.66135000  0.24151000
   0.33419000  0.66573000  0.24040000
   0.33414000  0.65855000  0.00278000
   0.33353000  0.66013000  0.36364000
   0.66923000  0.66337000  0.24097000
   0.83310000  0.49871000  0.06001000
   0.83472000  0.83192000  0.06027000
   0.66654000  0.66718000  0.36086000
   0.00081000  0.66425000  0.00034000
   0.16514000  0.82987000  0.30110000
   0.66498000  0.33296000  0.36130000
   0.66559000  0.33138000  0.00044000
   0.49968000  0.83322000  0.06046000
   0.66721000  0.33321000  0.24067000
   0.50058000  0.49950000  0.18024000
   0.33595000  0.33196000  0.11912000
   0.33462000  0.33376000  0.24059000
   0.50007000  0.50116000  0.30058000
   0.00055000  0.33190000  0.12006000
   0.16752000  0.49945000  0.18065000
   0.00021000  0.33145000  0.00038000
   0.33510000  0.33170000  0.00029000
   0.99960000  0.33303000  0.36123000
   0.00077000  0.99959000  0.12036000
   0.16814000  0.16634000  0.18048000
   0.33405000  0.66593000  0.12095000
   0.50078000  0.83242000  0.18121000
   0.00020000  0.66584000  0.36119000
   0.99982000  0.33359000  0.24030000
   0.00025000  0.66569000  0.12051000
   0.16581000  0.83217000  0.18114000
   0.66566000  0.33123000  0.11970000
   0.83507000  0.83487000  0.30110000
   0.16716000  0.50018000  0.30051000
   0.16715000  0.16733000  0.30083000
   0.00161000  0.99891000  0.00024000
   0.00100000  0.00049000  0.36110000
   0.16807000  0.16539000  0.06004000
   0.49889000  0.83182000  0.30110000
   0.83476000  0.83303000  0.18132000
   0.66715000  0.66559000  0.00000000
   0.66719000  0.66640000  0.12032000
   0.83302000  0.49937000  0.17995000
   0.16769000  0.83389000  0.06029000
   0.50010000  0.16553000  0.30070000
   0.33289000  0.99824000  0.24130000
   0.66679000  0.99914000  0.24097000
   0.33466000  0.00023000  0.12082000
   0.66746000  0.99815000  0.00001000
   0.83348000  0.16703000  0.30092000
   0.83358000  0.16456000  0.06013000
   0.66684000  0.99973000  0.36086000
   0.83364000  0.16593000  0.18062000
   0.66653000  0.99972000  0.12044000
   0.33449000  0.33329000  0.36115000
Direct configuration=     2
   0.33487000  0.00167000  0.00066000
   0.33398582  0.00253733  0.36153792
   0.00122000  0.00217000  0.24080000
   0.16722000  0.50179000  0.05903000
   0.50000000  0.50344000  0.05949000
   0.49861000  0.16115000  0.05868000
   0.49968000  0.16444000  0.18182000
   0.83485236  0.50562950  0.29983222
   0.99722000  0.66135000  0.24151000
   0.33419000  0.66573000  0.24040000
   0.33414000  0.65855000  0.00278000
   0.33358871  0.66276250  0.36482434
   0.66923000  0.66337000  0.24097000
   0.83310000  0.49871000  0.06001000
   0.83472000  0.83192000  0.06027000
   0.66664640  0.66750262  0.36009852
   0.00081000  0.66425000  0.00034000
   0.16202525  0.82998508  0.30120988
   0.66425020  0.33265790  0.36083296
   0.66559000  0.33138000  0.00044000
   0.49968000  0.83322000  0.06046000
   0.66721000  0.33321000  0.24067000
   0.50058000  0.49950000  0.18024000
   0.33595000  0.33196000  0.11912000
   0.33462000  0.33376000  0.24059000
   0.50182087  0.49932418  0.30077772
   0.00055000  0.33190000  0.12006000
   0.16752000  0.49945000  0.18065000
   0.00021000  0.33145000  0.00038000
   0.33510000  0.33170000  0.00029000
   0.00035543  0.33284786  0.36080796
   0.00077000  0.99959000  0.12036000
   0.16814000  0.16634000  0.18048000
   0.33405000  0.66593000  0.12095000
   0.50078000  0.83242000  0.18121000
   0.00008307  0.66597171  0.36052039
   0.99982000  0.33359000  0.24030000
   0.00025000  0.66569000  0.12051000
   0.16581000  0.83217000  0.18114000
   0.66566000  0.33123000  0.11970000
   0.83472762  0.83503941  0.30183383
   0.16573052  0.49845416  0.30075040
   0.16584584  0.16838854  0.30170958
   0.00161000  0.99891000  0.00024000
   0.00213229  0.00040871  0.36059188
   0.16807000  0.16539000  0.06004000
   0.50224068  0.83168052  0.30128074
   0.83476000  0.83303000  0.18132000
   0.66715000  0.66559000  0.00000000
   0.66719000  0.66640000  0.12032000
   0.83302000  0.49937000  0.17995000
   0.16769000  0.83389000  0.06029000
   0.50143056  0.16687200  0.30174147
   0.33289000  0.99824000  0.24130000
   0.66679000  0.99914000  0.24097000
   0.33466000  0.00023000  0.12082000
   0.66746000  0.99815000  0.00001000
   0.83358203  0.16707516  0.30158348
   0.83358000  0.16456000  0.06013000
   0.66591945  0.99976911  0.36039238
   0.83364000  0.16593000  0.18062000
   0.66653000  0.99972000  0.12044000
   0.33463026  0.33211212  0.36037345
Direct configuration=     3
   0.33487000  0.00167000  0.00066000
   0.33372690  0.00186435  0.36156429
   0.00122000  0.00217000  0.24080000
   0.16722000  0.50179000  0.05903000
   0.50000000  0.50344000  0.05949000
   0.49861000  0.16115000  0.05868000
   0.49968000  0.16444000  0.18182000
   0.83451464  0.50593120  0.29983431
   0.99722000  0.66135000  0.24151000
   0.33419000  0.66573000  0.24040000
   0.33414000  0.65855000  0.00278000
   0.33364416  0.66524835  0.36594271
   0.66923000  0.66337000  0.24097000
   0.83310000  0.49871000  0.06001000
   0.83472000  0.83192000  0.06027000
   0.66674687  0.66780727  0.35937946
   0.00081000  0.66425000  0.00034000
   0.15908399  0.83009376  0.30131363
   0.66356106  0.33237263  0.36039193
   0.66559000  0.33138000  0.00044000
   0.49968000  0.83322000  0.06046000
   0.66721000  0.33321000  0.24067000
   0.50058000  0.49950000  0.18024000
   0.33595000  0.33196000  0.11912000
   0.33462000  0.33376000  0.24059000
   0.50347420  0.49759061  0.30096444
   0.00055000  0.33190000  0.12006000
   0.16752000  0.49945000  0.18065000
   0.00021000  0.33145000  0.00038000
   0.33510000  0.33170000  0.00029000
   0.00106878  0.33267587  0.36040944
   0.00077000  0.99959000  0.12036000
   0.16814000  0.16634000  0.18048000
   0.33405000  0.66593000  0.12095000
   0.50078000  0.83242000  0.18121000
  -0.00002735  0.66609608  0.35988808
   0.99982000  0.33359000  0.24030000
   0.00025000  0.66569000  0.12051000
   0.16581000  0.83217000  0.18114000
   0.66566000  0.33123000  0.11970000
   0.83440432  0.83519938  0.30252679
   0.16438066  0.49682446  0.30097741
   0.16461432  0.16938812  0.30254016
   0.00161000  0.99891000  0.00024000
   0.00320150  0.00033194  0.36011206
   0.16807000  0.16539000  0.06004000
   0.50540471  0.83154880  0.30145142
   0.83476000  0.83303000  0.18132000
   0.66715000  0.66559000  0.00000000
   0.66719000  0.66640000  0.12032000
   0.83302000  0.49937000  0.17995000
   0.16769000  0.83389000  0.06029000
   0.50268700  0.16813925  0.30272493
   0.33289000  0.99824000  0.24130000
   0.66679000  0.99914000  0.24097000
   0.33466000  0.00023000  0.12082000
   0.66746000  0.99815000  0.00001000
   0.83367838  0.16711781  0.30221000
   0.83358000  0.16456000  0.06013000
   0.66505018  0.99980605  0.35995080
   0.83364000  0.16593000  0.18062000
   0.66653000  0.99972000  0.12044000
   0.33476270  0.33099985  0.35964015
Direct configuration=     4
   0.33487000  0.00167000  0.00066000
   0.33371402  0.00183086  0.36156560
   0.00122000  0.00217000  0.24080000
   0.16722000  0.50179000  0.05903000
   0.50000000  0.50344000  0.05949000
   0.49861000  0.16115000  0.05868000
   0.49968000  0.16444000  0.18182000
   0.83449783  0.50594621  0.29983441
   0.99722000  0.66135000  0.24151000
   0.33419000  0.66573000  0.24040000
   0.33414000  0.65855000  0.00278000
   0.33364691  0.66537205  0.36599836
   0.66923000  0.66337000  0.24097000
   0.83310000  0.49871000  0.06001000
   0.83472000  0.83192000  0.06027000
   0.66675187  0.66782243  0.35934367
   0.00081000  0.66425000  0.00034000
   0.15893763  0.83009916  0.30131880
   0.66352676  0.33235844  0.36036998
   0.66559000  0.33138000  0.00044000
   0.49968000  0.83322000  0.06046000
   0.66721000  0.33321000  0.24067000
   0.50058000  0.49950000  0.18024000
   0.33595000  0.33196000  0.11912000
   0.33462000  0.33376000  0.24059000
   0.50355648  0.49750435  0.30097373
   0.00055000  0.33190000  0.12006000
   0.16752000  0.49945000  0.18065000
   0.00021000  0.33145000  0.00038000
   0.33510000  0.33170000  0.00029000
   0.00110428  0.33266731  0.36038960
   0.00077000  0.99959000  0.12036000
   0.16814000  0.16634000  0.18048000
   0.33405000  0.66593000  0.12095000
   0.50078000  0.83242000  0.18121000
  -0.00003285  0.66610227  0.35985662
   0.99982000  0.33359000  0.24030000
   0.00025000  0.66569000  0.12051000
   0.16581000  0.83217000  0.18114000
   0.66566000  0.33123000  0.11970000
   0.83438823  0.83520734  0.30256127
   0.16431349  0.49674336  0.30098870
   0.16455304  0.16943786  0.30258149
   0.00161000  0.99891000  0.00024000
   0.00325471  0.00032812  0.36008819
   0.16807000  0.16539000  0.06004000
   0.50556216  0.83154225  0.30145991
   0.83476000  0.83303000  0.18132000
   0.66715000  0.66559000  0.00000000
   0.66719000  0.66640000  0.12032000
   0.83302000  0.49937000  0.17995000
   0.16769000  0.83389000  0.06029000
   0.50274952  0.16820231  0.30277387
   0.33289000  0.99824000  0.24130000
   0.66679000  0.99914000  0.24097000
   0.33466000  0.00023000  0.12082000
   0.66746000  0.99815000  0.00001000
   0.83368317  0.16711994  0.30224117
   0.83358000  0.16456000  0.06013000
   0.66500692  0.99980788  0.35992883
   0.83364000  0.16593000  0.18062000
   0.66653000  0.99972000  0.12044000
   0.33476929  0.33094450  0.35960366
Direct configuration=     5
   0.33487000  0.00167000  0.00066000
   0.33349805  0.00049775  0.36135497
   0.00122000  0.00217000  0.24080000
   0.16722000  0.50179000  0.05903000
   0.50000000  0.50344000  0.05949000
   0.49861000  0.16115000  0.05868000
   0.49968000  0.16444000  0.18182000
   0.83445295  0.50596978  0.29969089
   0.99722000  0.66135000  0.24151000
   0.33419000  0.66573000  0.24040000
   0.33414000  0.65855000  0.00278000
   0.33374209  0.66708070  0.36668414
   0.66923000  0.66337000  0.24097000
   0.83310000  0.49871000  0.06001000
   0.83472000  0.83192000  0.06027000
   0.66712596  0.66777996  0.35914733
   0.00081000  0.66425000  0.00034000
   0.15820629  0.82986715  0.30112020
   0.66329861  0.33238088  0.36046484
   0.66559000  0.33138000  0.00044000
   0.49968000  0.83322000  0.06046000
   0.66721000  0.33321000  0.24067000
   0.50058000  0.49950000  0.18024000
   0.33595000  0.33196000  0.11912000
   0.33462000  0.33376000  0.24059000
   0.50275390  0.49801919  0.30108608
   0.00055000  0.33190000  0.12006000
   0.16752000  0.49945000  0.18065000
   0.00021000  0.33145000  0.00038000
   0.33510000  0.33170000  0.00029000
   0.00162982  0.33283505  0.36046575
   0.00077000  0.99959000  0.12036000
   0.16814000  0.16634000  0.18048000
   0.33405000  0.66593000  0.12095000
   0.50078000  0.83242000  0.18121000
  -0.00043979  0.66600104  0.35960484
   0.99982000  0.33359000  0.24030000
   0.00025000  0.66569000  0.12051000
   0.16581000  0.83217000  0.18114000
   0.66566000  0.33123000  0.11970000
   0.83415748  0.83566273  0.30254398
   0.16504206  0.49713838  0.30111103
   0.16475635  0.16914738  0.30253487
   0.00161000  0.99891000  0.00024000
   0.00426601  0.00011730  0.36025106
   0.16807000  0.16539000  0.06004000
   0.50617460  0.83146335  0.30128960
   0.83476000  0.83303000  0.18132000
   0.66715000  0.66559000  0.00000000
   0.66719000  0.66640000  0.12032000
   0.83302000  0.49937000  0.17995000
   0.16769000  0.83389000  0.06029000
   0.50256367  0.16780800  0.30268816
   0.33289000  0.99824000  0.24130000
   0.66679000  0.99914000  0.24097000
   0.33466000  0.00023000  0.12082000
   0.66746000  0.99815000  0.00001000
   0.83361306  0.16716726  0.30215666
   0.83358000  0.16456000  0.06013000
   0.66425149  0.99981761  0.36017250
   0.83364000  0.16593000  0.18062000
   0.66653000  0.99972000  0.12044000
   0.33477707  0.33056814  0.35954478
Direct configuration=     6
   0.33487000  0.00167000  0.00066000
   0.33285014 -0.00350158  0.36072306
   0.00122000  0.00217000  0.24080000
   0.16722000  0.50179000  0.05903000
   0.50000000  0.50344000  0.05949000
   0.49861000  0.16115000  0.05868000
   0.49968000  0.16444000  0.18182000
   0.83431829  0.50604047  0.29926034
   0.99722000  0.66135000  0.24151000
   0.33419000  0.66573000  0.24040000
   0.33414000  0.65855000  0.00278000
   0.33402760  0.67220663  0.36874150
   0.66923000  0.66337000  0.24097000
   0.83310000  0.49871000  0.06001000
   0.83472000  0.83192000  0.06027000
   0.66824821  0.66765255  0.35855831
   0.00081000  0.66425000  0.00034000
   0.15601226  0.82917112  0.30052442
   0.66261414  0.33244819  0.36074939
   0.66559000  0.33138000  0.00044000
   0.49968000  0.83322000  0.06046000
   0.66721000  0.33321000  0.24067000
   0.50058000  0.49950000  0.18024000
   0.33595000  0.33196000  0.11912000
   0.33462000  0.33376000  0.24059000
   0.50034616  0.49956371  0.30142315
   0.00055000  0.33190000  0.12006000
   0.16752000  0.49945000  0.18065000
   0.00021000  0.33145000  0.00038000
   0.33510000  0.33170000  0.00029000
   0.00320642  0.33333826  0.36069420
   0.00077000  0.99959000  0.12036000
   0.16814000  0.16634000  0.18048000
   0.33405000  0.66593000  0.12095000
   0.50078000  0.83242000  0.18121000
  -0.00166059  0.66569737  0.35884953
   0.99982000  0.33359000  0.24030000
   0.00025000  0.66569000  0.12051000
   0.16581000  0.83217000  0.18114000
   0.66566000  0.33123000  0.11970000
   0.83346523  0.83702890  0.30249209
   0.16722777  0.49832344  0.30147803
   0.16536627  0.16827594  0.30239503
   0.00161000  0.99891000  0.00024000
   0.00729991 -0.00051518  0.36073967
   0.16807000  0.16539000  0.06004000
   0.50801193  0.83122665  0.30077868
   0.83476000  0.83303000  0.18132000
   0.66715000  0.66559000  0.00000000
   0.66719000  0.66640000  0.12032000
   0.83302000  0.49937000  0.17995000
   0.16769000  0.83389000  0.06029000
   0.50200612  0.16662507  0.30243103
   0.33289000  0.99824000  0.24130000
   0.66679000  0.99914000  0.24097000
   0.33466000  0.00023000  0.12082000
   0.66746000  0.99815000  0.00001000
   0.83340270  0.16730922  0.30190313
   0.83358000  0.16456000  0.06013000
   0.66198520  0.99984677  0.36090351
   0.83364000  0.16593000  0.18062000
   0.66653000  0.99972000  0.12044000
   0.33480040  0.32943905  0.35936814
Direct configuration=     7
   0.33487000  0.00167000  0.00066000
   0.33276472 -0.00507219  0.36040993
   0.00122000  0.00217000  0.24080000
   0.16722000  0.50179000  0.05903000
   0.50000000  0.50344000  0.05949000
   0.49861000  0.16115000  0.05868000
   0.49968000  0.16444000  0.18182000
   0.83432407  0.50546088  0.29931614
   0.99722000  0.66135000  0.24151000
   0.33419000  0.66573000  0.24040000
   0.33414000  0.65855000  0.00278000
   0.33388387  0.67405564  0.36915347
   0.66923000  0.66337000  0.24097000
   0.83310000  0.49871000  0.06001000
   0.83472000  0.83192000  0.06027000
   0.66903142  0.66756761  0.35870192
   0.00081000  0.66425000  0.00034000
   0.15689244  0.82883320  0.30041609
   0.66212588  0.33224018  0.36049006
   0.66559000  0.33138000  0.00044000
   0.49968000  0.83322000  0.06046000
   0.66721000  0.33321000  0.24067000
   0.50058000  0.49950000  0.18024000
   0.33595000  0.33196000  0.11912000
   0.33462000  0.33376000  0.24059000
   0.50015596  0.49955002  0.30157429
   0.00055000  0.33190000  0.12006000
   0.16752000  0.49945000  0.18065000
   0.00021000  0.33145000  0.00038000
   0.33510000  0.33170000  0.00029000
   0.00384242  0.33336328  0.36049493
   0.00077000  0.99959000  0.12036000
   0.16814000  0.16634000  0.18048000
   0.33405000  0.66593000  0.12095000
   0.50078000  0.83242000  0.18121000
  -0.00273727  0.66567900  0.35892954
   0.99982000  0.33359000  0.24030000
   0.00025000  0.66569000  0.12051000
   0.16581000  0.83217000  0.18114000
   0.66566000  0.33123000  0.11970000
   0.83370128  0.83786459  0.30248302
   0.16761184  0.49848295  0.30158404
   0.16528299  0.16828164  0.30223391
   0.00161000  0.99891000  0.00024000
   0.00828308 -0.00064606  0.36080607
   0.16807000  0.16539000  0.06004000
   0.50688202  0.83113607  0.30078551
   0.83476000  0.83303000  0.18132000
   0.66715000  0.66559000  0.00000000
   0.66719000  0.66640000  0.12032000
   0.83302000  0.49937000  0.17995000
   0.16769000  0.83389000  0.06029000
   0.50205187  0.16676902  0.30242925
   0.33289000  0.99824000  0.24130000
   0.66679000  0.99914000  0.24097000
   0.33466000  0.00023000  0.12082000
   0.66746000  0.99815000  0.00001000
   0.83367827  0.16718972  0.30238275
   0.83358000  0.16456000  0.06013000
   0.66107107  0.00010134  0.36097258
   0.83364000  0.16593000  0.18062000
   0.66653000  0.99972000  0.12044000
   0.33483137  0.32956831  0.35967978
Direct configuration=     8
   0.33487000  0.00167000  0.00066000
   0.33271012 -0.00607616  0.36020976
   0.00122000  0.00217000  0.24080000
   0.16722000  0.50179000  0.05903000
   0.50000000  0.50344000  0.05949000
   0.49861000  0.16115000  0.05868000
   0.49968000  0.16444000  0.18182000
   0.83432777  0.50509040  0.29935181
   0.99722000  0.66135000  0.24151000
   0.33419000  0.66573000  0.24040000
   0.33414000  0.65855000  0.00278000
   0.33379199  0.67523756  0.36941681
   0.66923000  0.66337000  0.24097000
   0.83310000  0.49871000  0.06001000
   0.83472000  0.83192000  0.06027000
   0.66953206  0.66751332  0.35879372
   0.00081000  0.66425000  0.00034000
   0.15745508  0.82861720  0.30034684
   0.66181378  0.33210722  0.36032429
   0.66559000  0.33138000  0.00044000
   0.49968000  0.83322000  0.06046000
   0.66721000  0.33321000  0.24067000
   0.50058000  0.49950000  0.18024000
   0.33595000  0.33196000  0.11912000
   0.33462000  0.33376000  0.24059000
   0.50003439  0.49954127  0.30167090
   0.00055000  0.33190000  0.12006000
   0.16752000  0.49945000  0.18065000
   0.00021000  0.33145000  0.00038000
   0.33510000  0.33170000  0.00029000
   0.00424896  0.33337927  0.36036755
   0.00077000  0.99959000  0.12036000
   0.16814000  0.16634000  0.18048000
   0.33405000  0.66593000  0.12095000
   0.50078000  0.83242000  0.18121000
  -0.00342551  0.66566725  0.35898069
   0.99982000  0.33359000  0.24030000
   0.00025000  0.66569000  0.12051000
   0.16581000  0.83217000  0.18114000
   0.66566000  0.33123000  0.11970000
   0.83385217  0.83839878  0.30247722
   0.16785735  0.49858491  0.30165181
   0.16522975  0.16828528  0.30213092
   0.00161000  0.99891000  0.00024000
   0.00891155 -0.00072972  0.36084852
   0.16807000  0.16539000  0.06004000
   0.50615976  0.83107817  0.30078987
   0.83476000  0.83303000  0.18132000
   0.66715000  0.66559000  0.00000000
   0.66719000  0.66640000  0.12032000
   0.83302000  0.49937000  0.17995000
   0.16769000  0.83389000  0.06029000
   0.50208111  0.16686104  0.30242811
   0.33289000  0.99824000  0.24130000
   0.66679000  0.99914000  0.24097000
   0.33466000  0.00023000  0.12082000
   0.66746000  0.99815000  0.00001000
   0.83385443  0.16711333  0.30268933
   0.83358000  0.16456000  0.06013000
   0.66048673  0.00026406  0.36101674
   0.83364000  0.16593000  0.18062000
   0.66653000  0.99972000  0.12044000
   0.33485116  0.32965094  0.35987899
Direct configuration=     9
   0.33487000  0.00167000  0.00066000
   0.33271796 -0.00593206  0.36023849
   0.00122000  0.00217000  0.24080000
   0.16722000  0.50179000  0.05903000
   0.50000000  0.50344000  0.05949000
   0.49861000  0.16115000  0.05868000
   0.49968000  0.16444000  0.18182000
   0.83432724  0.50514357  0.29934669
   0.99722000  0.66135000  0.24151000
   0.33419000  0.66573000  0.24040000
   0.33414000  0.65855000  0.00278000
   0.33380517  0.67506792  0.36937901
   0.66923000  0.66337000  0.24097000
   0.83310000  0.49871000  0.06001000
   0.83472000  0.83192000  0.06027000
   0.66946020  0.66752111  0.35878054
   0.00081000  0.66425000  0.00034000
   0.15737433  0.82864820  0.30035678
   0.66185857  0.33212630  0.36034808
   0.66559000  0.33138000  0.00044000
   0.49968000  0.83322000  0.06046000
   0.66721000  0.33321000  0.24067000
   0.50058000  0.49950000  0.18024000
   0.33595000  0.33196000  0.11912000
   0.33462000  0.33376000  0.24059000
   0.50005184  0.49954253  0.30165704
   0.00055000  0.33190000  0.12006000
   0.16752000  0.49945000  0.18065000
   0.00021000  0.33145000  0.00038000
   0.33510000  0.33170000  0.00029000
   0.00419061  0.33337698  0.36038583
   0.00077000  0.99959000  0.12036000
   0.16814000  0.16634000  0.18048000
   0.33405000  0.66593000  0.12095000
   0.50078000  0.83242000  0.18121000
  -0.00332673  0.66566893  0.35897335
   0.99982000  0.33359000  0.24030000
   0.00025000  0.66569000  0.12051000
   0.16581000  0.83217000  0.18114000
   0.66566000  0.33123000  0.11970000
   0.83383051  0.83832211  0.30247805
   0.16782212  0.49857027  0.30164208
   0.16523739  0.16828475  0.30214570
   0.00161000  0.99891000  0.00024000
   0.00882134 -0.00071771  0.36084243
   0.16807000  0.16539000  0.06004000
   0.50626342  0.83108648  0.30078925
   0.83476000  0.83303000  0.18132000
   0.66715000  0.66559000  0.00000000
   0.66719000  0.66640000  0.12032000
   0.83302000  0.49937000  0.17995000
   0.16769000  0.83389000  0.06029000
   0.50207691  0.16684783  0.30242827
   0.33289000  0.99824000  0.24130000
   0.66679000  0.99914000  0.24097000
   0.33466000  0.00023000  0.12082000
   0.66746000  0.99815000  0.00001000
   0.83382914  0.16712429  0.30264533
   0.83358000  0.16456000  0.06013000
   0.66057060  0.00024071  0.36101040
   0.83364000  0.16593000  0.18062000
   0.66653000  0.99972000  0.12044000
   0.33484832  0.32963908  0.35985040
Direct configuration=    10
   0.33487000  0.00167000  0.00066000
   0.33266420 -0.00597953  0.36011995
   0.00122000  0.00217000  0.24080000
   0.16722000  0.50179000  0.05903000
   0.50000000  0.50344000  0.05949000
   0.49861000  0.16115000  0.05868000
   0.49968000  0.16444000  0.18182000
   0.83436175  0.50519471  0.29942114
   0.99722000  0.66135000  0.24151000
   0.33419000  0.66573000  0.24040000
   0.33414000  0.65855000  0.00278000
   0.33355889  0.67540028  0.36956028
   0.66923000  0.66337000  0.24097000
   0.83310000  0.49871000  0.06001000
   0.83472000  0.83192000  0.06027000
   0.66995407  0.66786988  0.35883393
   0.00081000  0.66425000  0.00034000
   0.15737160  0.82824630  0.30028154
   0.66123853  0.33192335  0.36026962
   0.66559000  0.33138000  0.00044000
   0.49968000  0.83322000  0.06046000
   0.66721000  0.33321000  0.24067000
   0.50058000  0.49950000  0.18024000
   0.33595000  0.33196000  0.11912000
   0.33462000  0.33376000  0.24059000
   0.50013783  0.49976799  0.30176148
   0.00055000  0.33190000  0.12006000
   0.16752000  0.49945000  0.18065000
   0.00021000  0.33145000  0.00038000
   0.33510000  0.33170000  0.00029000
   0.00505955  0.33341562  0.36032639
   0.00077000  0.99959000  0.12036000
   0.16814000  0.16634000  0.18048000
   0.33405000  0.66593000  0.12095000
   0.50078000  0.83242000  0.18121000
  -0.00415066  0.66602513  0.35903644
   0.99982000  0.33359000  0.24030000
   0.00025000  0.66569000  0.12051000
   0.16581000  0.83217000  0.18114000
   0.66566000  0.33123000  0.11970000
   0.83385481  0.83814300  0.30256586
   0.16778894  0.49872096  0.30172315
   0.16575003  0.16836107  0.30217206
   0.00161000  0.99891000  0.00024000
   0.00971885 -0.00105331  0.36085188
   0.16807000  0.16539000  0.06004000
   0.50657265  0.83076109  0.30072873
   0.83476000  0.83303000  0.18132000
   0.66715000  0.66559000  0.00000000
   0.66719000  0.66640000  0.12032000
   0.83302000  0.49937000  0.17995000
   0.16769000  0.83389000  0.06029000
   0.50159079  0.16696364  0.30247183
   0.33289000  0.99824000  0.24130000
   0.66679000  0.99914000  0.24097000
   0.33466000  0.00023000  0.12082000
   0.66746000  0.99815000  0.00001000
   0.83389013  0.16687265  0.30274152
   0.83358000  0.16456000  0.06013000
   0.65983471  0.00017864  0.36098620
   0.83364000  0.16593000  0.18062000
   0.66653000  0.99972000  0.12044000
   0.33465766  0.32994740  0.36014239
Direct configuration=    11
   0.33487000  0.00167000  0.00066000
   0.33258056 -0.00605339  0.35993553
   0.00122000  0.00217000  0.24080000
   0.16722000  0.50179000  0.05903000
   0.50000000  0.50344000  0.05949000
   0.49861000  0.16115000  0.05868000
   0.49968000  0.16444000  0.18182000
   0.83441544  0.50527428  0.29953697
   0.99722000  0.66135000  0.24151000
   0.33419000  0.66573000  0.24040000
   0.33414000  0.65855000  0.00278000
   0.33317573  0.67591735  0.36984228
   0.66923000  0.66337000  0.24097000
   0.83310000  0.49871000  0.06001000
   0.83472000  0.83192000  0.06027000
   0.67072240  0.66841248  0.35891700
   0.00081000  0.66425000  0.00034000
   0.15736735  0.82762104  0.30016450
   0.66027389  0.33160762  0.36014756
   0.66559000  0.33138000  0.00044000
   0.49968000  0.83322000  0.06046000
   0.66721000  0.33321000  0.24067000
   0.50058000  0.49950000  0.18024000
   0.33595000  0.33196000  0.11912000
   0.33462000  0.33376000  0.24059000
   0.50027163  0.50011875  0.30192396
   0.00055000  0.33190000  0.12006000
   0.16752000  0.49945000  0.18065000
   0.00021000  0.33145000  0.00038000
   0.33510000  0.33170000  0.00029000
   0.00641142  0.33347574  0.36023392
   0.00077000  0.99959000  0.12036000
   0.16814000  0.16634000  0.18048000
   0.33405000  0.66593000  0.12095000
   0.50078000  0.83242000  0.18121000
  -0.00543250  0.66657929  0.35913460
   0.99982000  0.33359000  0.24030000
   0.00025000  0.66569000  0.12051000
   0.16581000  0.83217000  0.18114000
   0.66566000  0.33123000  0.11970000
   0.83389262  0.83786436  0.30270248
   0.16773734  0.49895540  0.30184929
   0.16654758  0.16847979  0.30221305
   0.00161000  0.99891000  0.00024000
   0.01111515 -0.00157543  0.36086657
   0.16807000  0.16539000  0.06004000
   0.50705374  0.83025486  0.30063457
   0.83476000  0.83303000  0.18132000
   0.66715000  0.66559000  0.00000000
   0.66719000  0.66640000  0.12032000
   0.83302000  0.49937000  0.17995000
   0.16769000  0.83389000  0.06029000
   0.50083449  0.16714380  0.30253960
   0.33289000  0.99824000  0.24130000
   0.66679000  0.99914000  0.24097000
   0.33466000  0.00023000  0.12082000
   0.66746000  0.99815000  0.00001000
   0.83398502  0.16648117  0.30289116
   0.83358000  0.16456000  0.06013000
   0.65868985  0.00008208  0.36094855
   0.83364000  0.16593000  0.18062000
   0.66653000  0.99972000  0.12044000
   0.33436103  0.33042708  0.36059667
Direct configuration=    12
   0.33487000  0.00167000  0.00066000
   0.33259753 -0.00603840  0.35997295
   0.00122000  0.00217000  0.24080000
   0.16722000  0.50179000  0.05903000
   0.50000000  0.50344000  0.05949000
   0.49861000  0.16115000  0.05868000
   0.49968000  0.16444000  0.18182000
   0.83440454  0.50525813  0.29951347
   0.99722000  0.66135000  0.24151000
   0.33419000  0.66573000  0.24040000
   0.33414000  0.65855000  0.00278000
   0.33325347  0.67581244  0.36978506
   0.66923000  0.66337000  0.24097000
   0.83310000  0.49871000  0.06001000
   0.83472000  0.83192000  0.06027000
   0.67056651  0.66830239  0.35890014
   0.00081000  0.66425000  0.00034000
   0.15736821  0.82774790  0.30018824
   0.66046961  0.33167168  0.36017233
   0.66559000  0.33138000  0.00044000
   0.49968000  0.83322000  0.06046000
   0.66721000  0.33321000  0.24067000
   0.50058000  0.49950000  0.18024000
   0.33595000  0.33196000  0.11912000
   0.33462000  0.33376000  0.24059000
   0.50024448  0.50004758  0.30189099
   0.00055000  0.33190000  0.12006000
   0.16752000  0.49945000  0.18065000
   0.00021000  0.33145000  0.00038000
   0.33510000  0.33170000  0.00029000
   0.00613713  0.33346354  0.36025268
   0.00077000  0.99959000  0.12036000
   0.16814000  0.16634000  0.18048000
   0.33405000  0.66593000  0.12095000
   0.50078000  0.83242000  0.18121000
  -0.00517243  0.66646686  0.35911469
   0.99982000  0.33359000  0.24030000
   0.00025000  0.66569000  0.12051000
   0.16581000  0.83217000  0.18114000
   0.66566000  0.33123000  0.11970000
   0.83388495  0.83792090  0.30267476
   0.16774781  0.49890783  0.30182370
   0.16638577  0.16845571  0.30220473
   0.00161000  0.99891000  0.00024000
   0.01083186 -0.00146949  0.36086359
   0.16807000  0.16539000  0.06004000
   0.50695613  0.83035757  0.30065367
   0.83476000  0.83303000  0.18132000
   0.66715000  0.66559000  0.00000000
   0.66719000  0.66640000  0.12032000
   0.83302000  0.49937000  0.17995000
   0.16769000  0.83389000  0.06029000
   0.50098793  0.16710725  0.30252585
   0.33289000  0.99824000  0.24130000
   0.66679000  0.99914000  0.24097000
   0.33466000  0.00023000  0.12082000
   0.66746000  0.99815000  0.00001000
   0.83396577  0.16656059  0.30286080
   0.83358000  0.16456000  0.06013000
   0.65892213  0.00010167  0.36095619
   0.83364000  0.16593000  0.18062000
   0.66653000  0.99972000  0.12044000
   0.33442121  0.33032976  0.36050450
Direct configuration=    13
   0.33487000  0.00167000  0.00066000
   0.33263086 -0.00600897  0.36004645
   0.00122000  0.00217000  0.24080000
   0.16722000  0.50179000  0.05903000
   0.50000000  0.50344000  0.05949000
   0.49861000  0.16115000  0.05868000
   0.49968000  0.16444000  0.18182000
   0.83438315  0.50522642  0.29946730
   0.99722000  0.66135000  0.24151000
   0.33419000  0.66573000  0.24040000
   0.33414000  0.65855000  0.00278000
   0.33340618  0.67560636  0.36967267
   0.66923000  0.66337000  0.24097000
   0.83310000  0.49871000  0.06001000
   0.83472000  0.83192000  0.06027000
   0.67026029  0.66808614  0.35886704
   0.00081000  0.66425000  0.00034000
   0.15736990  0.82799710  0.30023489
   0.66085407  0.33179751  0.36022097
   0.66559000  0.33138000  0.00044000
   0.49968000  0.83322000  0.06046000
   0.66721000  0.33321000  0.24067000
   0.50058000  0.49950000  0.18024000
   0.33595000  0.33196000  0.11912000
   0.33462000  0.33376000  0.24059000
   0.50019116  0.49990779  0.30182624
   0.00055000  0.33190000  0.12006000
   0.16752000  0.49945000  0.18065000
   0.00021000  0.33145000  0.00038000
   0.33510000  0.33170000  0.00029000
   0.00559834  0.33343958  0.36028954
   0.00077000  0.99959000  0.12036000
   0.16814000  0.16634000  0.18048000
   0.33405000  0.66593000  0.12095000
   0.50078000  0.83242000  0.18121000
  -0.00466154  0.66624599  0.35907556
   0.99982000  0.33359000  0.24030000
   0.00025000  0.66569000  0.12051000
   0.16581000  0.83217000  0.18114000
   0.66566000  0.33123000  0.11970000
   0.83386988  0.83803195  0.30262031
   0.16776838  0.49881440  0.30177343
   0.16606790  0.16840839  0.30218839
   0.00161000  0.99891000  0.00024000
   0.01027535 -0.00126140  0.36085773
   0.16807000  0.16539000  0.06004000
   0.50676439  0.83055933  0.30069120
   0.83476000  0.83303000  0.18132000
   0.66715000  0.66559000  0.00000000
   0.66719000  0.66640000  0.12032000
   0.83302000  0.49937000  0.17995000
   0.16769000  0.83389000  0.06029000
   0.50128936  0.16703544  0.30249884
   0.33289000  0.99824000  0.24130000
   0.66679000  0.99914000  0.24097000
   0.33466000  0.00023000  0.12082000
   0.66746000  0.99815000  0.00001000
   0.83392795  0.16671662  0.30280116
   0.83358000  0.16456000  0.06013000
   0.65937842  0.00014015  0.36097119
   0.83364000  0.16593000  0.18062000
   0.66653000  0.99972000  0.12044000
   0.33453944  0.33013858  0.36032345
Direct configuration=    14
   0.33487000  0.00167000  0.00066000
   0.33261336 -0.00602442  0.36000786
   0.00122000  0.00217000  0.24080000
   0.16722000  0.50179000  0.05903000
   0.50000000  0.50344000  0.05949000
   0.49861000  0.16115000  0.05868000
   0.49968000  0.16444000  0.18182000
   0.83439438  0.50524307  0.29949154
   0.99722000  0.66135000  0.24151000
   0.33419000  0.66573000  0.24040000
   0.33414000  0.65855000  0.00278000
   0.33332600  0.67571457  0.36973168
   0.66923000  0.66337000  0.24097000
   0.83310000  0.49871000  0.06001000
   0.83472000  0.83192000  0.06027000
   0.67042107  0.66819968  0.35888442
   0.00081000  0.66425000  0.00034000
   0.15736901  0.82786625  0.30021040
   0.66065220  0.33173144  0.36019543
   0.66559000  0.33138000  0.00044000
   0.49968000  0.83322000  0.06046000
   0.66721000  0.33321000  0.24067000
   0.50058000  0.49950000  0.18024000
   0.33595000  0.33196000  0.11912000
   0.33462000  0.33376000  0.24059000
   0.50021916  0.49998119  0.30186024
   0.00055000  0.33190000  0.12006000
   0.16752000  0.49945000  0.18065000
   0.00021000  0.33145000  0.00038000
   0.33510000  0.33170000  0.00029000
   0.00588124  0.33345216  0.36027019
   0.00077000  0.99959000  0.12036000
   0.16814000  0.16634000  0.18048000
   0.33405000  0.66593000  0.12095000
   0.50078000  0.83242000  0.18121000
  -0.00492978  0.66636196  0.35909611
   0.99982000  0.33359000  0.24030000
   0.00025000  0.66569000  0.12051000
   0.16581000  0.83217000  0.18114000
   0.66566000  0.33123000  0.11970000
   0.83387779  0.83797364  0.30264890
   0.16775758  0.49886346  0.30179982
   0.16623480  0.16843323  0.30219697
   0.00161000  0.99891000  0.00024000
   0.01056755 -0.00137066  0.36086081
   0.16807000  0.16539000  0.06004000
   0.50686506  0.83045340  0.30067150
   0.83476000  0.83303000  0.18132000
   0.66715000  0.66559000  0.00000000
   0.66719000  0.66640000  0.12032000
   0.83302000  0.49937000  0.17995000
   0.16769000  0.83389000  0.06029000
   0.50113109  0.16707315  0.30251302
   0.33289000  0.99824000  0.24130000
   0.66679000  0.99914000  0.24097000
   0.33466000  0.00023000  0.12082000
   0.66746000  0.99815000  0.00001000
   0.83394781  0.16663470  0.30283247
   0.83358000  0.16456000  0.06013000
   0.65913884  0.00011995  0.36096332
   0.83364000  0.16593000  0.18062000
   0.66653000  0.99972000  0.12044000
   0.33447736  0.33023896  0.36041851
Direct configuration=    15
   0.33487000  0.00167000  0.00066000
   0.33260716 -0.00602989  0.35999420
   0.00122000  0.00217000  0.24080000
   0.16722000  0.50179000  0.05903000
   0.50000000  0.50344000  0.05949000
   0.49861000  0.16115000  0.05868000
   0.49968000  0.16444000  0.18182000
   0.83439836  0.50524897  0.29950012
   0.99722000  0.66135000  0.24151000
   0.33419000  0.66573000  0.24040000
   0.33414000  0.65855000  0.00278000
   0.33329761  0.67575287  0.36975257
   0.66923000  0.66337000  0.24097000
   0.83310000  0.49871000  0.06001000
   0.83472000  0.83192000  0.06027000
   0.67047799  0.66823988  0.35889057
   0.00081000  0.66425000  0.00034000
   0.15736870  0.82781993  0.30020173
   0.66058074  0.33170805  0.36018639
   0.66559000  0.33138000  0.00044000
   0.49968000  0.83322000  0.06046000
   0.66721000  0.33321000  0.24067000
   0.50058000  0.49950000  0.18024000
   0.33595000  0.33196000  0.11912000
   0.33462000  0.33376000  0.24059000
   0.50022907  0.50000717  0.30187227
   0.00055000  0.33190000  0.12006000
   0.16752000  0.49945000  0.18065000
   0.00021000  0.33145000  0.00038000
   0.33510000  0.33170000  0.00029000
   0.00598138  0.33345662  0.36026334
   0.00077000  0.99959000  0.12036000
   0.16814000  0.16634000  0.18048000
   0.33405000  0.66593000  0.12095000
   0.50078000  0.83242000  0.18121000
  -0.00502474  0.66640301  0.35910338
   0.99982000  0.33359000  0.24030000
   0.00025000  0.66569000  0.12051000
   0.16581000  0.83217000  0.18114000
   0.66566000  0.33123000  0.11970000
   0.83388059  0.83795300  0.30265902
   0.16775375  0.49888082  0.30180917
   0.16629388  0.16844203  0.30220001
   0.00161000  0.99891000  0.00024000
   0.01067098 -0.00140934  0.36086190
   0.16807000  0.16539000  0.06004000
   0.50690070  0.83041589  0.30066452
   0.83476000  0.83303000  0.18132000
   0.66715000  0.66559000  0.00000000
   0.66719000  0.66640000  0.12032000
   0.83302000  0.49937000  0.17995000
   0.16769000  0.83389000  0.06029000
   0.50107507  0.16708649  0.30251805
   0.33289000  0.99824000  0.24130000
   0.66679000  0.99914000  0.24097000
   0.33466000  0.00023000  0.12082000
   0.66746000  0.99815000  0.00001000
   0.83395484  0.16660570  0.30284356
   0.83358000  0.16456000  0.06013000
   0.65905403  0.00011279  0.36096053
   0.83364000  0.16593000  0.18062000
   0.66653000  0.99972000  0.12044000
   0.33445539  0.33027449  0.36045216
Direct configuration=    16
   0.33487000  0.00167000  0.00066000
   0.33270517 -0.00579022  0.36004862
   0.00122000  0.00217000  0.24080000
   0.16722000  0.50179000  0.05903000
   0.50000000  0.50344000  0.05949000
   0.49861000  0.16115000  0.05868000
   0.49968000  0.16444000  0.18182000
   0.83436357  0.50514811  0.29950184
   0.99722000  0.66135000  0.24151000
   0.33419000  0.66573000  0.24040000
   0.33414000  0.65855000  0.00278000
   0.33327606  0.67548072  0.36976150
   0.66923000  0.66337000  0.24097000
   0.83310000  0.49871000  0.06001000
   0.83472000  0.83192000  0.06027000
   0.67047140  0.66842770  0.35903553
   0.00081000  0.66425000  0.00034000
   0.15709467  0.82791112  0.30012869
   0.66006954  0.33151801  0.36026623
   0.66559000  0.33138000  0.00044000
   0.49968000  0.83322000  0.06046000
   0.66721000  0.33321000  0.24067000
   0.50058000  0.49950000  0.18024000
   0.33595000  0.33196000  0.11912000
   0.33462000  0.33376000  0.24059000
   0.49996432  0.50003123  0.30185437
   0.00055000  0.33190000  0.12006000
   0.16752000  0.49945000  0.18065000
   0.00021000  0.33145000  0.00038000
   0.33510000  0.33170000  0.00029000
   0.00680909  0.33338579  0.36035410
   0.00077000  0.99959000  0.12036000
   0.16814000  0.16634000  0.18048000
   0.33405000  0.66593000  0.12095000
   0.50078000  0.83242000  0.18121000
  -0.00526696  0.66668725  0.35923283
   0.99982000  0.33359000  0.24030000
   0.00025000  0.66569000  0.12051000
   0.16581000  0.83217000  0.18114000
   0.66566000  0.33123000  0.11970000
   0.83382181  0.83828991  0.30254708
   0.16783414  0.49890998  0.30175920
   0.16628624  0.16853757  0.30220060
   0.00161000  0.99891000  0.00024000
   0.01119554 -0.00186444  0.36084276
   0.16807000  0.16539000  0.06004000
   0.50699991  0.83051106  0.30063492
   0.83476000  0.83303000  0.18132000
   0.66715000  0.66559000  0.00000000
   0.66719000  0.66640000  0.12032000
   0.83302000  0.49937000  0.17995000
   0.16769000  0.83389000  0.06029000
   0.50101297  0.16712085  0.30245190
   0.33289000  0.99824000  0.24130000
   0.66679000  0.99914000  0.24097000
   0.33466000  0.00023000  0.12082000
   0.66746000  0.99815000  0.00001000
   0.83396990  0.16670275  0.30270538
   0.83358000  0.16456000  0.06013000
   0.65878092 -0.00014250  0.36097640
   0.83364000  0.16593000  0.18062000
   0.66653000  0.99972000  0.12044000
   0.33424544  0.33067802  0.36055167
Direct configuration=    17
   0.33487000  0.00167000  0.00066000
   0.33273156 -0.00572567  0.36006328
   0.00122000  0.00217000  0.24080000
   0.16722000  0.50179000  0.05903000
   0.50000000  0.50344000  0.05949000
   0.49861000  0.16115000  0.05868000
   0.49968000  0.16444000  0.18182000
   0.83435420  0.50512095  0.29950230
   0.99722000  0.66135000  0.24151000
   0.33419000  0.66573000  0.24040000
   0.33414000  0.65855000  0.00278000
   0.33327026  0.67540743  0.36976391
   0.66923000  0.66337000  0.24097000
   0.83310000  0.49871000  0.06001000
   0.83472000  0.83192000  0.06027000
   0.67046963  0.66847828  0.35907457
   0.00081000  0.66425000  0.00034000
   0.15702088  0.82793568  0.30010902
   0.65993187  0.33146684  0.36028774
   0.66559000  0.33138000  0.00044000
   0.49968000  0.83322000  0.06046000
   0.66721000  0.33321000  0.24067000
   0.50058000  0.49950000  0.18024000
   0.33595000  0.33196000  0.11912000
   0.33462000  0.33376000  0.24059000
   0.49989303  0.50003770  0.30184954
   0.00055000  0.33190000  0.12006000
   0.16752000  0.49945000  0.18065000
   0.00021000  0.33145000  0.00038000
   0.33510000  0.33170000  0.00029000
   0.00703198  0.33336672  0.36037854
   0.00077000  0.99959000  0.12036000
   0.16814000  0.16634000  0.18048000
   0.33405000  0.66593000  0.12095000
   0.50078000  0.83242000  0.18121000
  -0.00533219  0.66676379  0.35926769
   0.99982000  0.33359000  0.24030000
   0.00025000  0.66569000  0.12051000
   0.16581000  0.83217000  0.18114000
   0.66566000  0.33123000  0.11970000
   0.83380597  0.83838064  0.30251693
   0.16785579  0.49891783  0.30174574
   0.16628419  0.16856331  0.30220075
   0.00161000  0.99891000  0.00024000
   0.01133681 -0.00198699  0.36083761
   0.16807000  0.16539000  0.06004000
   0.50702662  0.83053668  0.30062695
   0.83476000  0.83303000  0.18132000
   0.66715000  0.66559000  0.00000000
   0.66719000  0.66640000  0.12032000
   0.83302000  0.49937000  0.17995000
   0.16769000  0.83389000  0.06029000
   0.50099625  0.16713011  0.30243409
   0.33289000  0.99824000  0.24130000
   0.66679000  0.99914000  0.24097000
   0.33466000  0.00023000  0.12082000
   0.66746000  0.99815000  0.00001000
   0.83397396  0.16672888  0.30266817
   0.83358000  0.16456000  0.06013000
   0.65870738 -0.00021125  0.36098067
   0.83364000  0.16593000  0.18062000
   0.66653000  0.99972000  0.12044000
   0.33418890  0.33078669  0.36057847
Direct configuration=    18
   0.33487000  0.00167000  0.00066000
   0.33272350 -0.00574538  0.36005880
   0.00122000  0.00217000  0.24080000
   0.16722000  0.50179000  0.05903000
   0.50000000  0.50344000  0.05949000
   0.49861000  0.16115000  0.05868000
   0.49968000  0.16444000  0.18182000
   0.83435706  0.50512924  0.29950216
   0.99722000  0.66135000  0.24151000
   0.33419000  0.66573000  0.24040000
   0.33414000  0.65855000  0.00278000
   0.33327203  0.67542980  0.36976317
   0.66923000  0.66337000  0.24097000
   0.83310000  0.49871000  0.06001000
   0.83472000  0.83192000  0.06027000
   0.67047017  0.66846284  0.35906265
   0.00081000  0.66425000  0.00034000
   0.15704341  0.82792818  0.30011502
   0.65997391  0.33148246  0.36028117
   0.66559000  0.33138000  0.00044000
   0.49968000  0.83322000  0.06046000
   0.66721000  0.33321000  0.24067000
   0.50058000  0.49950000  0.18024000
   0.33595000  0.33196000  0.11912000
   0.33462000  0.33376000  0.24059000
   0.49991479  0.50003572  0.30185102
   0.00055000  0.33190000  0.12006000
   0.16752000  0.49945000  0.18065000
   0.00021000  0.33145000  0.00038000
   0.33510000  0.33170000  0.00029000
   0.00696393  0.33337254  0.36037108
   0.00077000  0.99959000  0.12036000
   0.16814000  0.16634000  0.18048000
   0.33405000  0.66593000  0.12095000
   0.50078000  0.83242000  0.18121000
  -0.00531228  0.66674042  0.35925705
   0.99982000  0.33359000  0.24030000
   0.00025000  0.66569000  0.12051000
   0.16581000  0.83217000  0.18114000
   0.66566000  0.33123000  0.11970000
   0.83381081  0.83835293  0.30252613
   0.16784918  0.49891543  0.30174985
   0.16628482  0.16855545  0.30220071
   0.00161000  0.99891000  0.00024000
   0.01129368 -0.00194957  0.36083919
   0.16807000  0.16539000  0.06004000
   0.50701847  0.83052886  0.30062939
   0.83476000  0.83303000  0.18132000
   0.66715000  0.66559000  0.00000000
   0.66719000  0.66640000  0.12032000
   0.83302000  0.49937000  0.17995000
   0.16769000  0.83389000  0.06029000
   0.50100136  0.16712728  0.30243952
   0.33289000  0.99824000  0.24130000
   0.66679000  0.99914000  0.24097000
   0.33466000  0.00023000  0.12082000
   0.66746000  0.99815000  0.00001000
   0.83397272  0.16672090  0.30267953
   0.83358000  0.16456000  0.06013000
   0.65872983 -0.00019026  0.36097936
   0.83364000  0.16593000  0.18062000
   0.66653000  0.99972000  0.12044000
   0.33420616  0.33075351  0.36057029
Direct configuration=    19
   0.33487000  0.00167000  0.00066000
   0.33272744 -0.00573575  0.36006099
   0.00122000  0.00217000  0.24080000
   0.16722000  0.50179000  0.05903000
   0.50000000  0.50344000  0.05949000
   0.49861000  0.16115000  0.05868000
   0.49968000  0.16444000  0.18182000
   0.83435566  0.50512519  0.29950223
   0.99722000  0.66135000  0.24151000
   0.33419000  0.66573000  0.24040000
   0.33414000  0.65855000  0.00278000
   0.33327117  0.67541887  0.36976353
   0.66923000  0.66337000  0.24097000
   0.83310000  0.49871000  0.06001000
   0.83472000  0.83192000  0.06027000
   0.67046991  0.66847039  0.35906848
   0.00081000  0.66425000  0.00034000
   0.15703240  0.82793184  0.30011209
   0.65995336  0.33147483  0.36028438
   0.66559000  0.33138000  0.00044000
   0.49968000  0.83322000  0.06046000
   0.66721000  0.33321000  0.24067000
   0.50058000  0.49950000  0.18024000
   0.33595000  0.33196000  0.11912000
   0.33462000  0.33376000  0.24059000
   0.49990415  0.50003669  0.30185030
   0.00055000  0.33190000  0.12006000
   0.16752000  0.49945000  0.18065000
   0.00021000  0.33145000  0.00038000
   0.33510000  0.33170000  0.00029000
   0.00699720  0.33336970  0.36037473
   0.00077000  0.99959000  0.12036000
   0.16814000  0.16634000  0.18048000
   0.33405000  0.66593000  0.12095000
   0.50078000  0.83242000  0.18121000
  -0.00532201  0.66675185  0.35926225
   0.99982000  0.33359000  0.24030000
   0.00025000  0.66569000  0.12051000
   0.16581000  0.83217000  0.18114000
   0.66566000  0.33123000  0.11970000
   0.83380844  0.83836647  0.30252163
   0.16785241  0.49891660  0.30174784
   0.16628451  0.16855929  0.30220073
   0.00161000  0.99891000  0.00024000
   0.01131476 -0.00196787  0.36083842
   0.16807000  0.16539000  0.06004000
   0.50702245  0.83053268  0.30062820
   0.83476000  0.83303000  0.18132000
   0.66715000  0.66559000  0.00000000
   0.66719000  0.66640000  0.12032000
   0.83302000  0.49937000  0.17995000
   0.16769000  0.83389000  0.06029000
   0.50099886  0.16712866  0.30243687
   0.33289000  0.99824000  0.24130000
   0.66679000  0.99914000  0.24097000
   0.33466000  0.00023000  0.12082000
   0.66746000  0.99815000  0.00001000
   0.83397332  0.16672480  0.30267398
   0.83358000  0.16456000  0.06013000
   0.65871885 -0.00020052  0.36098000
   0.83364000  0.16593000  0.18062000
   0.66653000  0.99972000  0.12044000
   0.33419773  0.33076973  0.36057429
Direct configuration=    20
   0.33487000  0.00167000  0.00066000
   0.33272471 -0.00574243  0.36005947
   0.00122000  0.00217000  0.24080000
   0.16722000  0.50179000  0.05903000
   0.50000000  0.50344000  0.05949000
   0.49861000  0.16115000  0.05868000
   0.49968000  0.16444000  0.18182000
   0.83435663  0.50512800  0.29950218
   0.99722000  0.66135000  0.24151000
   0.33419000  0.66573000  0.24040000
   0.33414000  0.65855000  0.00278000
   0.33327177  0.67542645  0.36976328
   0.66923000  0.66337000  0.24097000
   0.83310000  0.49871000  0.06001000
   0.83472000  0.83192000  0.06027000
   0.67047009  0.66846515  0.35906443
   0.00081000  0.66425000  0.00034000
   0.15704004  0.82792930  0.30011412
   0.65996761  0.33148012  0.36028215
   0.66559000  0.33138000  0.00044000
   0.49968000  0.83322000  0.06046000
   0.66721000  0.33321000  0.24067000
   0.50058000  0.49950000  0.18024000
   0.33595000  0.33196000  0.11912000
   0.33462000  0.33376000  0.24059000
   0.49991153  0.50003602  0.30185080
   0.00055000  0.33190000  0.12006000
   0.16752000  0.49945000  0.18065000
   0.00021000  0.33145000  0.00038000
   0.33510000  0.33170000  0.00029000
   0.00697412  0.33337167  0.36037220
   0.00077000  0.99959000  0.12036000
   0.16814000  0.16634000  0.18048000
   0.33405000  0.66593000  0.12095000
   0.50078000  0.83242000  0.18121000
  -0.00531526  0.66674392  0.35925864
   0.99982000  0.33359000  0.24030000
   0.00025000  0.66569000  0.12051000
   0.16581000  0.83217000  0.18114000
   0.66566000  0.33123000  0.11970000
   0.83381008  0.83835708  0.30252475
   0.16785017  0.49891579  0.30174924
   0.16628472  0.16855663  0.30220071
   0.00161000  0.99891000  0.00024000
   0.01130013 -0.00195518  0.36083895
   0.16807000  0.16539000  0.06004000
   0.50701969  0.83053003  0.30062902
   0.83476000  0.83303000  0.18132000
   0.66715000  0.66559000  0.00000000
   0.66719000  0.66640000  0.12032000
   0.83302000  0.49937000  0.17995000
   0.16769000  0.83389000  0.06029000
   0.50100059  0.16712770  0.30243871
   0.33289000  0.99824000  0.24130000
   0.66679000  0.99914000  0.24097000
   0.33466000  0.00023000  0.12082000
   0.66746000  0.99815000  0.00001000
   0.83397290  0.16672210  0.30267783
   0.83358000  0.16456000  0.06013000
   0.65872647 -0.00019340  0.36097956
   0.83364000  0.16593000  0.18062000
   0.66653000  0.99972000  0.12044000
   0.33420358  0.33075848  0.36057151
Direct configuration=    21
   0.33487000  0.00167000  0.00066000
   0.33284678 -0.00553764  0.36013032
   0.00122000  0.00217000  0.24080000
   0.16722000  0.50179000  0.05903000
   0.50000000  0.50344000  0.05949000
   0.49861000  0.16115000  0.05868000
   0.49968000  0.16444000  0.18182000
   0.83425644  0.50522875  0.29955474
   0.99722000  0.66135000  0.24151000
   0.33419000  0.66573000  0.24040000
   0.33414000  0.65855000  0.00278000
   0.33320974  0.67530953  0.36967025
   0.66923000  0.66337000  0.24097000
   0.83310000  0.49871000  0.06001000
   0.83472000  0.83192000  0.06027000
   0.67052454  0.66852629  0.35908073
   0.00081000  0.66425000  0.00034000
   0.15713474  0.82799462  0.30009857
   0.65959907  0.33132603  0.36028152
   0.66559000  0.33138000  0.00044000
   0.49968000  0.83322000  0.06046000
   0.66721000  0.33321000  0.24067000
   0.50058000  0.49950000  0.18024000
   0.33595000  0.33196000  0.11912000
   0.33462000  0.33376000  0.24059000
   0.49999218  0.50003428  0.30183656
   0.00055000  0.33190000  0.12006000
   0.16752000  0.49945000  0.18065000
   0.00021000  0.33145000  0.00038000
   0.33510000  0.33170000  0.00029000
   0.00755880  0.33333071  0.36042943
   0.00077000  0.99959000  0.12036000
   0.16814000  0.16634000  0.18048000
   0.33405000  0.66593000  0.12095000
   0.50078000  0.83242000  0.18121000
  -0.00560016  0.66694329  0.35927739
   0.99982000  0.33359000  0.24030000
   0.00025000  0.66569000  0.12051000
   0.16581000  0.83217000  0.18114000
   0.66566000  0.33123000  0.11970000
   0.83372044  0.83825992  0.30251817
   0.16768967  0.49904775  0.30170956
   0.16624844  0.16848970  0.30217997
   0.00161000  0.99891000  0.00024000
   0.01142239 -0.00225029  0.36084089
   0.16807000  0.16539000  0.06004000
   0.50677401  0.83059613  0.30066785
   0.83476000  0.83303000  0.18132000
   0.66715000  0.66559000  0.00000000
   0.66719000  0.66640000  0.12032000
   0.83302000  0.49937000  0.17995000
   0.16769000  0.83389000  0.06029000
   0.50104825  0.16711946  0.30245595
   0.33289000  0.99824000  0.24130000
   0.66679000  0.99914000  0.24097000
   0.33466000  0.00023000  0.12082000
   0.66746000  0.99815000  0.00001000
   0.83400752  0.16697218  0.30274748
   0.83358000  0.16456000  0.06013000
   0.65878768 -0.00028442  0.36095612
   0.83364000  0.16593000  0.18062000
   0.66653000  0.99972000  0.12044000
   0.33407509  0.33098432  0.36056274
