  62  62   0   0
  0.2754962E+02  0.8526200E-09  0.8504600E-09  0.2355580E-08  0.5000000E-15
  1.000000000000000E-004
  CAR 
 ni3al                                   
      5.16649650    -45.92712127  301      0.77463375      1.00000000
    -45.927  0.0000E+00  0.0000E+00  0.0000E+00  0.0000E+00
    -45.757  0.0000E+00  0.0000E+00  0.0000E+00  0.0000E+00
    -45.586  0.0000E+00  0.0000E+00  0.0000E+00  0.0000E+00
    -45.416  0.0000E+00  0.0000E+00  0.0000E+00  0.0000E+00
    -45.246  0.0000E+00  0.0000E+00  0.0000E+00  0.0000E+00
    -45.076  0.0000E+00  0.0000E+00  0.0000E+00  0.0000E+00
    -44.905  0.0000E+00 -0.1113E-33  0.0000E+00 -0.1895E-34
    -44.735  0.0000E+00 -0.9685E-26  0.0000E+00 -0.1649E-26
    -44.565  0.0000E+00 -0.6347E-19  0.0000E+00 -0.1081E-19
    -44.394 -0.6481E-36 -0.3026E-13 -0.1104E-36 -0.5154E-14
    -44.224 -0.1075E-27 -0.1105E-08 -0.1831E-28 -0.1883E-09
    -44.054 -0.1325E-20 -0.2966E-05 -0.2257E-21 -0.5053E-06
    -43.883 -0.1167E-14 -0.5320E-03 -0.1987E-15 -0.9112E-04
    -43.713 -0.7574E-10 -0.1883E-02 -0.1290E-10 -0.4117E-03
    -43.543 -0.3434E-06  0.5632E-01 -0.5850E-07  0.9181E-02
    -43.372 -0.1013E-03  0.1307E+00 -0.1731E-04  0.3144E-01
    -43.202 -0.1463E-02  0.9504E-01 -0.2665E-03  0.4763E-01
    -43.032  0.1527E-01  0.1162E+00  0.2335E-02  0.6741E-01
    -42.862  0.8221E-01  0.7842E-01  0.1634E-01  0.8077E-01
    -42.691  0.2407E-01  0.3926E-01  0.2043E-01  0.8745E-01
    -42.521 -0.5035E-02  0.3710E-01  0.1958E-01  0.9377E-01
    -42.351  0.3201E-01  0.2674E-01  0.2503E-01  0.9833E-01
    -42.180  0.9033E-01  0.2256E-01  0.4041E-01  0.1022E+00
    -42.010  0.1036E+00  0.2393E-01  0.5805E-01  0.1062E+00
    -41.840  0.1541E+00  0.1615E-01  0.8430E-01  0.1090E+00
    -41.669  0.9333E-01  0.6555E-02  0.1002E+00  0.1101E+00
    -41.499 -0.7954E-04 -0.6395E-03  0.1002E+00  0.1100E+00
    -41.329 -0.1066E-02 -0.2460E-04  0.1000E+00  0.1100E+00
    -41.158 -0.1054E-04 -0.3858E-07  0.1000E+00  0.1100E+00
    -40.988 -0.1025E-05 -0.3912E-11  0.1000E+00  0.1100E+00
    -40.818 -0.2423E-03 -0.2720E-13  0.9996E-01  0.1100E+00
    -40.647 -0.2106E-02 -0.8822E-09  0.9960E-01  0.1100E+00
    -40.477  0.3313E-01 -0.1948E-05  0.1052E+00  0.1100E+00
    -40.307  0.1012E+00 -0.2442E-03  0.1225E+00  0.1100E+00
    -40.137  0.4672E-01  0.6470E-03  0.1304E+00  0.1101E+00
    -39.966 -0.2215E-02  0.1541E-01  0.1301E+00  0.1127E+00
    -39.796 -0.3672E-03  0.2598E-01  0.1300E+00  0.1171E+00
    -39.626 -0.1729E-05  0.4306E-01  0.1300E+00  0.1245E+00
    -39.455 -0.5436E-09  0.3209E-01  0.1300E+00  0.1299E+00
    -39.285 -0.1231E-13  0.9485E-03  0.1300E+00  0.1301E+00
    -39.115  0.0000E+00 -0.4532E-03  0.1300E+00  0.1300E+00
    -38.944  0.0000E+00 -0.3527E-05  0.1300E+00  0.1300E+00
    -38.774  0.0000E+00 -0.1612E-08  0.1300E+00  0.1300E+00
    -38.604  0.0000E+00 -0.5126E-13  0.1300E+00  0.1300E+00
    -38.433  0.0000E+00  0.0000E+00  0.1300E+00  0.1300E+00
    -38.263  0.0000E+00  0.0000E+00  0.1300E+00  0.1300E+00
    -38.093  0.0000E+00  0.0000E+00  0.1300E+00  0.1300E+00
    -37.922  0.0000E+00  0.0000E+00  0.1300E+00  0.1300E+00
    -37.752  0.0000E+00  0.0000E+00  0.1300E+00  0.1300E+00
    -37.582  0.0000E+00  0.0000E+00  0.1300E+00  0.1300E+00
    -37.412  0.0000E+00  0.0000E+00  0.1300E+00  0.1300E+00
    -37.241  0.0000E+00  0.0000E+00  0.1300E+00  0.1300E+00
    -37.071  0.0000E+00  0.0000E+00  0.1300E+00  0.1300E+00
    -36.901  0.0000E+00  0.0000E+00  0.1300E+00  0.1300E+00
    -36.730  0.0000E+00  0.0000E+00  0.1300E+00  0.1300E+00
    -36.560  0.0000E+00  0.0000E+00  0.1300E+00  0.1300E+00
    -36.390  0.0000E+00  0.0000E+00  0.1300E+00  0.1300E+00
    -36.219  0.0000E+00  0.0000E+00  0.1300E+00  0.1300E+00
    -36.049  0.0000E+00  0.0000E+00  0.1300E+00  0.1300E+00
    -35.879  0.0000E+00  0.0000E+00  0.1300E+00  0.1300E+00
    -35.708  0.0000E+00  0.0000E+00  0.1300E+00  0.1300E+00
    -35.538  0.0000E+00  0.0000E+00  0.1300E+00  0.1300E+00
    -35.368  0.0000E+00  0.0000E+00  0.1300E+00  0.1300E+00
    -35.197  0.0000E+00  0.0000E+00  0.1300E+00  0.1300E+00
    -35.027  0.0000E+00  0.0000E+00  0.1300E+00  0.1300E+00
    -34.857  0.0000E+00  0.0000E+00  0.1300E+00  0.1300E+00
    -34.687  0.0000E+00  0.0000E+00  0.1300E+00  0.1300E+00
    -34.516  0.0000E+00  0.0000E+00  0.1300E+00  0.1300E+00
    -34.346  0.0000E+00  0.0000E+00  0.1300E+00  0.1300E+00
    -34.176  0.0000E+00  0.0000E+00  0.1300E+00  0.1300E+00
    -34.005  0.0000E+00  0.0000E+00  0.1300E+00  0.1300E+00
    -33.835  0.0000E+00  0.0000E+00  0.1300E+00  0.1300E+00
    -33.665  0.0000E+00  0.0000E+00  0.1300E+00  0.1300E+00
    -33.494  0.0000E+00  0.0000E+00  0.1300E+00  0.1300E+00
    -33.324  0.0000E+00  0.0000E+00  0.1300E+00  0.1300E+00
    -33.154  0.0000E+00  0.0000E+00  0.1300E+00  0.1300E+00
    -32.983  0.0000E+00  0.0000E+00  0.1300E+00  0.1300E+00
    -32.813  0.0000E+00  0.0000E+00  0.1300E+00  0.1300E+00
    -32.643  0.0000E+00  0.0000E+00  0.1300E+00  0.1300E+00
    -32.472  0.0000E+00  0.0000E+00  0.1300E+00  0.1300E+00
    -32.302  0.0000E+00  0.0000E+00  0.1300E+00  0.1300E+00
    -32.132  0.0000E+00  0.0000E+00  0.1300E+00  0.1300E+00
    -31.962  0.0000E+00  0.0000E+00  0.1300E+00  0.1300E+00
    -31.791  0.0000E+00  0.0000E+00  0.1300E+00  0.1300E+00
    -31.621  0.0000E+00  0.0000E+00  0.1300E+00  0.1300E+00
    -31.451  0.0000E+00  0.0000E+00  0.1300E+00  0.1300E+00
    -31.280  0.0000E+00  0.0000E+00  0.1300E+00  0.1300E+00
    -31.110  0.0000E+00  0.0000E+00  0.1300E+00  0.1300E+00
    -30.940  0.0000E+00  0.0000E+00  0.1300E+00  0.1300E+00
    -30.769  0.0000E+00  0.0000E+00  0.1300E+00  0.1300E+00
    -30.599  0.0000E+00  0.0000E+00  0.1300E+00  0.1300E+00
    -30.429  0.0000E+00  0.0000E+00  0.1300E+00  0.1300E+00
    -30.258  0.0000E+00  0.0000E+00  0.1300E+00  0.1300E+00
    -30.088  0.0000E+00  0.0000E+00  0.1300E+00  0.1300E+00
    -29.918  0.0000E+00  0.0000E+00  0.1300E+00  0.1300E+00
    -29.747  0.0000E+00  0.0000E+00  0.1300E+00  0.1300E+00
    -29.577  0.0000E+00  0.0000E+00  0.1300E+00  0.1300E+00
    -29.407  0.0000E+00  0.0000E+00  0.1300E+00  0.1300E+00
    -29.237  0.0000E+00  0.0000E+00  0.1300E+00  0.1300E+00
    -29.066  0.0000E+00  0.0000E+00  0.1300E+00  0.1300E+00
    -28.896  0.0000E+00  0.0000E+00  0.1300E+00  0.1300E+00
    -28.726  0.0000E+00  0.0000E+00  0.1300E+00  0.1300E+00
    -28.555  0.0000E+00  0.0000E+00  0.1300E+00  0.1300E+00
    -28.385  0.0000E+00  0.0000E+00  0.1300E+00  0.1300E+00
    -28.215  0.0000E+00  0.0000E+00  0.1300E+00  0.1300E+00
    -28.044  0.0000E+00  0.0000E+00  0.1300E+00  0.1300E+00
    -27.874  0.0000E+00  0.0000E+00  0.1300E+00  0.1300E+00
    -27.704  0.0000E+00  0.0000E+00  0.1300E+00  0.1300E+00
    -27.533  0.0000E+00  0.0000E+00  0.1300E+00  0.1300E+00
    -27.363  0.0000E+00  0.0000E+00  0.1300E+00  0.1300E+00
    -27.193  0.0000E+00  0.0000E+00  0.1300E+00  0.1300E+00
    -27.022  0.0000E+00  0.0000E+00  0.1300E+00  0.1300E+00
    -26.852  0.0000E+00  0.0000E+00  0.1300E+00  0.1300E+00
    -26.682  0.0000E+00  0.0000E+00  0.1300E+00  0.1300E+00
    -26.512  0.0000E+00  0.0000E+00  0.1300E+00  0.1300E+00
    -26.341  0.0000E+00  0.0000E+00  0.1300E+00  0.1300E+00
    -26.171  0.0000E+00  0.0000E+00  0.1300E+00  0.1300E+00
    -26.001  0.0000E+00  0.0000E+00  0.1300E+00  0.1300E+00
    -25.830  0.0000E+00  0.0000E+00  0.1300E+00  0.1300E+00
    -25.660  0.0000E+00  0.0000E+00  0.1300E+00  0.1300E+00
    -25.490  0.0000E+00  0.0000E+00  0.1300E+00  0.1300E+00
    -25.319  0.0000E+00  0.0000E+00  0.1300E+00  0.1300E+00
    -25.149  0.0000E+00  0.0000E+00  0.1300E+00  0.1300E+00
    -24.979  0.0000E+00  0.0000E+00  0.1300E+00  0.1300E+00
    -24.808  0.0000E+00  0.0000E+00  0.1300E+00  0.1300E+00
    -24.638  0.0000E+00  0.0000E+00  0.1300E+00  0.1300E+00
    -24.468  0.0000E+00  0.0000E+00  0.1300E+00  0.1300E+00
    -24.297  0.0000E+00  0.0000E+00  0.1300E+00  0.1300E+00
    -24.127  0.0000E+00  0.0000E+00  0.1300E+00  0.1300E+00
    -23.957  0.0000E+00  0.0000E+00  0.1300E+00  0.1300E+00
    -23.787  0.0000E+00  0.0000E+00  0.1300E+00  0.1300E+00
    -23.616  0.0000E+00  0.0000E+00  0.1300E+00  0.1300E+00
    -23.446  0.0000E+00  0.0000E+00  0.1300E+00  0.1300E+00
    -23.276  0.0000E+00  0.0000E+00  0.1300E+00  0.1300E+00
    -23.105  0.0000E+00  0.0000E+00  0.1300E+00  0.1300E+00
    -22.935  0.0000E+00  0.0000E+00  0.1300E+00  0.1300E+00
    -22.765  0.0000E+00  0.0000E+00  0.1300E+00  0.1300E+00
    -22.594  0.0000E+00  0.0000E+00  0.1300E+00  0.1300E+00
    -22.424  0.0000E+00  0.0000E+00  0.1300E+00  0.1300E+00
    -22.254  0.0000E+00  0.0000E+00  0.1300E+00  0.1300E+00
    -22.083  0.0000E+00  0.0000E+00  0.1300E+00  0.1300E+00
    -21.913  0.0000E+00  0.0000E+00  0.1300E+00  0.1300E+00
    -21.743  0.0000E+00  0.0000E+00  0.1300E+00  0.1300E+00
    -21.572  0.0000E+00  0.0000E+00  0.1300E+00  0.1300E+00
    -21.402  0.0000E+00  0.0000E+00  0.1300E+00  0.1300E+00
    -21.232  0.0000E+00  0.0000E+00  0.1300E+00  0.1300E+00
    -21.062  0.0000E+00  0.0000E+00  0.1300E+00  0.1300E+00
    -20.891  0.0000E+00  0.0000E+00  0.1300E+00  0.1300E+00
    -20.721  0.0000E+00  0.0000E+00  0.1300E+00  0.1300E+00
    -20.551  0.0000E+00  0.0000E+00  0.1300E+00  0.1300E+00
    -20.380  0.0000E+00  0.0000E+00  0.1300E+00  0.1300E+00
    -20.210  0.0000E+00  0.0000E+00  0.1300E+00  0.1300E+00
    -20.040  0.0000E+00  0.0000E+00  0.1300E+00  0.1300E+00
    -19.869  0.0000E+00  0.0000E+00  0.1300E+00  0.1300E+00
    -19.699  0.0000E+00  0.0000E+00  0.1300E+00  0.1300E+00
    -19.529  0.0000E+00  0.0000E+00  0.1300E+00  0.1300E+00
    -19.358  0.0000E+00  0.0000E+00  0.1300E+00  0.1300E+00
    -19.188  0.0000E+00  0.0000E+00  0.1300E+00  0.1300E+00
    -19.018  0.0000E+00  0.0000E+00  0.1300E+00  0.1300E+00
    -18.848  0.0000E+00  0.0000E+00  0.1300E+00  0.1300E+00
    -18.677  0.0000E+00  0.0000E+00  0.1300E+00  0.1300E+00
    -18.507  0.0000E+00  0.0000E+00  0.1300E+00  0.1300E+00
    -18.337  0.0000E+00  0.0000E+00  0.1300E+00  0.1300E+00
    -18.166  0.0000E+00  0.0000E+00  0.1300E+00  0.1300E+00
    -17.996  0.0000E+00  0.0000E+00  0.1300E+00  0.1300E+00
    -17.826  0.0000E+00  0.0000E+00  0.1300E+00  0.1300E+00
    -17.655  0.0000E+00  0.0000E+00  0.1300E+00  0.1300E+00
    -17.485  0.0000E+00  0.0000E+00  0.1300E+00  0.1300E+00
    -17.315  0.0000E+00  0.0000E+00  0.1300E+00  0.1300E+00
    -17.144  0.0000E+00  0.0000E+00  0.1300E+00  0.1300E+00
    -16.974  0.0000E+00  0.0000E+00  0.1300E+00  0.1300E+00
    -16.804  0.0000E+00  0.0000E+00  0.1300E+00  0.1300E+00
    -16.633  0.0000E+00  0.0000E+00  0.1300E+00  0.1300E+00
    -16.463  0.0000E+00  0.0000E+00  0.1300E+00  0.1300E+00
    -16.293  0.0000E+00  0.0000E+00  0.1300E+00  0.1300E+00
    -16.123  0.0000E+00  0.0000E+00  0.1300E+00  0.1300E+00
    -15.952  0.0000E+00  0.0000E+00  0.1300E+00  0.1300E+00
    -15.782  0.0000E+00  0.0000E+00  0.1300E+00  0.1300E+00
    -15.612  0.0000E+00  0.0000E+00  0.1300E+00  0.1300E+00
    -15.441  0.0000E+00  0.0000E+00  0.1300E+00  0.1300E+00
    -15.271  0.0000E+00  0.0000E+00  0.1300E+00  0.1300E+00
    -15.101  0.0000E+00  0.0000E+00  0.1300E+00  0.1300E+00
    -14.930  0.0000E+00  0.0000E+00  0.1300E+00  0.1300E+00
    -14.760  0.0000E+00  0.0000E+00  0.1300E+00  0.1300E+00
    -14.590  0.0000E+00  0.0000E+00  0.1300E+00  0.1300E+00
    -14.419  0.0000E+00  0.0000E+00  0.1300E+00  0.1300E+00
    -14.249  0.0000E+00  0.0000E+00  0.1300E+00  0.1300E+00
    -14.079  0.0000E+00  0.0000E+00  0.1300E+00  0.1300E+00
    -13.908  0.0000E+00  0.0000E+00  0.1300E+00  0.1300E+00
    -13.738  0.0000E+00  0.0000E+00  0.1300E+00  0.1300E+00
    -13.568  0.0000E+00  0.0000E+00  0.1300E+00  0.1300E+00
    -13.398  0.0000E+00  0.0000E+00  0.1300E+00  0.1300E+00
    -13.227  0.0000E+00  0.0000E+00  0.1300E+00  0.1300E+00
    -13.057  0.0000E+00  0.0000E+00  0.1300E+00  0.1300E+00
    -12.887  0.0000E+00  0.0000E+00  0.1300E+00  0.1300E+00
    -12.716  0.0000E+00  0.0000E+00  0.1300E+00  0.1300E+00
    -12.546  0.0000E+00  0.0000E+00  0.1300E+00  0.1300E+00
    -12.376  0.0000E+00  0.0000E+00  0.1300E+00  0.1300E+00
    -12.205  0.0000E+00  0.0000E+00  0.1300E+00  0.1300E+00
    -12.035  0.0000E+00  0.0000E+00  0.1300E+00  0.1300E+00
    -11.865  0.0000E+00  0.0000E+00  0.1300E+00  0.1300E+00
    -11.694  0.0000E+00  0.0000E+00  0.1300E+00  0.1300E+00
    -11.524  0.0000E+00  0.0000E+00  0.1300E+00  0.1300E+00
    -11.354  0.0000E+00  0.0000E+00  0.1300E+00  0.1300E+00
    -11.183  0.0000E+00  0.0000E+00  0.1300E+00  0.1300E+00
    -11.013  0.0000E+00  0.0000E+00  0.1300E+00  0.1300E+00
    -10.843  0.0000E+00  0.0000E+00  0.1300E+00  0.1300E+00
    -10.673  0.0000E+00  0.0000E+00  0.1300E+00  0.1300E+00
    -10.502  0.0000E+00  0.0000E+00  0.1300E+00  0.1300E+00
    -10.332  0.0000E+00  0.0000E+00  0.1300E+00  0.1300E+00
    -10.162  0.0000E+00  0.0000E+00  0.1300E+00  0.1300E+00
     -9.991  0.0000E+00  0.0000E+00  0.1300E+00  0.1300E+00
     -9.821  0.0000E+00  0.0000E+00  0.1300E+00  0.1300E+00
     -9.651  0.0000E+00  0.0000E+00  0.1300E+00  0.1300E+00
     -9.480  0.0000E+00  0.0000E+00  0.1300E+00  0.1300E+00
     -9.310  0.0000E+00  0.0000E+00  0.1300E+00  0.1300E+00
     -9.140  0.0000E+00  0.0000E+00  0.1300E+00  0.1300E+00
     -8.969  0.0000E+00  0.0000E+00  0.1300E+00  0.1300E+00
     -8.799  0.0000E+00  0.0000E+00  0.1300E+00  0.1300E+00
     -8.629 -0.6137E-35  0.0000E+00  0.1300E+00  0.1300E+00
     -8.458 -0.6349E-27 -0.3555E-32  0.1300E+00  0.1300E+00
     -8.288 -0.4875E-20 -0.1564E-24  0.1300E+00  0.1300E+00
     -8.118 -0.2660E-14 -0.5092E-18  0.1300E+00  0.1300E+00
     -7.948 -0.1066E-09 -0.1167E-12  0.1300E+00  0.1300E+00
     -7.777 -0.2923E-06 -0.1949E-08  0.1300E+00  0.1300E+00
     -7.607 -0.4650E-04 -0.2159E-05  0.1300E+00  0.1300E+00
     -7.437  0.8055E-04 -0.1177E-03  0.1300E+00  0.1300E+00
     -7.266  0.3434E-02  0.9175E-03  0.1306E+00  0.1301E+00
     -7.096  0.3441E-02  0.3558E-02  0.1312E+00  0.1307E+00
     -6.926  0.7359E-02  0.5116E-02  0.1324E+00  0.1316E+00
     -6.755  0.3046E-02  0.5647E-02  0.1329E+00  0.1326E+00
     -6.585  0.3362E-02  0.3227E-02  0.1335E+00  0.1331E+00
     -6.415  0.8138E-02  0.3955E-02  0.1349E+00  0.1338E+00
     -6.244  0.9839E-02  0.8428E-02  0.1366E+00  0.1352E+00
     -6.074  0.1053E-01  0.1051E-01  0.1384E+00  0.1370E+00
     -5.904  0.5350E-02  0.9718E-02  0.1393E+00  0.1387E+00
     -5.733  0.1285E-01  0.4158E-02  0.1415E+00  0.1394E+00
     -5.563  0.1607E-01  0.1403E-01  0.1442E+00  0.1418E+00
     -5.393  0.1224E-01  0.1512E-01  0.1463E+00  0.1444E+00
     -5.223  0.7005E-02  0.1179E-01  0.1475E+00  0.1464E+00
     -5.052  0.1292E-01  0.6387E-02  0.1497E+00  0.1474E+00
     -4.882  0.2303E-01  0.8557E-02  0.1536E+00  0.1489E+00
     -4.712  0.2703E-01  0.1875E-01  0.1582E+00  0.1521E+00
     -4.541  0.1812E-01  0.2460E-01  0.1613E+00  0.1563E+00
     -4.371  0.2594E-01  0.1880E-01  0.1657E+00  0.1595E+00
     -4.201  0.4108E-01  0.1346E-01  0.1727E+00  0.1618E+00
     -4.030  0.6540E-01  0.2460E-01  0.1839E+00  0.1660E+00
     -3.860  0.1045E+00  0.2079E-01  0.2016E+00  0.1695E+00
     -3.690  0.1087E+00  0.2909E-01  0.2202E+00  0.1745E+00
     -3.519  0.1405E+00  0.2692E-01  0.2441E+00  0.1791E+00
     -3.349  0.1578E+00  0.4479E-01  0.2710E+00  0.1867E+00
     -3.179  0.1683E+00  0.4988E-01  0.2996E+00  0.1952E+00
     -3.008  0.1433E+00  0.6376E-01  0.3240E+00  0.2060E+00
     -2.838  0.1506E+00  0.7694E-01  0.3497E+00  0.2191E+00
     -2.668  0.2292E+00  0.7204E-01  0.3887E+00  0.2314E+00
     -2.498  0.2650E+00  0.9272E-01  0.4338E+00  0.2472E+00
     -2.327  0.2267E+00  0.1104E+00  0.4725E+00  0.2660E+00
     -2.157  0.2358E+00  0.1203E+00  0.5126E+00  0.2865E+00
     -1.987  0.2336E+00  0.1152E+00  0.5524E+00  0.3061E+00
     -1.816  0.2248E+00  0.1091E+00  0.5907E+00  0.3247E+00
     -1.646  0.2251E+00  0.1285E+00  0.6290E+00  0.3466E+00
     -1.476  0.2087E+00  0.1241E+00  0.6646E+00  0.3677E+00
     -1.305  0.1692E+00  0.1513E+00  0.6934E+00  0.3935E+00
     -1.135  0.1526E+00  0.1922E+00  0.7194E+00  0.4262E+00
     -0.965  0.1691E+00  0.1893E+00  0.7482E+00  0.4584E+00
     -0.794  0.2163E+00  0.1887E+00  0.7850E+00  0.4906E+00
     -0.624  0.2723E+00  0.2056E+00  0.8314E+00  0.5256E+00
     -0.454  0.3206E+00  0.2016E+00  0.8860E+00  0.5599E+00
     -0.283  0.2971E+00  0.2020E+00  0.9366E+00  0.5943E+00
     -0.113  0.2075E+00  0.1772E+00  0.9720E+00  0.6245E+00
      0.057  0.1508E+00  0.1652E+00  0.9976E+00  0.6526E+00
      0.227  0.1406E+00  0.1399E+00  0.1022E+01  0.6765E+00
      0.398  0.1494E+00  0.1139E+00  0.1047E+01  0.6959E+00
      0.568  0.1277E+00  0.1078E+00  0.1069E+01  0.7142E+00
      0.738  0.9840E-01  0.1144E+00  0.1086E+01  0.7337E+00
      0.909  0.8549E-01  0.1223E+00  0.1100E+01  0.7545E+00
      1.079  0.9253E-01  0.1419E+00  0.1116E+01  0.7787E+00
      1.249  0.9174E-01  0.1629E+00  0.1131E+01  0.8064E+00
      1.420  0.8962E-01  0.1800E+00  0.1147E+01  0.8371E+00
      1.590  0.1064E+00  0.2213E+00  0.1165E+01  0.8748E+00
      1.760  0.1156E+00  0.2426E+00  0.1185E+01  0.9161E+00
      1.931  0.6866E-01  0.2737E+00  0.1196E+01  0.9627E+00
      2.101  0.3590E-02  0.2948E+00  0.1197E+01  0.1013E+01
      2.271 -0.1066E-02  0.2983E+00  0.1197E+01  0.1064E+01
      2.442 -0.1793E-04  0.3324E+00  0.1197E+01  0.1120E+01
      2.612 -0.2246E-07  0.2543E+00  0.1197E+01  0.1164E+01
      2.782 -0.2350E-11  0.1591E+00  0.1197E+01  0.1191E+01
      2.952 -0.1901E-16  0.3843E-01  0.1197E+01  0.1197E+01
      3.123  0.0000E+00 -0.3456E-02  0.1197E+01  0.1197E+01
      3.293  0.0000E+00 -0.2521E-03  0.1197E+01  0.1197E+01
      3.463  0.0000E+00 -0.9701E-06  0.1197E+01  0.1197E+01
      3.634  0.0000E+00 -0.2953E-09  0.1197E+01  0.1197E+01
      3.804  0.0000E+00 -0.7159E-14  0.1197E+01  0.1197E+01
      3.974  0.0000E+00  0.0000E+00  0.1197E+01  0.1197E+01
      4.145  0.0000E+00  0.0000E+00  0.1197E+01  0.1197E+01
      4.315  0.0000E+00  0.0000E+00  0.1197E+01  0.1197E+01
      4.485  0.0000E+00  0.0000E+00  0.1197E+01  0.1197E+01
      4.656  0.0000E+00  0.0000E+00  0.1197E+01  0.1197E+01
      4.826  0.0000E+00  0.0000E+00  0.1197E+01  0.1197E+01
      4.996  0.0000E+00  0.0000E+00  0.1197E+01  0.1197E+01
      5.166  0.0000E+00  0.0000E+00  0.1197E+01  0.1197E+01
