srun: ROUTE: split_hostlist: hl=b07r1n[14-15] tree_width 0
 running on    8 total cores
 distrk:  each k-point on    1 cores,    8 groups
 distr:  one band on    1 cores,    1 groups
 HIP runtime initialized ...    8 DCUs will be used
 Created    4 streams on each DCU
 vasp.6.3.2 27Jun22 (build Mar 15 2023 15:45:48) complex                        
  
 POSCAR found type information on POSCAR FeCr
 POSCAR found :  2 types and      62 ions
 Reading from existing POTCAR
 -----------------------------------------------------------------------------
|                                                                             |
|           W    W    AA    RRRRR   N    N  II  N    N   GGGG   !!!           |
|           W    W   A  A   R    R  NN   N  II  NN   N  G    G  !!!           |
|           W    W  A    A  R    R  N N  N  II  N N  N  G       !!!           |
|           W WW W  AAAAAA  RRRRR   N  N N  II  N  N N  G  GGG   !            |
|           WW  WW  A    A  R   R   N   NN  II  N   NN  G    G                |
|           W    W  A    A  R    R  N    N  II  N    N   GGGG   !!!           |
|                                                                             |
|     You use a magnetic or noncollinear calculation, but did not specify     |
|     the initial magnetic moment with the MAGMOM tag. Note that a            |
|     default of 1 will be used for all atoms. This ferromagnetic setup       |
|     may break the symmetry of the crystal, in particular it may rule        |
|     out finding an antiferromagnetic solution. Thence, we recommend         |
|     setting the initial magnetic moment manually or verifying carefully     |
|     that this magnetic setup is desired.                                    |
|                                                                             |
 -----------------------------------------------------------------------------

 scaLAPACK will be used selectively (only on CPU)
 -----------------------------------------------------------------------------
|                                                                             |
|           W    W    AA    RRRRR   N    N  II  N    N   GGGG   !!!           |
|           W    W   A  A   R    R  NN   N  II  NN   N  G    G  !!!           |
|           W    W  A    A  R    R  N N  N  II  N N  N  G       !!!           |
|           W WW W  AAAAAA  RRRRR   N  N N  II  N  N N  G  GGG   !            |
|           WW  WW  A    A  R   R   N   NN  II  N   NN  G    G                |
|           W    W  A    A  R    R  N    N  II  N    N   GGGG   !!!           |
|                                                                             |
|     For optimal performance we recommend to set                             |
|       NCORE = 2 up to number-of-cores-per-socket                            |
|     NCORE specifies how many cores store one orbital (NPAR=cpu/NCORE).      |
|     This setting can greatly improve the performance of VASP for DFT.       |
|     The default, NCORE=1 might be grossly inefficient on modern             |
|     multi-core architectures or massively parallel machines. Do your        |
|     own testing! More info at https://www.vasp.at/wiki/index.php/NCORE      |
|     Unfortunately you need to use the default for GW and RPA                |
|     calculations (for HF NCORE is supported but not extensively tested      |
|     yet).                                                                   |
|                                                                             |
 -----------------------------------------------------------------------------

 Reading from existing POTCAR
 LDA part: xc-table for Pade appr. of Perdew
 POSCAR found type information on POSCAR FeCr
 POSCAR found :  2 types and      62 ions
 Optimize memory usage for KPAR
 POSCAR, INCAR and KPOINTS ok, starting setup
 FFT: planning ... GRIDC
 FFT: planning ... GRID_SOFT
 FFT: planning ... GRID
 WAVECAR not read
 WARNING: chargedensity file is incomplete
 WARNING: random wavefunctions but no delay for mixing, default for NELMDL
 entering main loop
       N       E                     dE             d eps       ncg     rms          rms(c)
DAV:   1     0.527703409344E+04    0.52770E+04   -0.23279E+05 12144   0.143E+03
DAV:   2    -0.100203093724E+03   -0.53772E+04   -0.51880E+04 11488   0.418E+02
DAV:   3    -0.516811512846E+03   -0.41661E+03   -0.36825E+03 11879   0.157E+02
DAV:   4    -0.574644170821E+03   -0.57833E+02   -0.54120E+02 20512   0.443E+01
DAV:   5    -0.577773328183E+03   -0.31292E+01   -0.29762E+01 18632   0.992E+00    0.930E+01
DAV:   6    -0.659641651414E+03   -0.81868E+02   -0.30422E+02 20984   0.761E+01    0.146E+02
DAV:   7    -0.546242825900E+03    0.11340E+03   -0.18139E+02 21280   0.689E+01    0.885E+01
DAV:   8    -0.613008678639E+03   -0.66766E+02   -0.98347E+01 21080   0.681E+01    0.130E+02
DAV:   9    -0.522626022242E+03    0.90383E+02   -0.85552E+01 20672   0.586E+01    0.745E+01
DAV:  10    -0.496782681700E+03    0.25843E+02   -0.11822E+02 18632   0.389E+01    0.545E+01
DAV:  11    -0.487238610788E+03    0.95441E+01   -0.57010E+01 16416   0.290E+01    0.423E+01
DAV:  12    -0.486687595988E+03    0.55101E+00   -0.91810E+00 17640   0.135E+01    0.385E+01
DAV:  13    -0.486957159635E+03   -0.26956E+00   -0.11267E+00 15304   0.384E+00    0.390E+01
DAV:  14    -0.486445042902E+03    0.51212E+00   -0.26452E-01 21176   0.153E+00    0.390E+01
DAV:  15    -0.487323238144E+03   -0.87820E+00   -0.35657E-01 20872   0.244E+00    0.379E+01
DAV:  16    -0.490993346880E+03   -0.36701E+01   -0.37259E+00 19832   0.737E+00    0.335E+01
DAV:  17    -0.493523526506E+03   -0.25302E+01   -0.39964E+00 19616   0.755E+00    0.276E+01
DAV:  18    -0.494774796700E+03   -0.12513E+01   -0.34003E+00 20472   0.777E+00    0.229E+01
DAV:  19    -0.495654045906E+03   -0.87925E+00   -0.19431E+00 18784   0.488E+00    0.203E+01
DAV:  20    -0.496066718165E+03   -0.41267E+00   -0.57327E-01 17688   0.275E+00    0.189E+01
DAV:  21    -0.496806768392E+03   -0.74005E+00   -0.91844E-01 20776   0.407E+00    0.159E+01
DAV:  22    -0.497333304441E+03   -0.52654E+00   -0.94084E-01 20648   0.435E+00    0.148E+01
DAV:  23    -0.497715021674E+03   -0.38172E+00   -0.80302E-01 19568   0.302E+00    0.131E+01
DAV:  24    -0.498065465045E+03   -0.35044E+00   -0.39287E-01 19536   0.204E+00    0.122E+01
DAV:  25    -0.498296968147E+03   -0.23150E+00   -0.35481E-01 20624   0.199E+00    0.116E+01
DAV:  26    -0.498578378598E+03   -0.28141E+00   -0.27641E-01 20624   0.209E+00    0.114E+01
DAV:  27    -0.498896797004E+03   -0.31842E+00   -0.26836E-01 19160   0.146E+00    0.106E+01
DAV:  28    -0.499646701188E+03   -0.74990E+00   -0.14595E+00 20400   0.352E+00    0.766E+00
DAV:  29    -0.499846214087E+03   -0.19951E+00   -0.70321E-01 19152   0.276E+00    0.614E+00
DAV:  30    -0.499874113254E+03   -0.27899E-01   -0.13197E-01 17464   0.170E+00    0.558E+00
DAV:  31    -0.499945111843E+03   -0.70999E-01   -0.10487E-01 19880   0.105E+00    0.503E+00
DAV:  32    -0.500074503437E+03   -0.12939E+00   -0.26939E-01 19680   0.135E+00    0.392E+00
DAV:  33    -0.500143394002E+03   -0.68891E-01   -0.32320E-01 19328   0.142E+00    0.326E+00
DAV:  34    -0.500166204735E+03   -0.22811E-01   -0.22336E-01 20248   0.155E+00    0.232E+00
DAV:  35    -0.500168868593E+03   -0.26639E-02   -0.40915E-02 17624   0.767E-01    0.203E+00
DAV:  36    -0.500178080392E+03   -0.92118E-02   -0.37528E-02 19664   0.642E-01    0.162E+00
DAV:  37    -0.500176869809E+03    0.12106E-02   -0.61528E-02 19400   0.714E-01    0.139E+00
DAV:  38    -0.500181860456E+03   -0.49906E-02   -0.11693E-02 17720   0.371E-01    0.120E+00
DAV:  39    -0.500185421324E+03   -0.35609E-02   -0.13569E-02 20224   0.384E-01    0.918E-01
DAV:  40    -0.500185607882E+03   -0.18656E-03   -0.20598E-02 20496   0.504E-01    0.750E-01
DAV:  41    -0.500187279056E+03   -0.16712E-02   -0.55906E-03 20080   0.321E-01    0.553E-01
DAV:  42    -0.500188372611E+03   -0.10936E-02   -0.36083E-03 18744   0.207E-01    0.399E-01
DAV:  43    -0.500188633285E+03   -0.26067E-03   -0.21014E-03 19080   0.161E-01    0.267E-01
DAV:  44    -0.500188857189E+03   -0.22390E-03   -0.62150E-04 19712   0.780E-02    0.236E-01
DAV:  45    -0.500189111199E+03   -0.25401E-03   -0.11182E-03 20000   0.955E-02    0.171E-01
DAV:  46    -0.500189129017E+03   -0.17818E-04   -0.67207E-04 18784   0.713E-02    0.144E-01
DAV:  47    -0.500189225356E+03   -0.96339E-04   -0.20940E-04 19064   0.566E-02    0.103E-01
DAV:  48    -0.500189268748E+03   -0.43392E-04   -0.11195E-04 17224   0.348E-02    0.833E-02
DAV:  49    -0.500189299630E+03   -0.30882E-04   -0.96990E-05 16256   0.284E-02    0.673E-02
DAV:  50    -0.500189323953E+03   -0.24323E-04   -0.99121E-05 16272   0.269E-02    0.452E-02
DAV:  51    -0.500189329368E+03   -0.54148E-05   -0.37399E-05 10568   0.177E-02
   1 F= -.50018933E+03 E0= -.50019390E+03  d E =-.500189E+03  mag=   104.7722
 curvature:   0.00 expect dE= 0.000E+00 dE for cont linesearch  0.000E+00
 trial: gam= 0.00000 g(F)=  0.280E-01 g(S)=  0.000E+00 ort = 0.000E+00 (trialstep = 0.100E+01)
 search vector abs. value=  0.280E-01
 bond charge predicted
       N       E                     dE             d eps       ncg     rms          rms(c)
DAV:   1    -0.500137298561E+03    0.52025E-01   -0.65640E+00 11931   0.640E+00    0.161E+00
DAV:   2    -0.500200357209E+03   -0.63059E-01   -0.53243E-01 12522   0.185E+00    0.147E+00
DAV:   3    -0.500251952599E+03   -0.51595E-01   -0.20727E-01 19488   0.249E+00    0.291E+00
DAV:   4    -0.500203856475E+03    0.48096E-01   -0.16126E-01 21368   0.204E+00    0.101E+00
DAV:   5    -0.500209303818E+03   -0.54473E-02   -0.89809E-03 20416   0.548E-01    0.761E-01
DAV:   6    -0.500212734726E+03   -0.34309E-02   -0.66219E-03 18992   0.465E-01    0.423E-01
DAV:   7    -0.500212675338E+03    0.59388E-04   -0.26131E-03 17800   0.277E-01    0.219E-01
DAV:   8    -0.500212671432E+03    0.39058E-05   -0.40270E-04 17400   0.711E-02    0.199E-01
DAV:   9    -0.500212552823E+03    0.11861E-03   -0.19278E-04 16152   0.575E-02    0.155E-01
DAV:  10    -0.500212398409E+03    0.15441E-03   -0.31557E-04 18304   0.626E-02    0.976E-02
DAV:  11    -0.500212391411E+03    0.69982E-05   -0.62142E-05 13520   0.294E-02
   2 F= -.50021239E+03 E0= -.50021720E+03  d E =-.230620E-01  mag=   104.8324
 trial-energy change:   -0.023062  1 .order   -0.023394   -0.027973   -0.018815
 step:   3.0546(harm=  3.0546)  dis= 0.03559  next Energy=  -500.232052 (dE=-0.427E-01)
 bond charge predicted
       N       E                     dE             d eps       ncg     rms          rms(c)
DAV:   1    -0.499905754525E+03    0.30664E+00   -0.27715E+01 11888   0.132E+01    0.342E+00
DAV:   2    -0.500192963494E+03   -0.28721E+00   -0.23348E+00 13400   0.423E+00    0.344E+00
DAV:   3    -0.500380681743E+03   -0.18772E+00   -0.89461E-01 19560   0.545E+00    0.589E+00
DAV:   4    -0.500190404908E+03    0.19028E+00   -0.61926E-01 20400   0.404E+00    0.206E+00
DAV:   5    -0.500213697093E+03   -0.23292E-01   -0.31600E-02 19624   0.104E+00    0.162E+00
DAV:   6    -0.500227588477E+03   -0.13891E-01   -0.27412E-02 18664   0.973E-01    0.824E-01
DAV:   7    -0.500229638670E+03   -0.20502E-02   -0.80824E-03 17808   0.452E-01    0.503E-01
DAV:   8    -0.500229422929E+03    0.21574E-03   -0.17079E-03 18264   0.197E-01    0.424E-01
DAV:   9    -0.500229100671E+03    0.32226E-03   -0.73894E-04 16920   0.111E-01    0.363E-01
DAV:  10    -0.500228351773E+03    0.74890E-03   -0.13271E-03 18368   0.148E-01    0.227E-01
DAV:  11    -0.500228194130E+03    0.15764E-03   -0.41202E-04 17496   0.742E-02    0.194E-01
DAV:  12    -0.500228175344E+03    0.18785E-04   -0.14239E-04 16608   0.575E-02    0.160E-01
DAV:  13    -0.500228198198E+03   -0.22853E-04   -0.19969E-04 17200   0.479E-02    0.962E-02
DAV:  14    -0.500228209674E+03   -0.11477E-04   -0.93308E-05 12728   0.522E-02    0.636E-02
DAV:  15    -0.500228217642E+03   -0.79676E-05   -0.34187E-05  9656   0.236E-02
   3 F= -.50022822E+03 E0= -.50023347E+03  d E =-.388883E-01  mag=   104.9468
 curvature:  -1.53 expect dE=-0.939E-02 dE for cont linesearch -0.518E-03
 ZBRENT: interpolating
 opt :   2.7655  next Energy=  -500.228663 (dE=-0.393E-01)
 bond charge predicted
       N       E                     dE             d eps       ncg     rms          rms(c)
DAV:   1    -0.500222405937E+03    0.58037E-02   -0.55087E-01 11970   0.186E+00    0.458E-01
DAV:   2    -0.500227465223E+03   -0.50593E-02   -0.43772E-02 12138   0.502E-01    0.391E-01
DAV:   3    -0.500231946800E+03   -0.44816E-02   -0.15247E-02 19776   0.664E-01    0.832E-01
DAV:   4    -0.500228006979E+03    0.39398E-02   -0.13868E-02 21320   0.607E-01    0.307E-01
DAV:   5    -0.500228450563E+03   -0.44358E-03   -0.10944E-03 19912   0.186E-01    0.222E-01
DAV:   6    -0.500228707269E+03   -0.25671E-03   -0.55900E-04 19144   0.138E-01    0.141E-01
DAV:   7    -0.500228642352E+03    0.64917E-04   -0.30449E-04 17856   0.972E-02    0.610E-02
DAV:   8    -0.500228645722E+03   -0.33705E-05   -0.43702E-05 11472   0.213E-02
   4 F= -.50022865E+03 E0= -.50023383E+03  d E =-.393164E-01  mag=   104.9320
 curvature:  -1.31 expect dE=-0.636E-02 dE for cont linesearch -0.116E-04
 trial: gam= 0.19094 g(F)=  0.484E-02 g(S)=  0.000E+00 ort =-0.496E-03 (trialstep = 0.135E+01)
 search vector abs. value=  0.568E-02
 bond charge predicted
       N       E                     dE             d eps       ncg     rms          rms(c)
DAV:   1    -0.500213520697E+03    0.15122E-01   -0.21868E+00 11768   0.322E+00    0.945E-01
DAV:   2    -0.500227518496E+03   -0.13998E-01   -0.11163E-01 12068   0.815E-01    0.727E-01
DAV:   3    -0.500244962063E+03   -0.17444E-01   -0.41432E-02 21272   0.107E+00    0.156E+00
DAV:   4    -0.500230767666E+03    0.14194E-01   -0.45549E-02 21504   0.109E+00    0.573E-01
DAV:   5    -0.500233939662E+03   -0.31720E-02   -0.48379E-03 20576   0.359E-01    0.398E-01
DAV:   6    -0.500234136805E+03   -0.19714E-03   -0.18833E-03 19104   0.266E-01    0.214E-01
DAV:   7    -0.500234091496E+03    0.45309E-04   -0.49198E-04 16320   0.120E-01    0.135E-01
DAV:   8    -0.500234057300E+03    0.34196E-04   -0.10987E-04 12336   0.503E-02    0.104E-01
DAV:   9    -0.500234048731E+03    0.85696E-05   -0.11183E-04 15344   0.308E-02    0.828E-02
DAV:  10    -0.500234019420E+03    0.29310E-04   -0.88005E-05 15552   0.365E-02    0.554E-02
DAV:  11    -0.500234014828E+03    0.45918E-05   -0.15879E-05  7176   0.176E-02
   5 F= -.50023401E+03 E0= -.50023914E+03  d E =-.536911E-02  mag=   104.9404
 trial-energy change:   -0.005369  1 .order   -0.005485   -0.006427   -0.004543
 step:   4.6155(harm=  4.6155)  dis= 0.02501  next Energy=  -500.239607 (dE=-0.110E-01)
 bond charge predicted
       N       E                     dE             d eps       ncg     rms          rms(c)
DAV:   1    -0.500117546797E+03    0.11647E+00   -0.12711E+01 11784   0.776E+00    0.230E+00
DAV:   2    -0.500199915162E+03   -0.82368E-01   -0.66076E-01 12062   0.201E+00    0.174E+00
DAV:   3    -0.500270288763E+03   -0.70374E-01   -0.15833E-01 21248   0.205E+00    0.310E+00
DAV:   4    -0.500220824811E+03    0.49464E-01   -0.19680E-01 21368   0.227E+00    0.146E+00
DAV:   5    -0.500237011487E+03   -0.16187E-01   -0.28457E-02 20688   0.837E-01    0.847E-01
DAV:   6    -0.500238707010E+03   -0.16955E-02   -0.98480E-03 19144   0.588E-01    0.525E-01
DAV:   7    -0.500238274969E+03    0.43204E-03   -0.27792E-03 17608   0.314E-01    0.334E-01
DAV:   8    -0.500238083409E+03    0.19156E-03   -0.72223E-04 18312   0.126E-01    0.266E-01
DAV:   9    -0.500237947564E+03    0.13585E-03   -0.44132E-04 17056   0.708E-02    0.214E-01
DAV:  10    -0.500237695340E+03    0.25222E-03   -0.59293E-04 17560   0.862E-02    0.141E-01
DAV:  11    -0.500237665963E+03    0.29378E-04   -0.14020E-04 16392   0.446E-02    0.120E-01
DAV:  12    -0.500237672688E+03   -0.67251E-05   -0.66789E-05 13480   0.323E-02
   6 F= -.50023767E+03 E0= -.50024261E+03  d E =-.902697E-02  mag=   104.9627
 curvature:  -2.76 expect dE=-0.731E-02 dE for cont linesearch -0.221E-03
 ZBRENT: interpolating
 opt :   4.0701  next Energy=  -500.237856 (dE=-0.921E-02)
 bond charge predicted
       N       E                     dE             d eps       ncg     rms          rms(c)
DAV:   1    -0.500234696764E+03    0.29692E-02   -0.35606E-01 11775   0.130E+00    0.376E-01
DAV:   2    -0.500236966505E+03   -0.22697E-02   -0.18101E-02 12154   0.328E-01    0.292E-01
DAV:   3    -0.500238916080E+03   -0.19496E-02   -0.44447E-03 21256   0.340E-01    0.523E-01
DAV:   4    -0.500237578362E+03    0.13377E-02   -0.57910E-03 20952   0.384E-01    0.250E-01
DAV:   5    -0.500238020563E+03   -0.44220E-03   -0.89100E-04 19592   0.158E-01    0.163E-01
DAV:   6    -0.500238053563E+03   -0.33000E-04   -0.34515E-04 18792   0.112E-01    0.799E-02
DAV:   7    -0.500238048040E+03    0.55238E-05   -0.85043E-05 13600   0.489E-02
   7 F= -.50023805E+03 E0= -.50024303E+03  d E =-.940232E-02  mag=   104.9593
 curvature:  -2.30 expect dE=-0.474E-02 dE for cont linesearch -0.765E-04
 ZBRENT: interpolating
 opt :   3.1912  next Energy=  -500.238261 (dE=-0.962E-02)
 bond charge predicted
       N       E                     dE             d eps       ncg     rms          rms(c)
DAV:   1    -0.500229145873E+03    0.89077E-02   -0.92220E-01 11768   0.209E+00    0.612E-01
DAV:   2    -0.500235229918E+03   -0.60840E-02   -0.47393E-02 12222   0.550E-01    0.511E-01
DAV:   3    -0.500243889564E+03   -0.86596E-02   -0.26188E-02 21112   0.853E-01    0.116E+00
DAV:   4    -0.500236240559E+03    0.76490E-02   -0.23687E-02 21520   0.771E-01    0.375E-01
DAV:   5    -0.500237665412E+03   -0.14249E-02   -0.17651E-03 20224   0.224E-01    0.283E-01
DAV:   6    -0.500237852739E+03   -0.18733E-03   -0.90414E-04 19104   0.182E-01    0.172E-01
DAV:   7    -0.500237817213E+03    0.35526E-04   -0.25865E-04 16872   0.833E-02    0.116E-01
DAV:   8    -0.500237774979E+03    0.42234E-04   -0.70209E-05  8624   0.456E-02    0.841E-02
DAV:   9    -0.500237750981E+03    0.23997E-04   -0.10988E-04 15672   0.267E-02    0.644E-02
DAV:  10    -0.500237726846E+03    0.24136E-04   -0.62740E-05 12824   0.321E-02    0.397E-02
DAV:  11    -0.500237725848E+03    0.99796E-06   -0.23841E-05  7856   0.156E-02
   8 F= -.50023773E+03 E0= -.50024276E+03  d E =-.908013E-02  mag=   104.9527
 curvature:  -6.39 expect dE=-0.861E-02 dE for cont linesearch -0.546E-03
 ZBRENT: interpolating
 opt :   3.7322  next Energy=  -500.238122 (dE=-0.948E-02)
 bond charge predicted
       N       E                     dE             d eps       ncg     rms          rms(c)
DAV:   1    -0.500234739560E+03    0.29873E-02   -0.35017E-01 11776   0.129E+00    0.374E-01
DAV:   2    -0.500237023274E+03   -0.22837E-02   -0.17864E-02 12042   0.330E-01    0.307E-01
DAV:   3    -0.500240465664E+03   -0.34424E-02   -0.10022E-02 20808   0.530E-01    0.724E-01
DAV:   4    -0.500237449991E+03    0.30157E-02   -0.89695E-03 21104   0.480E-01    0.223E-01
DAV:   5    -0.500237957269E+03   -0.50728E-03   -0.68634E-04 19296   0.142E-01    0.173E-01
DAV:   6    -0.500238051685E+03   -0.94416E-04   -0.32089E-04 18664   0.108E-01    0.980E-02
DAV:   7    -0.500238038443E+03    0.13242E-04   -0.92471E-05 13664   0.501E-02    0.558E-02
DAV:   8    -0.500238029465E+03    0.89786E-05   -0.20578E-05  7400   0.229E-02
   9 F= -.50023803E+03 E0= -.50024302E+03  d E =-.938374E-02  mag=   104.9550
 curvature:  -0.86 expect dE=-0.145E-02 dE for cont linesearch -0.194E-04
 ZBRENT: interpolating
 opt :   3.8848  next Energy=  -500.238057 (dE=-0.941E-02)
 bond charge predicted
       N       E                     dE             d eps       ncg     rms          rms(c)
DAV:   1    -0.500237783021E+03    0.25542E-03   -0.27778E-02 11831   0.365E-01    0.111E-01
DAV:   2    -0.500238016984E+03   -0.23396E-03   -0.15659E-03 16042   0.126E-01    0.137E-01
DAV:   3    -0.500238037614E+03   -0.20630E-04   -0.69226E-04 16656   0.146E-01    0.134E-01
DAV:   4    -0.500237999883E+03    0.37731E-04   -0.30099E-04 10144   0.928E-02    0.811E-02
DAV:   5    -0.500238039132E+03   -0.39249E-04   -0.39780E-05 11264   0.348E-02    0.643E-02
DAV:   6    -0.500238038915E+03    0.21743E-06   -0.44044E-05 10248   0.423E-02
  10 F= -.50023804E+03 E0= -.50024302E+03  d E =-.939319E-02  mag=   104.9560
 curvature:  -1.21 expect dE=-0.215E-02 dE for cont linesearch -0.309E-06
 trial: gam= 0.35138 g(F)=  0.178E-02 g(S)=  0.000E+00 ort = 0.381E-04 (trialstep = 0.186E+01)
 search vector abs. value=  0.251E-02
 bond charge predicted
       N       E                     dE             d eps       ncg     rms          rms(c)
DAV:   1    -0.500218611169E+03    0.19428E-01   -0.19781E+00 11942   0.346E+00    0.911E-01
DAV:   2    -0.500237136523E+03   -0.18525E-01   -0.14578E-01 13684   0.103E+00    0.937E-01
DAV:   3    -0.500248520479E+03   -0.11384E-01   -0.64748E-02 18528   0.139E+00    0.150E+00
DAV:   4    -0.500237261084E+03    0.11259E-01   -0.40621E-02 20024   0.104E+00    0.567E-01
DAV:   5    -0.500239573649E+03   -0.23126E-02   -0.34824E-03 20112   0.346E-01    0.420E-01
DAV:   6    -0.500240574155E+03   -0.10005E-02   -0.21820E-03 19136   0.275E-01    0.290E-01
DAV:   7    -0.500240359222E+03    0.21493E-03   -0.94605E-04 17968   0.172E-01    0.136E-01
DAV:   8    -0.500240360288E+03   -0.10664E-05   -0.18401E-04 16984   0.469E-02    0.118E-01
DAV:   9    -0.500240353014E+03    0.72744E-05   -0.74082E-05 13040   0.327E-02
  11 F= -.50024035E+03 E0= -.50024527E+03  d E =-.231410E-02  mag=   105.0179
 trial-energy change:   -0.002314  1 .order   -0.002516   -0.003338   -0.001694
 step:   3.7752(harm=  3.7752)  dis= 0.01004  next Energy=  -500.241428 (dE=-0.339E-02)
 bond charge predicted
       N       E                     dE             d eps       ncg     rms          rms(c)
DAV:   1    -0.500217491427E+03    0.22869E-01   -0.21002E+00 11927   0.359E+00    0.939E-01
DAV:   2    -0.500235921029E+03   -0.18430E-01   -0.15247E-01 12378   0.100E+00    0.857E-01
DAV:   3    -0.500252832307E+03   -0.16911E-01   -0.68362E-02 19104   0.140E+00    0.170E+00
DAV:   4    -0.500237175632E+03    0.15657E-01   -0.53706E-02 21056   0.117E+00    0.598E-01
DAV:   5    -0.500239566659E+03   -0.23910E-02   -0.38511E-03 20736   0.360E-01    0.444E-01
DAV:   6    -0.500240624683E+03   -0.10580E-02   -0.22021E-03 19056   0.276E-01    0.299E-01
DAV:   7    -0.500240428856E+03    0.19583E-03   -0.10380E-03 18104   0.179E-01    0.149E-01
DAV:   8    -0.500240446085E+03   -0.17229E-04   -0.18554E-04 16072   0.442E-02    0.137E-01
DAV:   9    -0.500240449317E+03   -0.32319E-05   -0.71103E-05 13352   0.311E-02
  12 F= -.50024045E+03 E0= -.50024530E+03  d E =-.241040E-02  mag=   105.0776
 curvature:  -2.64 expect dE=-0.214E-02 dE for cont linesearch -0.739E-04
 ZBRENT: interpolating
 opt :   3.3434  next Energy=  -500.240507 (dE=-0.247E-02)
 bond charge predicted
       N       E                     dE             d eps       ncg     rms          rms(c)
DAV:   1    -0.500239373126E+03    0.10730E-02   -0.10685E-01 11926   0.794E-01    0.221E-01
DAV:   2    -0.500240371029E+03   -0.99790E-03   -0.78981E-03 12965   0.239E-01    0.205E-01
DAV:   3    -0.500241292073E+03   -0.92104E-03   -0.39355E-03 19848   0.330E-01    0.398E-01
DAV:   4    -0.500240426150E+03    0.86592E-03   -0.30262E-03 17384   0.281E-01    0.143E-01
DAV:   5    -0.500240584380E+03   -0.15823E-03   -0.22383E-04 16232   0.854E-02    0.945E-02
DAV:   6    -0.500240633029E+03   -0.48650E-04   -0.13409E-04 17096   0.687E-02    0.625E-02
DAV:   7    -0.500240623671E+03    0.93586E-05   -0.33953E-05  9464   0.357E-02
  13 F= -.50024062E+03 E0= -.50024548E+03  d E =-.258476E-02  mag=   105.0643
 curvature:  -2.04 expect dE=-0.142E-02 dE for cont linesearch -0.749E-04
 ZBRENT: bisectioning
 opt :   2.6014  next Energy=  -500.240873 (dE=-0.283E-02)
 bond charge predicted
       N       E                     dE             d eps       ncg     rms          rms(c)
DAV:   1    -0.500237198547E+03    0.34345E-02   -0.31487E-01 11943   0.138E+00    0.360E-01
DAV:   2    -0.500239968039E+03   -0.27695E-02   -0.22874E-02 12486   0.382E-01    0.333E-01
DAV:   3    -0.500242335434E+03   -0.23674E-02   -0.10022E-02 18616   0.538E-01    0.641E-01
DAV:   4    -0.500240165401E+03    0.21700E-02   -0.74493E-03 20512   0.442E-01    0.226E-01
DAV:   5    -0.500240573768E+03   -0.40837E-03   -0.74298E-04 19416   0.152E-01    0.174E-01
DAV:   6    -0.500240711148E+03   -0.13738E-03   -0.32247E-04 18960   0.108E-01    0.129E-01
DAV:   7    -0.500240648845E+03    0.62303E-04   -0.19513E-04 15288   0.793E-02    0.505E-02
DAV:   8    -0.500240652624E+03   -0.37796E-05   -0.33039E-05  9600   0.188E-02
  14 F= -.50024065E+03 E0= -.50024554E+03  d E =-.261371E-02  mag=   105.0427
 curvature:  -6.80 expect dE=-0.282E-02 dE for cont linesearch -0.802E-05
 trial: gam= 0.19531 g(F)=  0.414E-03 g(S)=  0.000E+00 ort = 0.544E-04 (trialstep = 0.201E+01)
 search vector abs. value=  0.531E-03
 bond charge predicted
       N       E                     dE             d eps       ncg     rms          rms(c)
DAV:   1    -0.500234475893E+03    0.61730E-02   -0.54147E-01 12116   0.193E+00    0.468E-01
DAV:   2    -0.500240450473E+03   -0.59746E-02   -0.49078E-02 13266   0.547E-01    0.474E-01
DAV:   3    -0.500243501912E+03   -0.30514E-02   -0.17295E-02 19152   0.707E-01    0.768E-01
DAV:   4    -0.500240530985E+03    0.29709E-02   -0.10999E-02 20576   0.532E-01    0.289E-01
DAV:   5    -0.500241151568E+03   -0.62058E-03   -0.10157E-03 19912   0.186E-01    0.218E-01
DAV:   6    -0.500241382571E+03   -0.23100E-03   -0.57024E-04 18944   0.140E-01    0.140E-01
DAV:   7    -0.500241314594E+03    0.67977E-04   -0.26003E-04 17096   0.892E-02    0.566E-02
DAV:   8    -0.500241321738E+03   -0.71438E-05   -0.38628E-05 10200   0.216E-02
  15 F= -.50024132E+03 E0= -.50024610E+03  d E =-.669114E-03  mag=   105.0685
 trial-energy change:   -0.000669  1 .order   -0.000705   -0.000852   -0.000557
 step:   5.7967(harm=  5.7967)  dis= 0.01153  next Energy=  -500.241883 (dE=-0.123E-02)
 bond charge predicted
       N       E                     dE             d eps       ncg     rms          rms(c)
DAV:   1    -0.500217084733E+03    0.24230E-01   -0.19295E+00 12133   0.364E+00    0.877E-01
DAV:   2    -0.500236935496E+03   -0.19851E-01   -0.17134E-01 12048   0.941E-01    0.747E-01
DAV:   3    -0.500253617185E+03   -0.16682E-01   -0.58280E-02 19600   0.127E+00    0.163E+00
DAV:   4    -0.500238675120E+03    0.14942E-01   -0.51119E-02 21192   0.112E+00    0.567E-01
DAV:   5    -0.500240854403E+03   -0.21793E-02   -0.39461E-03 20896   0.352E-01    0.433E-01
DAV:   6    -0.500241725860E+03   -0.87146E-03   -0.19315E-03 19408   0.258E-01    0.278E-01
DAV:   7    -0.500241518845E+03    0.20702E-03   -0.10277E-03 18376   0.175E-01    0.134E-01
DAV:   8    -0.500241533761E+03   -0.14916E-04   -0.16945E-04 13448   0.415E-02    0.125E-01
DAV:   9    -0.500241516053E+03    0.17708E-04   -0.58069E-05 13536   0.282E-02    0.985E-02
DAV:  10    -0.500241494306E+03    0.21747E-04   -0.19022E-04 18064   0.444E-02    0.609E-02
DAV:  11    -0.500241496740E+03   -0.24338E-05   -0.30339E-05  9832   0.193E-02
  16 F= -.50024150E+03 E0= -.50024605E+03  d E =-.844116E-03  mag=   105.1361
 curvature:  -3.62 expect dE=-0.218E-02 dE for cont linesearch -0.718E-04
 ZBRENT: interpolating
 opt :   4.7741  next Energy=  -500.241549 (dE=-0.897E-03)
 bond charge predicted
       N       E                     dE             d eps       ncg     rms          rms(c)
DAV:   1    -0.500239810661E+03    0.16836E-02   -0.14071E-01 12139   0.982E-01    0.234E-01
DAV:   2    -0.500241259404E+03   -0.14487E-02   -0.12479E-02 12056   0.249E-01    0.196E-01
DAV:   3    -0.500242504459E+03   -0.12451E-02   -0.42619E-03 19472   0.342E-01    0.444E-01
DAV:   4    -0.500241373304E+03    0.11312E-02   -0.35919E-03 16720   0.302E-01    0.146E-01
DAV:   5    -0.500241574389E+03   -0.20109E-03   -0.27499E-04 15088   0.936E-02    0.111E-01
DAV:   6    -0.500241613577E+03   -0.39188E-04   -0.14345E-04 17728   0.696E-02    0.625E-02
DAV:   7    -0.500241603352E+03    0.10225E-04   -0.44289E-05  9584   0.398E-02    0.261E-02
DAV:   8    -0.500241606222E+03   -0.28702E-05   -0.17429E-05  7080   0.109E-02
  17 F= -.50024161E+03 E0= -.50024621E+03  d E =-.953598E-03  mag=   105.1181
 curvature:  -2.65 expect dE=-0.105E-02 dE for cont linesearch -0.193E-04
 trial: gam= 1.21661 g(F)=  0.397E-03 g(S)=  0.000E+00 ort =-0.623E-04 (trialstep = 0.132E+01)
 search vector abs. value=  0.103E-02
 bond charge predicted
       N       E                     dE             d eps       ncg     rms          rms(c)
DAV:   1    -0.500237200393E+03    0.44030E-02   -0.41906E-01 11966   0.155E+00    0.426E-01
DAV:   2    -0.500240771935E+03   -0.35715E-02   -0.29801E-02 11920   0.389E-01    0.338E-01
DAV:   3    -0.500245197564E+03   -0.44256E-02   -0.13057E-02 20576   0.587E-01    0.821E-01
DAV:   4    -0.500241262469E+03    0.39351E-02   -0.12933E-02 21208   0.562E-01    0.261E-01
DAV:   5    -0.500241974760E+03   -0.71229E-03   -0.11015E-03 18896   0.166E-01    0.145E-01
DAV:   6    -0.500241995582E+03   -0.20822E-04   -0.29500E-04 17976   0.974E-02    0.797E-02
DAV:   7    -0.500241985121E+03    0.10460E-04   -0.71301E-05 13008   0.510E-02    0.520E-02
DAV:   8    -0.500241987807E+03   -0.26851E-05   -0.20064E-05  8224   0.181E-02
  18 F= -.50024199E+03 E0= -.50024649E+03  d E =-.381584E-03  mag=   105.1344
 ZBRENT: can't locate minimum, use default step
 trial-energy change:   -0.000382  1 .order   -0.000394   -0.000424   -0.000364
 step:   5.2725(harm=  9.4167)  dis= 0.02038  next Energy=  -500.243120 (dE=-0.151E-02)
 bond charge predicted
       N       E                     dE             d eps       ncg     rms          rms(c)
DAV:   1    -0.500199035703E+03    0.42949E-01   -0.37739E+00 11966   0.466E+00    0.128E+00
DAV:   2    -0.500231521764E+03   -0.32486E-01   -0.26948E-01 11952   0.119E+00    0.103E+00
DAV:   3    -0.500268495236E+03   -0.36973E-01   -0.10901E-01 20848   0.171E+00    0.239E+00
DAV:   4    -0.500236053937E+03    0.32441E-01   -0.10869E-01 21472   0.163E+00    0.814E-01
DAV:   5    -0.500242056759E+03   -0.60028E-02   -0.93389E-03 20200   0.510E-01    0.513E-01
DAV:   6    -0.500242673990E+03   -0.61723E-03   -0.32219E-03 19232   0.345E-01    0.329E-01
DAV:   7    -0.500242391834E+03    0.28216E-03   -0.12284E-03 18528   0.206E-01    0.190E-01
DAV:   8    -0.500242404052E+03   -0.12218E-04   -0.24831E-04 13856   0.532E-02    0.176E-01
DAV:   9    -0.500242354452E+03    0.49600E-04   -0.14205E-04 17800   0.409E-02    0.138E-01
DAV:  10    -0.500242291640E+03    0.62812E-04   -0.36369E-04 18112   0.683E-02    0.969E-02
DAV:  11    -0.500242292464E+03   -0.82383E-06   -0.67208E-05 13408   0.295E-02
  19 F= -.50024229E+03 E0= -.50024651E+03  d E =-.686241E-03  mag=   105.2039
 curvature: -11.15 expect dE=-0.506E-02 dE for cont linesearch -0.246E-05
 trial: gam= 0.91283 g(F)=  0.453E-03 g(S)=  0.000E+00 ort =-0.151E-04 (trialstep = 0.169E+01)
 search vector abs. value=  0.129E-02
 bond charge predicted
       N       E                     dE             d eps       ncg     rms          rms(c)
DAV:   1    -0.500234510860E+03    0.77808E-02   -0.80257E-01 11896   0.200E+00    0.614E-01
DAV:   2    -0.500240811241E+03   -0.63004E-02   -0.45801E-02 13696   0.561E-01    0.584E-01
DAV:   3    -0.500246545102E+03   -0.57339E-02   -0.25823E-02 19312   0.855E-01    0.104E+00
DAV:   4    -0.500241533354E+03    0.50117E-02   -0.19426E-02 21232   0.703E-01    0.376E-01
DAV:   5    -0.500242847256E+03   -0.13139E-02   -0.23058E-03 19744   0.252E-01    0.239E-01
DAV:   6    -0.500242923011E+03   -0.75755E-04   -0.64034E-04 18456   0.151E-01    0.168E-01
DAV:   7    -0.500242847319E+03    0.75692E-04   -0.25215E-04 16696   0.944E-02    0.102E-01
DAV:   8    -0.500242851401E+03   -0.40825E-05   -0.58880E-05 11280   0.275E-02
  20 F= -.50024285E+03 E0= -.50024696E+03  d E =-.558938E-03  mag=   105.2179
 trial-energy change:   -0.000559  1 .order   -0.000648   -0.000744   -0.000552
 step:   6.5622(harm=  6.5622)  dis= 0.03425  next Energy=  -500.243735 (dE=-0.144E-02)
 bond charge predicted
       N       E                     dE             d eps       ncg     rms          rms(c)
DAV:   1    -0.500173617740E+03    0.69230E-01   -0.66500E+00 11888   0.577E+00    0.176E+00
DAV:   2    -0.500223449579E+03   -0.49832E-01   -0.38046E-01 12326   0.156E+00    0.149E+00
DAV:   3    -0.500290596207E+03   -0.67147E-01   -0.20931E-01 20776   0.242E+00    0.329E+00
DAV:   4    -0.500231822616E+03    0.58774E-01   -0.19867E-01 21520   0.225E+00    0.113E+00
DAV:   5    -0.500242270003E+03   -0.10447E-01   -0.17544E-02 20640   0.718E-01    0.753E-01
DAV:   6    -0.500244228254E+03   -0.19583E-02   -0.65137E-03 19336   0.487E-01    0.521E-01
DAV:   7    -0.500243474212E+03    0.75404E-03   -0.29072E-03 18472   0.311E-01    0.268E-01
DAV:   8    -0.500243515618E+03   -0.41405E-04   -0.55654E-04 14896   0.726E-02    0.246E-01
DAV:   9    -0.500243464694E+03    0.50924E-04   -0.28902E-04 17688   0.613E-02    0.197E-01
DAV:  10    -0.500243350167E+03    0.11453E-03   -0.74919E-04 17952   0.930E-02    0.134E-01
DAV:  11    -0.500243351872E+03   -0.17045E-05   -0.14479E-04 15064   0.428E-02    0.122E-01
DAV:  12    -0.500243353673E+03   -0.18011E-05   -0.41011E-05 11432   0.325E-02
  21 F= -.50024335E+03 E0= -.50024743E+03  d E =-.106121E-02  mag=   105.2673
 curvature:  -9.59 expect dE=-0.609E-02 dE for cont linesearch -0.737E-07
 trial: gam= 1.27274 g(F)=  0.635E-03 g(S)=  0.000E+00 ort =-0.314E-05 (trialstep = 0.127E+01)
 search vector abs. value=  0.271E-02
 bond charge predicted
       N       E                     dE             d eps       ncg     rms          rms(c)
DAV:   1    -0.500236382874E+03    0.69690E-02   -0.85793E-01 11568   0.181E+00    0.662E-01
DAV:   2    -0.500240702881E+03   -0.43200E-02   -0.26055E-02 12392   0.423E-01    0.540E-01
DAV:   3    -0.500253013360E+03   -0.12310E-01   -0.31530E-02 21312   0.910E-01    0.135E+00
DAV:   4    -0.500242893999E+03    0.10119E-01   -0.37069E-02 21552   0.945E-01    0.394E-01
DAV:   5    -0.500244040959E+03   -0.11470E-02   -0.30442E-03 18984   0.263E-01    0.176E-01
DAV:   6    -0.500243988028E+03    0.52932E-04   -0.46946E-04 16680   0.103E-01    0.104E-01
DAV:   7    -0.500243994856E+03   -0.68285E-05   -0.75590E-05 13560   0.319E-02
  22 F= -.50024399E+03 E0= -.50024817E+03  d E =-.641183E-03  mag=   105.2725
 trial-energy change:   -0.000641  1 .order   -0.000696   -0.000798   -0.000594
 step:   4.9425(harm=  4.9425)  dis= 0.04227  next Energy=  -500.244912 (dE=-0.156E-02)
 bond charge predicted
       N       E                     dE             d eps       ncg     rms          rms(c)
DAV:   1    -0.500179483443E+03    0.64505E-01   -0.72683E+00 11561   0.526E+00    0.194E+00
DAV:   2    -0.500216979654E+03   -0.37496E-01   -0.23517E-01 12159   0.128E+00    0.152E+00
DAV:   3    -0.500270502491E+03   -0.53523E-01   -0.11138E-01 21568   0.169E+00    0.270E+00
DAV:   4    -0.500239581301E+03    0.30921E-01   -0.19278E-01 21608   0.217E+00    0.143E+00
DAV:   5    -0.500245393130E+03   -0.58118E-02   -0.36739E-02 20904   0.974E-01    0.584E-01
DAV:   6    -0.500245352431E+03    0.40699E-04   -0.58828E-03 18464   0.396E-01    0.373E-01
DAV:   7    -0.500245161861E+03    0.19057E-03   -0.13577E-03 17464   0.212E-01    0.296E-01
DAV:   8    -0.500245163468E+03   -0.16075E-05   -0.34041E-04 13080   0.696E-02    0.274E-01
DAV:   9    -0.500245073571E+03    0.89898E-04   -0.47564E-04 18912   0.764E-02    0.213E-01
DAV:  10    -0.500244940553E+03    0.13302E-03   -0.10483E-03 17392   0.973E-02    0.136E-01
DAV:  11    -0.500244940952E+03   -0.39880E-06   -0.17318E-04 15936   0.491E-02    0.113E-01
DAV:  12    -0.500244965293E+03   -0.24341E-04   -0.48623E-05 12600   0.312E-02    0.805E-02
DAV:  13    -0.500244991354E+03   -0.26061E-04   -0.51841E-05 13304   0.286E-02    0.514E-02
DAV:  14    -0.500244992476E+03   -0.11220E-05   -0.93192E-06  6656   0.124E-02
  23 F= -.50024499E+03 E0= -.50024974E+03  d E =-.163880E-02  mag=   105.2719
 curvature: -10.62 expect dE=-0.835E-02 dE for cont linesearch -0.369E-04
 trial: gam= 0.60969 g(F)=  0.787E-03 g(S)=  0.000E+00 ort =-0.970E-04 (trialstep = 0.200E+01)
 search vector abs. value=  0.168E-02
 bond charge predicted
       N       E                     dE             d eps       ncg     rms          rms(c)
DAV:   1    -0.500234150986E+03    0.10840E-01   -0.13495E+00 11557   0.234E+00    0.808E-01
DAV:   2    -0.500241239646E+03   -0.70887E-02   -0.47236E-02 12028   0.557E-01    0.635E-01
DAV:   3    -0.500254849600E+03   -0.13610E-01   -0.30550E-02 21480   0.895E-01    0.136E+00
DAV:   4    -0.500244441124E+03    0.10408E-01   -0.39626E-02 21488   0.990E-01    0.497E-01
DAV:   5    -0.500246144093E+03   -0.17030E-02   -0.32806E-03 18232   0.261E-01    0.164E-01
DAV:   6    -0.500246240106E+03   -0.96013E-04   -0.61021E-04 14368   0.107E-01    0.127E-01
DAV:   7    -0.500246227088E+03    0.13019E-04   -0.71138E-05 13784   0.432E-02    0.110E-01
DAV:   8    -0.500246222780E+03    0.43075E-05   -0.19902E-05  8008   0.296E-02
  24 F= -.50024622E+03 E0= -.50025127E+03  d E =-.123030E-02  mag=   105.2709
 ZBRENT: can't locate minimum, use default step
 trial-energy change:   -0.001230  1 .order   -0.001276   -0.001456   -0.001095
 step:   8.0029(harm=  8.0650)  dis= 0.04210  next Energy=  -500.247928 (dE=-0.294E-02)
 bond charge predicted
       N       E                     dE             d eps       ncg     rms          rms(c)
DAV:   1    -0.500134613304E+03    0.11161E+00   -0.12155E+01 11534   0.704E+00    0.247E+00
DAV:   2    -0.500201348844E+03   -0.66736E-01   -0.45443E-01 12064   0.175E+00    0.189E+00
DAV:   3    -0.500246470055E+03   -0.45121E-01   -0.70042E-02 21056   0.131E+00    0.228E+00
DAV:   4    -0.500254164909E+03   -0.76949E-02   -0.22483E-01 21552   0.239E+00    0.226E+00
DAV:   5    -0.500247535125E+03    0.66298E-02   -0.88480E-02 21232   0.158E+00    0.899E-01
DAV:   6    -0.500246340937E+03    0.11942E-02   -0.11215E-02 19024   0.597E-01    0.437E-01
DAV:   7    -0.500246183510E+03    0.15743E-03   -0.29313E-03 14912   0.261E-01    0.347E-01
DAV:   8    -0.500246138111E+03    0.45399E-04   -0.51979E-04 14640   0.733E-02    0.321E-01
DAV:   9    -0.500245939660E+03    0.19845E-03   -0.37830E-04 18424   0.904E-02    0.260E-01
DAV:  10    -0.500245689320E+03    0.25034E-03   -0.87809E-04 17280   0.940E-02    0.174E-01
DAV:  11    -0.500245622857E+03    0.66462E-04   -0.26338E-04 17976   0.619E-02    0.144E-01
DAV:  12    -0.500245645541E+03   -0.22684E-04   -0.98453E-05 15656   0.407E-02    0.108E-01
DAV:  13    -0.500245669172E+03   -0.23630E-04   -0.91016E-05 16168   0.377E-02    0.577E-02
DAV:  14    -0.500245674667E+03   -0.54958E-05   -0.13180E-05  7112   0.196E-02
  25 F= -.50024567E+03 E0= -.50025173E+03  d E =-.682191E-03  mag=   105.2443
 curvature:  -9.28 expect dE=-0.160E-01 dE for cont linesearch -0.311E-02
 ZBRENT: interpolating
 opt :   4.5334  next Energy=  -500.246916 (dE=-0.192E-02)
 bond charge predicted
       N       E                     dE             d eps       ncg     rms          rms(c)
DAV:   1    -0.500210729086E+03    0.34940E-01   -0.40586E+00 11549   0.406E+00    0.144E+00
DAV:   2    -0.500232464968E+03   -0.21736E-01   -0.14905E-01 12743   0.108E+00    0.112E+00
DAV:   3    -0.500257212813E+03   -0.24748E-01   -0.57145E-02 20888   0.125E+00    0.188E+00
DAV:   4    -0.500242787321E+03    0.14425E-01   -0.94212E-02 21296   0.155E+00    0.109E+00
DAV:   5    -0.500246654976E+03   -0.38677E-02   -0.15791E-02 20432   0.648E-01    0.429E-01
DAV:   6    -0.500247232331E+03   -0.57736E-03   -0.34515E-03 19016   0.344E-01    0.294E-01
DAV:   7    -0.500247044278E+03    0.18805E-03   -0.11119E-03 16768   0.196E-01    0.175E-01
DAV:   8    -0.500247019977E+03    0.24301E-04   -0.19776E-04 15136   0.475E-02    0.160E-01
DAV:   9    -0.500246935679E+03    0.84298E-04   -0.10264E-04 16320   0.400E-02    0.126E-01
DAV:  10    -0.500246814906E+03    0.12077E-03   -0.28799E-04 17648   0.595E-02    0.882E-02
DAV:  11    -0.500246804967E+03    0.99393E-05   -0.48246E-05 12472   0.268E-02
  26 F= -.50024680E+03 E0= -.50025232E+03  d E =-.181249E-02  mag=   105.2594
 curvature:  -2.07 expect dE=-0.114E-02 dE for cont linesearch -0.215E-04
 ZBRENT: interpolating
 opt :   4.0409  next Energy=  -500.246837 (dE=-0.185E-02)
 bond charge predicted
       N       E                     dE             d eps       ncg     rms          rms(c)
DAV:   1    -0.500246063368E+03    0.75154E-03   -0.81468E-02 11593   0.577E-01    0.210E-01
DAV:   2    -0.500246473298E+03   -0.40993E-03   -0.28936E-03 12412   0.142E-01    0.167E-01
DAV:   3    -0.500246717601E+03   -0.24430E-03   -0.36681E-04 15324   0.101E-01    0.181E-01
DAV:   4    -0.500247009211E+03   -0.29161E-03   -0.19340E-03 16056   0.227E-01    0.252E-01
DAV:   5    -0.500246754380E+03    0.25483E-03   -0.88604E-04 11320   0.156E-01    0.827E-02
DAV:   6    -0.500246775784E+03   -0.21404E-04   -0.13395E-04 17064   0.510E-02    0.561E-02
DAV:   7    -0.500246776754E+03   -0.96937E-06   -0.20321E-05  8376   0.267E-02
  27 F= -.50024678E+03 E0= -.50025221E+03  d E =-.178428E-02  mag=   105.2605
 curvature:  -3.12 expect dE=-0.150E-02 dE for cont linesearch -0.610E-05
 trial: gam= 0.31282 g(F)=  0.479E-03 g(S)=  0.000E+00 ort = 0.572E-04 (trialstep = 0.241E+01)
 search vector abs. value=  0.679E-03
 bond charge predicted
       N       E                     dE             d eps       ncg     rms          rms(c)
DAV:   1    -0.500238494835E+03    0.82809E-02   -0.88067E-01 11943   0.209E+00    0.623E-01
DAV:   2    -0.500244923459E+03   -0.64286E-02   -0.51754E-02 12000   0.510E-01    0.476E-01
DAV:   3    -0.500249855728E+03   -0.49323E-02   -0.11097E-02 20632   0.546E-01    0.808E-01
DAV:   4    -0.500246905413E+03    0.29503E-02   -0.16626E-02 21256   0.658E-01    0.449E-01
DAV:   5    -0.500247693344E+03   -0.78793E-03   -0.25252E-03 20416   0.253E-01    0.211E-01
DAV:   6    -0.500247741061E+03   -0.47717E-04   -0.71856E-04 18736   0.161E-01    0.111E-01
DAV:   7    -0.500247732641E+03    0.84198E-05   -0.19078E-04 15224   0.755E-02    0.722E-02
DAV:   8    -0.500247730256E+03    0.23853E-05   -0.23631E-05  8544   0.194E-02
  28 F= -.50024773E+03 E0= -.50025339E+03  d E =-.953502E-03  mag=   105.2581
 trial-energy change:   -0.000954  1 .order   -0.000997   -0.001197   -0.000796
 step:   7.1926(harm=  7.1926)  dis= 0.02053  next Energy=  -500.248564 (dE=-0.179E-02)
 bond charge predicted
       N       E                     dE             d eps       ncg     rms          rms(c)
DAV:   1    -0.500211363947E+03    0.36369E-01   -0.34728E+00 11943   0.416E+00    0.124E+00
DAV:   2    -0.500237359486E+03   -0.25996E-01   -0.20566E-01 11992   0.105E+00    0.996E-01
DAV:   3    -0.500274340602E+03   -0.36981E-01   -0.10029E-01 21320   0.168E+00    0.234E+00
DAV:   4    -0.500242002096E+03    0.32339E-01   -0.10004E-01 21568   0.160E+00    0.745E-01
DAV:   5    -0.500247991293E+03   -0.59892E-02   -0.76712E-03 19720   0.441E-01    0.482E-01
DAV:   6    -0.500248183304E+03   -0.19201E-03   -0.28478E-03 19072   0.326E-01    0.317E-01
DAV:   7    -0.500247982068E+03    0.20124E-03   -0.94923E-04 16096   0.177E-01    0.199E-01
DAV:   8    -0.500247924913E+03    0.57155E-04   -0.24100E-04 17160   0.651E-02    0.166E-01
DAV:   9    -0.500247859187E+03    0.65726E-04   -0.18877E-04 16968   0.574E-02    0.128E-01
DAV:  10    -0.500247766199E+03    0.92988E-04   -0.24339E-04 17312   0.535E-02    0.842E-02
DAV:  11    -0.500247761444E+03    0.47549E-05   -0.48251E-05 11064   0.314E-02
  29 F= -.50024776E+03 E0= -.50025391E+03  d E =-.984691E-03  mag=   105.2527
 curvature:  -4.91 expect dE=-0.426E-02 dE for cont linesearch -0.214E-03
 ZBRENT: interpolating
 opt :   5.5560  next Energy=  -500.247902 (dE=-0.113E-02)
 bond charge predicted
       N       E                     dE             d eps       ncg     rms          rms(c)
DAV:   1    -0.500243746599E+03    0.40196E-02   -0.40697E-01 11950   0.142E+00    0.423E-01
DAV:   2    -0.500246761163E+03   -0.30146E-02   -0.24084E-02 12084   0.360E-01    0.330E-01
DAV:   3    -0.500250321282E+03   -0.35601E-02   -0.91617E-03 21256   0.500E-01    0.717E-01
DAV:   4    -0.500247367005E+03    0.29543E-02   -0.98042E-03 21296   0.508E-01    0.264E-01
DAV:   5    -0.500248014940E+03   -0.64794E-03   -0.90888E-04 19616   0.154E-01    0.166E-01
DAV:   6    -0.500248049001E+03   -0.34062E-04   -0.37023E-04 18872   0.120E-01    0.884E-02
DAV:   7    -0.500248042080E+03    0.69208E-05   -0.95975E-05 13584   0.533E-02
  30 F= -.50024804E+03 E0= -.50025402E+03  d E =-.126533E-02  mag=   105.2556
 curvature:  -3.23 expect dE=-0.169E-02 dE for cont linesearch -0.537E-04
 ZBRENT: interpolating
 opt :   3.5555  next Energy=  -500.248174 (dE=-0.140E-02)
 bond charge predicted
       N       E                     dE             d eps       ncg     rms          rms(c)
DAV:   1    -0.500241592329E+03    0.64567E-02   -0.60706E-01 11943   0.174E+00    0.521E-01
DAV:   2    -0.500246036023E+03   -0.44437E-02   -0.36067E-02 12000   0.435E-01    0.399E-01
DAV:   3    -0.500248079819E+03   -0.20438E-02   -0.40109E-03 20760   0.319E-01    0.524E-01
DAV:   4    -0.500247563795E+03    0.51602E-03   -0.79780E-03 20960   0.461E-01    0.409E-01
DAV:   5    -0.500247896941E+03   -0.33315E-03   -0.21384E-03 20328   0.228E-01    0.147E-01
DAV:   6    -0.500248011294E+03   -0.11435E-03   -0.41421E-04 17864   0.965E-02    0.113E-01
DAV:   7    -0.500247985681E+03    0.25613E-04   -0.10100E-04 14512   0.641E-02    0.848E-02
DAV:   8    -0.500247972848E+03    0.12833E-04   -0.19712E-05  7192   0.256E-02    0.743E-02
DAV:   9    -0.500247957049E+03    0.15798E-04   -0.54655E-05 12720   0.234E-02    0.625E-02
DAV:  10    -0.500247935088E+03    0.21961E-04   -0.77268E-05 14056   0.319E-02    0.374E-02
DAV:  11    -0.500247934722E+03    0.36648E-06   -0.10051E-05  6488   0.128E-02
  31 F= -.50024793E+03 E0= -.50025371E+03  d E =-.115797E-02  mag=   105.2599
 curvature:  -7.95 expect dE=-0.168E-02 dE for cont linesearch -0.140E-03
 ZBRENT: interpolating
 opt :   4.5696  next Energy=  -500.248094 (dE=-0.132E-02)
 bond charge predicted
       N       E                     dE             d eps       ncg     rms          rms(c)
DAV:   1    -0.500246398955E+03    0.15361E-02   -0.15627E-01 11943   0.881E-01    0.261E-01
DAV:   2    -0.500247583868E+03   -0.11849E-02   -0.92620E-03 12378   0.230E-01    0.223E-01
DAV:   3    -0.500249040163E+03   -0.14563E-02   -0.47766E-03 19808   0.370E-01    0.474E-01
DAV:   4    -0.500247767085E+03    0.12731E-02   -0.42676E-03 17752   0.333E-01    0.164E-01
DAV:   5    -0.500248020086E+03   -0.25300E-03   -0.30833E-04 18168   0.879E-02    0.911E-02
DAV:   6    -0.500248042868E+03   -0.22782E-04   -0.13038E-04 17088   0.712E-02    0.568E-02
DAV:   7    -0.500248037523E+03    0.53447E-05   -0.36180E-05 10176   0.375E-02
  32 F= -.50024804E+03 E0= -.50025391E+03  d E =-.126077E-02  mag=   105.2575
 curvature:  -2.98 expect dE=-0.925E-03 dE for cont linesearch -0.188E-04
 ZBRENT: interpolating
 opt :   4.9459  next Energy=  -500.248050 (dE=-0.127E-02)
 bond charge predicted
       N       E                     dE             d eps       ncg     rms          rms(c)
DAV:   1    -0.500247817081E+03    0.22579E-03   -0.21439E-02 11961   0.328E-01    0.101E-01
DAV:   2    -0.500247981080E+03   -0.16400E-03   -0.13103E-03 11977   0.881E-02    0.888E-02
DAV:   3    -0.500248167491E+03   -0.18641E-03   -0.59830E-04 13264   0.133E-01    0.176E-01
DAV:   4    -0.500247993526E+03    0.17397E-03   -0.46688E-04  9592   0.115E-01    0.653E-02
DAV:   5    -0.500248040108E+03   -0.46582E-04   -0.42140E-05 11136   0.194E-02    0.352E-02
DAV:   6    -0.500248045660E+03   -0.55519E-05   -0.17560E-05  6704   0.197E-02
  33 F= -.50024805E+03 E0= -.50025397E+03  d E =-.126891E-02  mag=   105.2571
 curvature:  -1.95 expect dE=-0.692E-03 dE for cont linesearch -0.131E-05
 trial: gam= 0.77264 g(F)=  0.355E-03 g(S)=  0.000E+00 ort = 0.214E-04 (trialstep = 0.250E+01)
 search vector abs. value=  0.793E-03
 bond charge predicted
       N       E                     dE             d eps       ncg     rms          rms(c)
DAV:   1    -0.500236413213E+03    0.11627E-01   -0.11187E+00 11959   0.242E+00    0.705E-01
DAV:   2    -0.500245036723E+03   -0.86235E-02   -0.70512E-02 12000   0.601E-01    0.536E-01
DAV:   3    -0.500250832862E+03   -0.57961E-02   -0.12690E-02 21232   0.580E-01    0.881E-01
DAV:   4    -0.500247392291E+03    0.34406E-02   -0.19231E-02 21336   0.711E-01    0.496E-01
DAV:   5    -0.500248532595E+03   -0.11403E-02   -0.26524E-03 20336   0.259E-01    0.234E-01
DAV:   6    -0.500248640846E+03   -0.10825E-03   -0.87977E-04 18680   0.183E-01    0.137E-01
DAV:   7    -0.500248624040E+03    0.16807E-04   -0.23237E-04 16184   0.826E-02    0.104E-01
DAV:   8    -0.500248609411E+03    0.14628E-04   -0.35218E-05  9672   0.275E-02    0.893E-02
DAV:   9    -0.500248589910E+03    0.19501E-04   -0.35773E-05  8232   0.259E-02    0.727E-02
DAV:  10    -0.500248571094E+03    0.18816E-04   -0.10297E-04 16080   0.277E-02    0.523E-02
DAV:  11    -0.500248564123E+03    0.69717E-05   -0.16889E-05  6872   0.221E-02
  34 F= -.50024856E+03 E0= -.50025467E+03  d E =-.518462E-03  mag=   105.2336
 trial-energy change:   -0.000518  1 .order   -0.000607   -0.000927   -0.000288
 step:   3.6237(harm=  3.6237)  dis= 0.00886  next Energy=  -500.248718 (dE=-0.672E-03)
 bond charge predicted
       N       E                     dE             d eps       ncg     rms          rms(c)
DAV:   1    -0.500246102342E+03    0.24688E-02   -0.22761E-01 11952   0.109E+00    0.321E-01
DAV:   2    -0.500248150554E+03   -0.20482E-02   -0.14889E-02 13896   0.319E-01    0.336E-01
DAV:   3    -0.500249098539E+03   -0.94798E-03   -0.66078E-03 18280   0.455E-01    0.469E-01
DAV:   4    -0.500248175528E+03    0.92301E-03   -0.34493E-03 19008   0.306E-01    0.183E-01
DAV:   5    -0.500248537421E+03   -0.36189E-03   -0.37173E-04 17600   0.875E-02    0.905E-02
DAV:   6    -0.500248578897E+03   -0.41476E-04   -0.10257E-04 13320   0.468E-02    0.751E-02
DAV:   7    -0.500248566131E+03    0.12766E-04   -0.26383E-05  7888   0.356E-02    0.547E-02
DAV:   8    -0.500248562788E+03    0.33434E-05   -0.10158E-05  6992   0.185E-02
  35 F= -.50024856E+03 E0= -.50025474E+03  d E =-.517127E-03  mag=   105.2253
 curvature:  -3.87 expect dE=-0.497E-03 dE for cont linesearch -0.366E-05
 ZBRENT: interpolating
 opt :   3.4075  next Energy=  -500.248566 (dE=-0.520E-03)
 bond charge predicted
       N       E                     dE             d eps       ncg     rms          rms(c)
DAV:   1    -0.500248487367E+03    0.78765E-04   -0.84513E-03 11986   0.209E-01    0.704E-02
DAV:   2    -0.500248701916E+03   -0.21455E-03   -0.87787E-04 17976   0.122E-01    0.158E-01
DAV:   3    -0.500248546804E+03    0.15511E-03   -0.53481E-04 16392   0.125E-01    0.596E-02
DAV:   4    -0.500248565755E+03   -0.18951E-04   -0.33891E-05  9152   0.305E-02    0.388E-02
DAV:   5    -0.500248579184E+03   -0.13430E-04   -0.13564E-05  6640   0.148E-02    0.335E-02
DAV:   6    -0.500248579549E+03   -0.36419E-06   -0.10107E-05  6144   0.199E-02
  36 F= -.50024858E+03 E0= -.50025475E+03  d E =-.533888E-03  mag=   105.2268
 curvature:  -3.13 expect dE=-0.361E-03 dE for cont linesearch -0.173E-05
 trial: gam= 0.36959 g(F)=  0.115E-03 g(S)=  0.000E+00 ort =-0.210E-04 (trialstep = 0.268E+01)
 search vector abs. value=  0.208E-03
 bond charge predicted
       N       E                     dE             d eps       ncg     rms          rms(c)
DAV:   1    -0.500244256139E+03    0.43230E-02   -0.35163E-01 12127   0.157E+00    0.387E-01
DAV:   2    -0.500247698023E+03   -0.34419E-02   -0.30248E-02 11936   0.385E-01    0.283E-01
DAV:   3    -0.500248697606E+03   -0.99958E-03   -0.21700E-03 20664   0.223E-01    0.359E-01
DAV:   4    -0.500248504761E+03    0.19284E-03   -0.38948E-03 20856   0.324E-01    0.297E-01
DAV:   5    -0.500248682828E+03   -0.17807E-03   -0.12227E-03 19224   0.179E-01    0.102E-01
DAV:   6    -0.500248728504E+03   -0.45676E-04   -0.21607E-04 17464   0.709E-02    0.615E-02
DAV:   7    -0.500248728248E+03    0.25630E-06   -0.28094E-05  9160   0.305E-02
  37 F= -.50024873E+03 E0= -.50025492E+03  d E =-.148699E-03  mag=   105.2140
 trial-energy change:   -0.000149  1 .order   -0.000202   -0.000288   -0.000116
 step:   4.4728(harm=  4.4728)  dis= 0.00399  next Energy=  -500.248820 (dE=-0.241E-03)
 reached required accuracy - stopping structural energy minimisation
 PROFILE, used timers:     231
