ni3al                                   
           1
     8.526200    0.000000    0.000000
    -0.001767    8.504599    0.000000
     0.000000    0.000000   23.555799
   Fe   Cr
    49    13
Direct configuration=     1
   0.00245000  0.99865000  0.12117000
   0.16980000  0.16587000  0.18099000
   0.33623000  0.99852000  0.12110000
   0.50164000  0.16594000  0.18135000
   0.83615000  0.16559000  0.18099000
   0.00260000  0.33284000  0.12101000
   0.16994000  0.49925000  0.18104000
   0.33651000  0.33287000  0.12086000
   0.50180000  0.49937000  0.18123000
   0.66965000  0.33304000  0.12103000
   0.83626000  0.49963000  0.18117000
   0.16899000  0.83329000  0.18177000
   0.33582000  0.66689000  0.12095000
   0.66914000  0.66722000  0.12117000
   0.83680000  0.83220000  0.18114000
   0.00172000  0.99944000  0.24151000
   0.16844072  0.16026033  0.30261565
   0.50373890  0.16433626  0.30215531
   0.66988000  0.99924000  0.24142000
   0.83477120  0.16505350  0.30251964
   0.16548220  0.49790591  0.30093225
   0.33524000  0.33246000  0.24183000
   0.50370692  0.50096917  0.30244037
   0.66902000  0.33317000  0.24123000
   0.83424753  0.49970741  0.30257224
   0.00318000  0.66598000  0.24177000
   0.33605000  0.66588000  0.24146000
   0.50256785  0.83434697  0.30168218
   0.66918000  0.66674000  0.24131000
   0.00271000  0.99869000  0.00034000
   0.99526190  0.99936501  0.35979361
   0.16929000  0.16694000  0.06071000
   0.33657000  0.00075000  0.00067000
   0.34421869  0.00362042  0.36051327
   0.50343000  0.16520000  0.06105000
   0.66948000  0.99883000  0.00053000
   0.67084913  0.99223680  0.36307984
   0.83570000  0.16556000  0.06094000
   0.17061000  0.49746000  0.06032000
   0.50215000  0.49992000  0.06086000
   0.66930000  0.33358000  0.00050000
   0.66758985  0.33264526  0.35904710
   0.00239000  0.66441000  0.00051000
   0.00255260  0.66064764  0.35897049
   0.16894000  0.83304000  0.06062000
   0.50222000  0.83318000  0.06077000
   0.66882000  0.66655000  0.00068000
   0.66555278  0.67229773  0.36059076
   0.83620000  0.83206000  0.06086000
   0.66879000  0.99689000  0.12225000
   0.00127000  0.66476000  0.12046000
   0.50272000  0.83391000  0.18098000
   0.33662000  0.99784000  0.24172000
   0.00240000  0.33332000  0.24079000
   0.17187945  0.83062619  0.30393914
   0.83352987  0.83319123  0.30198063
   0.99962000  0.33431000  0.00199000
   0.00521225  0.33084210  0.36789751
   0.33922000  0.33072000  0.00000000
   0.83779000  0.49999000  0.06135000
   0.33524000  0.67037000  0.00023000
   0.33078724  0.67150217  0.36706407
Direct configuration=     2
   0.00245000  0.99865000  0.12117000
   0.16980000  0.16587000  0.18099000
   0.33623000  0.99852000  0.12110000
   0.50164000  0.16594000  0.18135000
   0.83615000  0.16559000  0.18099000
   0.00260000  0.33284000  0.12101000
   0.16994000  0.49925000  0.18104000
   0.33651000  0.33287000  0.12086000
   0.50180000  0.49937000  0.18123000
   0.66965000  0.33304000  0.12103000
   0.83626000  0.49963000  0.18117000
   0.16899000  0.83329000  0.18177000
   0.33582000  0.66689000  0.12095000
   0.66914000  0.66722000  0.12117000
   0.83680000  0.83220000  0.18114000
   0.00172000  0.99944000  0.24151000
   0.16979440  0.16045346  0.30259962
   0.50262686  0.16570631  0.30204645
   0.66988000  0.99924000  0.24142000
   0.83420432  0.16529228  0.30233733
   0.16662371  0.49718774  0.30068383
   0.33524000  0.33246000  0.24183000
   0.50278067  0.49947103  0.30230879
   0.66902000  0.33317000  0.24123000
   0.83402870  0.49971248  0.30257035
   0.00318000  0.66598000  0.24177000
   0.33605000  0.66588000  0.24146000
   0.50248731  0.83469442  0.30166543
   0.66918000  0.66674000  0.24131000
   0.00271000  0.99869000  0.00034000
   0.99568714  0.99957358  0.35968753
   0.16929000  0.16694000  0.06071000
   0.33657000  0.00075000  0.00067000
   0.34307251  0.00286049  0.36055173
   0.50343000  0.16520000  0.06105000
   0.66948000  0.99883000  0.00053000
   0.67096695  0.99226848  0.36302603
   0.83570000  0.16556000  0.06094000
   0.17061000  0.49746000  0.06032000
   0.50215000  0.49992000  0.06086000
   0.66930000  0.33358000  0.00050000
   0.66847309  0.33272609  0.35911383
   0.00239000  0.66441000  0.00051000
   0.00254956  0.66076002  0.35879163
   0.16894000  0.83304000  0.06062000
   0.50222000  0.83318000  0.06077000
   0.66882000  0.66655000  0.00068000
   0.66568975  0.67186292  0.36048494
   0.83620000  0.83206000  0.06086000
   0.66879000  0.99689000  0.12225000
   0.00127000  0.66476000  0.12046000
   0.50272000  0.83391000  0.18098000
   0.33662000  0.99784000  0.24172000
   0.00240000  0.33332000  0.24079000
   0.17256199  0.83062121  0.30413551
   0.83357899  0.83308441  0.30180923
   0.99962000  0.33431000  0.00199000
   0.00501273  0.33078281  0.36820116
   0.33922000  0.33072000  0.00000000
   0.83779000  0.49999000  0.06135000
   0.33524000  0.67037000  0.00023000
   0.32977730  0.67225790  0.36723701
Direct configuration=     3
   0.00245000  0.99865000  0.12117000
   0.16980000  0.16587000  0.18099000
   0.33623000  0.99852000  0.12110000
   0.50164000  0.16594000  0.18135000
   0.83615000  0.16559000  0.18099000
   0.00260000  0.33284000  0.12101000
   0.16994000  0.49925000  0.18104000
   0.33651000  0.33287000  0.12086000
   0.50180000  0.49937000  0.18123000
   0.66965000  0.33304000  0.12103000
   0.83626000  0.49963000  0.18117000
   0.16899000  0.83329000  0.18177000
   0.33582000  0.66689000  0.12095000
   0.66914000  0.66722000  0.12117000
   0.83680000  0.83220000  0.18114000
   0.00172000  0.99944000  0.24151000
   0.17257566  0.16085027  0.30256668
   0.50034210  0.16852118  0.30182279
   0.66988000  0.99924000  0.24142000
   0.83303961  0.16578288  0.30196276
   0.16896904  0.49571220  0.30017343
   0.33524000  0.33246000  0.24183000
   0.50087762  0.49639298  0.30203846
   0.66902000  0.33317000  0.24123000
   0.83357911  0.49972291  0.30256648
   0.00318000  0.66598000  0.24177000
   0.33605000  0.66588000  0.24146000
   0.50232183  0.83540828  0.30163102
   0.66918000  0.66674000  0.24131000
   0.00271000  0.99869000  0.00034000
   0.99656082  0.00000210  0.35946957
   0.16929000  0.16694000  0.06071000
   0.33657000  0.00075000  0.00067000
   0.34071759  0.00129915  0.36063075
   0.50343000  0.16520000  0.06105000
   0.66948000  0.99883000  0.00053000
   0.67120903  0.99233357  0.36291546
   0.83570000  0.16556000  0.06094000
   0.17061000  0.49746000  0.06032000
   0.50215000  0.49992000  0.06086000
   0.66930000  0.33358000  0.00050000
   0.67028780  0.33289215  0.35925094
   0.00239000  0.66441000  0.00051000
   0.00254333  0.66099093  0.35842414
   0.16894000  0.83304000  0.06062000
   0.50222000  0.83318000  0.06077000
   0.66882000  0.66655000  0.00068000
   0.66597116  0.67096956  0.36026752
   0.83620000  0.83206000  0.06086000
   0.66879000  0.99689000  0.12225000
   0.00127000  0.66476000  0.12046000
   0.50272000  0.83391000  0.18098000
   0.33662000  0.99784000  0.24172000
   0.00240000  0.33332000  0.24079000
   0.17396432  0.83061096  0.30453896
   0.83367989  0.83286494  0.30145706
   0.99962000  0.33431000  0.00199000
   0.00460281  0.33066100  0.36882503
   0.33922000  0.33072000  0.00000000
   0.83779000  0.49999000  0.06135000
   0.33524000  0.67037000  0.00023000
   0.32770230  0.67381062  0.36759233
Direct configuration=     4
   0.00245000  0.99865000  0.12117000
   0.16980000  0.16587000  0.18099000
   0.33623000  0.99852000  0.12110000
   0.50164000  0.16594000  0.18135000
   0.83615000  0.16559000  0.18099000
   0.00260000  0.33284000  0.12101000
   0.16994000  0.49925000  0.18104000
   0.33651000  0.33287000  0.12086000
   0.50180000  0.49937000  0.18123000
   0.66965000  0.33304000  0.12103000
   0.83626000  0.49963000  0.18117000
   0.16899000  0.83329000  0.18177000
   0.33582000  0.66689000  0.12095000
   0.66914000  0.66722000  0.12117000
   0.83680000  0.83220000  0.18114000
   0.00172000  0.99944000  0.24151000
   0.17218428  0.16079443  0.30257132
   0.50066361  0.16812507  0.30185427
   0.66988000  0.99924000  0.24142000
   0.83320351  0.16571384  0.30201547
   0.16863901  0.49591984  0.30024526
   0.33524000  0.33246000  0.24183000
   0.50114542  0.49682612  0.30207651
   0.66902000  0.33317000  0.24123000
   0.83364237  0.49972144  0.30256703
   0.00318000  0.66598000  0.24177000
   0.33605000  0.66588000  0.24146000
   0.50234512  0.83530782  0.30163586
   0.66918000  0.66674000  0.24131000
   0.00271000  0.99869000  0.00034000
   0.99643787 -0.00005821  0.35950024
   0.16929000  0.16694000  0.06071000
   0.33657000  0.00075000  0.00067000
   0.34104898  0.00151886  0.36061963
   0.50343000  0.16520000  0.06105000
   0.66948000  0.99883000  0.00053000
   0.67117496  0.99232441  0.36293102
   0.83570000  0.16556000  0.06094000
   0.17061000  0.49746000  0.06032000
   0.50215000  0.49992000  0.06086000
   0.66930000  0.33358000  0.00050000
   0.67003243  0.33286878  0.35923165
   0.00239000  0.66441000  0.00051000
   0.00254421  0.66095843  0.35847585
   0.16894000  0.83304000  0.06062000
   0.50222000  0.83318000  0.06077000
   0.66882000  0.66655000  0.00068000
   0.66593156  0.67109528  0.36029812
   0.83620000  0.83206000  0.06086000
   0.66879000  0.99689000  0.12225000
   0.00127000  0.66476000  0.12046000
   0.50272000  0.83391000  0.18098000
   0.33662000  0.99784000  0.24172000
   0.00240000  0.33332000  0.24079000
   0.17376698  0.83061240  0.30448219
   0.83366569  0.83289583  0.30150662
   0.99962000  0.33431000  0.00199000
   0.00466050  0.33067814  0.36873724
   0.33922000  0.33072000  0.00000000
   0.83779000  0.49999000  0.06135000
   0.33524000  0.67037000  0.00023000
   0.32799429  0.67359212  0.36754233
Direct configuration=     5
   0.00245000  0.99865000  0.12117000
   0.16980000  0.16587000  0.18099000
   0.33623000  0.99852000  0.12110000
   0.50164000  0.16594000  0.18135000
   0.83615000  0.16559000  0.18099000
   0.00260000  0.33284000  0.12101000
   0.16994000  0.49925000  0.18104000
   0.33651000  0.33287000  0.12086000
   0.50180000  0.49937000  0.18123000
   0.66965000  0.33304000  0.12103000
   0.83626000  0.49963000  0.18117000
   0.16899000  0.83329000  0.18177000
   0.33582000  0.66689000  0.12095000
   0.66914000  0.66722000  0.12117000
   0.83680000  0.83220000  0.18114000
   0.00172000  0.99944000  0.24151000
   0.17211484  0.16130154  0.30259589
   0.50027746  0.16817463  0.30216558
   0.66988000  0.99924000  0.24142000
   0.83366802  0.16563113  0.30203728
   0.16888844  0.49554215  0.30037204
   0.33524000  0.33246000  0.24183000
   0.50036138  0.49678548  0.30231978
   0.66902000  0.33317000  0.24123000
   0.83397908  0.49966773  0.30252006
   0.00318000  0.66598000  0.24177000
   0.33605000  0.66588000  0.24146000
   0.50246482  0.83521297  0.30177425
   0.66918000  0.66674000  0.24131000
   0.00271000  0.99869000  0.00034000
   0.99661093  0.00026671  0.35925451
   0.16929000  0.16694000  0.06071000
   0.33657000  0.00075000  0.00067000
   0.34052016  0.00117977  0.36070984
   0.50343000  0.16520000  0.06105000
   0.66948000  0.99883000  0.00053000
   0.67118971  0.99251186  0.36266808
   0.83570000  0.16556000  0.06094000
   0.17061000  0.49746000  0.06032000
   0.50215000  0.49992000  0.06086000
   0.66930000  0.33358000  0.00050000
   0.67048635  0.33280777  0.35930123
   0.00239000  0.66441000  0.00051000
   0.00245730  0.66100686  0.35820878
   0.16894000  0.83304000  0.06062000
   0.50222000  0.83318000  0.06077000
   0.66882000  0.66655000  0.00068000
   0.66571361  0.67060056  0.36006487
   0.83620000  0.83206000  0.06086000
   0.66879000  0.99689000  0.12225000
   0.00127000  0.66476000  0.12046000
   0.50272000  0.83391000  0.18098000
   0.33662000  0.99784000  0.24172000
   0.00240000  0.33332000  0.24079000
   0.17372581  0.83037523  0.30446464
   0.83382995  0.83302642  0.30146971
   0.99962000  0.33431000  0.00199000
   0.00463934  0.33062921  0.36890921
   0.33922000  0.33072000  0.00000000
   0.83779000  0.49999000  0.06135000
   0.33524000  0.67037000  0.00023000
   0.32754968  0.67386608  0.36764306
Direct configuration=     6
   0.00245000  0.99865000  0.12117000
   0.16980000  0.16587000  0.18099000
   0.33623000  0.99852000  0.12110000
   0.50164000  0.16594000  0.18135000
   0.83615000  0.16559000  0.18099000
   0.00260000  0.33284000  0.12101000
   0.16994000  0.49925000  0.18104000
   0.33651000  0.33287000  0.12086000
   0.50180000  0.49937000  0.18123000
   0.66965000  0.33304000  0.12103000
   0.83626000  0.49963000  0.18117000
   0.16899000  0.83329000  0.18177000
   0.33582000  0.66689000  0.12095000
   0.66914000  0.66722000  0.12117000
   0.83680000  0.83220000  0.18114000
   0.00172000  0.99944000  0.24151000
   0.17194740  0.16252420  0.30265513
   0.49934644  0.16829411  0.30291618
   0.66988000  0.99924000  0.24142000
   0.83478796  0.16543170  0.30208985
   0.16948985  0.49463155  0.30067774
   0.33524000  0.33246000  0.24183000
   0.49847102  0.49668749  0.30290632
   0.66902000  0.33317000  0.24123000
   0.83479090  0.49953825  0.30240681
   0.00318000  0.66598000  0.24177000
   0.33605000  0.66588000  0.24146000
   0.50275342  0.83498427  0.30210789
   0.66918000  0.66674000  0.24131000
   0.00271000  0.99869000  0.00034000
   0.99702818  0.00105009  0.35866204
   0.16929000  0.16694000  0.06071000
   0.33657000  0.00075000  0.00067000
   0.33924518  0.00036221  0.36092734
   0.50343000  0.16520000  0.06105000
   0.66948000  0.99883000  0.00053000
   0.67122527  0.99296381  0.36203413
   0.83570000  0.16556000  0.06094000
   0.17061000  0.49746000  0.06032000
   0.50215000  0.49992000  0.06086000
   0.66930000  0.33358000  0.00050000
   0.67158076  0.33266067  0.35946899
   0.00239000  0.66441000  0.00051000
   0.00224775  0.66112363  0.35756486
   0.16894000  0.83304000  0.06062000
   0.50222000  0.83318000  0.06077000
   0.66882000  0.66655000  0.00068000
   0.66518810  0.66940776  0.35950250
   0.83620000  0.83206000  0.06086000
   0.66879000  0.99689000  0.12225000
   0.00127000  0.66476000  0.12046000
   0.50272000  0.83391000  0.18098000
   0.33662000  0.99784000  0.24172000
   0.00240000  0.33332000  0.24079000
   0.17362653  0.82980340  0.30442235
   0.83422596  0.83334127  0.30138073
   0.99962000  0.33431000  0.00199000
   0.00458832  0.33051125  0.36932384
   0.33922000  0.33072000  0.00000000
   0.83779000  0.49999000  0.06135000
   0.33524000  0.67037000  0.00023000
   0.32647771  0.67452662  0.36788594
Direct configuration=     7
   0.00245000  0.99865000  0.12117000
   0.16980000  0.16587000  0.18099000
   0.33623000  0.99852000  0.12110000
   0.50164000  0.16594000  0.18135000
   0.83615000  0.16559000  0.18099000
   0.00260000  0.33284000  0.12101000
   0.16994000  0.49925000  0.18104000
   0.33651000  0.33287000  0.12086000
   0.50180000  0.49937000  0.18123000
   0.66965000  0.33304000  0.12103000
   0.83626000  0.49963000  0.18117000
   0.16899000  0.83329000  0.18177000
   0.33582000  0.66689000  0.12095000
   0.66914000  0.66722000  0.12117000
   0.83680000  0.83220000  0.18114000
   0.00172000  0.99944000  0.24151000
   0.17197539  0.16231982  0.30264523
   0.49950207  0.16827414  0.30279071
   0.66988000  0.99924000  0.24142000
   0.83460076  0.16546504  0.30208106
   0.16938932  0.49478376  0.30062664
   0.33524000  0.33246000  0.24183000
   0.49878702  0.49670387  0.30280827
   0.66902000  0.33317000  0.24123000
   0.83465520  0.49955989  0.30242574
   0.00318000  0.66598000  0.24177000
   0.33605000  0.66588000  0.24146000
   0.50270518  0.83502250  0.30205212
   0.66918000  0.66674000  0.24131000
   0.00271000  0.99869000  0.00034000
   0.99695843  0.00091914  0.35876108
   0.16929000  0.16694000  0.06071000
   0.33657000  0.00075000  0.00067000
   0.33945830  0.00049888  0.36089098
   0.50343000  0.16520000  0.06105000
   0.66948000  0.99883000  0.00053000
   0.67121932  0.99288826  0.36214010
   0.83570000  0.16556000  0.06094000
   0.17061000  0.49746000  0.06032000
   0.50215000  0.49992000  0.06086000
   0.66930000  0.33358000  0.00050000
   0.67139782  0.33268526  0.35944095
   0.00239000  0.66441000  0.00051000
   0.00228278  0.66110411  0.35767250
   0.16894000  0.83304000  0.06062000
   0.50222000  0.83318000  0.06077000
   0.66882000  0.66655000  0.00068000
   0.66527594  0.66960715  0.35959650
   0.83620000  0.83206000  0.06086000
   0.66879000  0.99689000  0.12225000
   0.00127000  0.66476000  0.12046000
   0.50272000  0.83391000  0.18098000
   0.33662000  0.99784000  0.24172000
   0.00240000  0.33332000  0.24079000
   0.17364313  0.82989899  0.30442942
   0.83415976  0.83328864  0.30139561
   0.99962000  0.33431000  0.00199000
   0.00459685  0.33053097  0.36925453
   0.33922000  0.33072000  0.00000000
   0.83779000  0.49999000  0.06135000
   0.33524000  0.67037000  0.00023000
   0.32665690  0.67441620  0.36784534
Direct configuration=     8
   0.00245000  0.99865000  0.12117000
   0.16980000  0.16587000  0.18099000
   0.33623000  0.99852000  0.12110000
   0.50164000  0.16594000  0.18135000
   0.83615000  0.16559000  0.18099000
   0.00260000  0.33284000  0.12101000
   0.16994000  0.49925000  0.18104000
   0.33651000  0.33287000  0.12086000
   0.50180000  0.49937000  0.18123000
   0.66965000  0.33304000  0.12103000
   0.83626000  0.49963000  0.18117000
   0.16899000  0.83329000  0.18177000
   0.33582000  0.66689000  0.12095000
   0.66914000  0.66722000  0.12117000
   0.83680000  0.83220000  0.18114000
   0.00172000  0.99944000  0.24151000
   0.17202050  0.16199042  0.30262927
   0.49975290  0.16824195  0.30258849
   0.66988000  0.99924000  0.24142000
   0.83429903  0.16551877  0.30206690
   0.16922729  0.49502909  0.30054428
   0.33524000  0.33246000  0.24183000
   0.49929630  0.49673027  0.30265025
   0.66902000  0.33317000  0.24123000
   0.83443649  0.49959478  0.30245625
   0.00318000  0.66598000  0.24177000
   0.33605000  0.66588000  0.24146000
   0.50262742  0.83508411  0.30196223
   0.66918000  0.66674000  0.24131000
   0.00271000  0.99869000  0.00034000
   0.99684602  0.00070809  0.35892070
   0.16929000  0.16694000  0.06071000
   0.33657000  0.00075000  0.00067000
   0.33980180  0.00071914  0.36083239
   0.50343000  0.16520000  0.06105000
   0.66948000  0.99883000  0.00053000
   0.67120975  0.99276650  0.36231090
   0.83570000  0.16556000  0.06094000
   0.17061000  0.49746000  0.06032000
   0.50215000  0.49992000  0.06086000
   0.66930000  0.33358000  0.00050000
   0.67110297  0.33272489  0.35939575
   0.00239000  0.66441000  0.00051000
   0.00233923  0.66107265  0.35784598
   0.16894000  0.83304000  0.06062000
   0.50222000  0.83318000  0.06077000
   0.66882000  0.66655000  0.00068000
   0.66541752  0.66992850  0.35974801
   0.83620000  0.83206000  0.06086000
   0.66879000  0.99689000  0.12225000
   0.00127000  0.66476000  0.12046000
   0.50272000  0.83391000  0.18098000
   0.33662000  0.99784000  0.24172000
   0.00240000  0.33332000  0.24079000
   0.17366987  0.83005305  0.30444081
   0.83405307  0.83320382  0.30141958
   0.99962000  0.33431000  0.00199000
   0.00461060  0.33056275  0.36914282
   0.33922000  0.33072000  0.00000000
   0.83779000  0.49999000  0.06135000
   0.33524000  0.67037000  0.00023000
   0.32694570  0.67423825  0.36777991
Direct configuration=     9
   0.00245000  0.99865000  0.12117000
   0.16980000  0.16587000  0.18099000
   0.33623000  0.99852000  0.12110000
   0.50164000  0.16594000  0.18135000
   0.83615000  0.16559000  0.18099000
   0.00260000  0.33284000  0.12101000
   0.16994000  0.49925000  0.18104000
   0.33651000  0.33287000  0.12086000
   0.50180000  0.49937000  0.18123000
   0.66965000  0.33304000  0.12103000
   0.83626000  0.49963000  0.18117000
   0.16899000  0.83329000  0.18177000
   0.33582000  0.66689000  0.12095000
   0.66914000  0.66722000  0.12117000
   0.83680000  0.83220000  0.18114000
   0.00172000  0.99944000  0.24151000
   0.17199273  0.16219318  0.30263909
   0.49959850  0.16826176  0.30271297
   0.66988000  0.99924000  0.24142000
   0.83448475  0.16548570  0.30207562
   0.16932702  0.49487808  0.30059497
   0.33524000  0.33246000  0.24183000
   0.49898281  0.49671402  0.30274752
   0.66902000  0.33317000  0.24123000
   0.83457111  0.49957331  0.30243747
   0.00318000  0.66598000  0.24177000
   0.33605000  0.66588000  0.24146000
   0.50267528  0.83504618  0.30201756
   0.66918000  0.66674000  0.24131000
   0.00271000  0.99869000  0.00034000
   0.99691521  0.00083800  0.35882245
   0.16929000  0.16694000  0.06071000
   0.33657000  0.00075000  0.00067000
   0.33959036  0.00058356  0.36086845
   0.50343000  0.16520000  0.06105000
   0.66948000  0.99883000  0.00053000
   0.67121564  0.99284145  0.36220577
   0.83570000  0.16556000  0.06094000
   0.17061000  0.49746000  0.06032000
   0.50215000  0.49992000  0.06086000
   0.66930000  0.33358000  0.00050000
   0.67128446  0.33270050  0.35942357
   0.00239000  0.66441000  0.00051000
   0.00230448  0.66109201  0.35773919
   0.16894000  0.83304000  0.06062000
   0.50222000  0.83318000  0.06077000
   0.66882000  0.66655000  0.00068000
   0.66533037  0.66973069  0.35965475
   0.83620000  0.83206000  0.06086000
   0.66879000  0.99689000  0.12225000
   0.00127000  0.66476000  0.12046000
   0.50272000  0.83391000  0.18098000
   0.33662000  0.99784000  0.24172000
   0.00240000  0.33332000  0.24079000
   0.17365341  0.82995822  0.30443380
   0.83411875  0.83325603  0.30140482
   0.99962000  0.33431000  0.00199000
   0.00460214  0.33054319  0.36921158
   0.33922000  0.33072000  0.00000000
   0.83779000  0.49999000  0.06135000
   0.33524000  0.67037000  0.00023000
   0.32676793  0.67434779  0.36782019
Direct configuration=    10
   0.00245000  0.99865000  0.12117000
   0.16980000  0.16587000  0.18099000
   0.33623000  0.99852000  0.12110000
   0.50164000  0.16594000  0.18135000
   0.83615000  0.16559000  0.18099000
   0.00260000  0.33284000  0.12101000
   0.16994000  0.49925000  0.18104000
   0.33651000  0.33287000  0.12086000
   0.50180000  0.49937000  0.18123000
   0.66965000  0.33304000  0.12103000
   0.83626000  0.49963000  0.18117000
   0.16899000  0.83329000  0.18177000
   0.33582000  0.66689000  0.12095000
   0.66914000  0.66722000  0.12117000
   0.83680000  0.83220000  0.18114000
   0.00172000  0.99944000  0.24151000
   0.17198490  0.16225037  0.30264186
   0.49955495  0.16826735  0.30274808
   0.66988000  0.99924000  0.24142000
   0.83453714  0.16547637  0.30207807
   0.16935516  0.49483548  0.30060927
   0.33524000  0.33246000  0.24183000
   0.49889439  0.49670943  0.30277496
   0.66902000  0.33317000  0.24123000
   0.83460909  0.49956725  0.30243217
   0.00318000  0.66598000  0.24177000
   0.33605000  0.66588000  0.24146000
   0.50268878  0.83503549  0.30203317
   0.66918000  0.66674000  0.24131000
   0.00271000  0.99869000  0.00034000
   0.99693473  0.00087465  0.35879473
   0.16929000  0.16694000  0.06071000
   0.33657000  0.00075000  0.00067000
   0.33953072  0.00054531  0.36087863
   0.50343000  0.16520000  0.06105000
   0.66948000  0.99883000  0.00053000
   0.67121731  0.99286259  0.36217611
   0.83570000  0.16556000  0.06094000
   0.17061000  0.49746000  0.06032000
   0.50215000  0.49992000  0.06086000
   0.66930000  0.33358000  0.00050000
   0.67133566  0.33269362  0.35943142
   0.00239000  0.66441000  0.00051000
   0.00229468  0.66109748  0.35770907
   0.16894000  0.83304000  0.06062000
   0.50222000  0.83318000  0.06077000
   0.66882000  0.66655000  0.00068000
   0.66530579  0.66967490  0.35962845
   0.83620000  0.83206000  0.06086000
   0.66879000  0.99689000  0.12225000
   0.00127000  0.66476000  0.12046000
   0.50272000  0.83391000  0.18098000
   0.33662000  0.99784000  0.24172000
   0.00240000  0.33332000  0.24079000
   0.17364876  0.82993147  0.30443182
   0.83413727  0.83327076  0.30140066
   0.99962000  0.33431000  0.00199000
   0.00459975  0.33053767  0.36923098
   0.33922000  0.33072000  0.00000000
   0.83779000  0.49999000  0.06135000
   0.33524000  0.67037000  0.00023000
   0.32671779  0.67437868  0.36783155
Direct configuration=    11
   0.00245000  0.99865000  0.12117000
   0.16980000  0.16587000  0.18099000
   0.33623000  0.99852000  0.12110000
   0.50164000  0.16594000  0.18135000
   0.83615000  0.16559000  0.18099000
   0.00260000  0.33284000  0.12101000
   0.16994000  0.49925000  0.18104000
   0.33651000  0.33287000  0.12086000
   0.50180000  0.49937000  0.18123000
   0.66965000  0.33304000  0.12103000
   0.83626000  0.49963000  0.18117000
   0.16899000  0.83329000  0.18177000
   0.33582000  0.66689000  0.12095000
   0.66914000  0.66722000  0.12117000
   0.83680000  0.83220000  0.18114000
   0.00172000  0.99944000  0.24151000
   0.17176052  0.16252675  0.30264823
   0.49996949  0.16794111  0.30288993
   0.66988000  0.99924000  0.24142000
   0.83442195  0.16605789  0.30199123
   0.16938877  0.49465903  0.30078202
   0.33524000  0.33246000  0.24183000
   0.49893336  0.49678120  0.30295335
   0.66902000  0.33317000  0.24123000
   0.83443406  0.49893985  0.30228993
   0.00318000  0.66598000  0.24177000
   0.33605000  0.66588000  0.24146000
   0.50222854  0.83497829  0.30197380
   0.66918000  0.66674000  0.24131000
   0.00271000  0.99869000  0.00034000
   0.99740854  0.00112731  0.35874501
   0.16929000  0.16694000  0.06071000
   0.33657000  0.00075000  0.00067000
   0.33892429  0.00029302  0.36098135
   0.50343000  0.16520000  0.06105000
   0.66948000  0.99883000  0.00053000
   0.67111614  0.99338057  0.36198133
   0.83570000  0.16556000  0.06094000
   0.17061000  0.49746000  0.06032000
   0.50215000  0.49992000  0.06086000
   0.66930000  0.33358000  0.00050000
   0.67181733  0.33269618  0.35945442
   0.00239000  0.66441000  0.00051000
   0.00233904  0.66114068  0.35768022
   0.16894000  0.83304000  0.06062000
   0.50222000  0.83318000  0.06077000
   0.66882000  0.66655000  0.00068000
   0.66492197  0.66887399  0.35952254
   0.83620000  0.83206000  0.06086000
   0.66879000  0.99689000  0.12225000
   0.00127000  0.66476000  0.12046000
   0.50272000  0.83391000  0.18098000
   0.33662000  0.99784000  0.24172000
   0.00240000  0.33332000  0.24079000
   0.17379434  0.82999211  0.30426844
   0.83406452  0.83326186  0.30129793
   0.99962000  0.33431000  0.00199000
   0.00461513  0.33069743  0.36941612
   0.33922000  0.33072000  0.00000000
   0.83779000  0.49999000  0.06135000
   0.33524000  0.67037000  0.00023000
   0.32635894  0.67445723  0.36800334
Direct configuration=    12
   0.00245000  0.99865000  0.12117000
   0.16980000  0.16587000  0.18099000
   0.33623000  0.99852000  0.12110000
   0.50164000  0.16594000  0.18135000
   0.83615000  0.16559000  0.18099000
   0.00260000  0.33284000  0.12101000
   0.16994000  0.49925000  0.18104000
   0.33651000  0.33287000  0.12086000
   0.50180000  0.49937000  0.18123000
   0.66965000  0.33304000  0.12103000
   0.83626000  0.49963000  0.18117000
   0.16899000  0.83329000  0.18177000
   0.33582000  0.66689000  0.12095000
   0.66914000  0.66722000  0.12117000
   0.83680000  0.83220000  0.18114000
   0.00172000  0.99944000  0.24151000
   0.17152935  0.16281148  0.30265479
   0.50039658  0.16760498  0.30303607
   0.66988000  0.99924000  0.24142000
   0.83430326  0.16665702  0.30190177
   0.16942340  0.49447723  0.30096000
   0.33524000  0.33246000  0.24183000
   0.49897351  0.49685514  0.30313714
   0.66902000  0.33317000  0.24123000
   0.83425373  0.49829347  0.30214338
   0.00318000  0.66598000  0.24177000
   0.33605000  0.66588000  0.24146000
   0.50175436  0.83491936  0.30191264
   0.66918000  0.66674000  0.24131000
   0.00271000  0.99869000  0.00034000
   0.99789669  0.00138761  0.35869378
   0.16929000  0.16694000  0.06071000
   0.33657000  0.00075000  0.00067000
   0.33829951  0.00003310  0.36108718
   0.50343000  0.16520000  0.06105000
   0.66948000  0.99883000  0.00053000
   0.67101192  0.99391423  0.36178065
   0.83570000  0.16556000  0.06094000
   0.17061000  0.49746000  0.06032000
   0.50215000  0.49992000  0.06086000
   0.66930000  0.33358000  0.00050000
   0.67231357  0.33269883  0.35947812
   0.00239000  0.66441000  0.00051000
   0.00238474  0.66118519  0.35765048
   0.16894000  0.83304000  0.06062000
   0.50222000  0.83318000  0.06077000
   0.66882000  0.66655000  0.00068000
   0.66452652  0.66804884  0.35941343
   0.83620000  0.83206000  0.06086000
   0.66879000  0.99689000  0.12225000
   0.00127000  0.66476000  0.12046000
   0.50272000  0.83391000  0.18098000
   0.33662000  0.99784000  0.24172000
   0.00240000  0.33332000  0.24079000
   0.17394433  0.83005458  0.30410012
   0.83398956  0.83325270  0.30119208
   0.99962000  0.33431000  0.00199000
   0.00463099  0.33086203  0.36960686
   0.33922000  0.33072000  0.00000000
   0.83779000  0.49999000  0.06135000
   0.33524000  0.67037000  0.00023000
   0.32598922  0.67453815  0.36818032
Direct configuration=    13
   0.00245000  0.99865000  0.12117000
   0.16980000  0.16587000  0.18099000
   0.33623000  0.99852000  0.12110000
   0.50164000  0.16594000  0.18135000
   0.83615000  0.16559000  0.18099000
   0.00260000  0.33284000  0.12101000
   0.16994000  0.49925000  0.18104000
   0.33651000  0.33287000  0.12086000
   0.50180000  0.49937000  0.18123000
   0.66965000  0.33304000  0.12103000
   0.83626000  0.49963000  0.18117000
   0.16899000  0.83329000  0.18177000
   0.33582000  0.66689000  0.12095000
   0.66914000  0.66722000  0.12117000
   0.83680000  0.83220000  0.18114000
   0.00172000  0.99944000  0.24151000
   0.17158144  0.16274731  0.30265331
   0.50030033  0.16768073  0.30300313
   0.66988000  0.99924000  0.24142000
   0.83433001  0.16652200  0.30192193
   0.16941560  0.49451820  0.30091989
   0.33524000  0.33246000  0.24183000
   0.49896446  0.49683848  0.30309572
   0.66902000  0.33317000  0.24123000
   0.83429437  0.49843913  0.30217641
   0.00318000  0.66598000  0.24177000
   0.33605000  0.66588000  0.24146000
   0.50186122  0.83493264  0.30192642
   0.66918000  0.66674000  0.24131000
   0.00271000  0.99869000  0.00034000
   0.99778668  0.00132895  0.35870533
   0.16929000  0.16694000  0.06071000
   0.33657000  0.00075000  0.00067000
   0.33844030  0.00009167  0.36106333
   0.50343000  0.16520000  0.06105000
   0.66948000  0.99883000  0.00053000
   0.67103541  0.99379397  0.36182587
   0.83570000  0.16556000  0.06094000
   0.17061000  0.49746000  0.06032000
   0.50215000  0.49992000  0.06086000
   0.66930000  0.33358000  0.00050000
   0.67220174  0.33269823  0.35947278
   0.00239000  0.66441000  0.00051000
   0.00237444  0.66117516  0.35765718
   0.16894000  0.83304000  0.06062000
   0.50222000  0.83318000  0.06077000
   0.66882000  0.66655000  0.00068000
   0.66461564  0.66823479  0.35943802
   0.83620000  0.83206000  0.06086000
   0.66879000  0.99689000  0.12225000
   0.00127000  0.66476000  0.12046000
   0.50272000  0.83391000  0.18098000
   0.33662000  0.99784000  0.24172000
   0.00240000  0.33332000  0.24079000
   0.17391053  0.83004051  0.30413806
   0.83400645  0.83325477  0.30121593
   0.99962000  0.33431000  0.00199000
   0.00462741  0.33082494  0.36956388
   0.33922000  0.33072000  0.00000000
   0.83779000  0.49999000  0.06135000
   0.33524000  0.67037000  0.00023000
   0.32607254  0.67451991  0.36814044
Direct configuration=    14
   0.00245000  0.99865000  0.12117000
   0.16980000  0.16587000  0.18099000
   0.33623000  0.99852000  0.12110000
   0.50164000  0.16594000  0.18135000
   0.83615000  0.16559000  0.18099000
   0.00260000  0.33284000  0.12101000
   0.16994000  0.49925000  0.18104000
   0.33651000  0.33287000  0.12086000
   0.50180000  0.49937000  0.18123000
   0.66965000  0.33304000  0.12103000
   0.83626000  0.49963000  0.18117000
   0.16899000  0.83329000  0.18177000
   0.33582000  0.66689000  0.12095000
   0.66914000  0.66722000  0.12117000
   0.83680000  0.83220000  0.18114000
   0.00172000  0.99944000  0.24151000
   0.17167098  0.16263703  0.30265077
   0.50013491  0.16781092  0.30294653
   0.66988000  0.99924000  0.24142000
   0.83437598  0.16628995  0.30195658
   0.16940219  0.49458861  0.30085096
   0.33524000  0.33246000  0.24183000
   0.49894891  0.49680984  0.30302453
   0.66902000  0.33317000  0.24123000
   0.83436421  0.49868949  0.30223317
   0.00318000  0.66598000  0.24177000
   0.33605000  0.66588000  0.24146000
   0.50204488  0.83495547  0.30195011
   0.66918000  0.66674000  0.24131000
   0.00271000  0.99869000  0.00034000
   0.99759761  0.00122813  0.35872517
   0.16929000  0.16694000  0.06071000
   0.33657000  0.00075000  0.00067000
   0.33868230  0.00019235  0.36102234
   0.50343000  0.16520000  0.06105000
   0.66948000  0.99883000  0.00053000
   0.67107577  0.99358727  0.36190360
   0.83570000  0.16556000  0.06094000
   0.17061000  0.49746000  0.06032000
   0.50215000  0.49992000  0.06086000
   0.66930000  0.33358000  0.00050000
   0.67200953  0.33269721  0.35946360
   0.00239000  0.66441000  0.00051000
   0.00235674  0.66115792  0.35766870
   0.16894000  0.83304000  0.06062000
   0.50222000  0.83318000  0.06077000
   0.66882000  0.66655000  0.00068000
   0.66476880  0.66855439  0.35948028
   0.83620000  0.83206000  0.06086000
   0.66879000  0.99689000  0.12225000
   0.00127000  0.66476000  0.12046000
   0.50272000  0.83391000  0.18098000
   0.33662000  0.99784000  0.24172000
   0.00240000  0.33332000  0.24079000
   0.17385244  0.83001631  0.30420325
   0.83403549  0.83325832  0.30125693
   0.99962000  0.33431000  0.00199000
   0.00462127  0.33076119  0.36949000
   0.33922000  0.33072000  0.00000000
   0.83779000  0.49999000  0.06135000
   0.33524000  0.67037000  0.00023000
   0.32621574  0.67448857  0.36807189
Direct configuration=    15
   0.00245000  0.99865000  0.12117000
   0.16980000  0.16587000  0.18099000
   0.33623000  0.99852000  0.12110000
   0.50164000  0.16594000  0.18135000
   0.83615000  0.16559000  0.18099000
   0.00260000  0.33284000  0.12101000
   0.16994000  0.49925000  0.18104000
   0.33651000  0.33287000  0.12086000
   0.50180000  0.49937000  0.18123000
   0.66965000  0.33304000  0.12103000
   0.83626000  0.49963000  0.18117000
   0.16899000  0.83329000  0.18177000
   0.33582000  0.66689000  0.12095000
   0.66914000  0.66722000  0.12117000
   0.83680000  0.83220000  0.18114000
   0.00172000  0.99944000  0.24151000
   0.17166481  0.16265460  0.30265228
   0.50024331  0.16768524  0.30287321
   0.66988000  0.99924000  0.24142000
   0.83448836  0.16618320  0.30194455
   0.16931487  0.49471991  0.30084047
   0.33524000  0.33246000  0.24183000
   0.49911114  0.49674571  0.30295825
   0.66902000  0.33317000  0.24123000
   0.83450577  0.49888332  0.30224616
   0.00318000  0.66598000  0.24177000
   0.33605000  0.66588000  0.24146000
   0.50198035  0.83493992  0.30196782
   0.66918000  0.66674000  0.24131000
   0.00271000  0.99869000  0.00034000
   0.99785084  0.00128826  0.35872809
   0.16929000  0.16694000  0.06071000
   0.33657000  0.00075000  0.00067000
   0.33838468  0.00014140  0.36100886
   0.50343000  0.16520000  0.06105000
   0.66948000  0.99883000  0.00053000
   0.67092814  0.99405675  0.36180025
   0.83570000  0.16556000  0.06094000
   0.17061000  0.49746000  0.06032000
   0.50215000  0.49992000  0.06086000
   0.66930000  0.33358000  0.00050000
   0.67214547  0.33269027  0.35956667
   0.00239000  0.66441000  0.00051000
   0.00222439  0.66113716  0.35768531
   0.16894000  0.83304000  0.06062000
   0.50222000  0.83318000  0.06077000
   0.66882000  0.66655000  0.00068000
   0.66456083  0.66815197  0.35945468
   0.83620000  0.83206000  0.06086000
   0.66879000  0.99689000  0.12225000
   0.00127000  0.66476000  0.12046000
   0.50272000  0.83391000  0.18098000
   0.33662000  0.99784000  0.24172000
   0.00240000  0.33332000  0.24079000
   0.17375922  0.83014559  0.30413820
   0.83388499  0.83316775  0.30128197
   0.99962000  0.33431000  0.00199000
   0.00461945  0.33092106  0.36960881
   0.33922000  0.33072000  0.00000000
   0.83779000  0.49999000  0.06135000
   0.33524000  0.67037000  0.00023000
   0.32611131  0.67437954  0.36819206
Direct configuration=    16
   0.00245000  0.99865000  0.12117000
   0.16980000  0.16587000  0.18099000
   0.33623000  0.99852000  0.12110000
   0.50164000  0.16594000  0.18135000
   0.83615000  0.16559000  0.18099000
   0.00260000  0.33284000  0.12101000
   0.16994000  0.49925000  0.18104000
   0.33651000  0.33287000  0.12086000
   0.50180000  0.49937000  0.18123000
   0.66965000  0.33304000  0.12103000
   0.83626000  0.49963000  0.18117000
   0.16899000  0.83329000  0.18177000
   0.33582000  0.66689000  0.12095000
   0.66914000  0.66722000  0.12117000
   0.83680000  0.83220000  0.18114000
   0.00172000  0.99944000  0.24151000
   0.17165318  0.16268777  0.30265514
   0.50044786  0.16744807  0.30273485
   0.66988000  0.99924000  0.24142000
   0.83470043  0.16598177  0.30192183
   0.16915011  0.49496767  0.30082067
   0.33524000  0.33246000  0.24183000
   0.49941727  0.49662470  0.30283318
   0.66902000  0.33317000  0.24123000
   0.83477289  0.49924907  0.30227068
   0.00318000  0.66598000  0.24177000
   0.33605000  0.66588000  0.24146000
   0.50185859  0.83491059  0.30200123
   0.66918000  0.66674000  0.24131000
   0.00271000  0.99869000  0.00034000
   0.99832870  0.00140174  0.35873360
   0.16929000  0.16694000  0.06071000
   0.33657000  0.00075000  0.00067000
   0.33782305  0.00004527  0.36098343
   0.50343000  0.16520000  0.06105000
   0.66948000  0.99883000  0.00053000
   0.67064955  0.99494269  0.36160523
   0.83570000  0.16556000  0.06094000
   0.17061000  0.49746000  0.06032000
   0.50215000  0.49992000  0.06086000
   0.66930000  0.33358000  0.00050000
   0.67240199  0.33267719  0.35976116
   0.00239000  0.66441000  0.00051000
   0.00197464  0.66109800  0.35771666
   0.16894000  0.83304000  0.06062000
   0.50222000  0.83318000  0.06077000
   0.66882000  0.66655000  0.00068000
   0.66416837  0.66739258  0.35940636
   0.83620000  0.83206000  0.06086000
   0.66879000  0.99689000  0.12225000
   0.00127000  0.66476000  0.12046000
   0.50272000  0.83391000  0.18098000
   0.33662000  0.99784000  0.24172000
   0.00240000  0.33332000  0.24079000
   0.17358333  0.83038956  0.30401546
   0.83360100  0.83299685  0.30132921
   0.99962000  0.33431000  0.00199000
   0.00461601  0.33122276  0.36983302
   0.33922000  0.33072000  0.00000000
   0.83779000  0.49999000  0.06135000
   0.33524000  0.67037000  0.00023000
   0.32591424  0.67417380  0.36841882
Direct configuration=    17
   0.00245000  0.99865000  0.12117000
   0.16980000  0.16587000  0.18099000
   0.33623000  0.99852000  0.12110000
   0.50164000  0.16594000  0.18135000
   0.83615000  0.16559000  0.18099000
   0.00260000  0.33284000  0.12101000
   0.16994000  0.49925000  0.18104000
   0.33651000  0.33287000  0.12086000
   0.50180000  0.49937000  0.18123000
   0.66965000  0.33304000  0.12103000
   0.83626000  0.49963000  0.18117000
   0.16899000  0.83329000  0.18177000
   0.33582000  0.66689000  0.12095000
   0.66914000  0.66722000  0.12117000
   0.83680000  0.83220000  0.18114000
   0.00172000  0.99944000  0.24151000
   0.17165632  0.16267882  0.30265437
   0.50039265  0.16751208  0.30277219
   0.66988000  0.99924000  0.24142000
   0.83464319  0.16603613  0.30192796
   0.16919458  0.49490080  0.30082601
   0.33524000  0.33246000  0.24183000
   0.49933465  0.49665736  0.30286693
   0.66902000  0.33317000  0.24123000
   0.83470079  0.49915035  0.30226407
   0.00318000  0.66598000  0.24177000
   0.33605000  0.66588000  0.24146000
   0.50189146  0.83491850  0.30199221
   0.66918000  0.66674000  0.24131000
   0.00271000  0.99869000  0.00034000
   0.99819973  0.00137112  0.35873211
   0.16929000  0.16694000  0.06071000
   0.33657000  0.00075000  0.00067000
   0.33797463  0.00007121  0.36099029
   0.50343000  0.16520000  0.06105000
   0.66948000  0.99883000  0.00053000
   0.67072474  0.99470358  0.36165787
   0.83570000  0.16556000  0.06094000
   0.17061000  0.49746000  0.06032000
   0.50215000  0.49992000  0.06086000
   0.66930000  0.33358000  0.00050000
   0.67233276  0.33268072  0.35970867
   0.00239000  0.66441000  0.00051000
   0.00204205  0.66110857  0.35770820
   0.16894000  0.83304000  0.06062000
   0.50222000  0.83318000  0.06077000
   0.66882000  0.66655000  0.00068000
   0.66427429  0.66759754  0.35941940
   0.83620000  0.83206000  0.06086000
   0.66879000  0.99689000  0.12225000
   0.00127000  0.66476000  0.12046000
   0.50272000  0.83391000  0.18098000
   0.33662000  0.99784000  0.24172000
   0.00240000  0.33332000  0.24079000
   0.17363080  0.83032372  0.30404859
   0.83367765  0.83304298  0.30131646
   0.99962000  0.33431000  0.00199000
   0.00461694  0.33114133  0.36977251
   0.33922000  0.33072000  0.00000000
   0.83779000  0.49999000  0.06135000
   0.33524000  0.67037000  0.00023000
   0.32596743  0.67422933  0.36835762
Direct configuration=    18
   0.00245000  0.99865000  0.12117000
   0.16980000  0.16587000  0.18099000
   0.33623000  0.99852000  0.12110000
   0.50164000  0.16594000  0.18135000
   0.83615000  0.16559000  0.18099000
   0.00260000  0.33284000  0.12101000
   0.16994000  0.49925000  0.18104000
   0.33651000  0.33287000  0.12086000
   0.50180000  0.49937000  0.18123000
   0.66965000  0.33304000  0.12103000
   0.83626000  0.49963000  0.18117000
   0.16899000  0.83329000  0.18177000
   0.33582000  0.66689000  0.12095000
   0.66914000  0.66722000  0.12117000
   0.83680000  0.83220000  0.18114000
   0.00172000  0.99944000  0.24151000
   0.17163075  0.16282730  0.30265655
   0.50038975  0.16754193  0.30278620
   0.66988000  0.99924000  0.24142000
   0.83475514  0.16614451  0.30197130
   0.16911457  0.49497722  0.30080157
   0.33524000  0.33246000  0.24183000
   0.49938535  0.49656327  0.30285589
   0.66902000  0.33317000  0.24123000
   0.83467950  0.49903133  0.30229832
   0.00318000  0.66598000  0.24177000
   0.33605000  0.66588000  0.24146000
   0.50185623  0.83484709  0.30204275
   0.66918000  0.66674000  0.24131000
   0.00271000  0.99869000  0.00034000
   0.99848966  0.00134425  0.35873866
   0.16929000  0.16694000  0.06071000
   0.33657000  0.00075000  0.00067000
   0.33777312  0.00003107  0.36094290
   0.50343000  0.16520000  0.06105000
   0.66948000  0.99883000  0.00053000
   0.67050727  0.99530268  0.36156695
   0.83570000  0.16556000  0.06094000
   0.17061000  0.49746000  0.06032000
   0.50215000  0.49992000  0.06086000
   0.66930000  0.33358000  0.00050000
   0.67245714  0.33264695  0.35972076
   0.00239000  0.66441000  0.00051000
   0.00196924  0.66121461  0.35774673
   0.16894000  0.83304000  0.06062000
   0.50222000  0.83318000  0.06077000
   0.66882000  0.66655000  0.00068000
   0.66406431  0.66723202  0.35941344
   0.83620000  0.83206000  0.06086000
   0.66879000  0.99689000  0.12225000
   0.00127000  0.66476000  0.12046000
   0.50272000  0.83391000  0.18098000
   0.33662000  0.99784000  0.24172000
   0.00240000  0.33332000  0.24079000
   0.17351425  0.83034815  0.30401399
   0.83359102  0.83303660  0.30134502
   0.99962000  0.33431000  0.00199000
   0.00465582  0.33127281  0.36986081
   0.33922000  0.33072000  0.00000000
   0.83779000  0.49999000  0.06135000
   0.33524000  0.67037000  0.00023000
   0.32589174  0.67403938  0.36844301
Direct configuration=    19
   0.00245000  0.99865000  0.12117000
   0.16980000  0.16587000  0.18099000
   0.33623000  0.99852000  0.12110000
   0.50164000  0.16594000  0.18135000
   0.83615000  0.16559000  0.18099000
   0.00260000  0.33284000  0.12101000
   0.16994000  0.49925000  0.18104000
   0.33651000  0.33287000  0.12086000
   0.50180000  0.49937000  0.18123000
   0.66965000  0.33304000  0.12103000
   0.83626000  0.49963000  0.18117000
   0.16899000  0.83329000  0.18177000
   0.33582000  0.66689000  0.12095000
   0.66914000  0.66722000  0.12117000
   0.83680000  0.83220000  0.18114000
   0.00172000  0.99944000  0.24151000
   0.17155405  0.16327276  0.30266308
   0.50038106  0.16763146  0.30282824
   0.66988000  0.99924000  0.24142000
   0.83509096  0.16646965  0.30210130
   0.16887456  0.49520647  0.30072825
   0.33524000  0.33246000  0.24183000
   0.49953744  0.49628098  0.30282277
   0.66902000  0.33317000  0.24123000
   0.83461564  0.49867424  0.30240110
   0.00318000  0.66598000  0.24177000
   0.33605000  0.66588000  0.24146000
   0.50175057  0.83463285  0.30219435
   0.66918000  0.66674000  0.24131000
   0.00271000  0.99869000  0.00034000
   0.99935947  0.00126366  0.35875830
   0.16929000  0.16694000  0.06071000
   0.33657000  0.00075000  0.00067000
   0.33716860 -0.00008936  0.36080072
   0.50343000  0.16520000  0.06105000
   0.66948000  0.99883000  0.00053000
   0.66985489  0.99709999  0.36129422
   0.83570000  0.16556000  0.06094000
   0.17061000  0.49746000  0.06032000
   0.50215000  0.49992000  0.06086000
   0.66930000  0.33358000  0.00050000
   0.67283028  0.33254564  0.35975704
   0.00239000  0.66441000  0.00051000
   0.00175082  0.66153273  0.35786232
   0.16894000  0.83304000  0.06062000
   0.50222000  0.83318000  0.06077000
   0.66882000  0.66655000  0.00068000
   0.66343436  0.66613548  0.35939556
   0.83620000  0.83206000  0.06086000
   0.66879000  0.99689000  0.12225000
   0.00127000  0.66476000  0.12046000
   0.50272000  0.83391000  0.18098000
   0.33662000  0.99784000  0.24172000
   0.00240000  0.33332000  0.24079000
   0.17316460  0.83042146  0.30391018
   0.83333114  0.83301746  0.30143070
   0.99962000  0.33431000  0.00199000
   0.00477247  0.33166725  0.37012569
   0.33922000  0.33072000  0.00000000
   0.83779000  0.49999000  0.06135000
   0.33524000  0.67037000  0.00023000
   0.32566467  0.67346953  0.36869920
Direct configuration=    20
   0.00245000  0.99865000  0.12117000
   0.16980000  0.16587000  0.18099000
   0.33623000  0.99852000  0.12110000
   0.50164000  0.16594000  0.18135000
   0.83615000  0.16559000  0.18099000
   0.00260000  0.33284000  0.12101000
   0.16994000  0.49925000  0.18104000
   0.33651000  0.33287000  0.12086000
   0.50180000  0.49937000  0.18123000
   0.66965000  0.33304000  0.12103000
   0.83626000  0.49963000  0.18117000
   0.16899000  0.83329000  0.18177000
   0.33582000  0.66689000  0.12095000
   0.66914000  0.66722000  0.12117000
   0.83680000  0.83220000  0.18114000
   0.00172000  0.99944000  0.24151000
   0.17149053  0.16356395  0.30264292
   0.50020091  0.16778301  0.30289655
   0.66988000  0.99924000  0.24142000
   0.83525500  0.16645500  0.30210185
   0.16878787  0.49515083  0.30074187
   0.33524000  0.33246000  0.24183000
   0.49923068  0.49623906  0.30287956
   0.66902000  0.33317000  0.24123000
   0.83461418  0.49868346  0.30239127
   0.00318000  0.66598000  0.24177000
   0.33605000  0.66588000  0.24146000
   0.50175986  0.83456165  0.30221956
   0.66918000  0.66674000  0.24131000
   0.00271000  0.99869000  0.00034000
   0.99978198  0.00113003  0.35874741
   0.16929000  0.16694000  0.06071000
   0.33657000  0.00075000  0.00067000
   0.33704691 -0.00030608  0.36077465
   0.50343000  0.16520000  0.06105000
   0.66948000  0.99883000  0.00053000
   0.66941771  0.99813857  0.36123847
   0.83570000  0.16556000  0.06094000
   0.17061000  0.49746000  0.06032000
   0.50215000  0.49992000  0.06086000
   0.66930000  0.33358000  0.00050000
   0.67288997  0.33248884  0.35980856
   0.00239000  0.66441000  0.00051000
   0.00166110  0.66172316  0.35786553
   0.16894000  0.83304000  0.06062000
   0.50222000  0.83318000  0.06077000
   0.66882000  0.66655000  0.00068000
   0.66332845  0.66574123  0.35941472
   0.83620000  0.83206000  0.06086000
   0.66879000  0.99689000  0.12225000
   0.00127000  0.66476000  0.12046000
   0.50272000  0.83391000  0.18098000
   0.33662000  0.99784000  0.24172000
   0.00240000  0.33332000  0.24079000
   0.17314960  0.83025957  0.30391830
   0.83326440  0.83309051  0.30147890
   0.99962000  0.33431000  0.00199000
   0.00501120  0.33182834  0.37021722
   0.33922000  0.33072000  0.00000000
   0.83779000  0.49999000  0.06135000
   0.33524000  0.67037000  0.00023000
   0.32556561  0.67317526  0.36871373
Direct configuration=    21
   0.00245000  0.99865000  0.12117000
   0.16980000  0.16587000  0.18099000
   0.33623000  0.99852000  0.12110000
   0.50164000  0.16594000  0.18135000
   0.83615000  0.16559000  0.18099000
   0.00260000  0.33284000  0.12101000
   0.16994000  0.49925000  0.18104000
   0.33651000  0.33287000  0.12086000
   0.50180000  0.49937000  0.18123000
   0.66965000  0.33304000  0.12103000
   0.83626000  0.49963000  0.18117000
   0.16899000  0.83329000  0.18177000
   0.33582000  0.66689000  0.12095000
   0.66914000  0.66722000  0.12117000
   0.83680000  0.83220000  0.18114000
   0.00172000  0.99944000  0.24151000
   0.17130779  0.16440173  0.30258489
   0.49968257  0.16821903  0.30309307
   0.66988000  0.99924000  0.24142000
   0.83572695  0.16641283  0.30210342
   0.16853847  0.49499076  0.30078105
   0.33524000  0.33246000  0.24183000
   0.49834808  0.49611846  0.30304293
   0.66902000  0.33317000  0.24123000
   0.83460997  0.49870997  0.30236297
   0.00318000  0.66598000  0.24177000
   0.33605000  0.66588000  0.24146000
   0.50178661  0.83435679  0.30229210
   0.66918000  0.66674000  0.24131000
   0.00271000  0.99869000  0.00034000
   0.00099759  0.00074557  0.35871610
   0.16929000  0.16694000  0.06071000
   0.33657000  0.00075000  0.00067000
   0.33669677 -0.00092962  0.36069964
   0.50343000  0.16520000  0.06105000
   0.66948000  0.99883000  0.00053000
   0.66815989  0.00112672  0.36107804
   0.83570000  0.16556000  0.06094000
   0.17061000  0.49746000  0.06032000
   0.50215000  0.49992000  0.06086000
   0.66930000  0.33358000  0.00050000
   0.67306170  0.33232544  0.35995681
   0.00239000  0.66441000  0.00051000
   0.00140294  0.66227106  0.35787476
   0.16894000  0.83304000  0.06062000
   0.50222000  0.83318000  0.06077000
   0.66882000  0.66655000  0.00068000
   0.66302372  0.66460690  0.35946985
   0.83620000  0.83206000  0.06086000
   0.66879000  0.99689000  0.12225000
   0.00127000  0.66476000  0.12046000
   0.50272000  0.83391000  0.18098000
   0.33662000  0.99784000  0.24172000
   0.00240000  0.33332000  0.24079000
   0.17310643  0.82979380  0.30394166
   0.83307235  0.83330068  0.30161759
   0.99962000  0.33431000  0.00199000
   0.00569809  0.33229182  0.37048055
   0.33922000  0.33072000  0.00000000
   0.83779000  0.49999000  0.06135000
   0.33524000  0.67037000  0.00023000
   0.32528062  0.67232860  0.36875554
Direct configuration=    22
   0.00245000  0.99865000  0.12117000
   0.16980000  0.16587000  0.18099000
   0.33623000  0.99852000  0.12110000
   0.50164000  0.16594000  0.18135000
   0.83615000  0.16559000  0.18099000
   0.00260000  0.33284000  0.12101000
   0.16994000  0.49925000  0.18104000
   0.33651000  0.33287000  0.12086000
   0.50180000  0.49937000  0.18123000
   0.66965000  0.33304000  0.12103000
   0.83626000  0.49963000  0.18117000
   0.16899000  0.83329000  0.18177000
   0.33582000  0.66689000  0.12095000
   0.66914000  0.66722000  0.12117000
   0.83680000  0.83220000  0.18114000
   0.00172000  0.99944000  0.24151000
   0.17137732  0.16436356  0.30258725
   0.49960815  0.16834613  0.30309825
   0.66988000  0.99924000  0.24142000
   0.83576316  0.16640104  0.30211887
   0.16861469  0.49489693  0.30078823
   0.33524000  0.33246000  0.24183000
   0.49825990  0.49605473  0.30306862
   0.66902000  0.33317000  0.24123000
   0.83457535  0.49877405  0.30237159
   0.00318000  0.66598000  0.24177000
   0.33605000  0.66588000  0.24146000
   0.50189371  0.83434101  0.30230848
   0.66918000  0.66674000  0.24131000
   0.00271000  0.99869000  0.00034000
   0.00144737  0.00058041  0.35867090
   0.16929000  0.16694000  0.06071000
   0.33657000  0.00075000  0.00067000
   0.33667301 -0.00137583  0.36074078
   0.50343000  0.16520000  0.06105000
   0.66948000  0.99883000  0.00053000
   0.66752949  0.00239920  0.36107064
   0.83570000  0.16556000  0.06094000
   0.17061000  0.49746000  0.06032000
   0.50215000  0.49992000  0.06086000
   0.66930000  0.33358000  0.00050000
   0.67317575  0.33228107  0.36004303
   0.00239000  0.66441000  0.00051000
   0.00127259  0.66236742  0.35784401
   0.16894000  0.83304000  0.06062000
   0.50222000  0.83318000  0.06077000
   0.66882000  0.66655000  0.00068000
   0.66304802  0.66431875  0.35945573
   0.83620000  0.83206000  0.06086000
   0.66879000  0.99689000  0.12225000
   0.00127000  0.66476000  0.12046000
   0.50272000  0.83391000  0.18098000
   0.33662000  0.99784000  0.24172000
   0.00240000  0.33332000  0.24079000
   0.17321909  0.82969182  0.30395010
   0.83296093  0.83336697  0.30165172
   0.99962000  0.33431000  0.00199000
   0.00579617  0.33238974  0.37054631
   0.33922000  0.33072000  0.00000000
   0.83779000  0.49999000  0.06135000
   0.33524000  0.67037000  0.00023000
   0.32517242  0.67220438  0.36871797
Direct configuration=    23
   0.00245000  0.99865000  0.12117000
   0.16980000  0.16587000  0.18099000
   0.33623000  0.99852000  0.12110000
   0.50164000  0.16594000  0.18135000
   0.83615000  0.16559000  0.18099000
   0.00260000  0.33284000  0.12101000
   0.16994000  0.49925000  0.18104000
   0.33651000  0.33287000  0.12086000
   0.50180000  0.49937000  0.18123000
   0.66965000  0.33304000  0.12103000
   0.83626000  0.49963000  0.18117000
   0.16899000  0.83329000  0.18177000
   0.33582000  0.66689000  0.12095000
   0.66914000  0.66722000  0.12117000
   0.83680000  0.83220000  0.18114000
   0.00172000  0.99944000  0.24151000
   0.17157936  0.16425263  0.30259411
   0.49939187  0.16871551  0.30311332
   0.66988000  0.99924000  0.24142000
   0.83586838  0.16636676  0.30216374
   0.16883618  0.49462424  0.30080910
   0.33524000  0.33246000  0.24183000
   0.49800364  0.49586952  0.30314328
   0.66902000  0.33317000  0.24123000
   0.83447476  0.49896029  0.30239664
   0.00318000  0.66598000  0.24177000
   0.33605000  0.66588000  0.24146000
   0.50220497  0.83429513  0.30235610
   0.66918000  0.66674000  0.24131000
   0.00271000  0.99869000  0.00034000
   0.00275447  0.00010042  0.35853952
   0.16929000  0.16694000  0.06071000
   0.33657000  0.00075000  0.00067000
   0.33660395 -0.00267262  0.36086033
   0.50343000  0.16520000  0.06105000
   0.66948000  0.99883000  0.00053000
   0.66569744  0.00609723  0.36104914
   0.83570000  0.16556000  0.06094000
   0.17061000  0.49746000  0.06032000
   0.50215000  0.49992000  0.06086000
   0.66930000  0.33358000  0.00050000
   0.67350718  0.33215211  0.36029361
   0.00239000  0.66441000  0.00051000
   0.00089378  0.66264746  0.35775463
   0.16894000  0.83304000  0.06062000
   0.50222000  0.83318000  0.06077000
   0.66882000  0.66655000  0.00068000
   0.66311863  0.66348133  0.35941467
   0.83620000  0.83206000  0.06086000
   0.66879000  0.99689000  0.12225000
   0.00127000  0.66476000  0.12046000
   0.50272000  0.83391000  0.18098000
   0.33662000  0.99784000  0.24172000
   0.00240000  0.33332000  0.24079000
   0.17354651  0.82939544  0.30397460
   0.83263712  0.83355962  0.30175090
   0.99962000  0.33431000  0.00199000
   0.00608119  0.33267433  0.37073744
   0.33922000  0.33072000  0.00000000
   0.83779000  0.49999000  0.06135000
   0.33524000  0.67037000  0.00023000
   0.32485795  0.67184337  0.36860877
Direct configuration=    24
   0.00245000  0.99865000  0.12117000
   0.16980000  0.16587000  0.18099000
   0.33623000  0.99852000  0.12110000
   0.50164000  0.16594000  0.18135000
   0.83615000  0.16559000  0.18099000
   0.00260000  0.33284000  0.12101000
   0.16994000  0.49925000  0.18104000
   0.33651000  0.33287000  0.12086000
   0.50180000  0.49937000  0.18123000
   0.66965000  0.33304000  0.12103000
   0.83626000  0.49963000  0.18117000
   0.16899000  0.83329000  0.18177000
   0.33582000  0.66689000  0.12095000
   0.66914000  0.66722000  0.12117000
   0.83680000  0.83220000  0.18114000
   0.00172000  0.99944000  0.24151000
   0.17185192  0.16392787  0.30265231
   0.49927944  0.16886732  0.30305738
   0.66988000  0.99924000  0.24142000
   0.83594220  0.16648923  0.30219544
   0.16897778  0.49455834  0.30077920
   0.33524000  0.33246000  0.24183000
   0.49844681  0.49574681  0.30306008
   0.66902000  0.33317000  0.24123000
   0.83456758  0.49868822  0.30239979
   0.00318000  0.66598000  0.24177000
   0.33605000  0.66588000  0.24146000
   0.50225876  0.83427942  0.30236935
   0.66918000  0.66674000  0.24131000
   0.00271000  0.99869000  0.00034000
   0.00306088 -0.00019717  0.35849571
   0.16929000  0.16694000  0.06071000
   0.33657000  0.00075000  0.00067000
   0.33713507 -0.00314480  0.36100835
   0.50343000  0.16520000  0.06105000
   0.66948000  0.99883000  0.00053000
   0.66478082  0.00733483  0.36116122
   0.83570000  0.16556000  0.06094000
   0.17061000  0.49746000  0.06032000
   0.50215000  0.49992000  0.06086000
   0.66930000  0.33358000  0.00050000
   0.67365075  0.33206095  0.36040214
   0.00239000  0.66441000  0.00051000
   0.00076388  0.66256666  0.35773067
   0.16894000  0.83304000  0.06062000
   0.50222000  0.83318000  0.06077000
   0.66882000  0.66655000  0.00068000
   0.66328172  0.66356634  0.35939968
   0.83620000  0.83206000  0.06086000
   0.66879000  0.99689000  0.12225000
   0.00127000  0.66476000  0.12046000
   0.50272000  0.83391000  0.18098000
   0.33662000  0.99784000  0.24172000
   0.00240000  0.33332000  0.24079000
   0.17349417  0.82934789  0.30388105
   0.83262120  0.83364400  0.30172911
   0.99962000  0.33431000  0.00199000
   0.00584733  0.33251214  0.37068520
   0.33922000  0.33072000  0.00000000
   0.83779000  0.49999000  0.06135000
   0.33524000  0.67037000  0.00023000
   0.32497128  0.67199034  0.36853034
Direct configuration=    25
   0.00245000  0.99865000  0.12117000
   0.16980000  0.16587000  0.18099000
   0.33623000  0.99852000  0.12110000
   0.50164000  0.16594000  0.18135000
   0.83615000  0.16559000  0.18099000
   0.00260000  0.33284000  0.12101000
   0.16994000  0.49925000  0.18104000
   0.33651000  0.33287000  0.12086000
   0.50180000  0.49937000  0.18123000
   0.66965000  0.33304000  0.12103000
   0.83626000  0.49963000  0.18117000
   0.16899000  0.83329000  0.18177000
   0.33582000  0.66689000  0.12095000
   0.66914000  0.66722000  0.12117000
   0.83680000  0.83220000  0.18114000
   0.00172000  0.99944000  0.24151000
   0.17266960  0.16295358  0.30282693
   0.49894216  0.16932275  0.30288957
   0.66988000  0.99924000  0.24142000
   0.83616364  0.16685665  0.30229051
   0.16940258  0.49436066  0.30068949
   0.33524000  0.33246000  0.24183000
   0.49977633  0.49537867  0.30281048
   0.66902000  0.33317000  0.24123000
   0.83484603  0.49787203  0.30240922
   0.00318000  0.66598000  0.24177000
   0.33605000  0.66588000  0.24146000
   0.50242013  0.83423231  0.30240910
   0.66918000  0.66674000  0.24131000
   0.00271000  0.99869000  0.00034000
   0.00398011 -0.00108993  0.35836428
   0.16929000  0.16694000  0.06071000
   0.33657000  0.00075000  0.00067000
   0.33872843 -0.00456136  0.36145242
   0.50343000  0.16520000  0.06105000
   0.66948000  0.99883000  0.00053000
   0.66203096  0.01104764  0.36149745
   0.83570000  0.16556000  0.06094000
   0.17061000  0.49746000  0.06032000
   0.50215000  0.49992000  0.06086000
   0.66930000  0.33358000  0.00050000
   0.67408145  0.33178746  0.36072773
   0.00239000  0.66441000  0.00051000
   0.00037421  0.66232423  0.35765878
   0.16894000  0.83304000  0.06062000
   0.50222000  0.83318000  0.06077000
   0.66882000  0.66655000  0.00068000
   0.66377098  0.66382138  0.35935473
   0.83620000  0.83206000  0.06086000
   0.66879000  0.99689000  0.12225000
   0.00127000  0.66476000  0.12046000
   0.50272000  0.83391000  0.18098000
   0.33662000  0.99784000  0.24172000
   0.00240000  0.33332000  0.24079000
   0.17333715  0.82920522  0.30360040
   0.83257345  0.83389711  0.30166372
   0.99962000  0.33431000  0.00199000
   0.00514572  0.33202559  0.37052848
   0.33922000  0.33072000  0.00000000
   0.83779000  0.49999000  0.06135000
   0.33524000  0.67037000  0.00023000
   0.32531127  0.67243125  0.36829506
Direct configuration=    26
   0.00245000  0.99865000  0.12117000
   0.16980000  0.16587000  0.18099000
   0.33623000  0.99852000  0.12110000
   0.50164000  0.16594000  0.18135000
   0.83615000  0.16559000  0.18099000
   0.00260000  0.33284000  0.12101000
   0.16994000  0.49925000  0.18104000
   0.33651000  0.33287000  0.12086000
   0.50180000  0.49937000  0.18123000
   0.66965000  0.33304000  0.12103000
   0.83626000  0.49963000  0.18117000
   0.16899000  0.83329000  0.18177000
   0.33582000  0.66689000  0.12095000
   0.66914000  0.66722000  0.12117000
   0.83680000  0.83220000  0.18114000
   0.00172000  0.99944000  0.24151000
   0.17219694  0.16351677  0.30272599
   0.49913712  0.16905949  0.30298657
   0.66988000  0.99924000  0.24142000
   0.83603564  0.16664426  0.30223555
   0.16915703  0.49447493  0.30074135
   0.33524000  0.33246000  0.24183000
   0.49900780  0.49559147  0.30295476
   0.66902000  0.33317000  0.24123000
   0.83468507  0.49834383  0.30240377
   0.00318000  0.66598000  0.24177000
   0.33605000  0.66588000  0.24146000
   0.50232685  0.83425954  0.30238612
   0.66918000  0.66674000  0.24131000
   0.00271000  0.99869000  0.00034000
   0.00344875 -0.00057387  0.35844025
   0.16929000  0.16694000  0.06071000
   0.33657000  0.00075000  0.00067000
   0.33780739 -0.00374252  0.36119573
   0.50343000  0.16520000  0.06105000
   0.66948000  0.99883000  0.00053000
   0.66362052  0.00890145  0.36130310
   0.83570000  0.16556000  0.06094000
   0.17061000  0.49746000  0.06032000
   0.50215000  0.49992000  0.06086000
   0.66930000  0.33358000  0.00050000
   0.67383249  0.33194555  0.36053952
   0.00239000  0.66441000  0.00051000
   0.00059946  0.66246437  0.35770034
   0.16894000  0.83304000  0.06062000
   0.50222000  0.83318000  0.06077000
   0.66882000  0.66655000  0.00068000
   0.66348816  0.66367396  0.35938072
   0.83620000  0.83206000  0.06086000
   0.66879000  0.99689000  0.12225000
   0.00127000  0.66476000  0.12046000
   0.50272000  0.83391000  0.18098000
   0.33662000  0.99784000  0.24172000
   0.00240000  0.33332000  0.24079000
   0.17342791  0.82928769  0.30376263
   0.83260105  0.83375080  0.30170152
   0.99962000  0.33431000  0.00199000
   0.00555129  0.33230684  0.37061907
   0.33922000  0.33072000  0.00000000
   0.83779000  0.49999000  0.06135000
   0.33524000  0.67037000  0.00023000
   0.32511474  0.67217638  0.36843107
Direct configuration=    27
   0.00245000  0.99865000  0.12117000
   0.16980000  0.16587000  0.18099000
   0.33623000  0.99852000  0.12110000
   0.50164000  0.16594000  0.18135000
   0.83615000  0.16559000  0.18099000
   0.00260000  0.33284000  0.12101000
   0.16994000  0.49925000  0.18104000
   0.33651000  0.33287000  0.12086000
   0.50180000  0.49937000  0.18123000
   0.66965000  0.33304000  0.12103000
   0.83626000  0.49963000  0.18117000
   0.16899000  0.83329000  0.18177000
   0.33582000  0.66689000  0.12095000
   0.66914000  0.66722000  0.12117000
   0.83680000  0.83220000  0.18114000
   0.00172000  0.99944000  0.24151000
   0.17212985  0.16359670  0.30271167
   0.49916480  0.16902212  0.30300034
   0.66988000  0.99924000  0.24142000
   0.83601747  0.16661412  0.30222775
   0.16912217  0.49449115  0.30074871
   0.33524000  0.33246000  0.24183000
   0.49889872  0.49562167  0.30297524
   0.66902000  0.33317000  0.24123000
   0.83466222  0.49841080  0.30240299
   0.00318000  0.66598000  0.24177000
   0.33605000  0.66588000  0.24146000
   0.50231361  0.83426341  0.30238286
   0.66918000  0.66674000  0.24131000
   0.00271000  0.99869000  0.00034000
   0.00337333 -0.00050062  0.35845104
   0.16929000  0.16694000  0.06071000
   0.33657000  0.00075000  0.00067000
   0.33767666 -0.00362629  0.36115929
   0.50343000  0.16520000  0.06105000
   0.66948000  0.99883000  0.00053000
   0.66384614  0.00859683  0.36127551
   0.83570000  0.16556000  0.06094000
   0.17061000  0.49746000  0.06032000
   0.50215000  0.49992000  0.06086000
   0.66930000  0.33358000  0.00050000
   0.67379715  0.33196799  0.36051281
   0.00239000  0.66441000  0.00051000
   0.00063143  0.66248426  0.35770623
   0.16894000  0.83304000  0.06062000
   0.50222000  0.83318000  0.06077000
   0.66882000  0.66655000  0.00068000
   0.66344802  0.66365303  0.35938440
   0.83620000  0.83206000  0.06086000
   0.66879000  0.99689000  0.12225000
   0.00127000  0.66476000  0.12046000
   0.50272000  0.83391000  0.18098000
   0.33662000  0.99784000  0.24172000
   0.00240000  0.33332000  0.24079000
   0.17344080  0.82929939  0.30378566
   0.83260497  0.83373003  0.30170688
   0.99962000  0.33431000  0.00199000
   0.00560885  0.33234676  0.37063193
   0.33922000  0.33072000  0.00000000
   0.83779000  0.49999000  0.06135000
   0.33524000  0.67037000  0.00023000
   0.32508684  0.67214021  0.36845037
Direct configuration=    28
   0.00245000  0.99865000  0.12117000
   0.16980000  0.16587000  0.18099000
   0.33623000  0.99852000  0.12110000
   0.50164000  0.16594000  0.18135000
   0.83615000  0.16559000  0.18099000
   0.00260000  0.33284000  0.12101000
   0.16994000  0.49925000  0.18104000
   0.33651000  0.33287000  0.12086000
   0.50180000  0.49937000  0.18123000
   0.66965000  0.33304000  0.12103000
   0.83626000  0.49963000  0.18117000
   0.16899000  0.83329000  0.18177000
   0.33582000  0.66689000  0.12095000
   0.66914000  0.66722000  0.12117000
   0.83680000  0.83220000  0.18114000
   0.00172000  0.99944000  0.24151000
   0.17233644  0.16356405  0.30277759
   0.49903264  0.16912358  0.30300799
   0.66988000  0.99924000  0.24142000
   0.83599368  0.16619076  0.30216222
   0.16907794  0.49439896  0.30078660
   0.33524000  0.33246000  0.24183000
   0.49905746  0.49577063  0.30297012
   0.66902000  0.33317000  0.24123000
   0.83476087  0.49854834  0.30235392
   0.00318000  0.66598000  0.24177000
   0.33605000  0.66588000  0.24146000
   0.50238257  0.83433391  0.30231729
   0.66918000  0.66674000  0.24131000
   0.00271000  0.99869000  0.00034000
   0.00327571 -0.00076561  0.35846337
   0.16929000  0.16694000  0.06071000
   0.33657000  0.00075000  0.00067000
   0.33848295 -0.00355157  0.36125552
   0.50343000  0.16520000  0.06105000
   0.66948000  0.99883000  0.00053000
   0.66322494  0.00875276  0.36141367
   0.83570000  0.16556000  0.06094000
   0.17061000  0.49746000  0.06032000
   0.50215000  0.49992000  0.06086000
   0.66930000  0.33358000  0.00050000
   0.67373238  0.33180905  0.36054107
   0.00239000  0.66441000  0.00051000
   0.00060602  0.66225227  0.35770068
   0.16894000  0.83304000  0.06062000
   0.50222000  0.83318000  0.06077000
   0.66882000  0.66655000  0.00068000
   0.66383416  0.66407871  0.35937105
   0.83620000  0.83206000  0.06086000
   0.66879000  0.99689000  0.12225000
   0.00127000  0.66476000  0.12046000
   0.50272000  0.83391000  0.18098000
   0.33662000  0.99784000  0.24172000
   0.00240000  0.33332000  0.24079000
   0.17342084  0.82930890  0.30373582
   0.83248410  0.83377280  0.30170538
   0.99962000  0.33431000  0.00199000
   0.00563787  0.33205997  0.37052711
   0.33922000  0.33072000  0.00000000
   0.83779000  0.49999000  0.06135000
   0.33524000  0.67037000  0.00023000
   0.32534167  0.67212355  0.36834285
Direct configuration=    29
   0.00245000  0.99865000  0.12117000
   0.16980000  0.16587000  0.18099000
   0.33623000  0.99852000  0.12110000
   0.50164000  0.16594000  0.18135000
   0.83615000  0.16559000  0.18099000
   0.00260000  0.33284000  0.12101000
   0.16994000  0.49925000  0.18104000
   0.33651000  0.33287000  0.12086000
   0.50180000  0.49937000  0.18123000
   0.66965000  0.33304000  0.12103000
   0.83626000  0.49963000  0.18117000
   0.16899000  0.83329000  0.18177000
   0.33582000  0.66689000  0.12095000
   0.66914000  0.66722000  0.12117000
   0.83680000  0.83220000  0.18114000
   0.00172000  0.99944000  0.24151000
   0.17274672  0.16349921  0.30290851
   0.49877018  0.16932508  0.30302319
   0.66988000  0.99924000  0.24142000
   0.83594644  0.16534997  0.30203209
   0.16899009  0.49421587  0.30086184
   0.33524000  0.33246000  0.24183000
   0.49937271  0.49606645  0.30295993
   0.66902000  0.33317000  0.24123000
   0.83495678  0.49882149  0.30225646
   0.00318000  0.66598000  0.24177000
   0.33605000  0.66588000  0.24146000
   0.50251954  0.83447394  0.30218708
   0.66918000  0.66674000  0.24131000
   0.00271000  0.99869000  0.00034000
   0.00308185 -0.00129187  0.35848787
   0.16929000  0.16694000  0.06071000
   0.33657000  0.00075000  0.00067000
   0.34008423 -0.00340318  0.36144664
   0.50343000  0.16520000  0.06105000
   0.66948000  0.99883000  0.00053000
   0.66199124  0.00906246  0.36168805
   0.83570000  0.16556000  0.06094000
   0.17061000  0.49746000  0.06032000
   0.50215000  0.49992000  0.06086000
   0.66930000  0.33358000  0.00050000
   0.67360375  0.33149339  0.36059719
   0.00239000  0.66441000  0.00051000
   0.00055555  0.66179156  0.35768966
   0.16894000  0.83304000  0.06062000
   0.50222000  0.83318000  0.06077000
   0.66882000  0.66655000  0.00068000
   0.66460104  0.66492411  0.35934454
   0.83620000  0.83206000  0.06086000
   0.66879000  0.99689000  0.12225000
   0.00127000  0.66476000  0.12046000
   0.50272000  0.83391000  0.18098000
   0.33662000  0.99784000  0.24172000
   0.00240000  0.33332000  0.24079000
   0.17338120  0.82932779  0.30363684
   0.83224404  0.83385774  0.30170238
   0.99962000  0.33431000  0.00199000
   0.00569549  0.33149039  0.37031893
   0.33922000  0.33072000  0.00000000
   0.83779000  0.49999000  0.06135000
   0.33524000  0.67037000  0.00023000
   0.32584775  0.67209048  0.36812931
Direct configuration=    30
   0.00245000  0.99865000  0.12117000
   0.16980000  0.16587000  0.18099000
   0.33623000  0.99852000  0.12110000
   0.50164000  0.16594000  0.18135000
   0.83615000  0.16559000  0.18099000
   0.00260000  0.33284000  0.12101000
   0.16994000  0.49925000  0.18104000
   0.33651000  0.33287000  0.12086000
   0.50180000  0.49937000  0.18123000
   0.66965000  0.33304000  0.12103000
   0.83626000  0.49963000  0.18117000
   0.16899000  0.83329000  0.18177000
   0.33582000  0.66689000  0.12095000
   0.66914000  0.66722000  0.12117000
   0.83680000  0.83220000  0.18114000
   0.00172000  0.99944000  0.24151000
   0.17260636  0.16352139  0.30286372
   0.49885997  0.16925614  0.30301799
   0.66988000  0.99924000  0.24142000
   0.83596260  0.16563761  0.30207661
   0.16902015  0.49427851  0.30083610
   0.33524000  0.33246000  0.24183000
   0.49926486  0.49596525  0.30296342
   0.66902000  0.33317000  0.24123000
   0.83488976  0.49872804  0.30228980
   0.00318000  0.66598000  0.24177000
   0.33605000  0.66588000  0.24146000
   0.50247268  0.83442604  0.30223163
   0.66918000  0.66674000  0.24131000
   0.00271000  0.99869000  0.00034000
   0.00314817 -0.00111183  0.35847949
   0.16929000  0.16694000  0.06071000
   0.33657000  0.00075000  0.00067000
   0.33953642 -0.00345394  0.36138125
   0.50343000  0.16520000  0.06105000
   0.66948000  0.99883000  0.00053000
   0.66241330  0.00895651  0.36159418
   0.83570000  0.16556000  0.06094000
   0.17061000  0.49746000  0.06032000
   0.50215000  0.49992000  0.06086000
   0.66930000  0.33358000  0.00050000
   0.67364776  0.33160137  0.36057799
   0.00239000  0.66441000  0.00051000
   0.00057282  0.66194917  0.35769343
   0.16894000  0.83304000  0.06062000
   0.50222000  0.83318000  0.06077000
   0.66882000  0.66655000  0.00068000
   0.66433869  0.66463489  0.35935361
   0.83620000  0.83206000  0.06086000
   0.66879000  0.99689000  0.12225000
   0.00127000  0.66476000  0.12046000
   0.50272000  0.83391000  0.18098000
   0.33662000  0.99784000  0.24172000
   0.00240000  0.33332000  0.24079000
   0.17339476  0.82932133  0.30367070
   0.83232616  0.83382868  0.30170340
   0.99962000  0.33431000  0.00199000
   0.00567578  0.33168525  0.37039015
   0.33922000  0.33072000  0.00000000
   0.83779000  0.49999000  0.06135000
   0.33524000  0.67037000  0.00023000
   0.32567461  0.67210179  0.36820236
Direct configuration=    31
   0.00245000  0.99865000  0.12117000
   0.16980000  0.16587000  0.18099000
   0.33623000  0.99852000  0.12110000
   0.50164000  0.16594000  0.18135000
   0.83615000  0.16559000  0.18099000
   0.00260000  0.33284000  0.12101000
   0.16994000  0.49925000  0.18104000
   0.33651000  0.33287000  0.12086000
   0.50180000  0.49937000  0.18123000
   0.66965000  0.33304000  0.12103000
   0.83626000  0.49963000  0.18117000
   0.16899000  0.83329000  0.18177000
   0.33582000  0.66689000  0.12095000
   0.66914000  0.66722000  0.12117000
   0.83680000  0.83220000  0.18114000
   0.00172000  0.99944000  0.24151000
   0.17243479  0.16354851  0.30280897
   0.49896973  0.16917188  0.30301164
   0.66988000  0.99924000  0.24142000
   0.83598235  0.16598921  0.30213103
   0.16905688  0.49435507  0.30080463
   0.33524000  0.33246000  0.24183000
   0.49913303  0.49584154  0.30296768
   0.66902000  0.33317000  0.24123000
   0.83480783  0.49861382  0.30233056
   0.00318000  0.66598000  0.24177000
   0.33605000  0.66588000  0.24146000
   0.50241541  0.83436748  0.30228608
   0.66918000  0.66674000  0.24131000
   0.00271000  0.99869000  0.00034000
   0.00322924 -0.00089176  0.35846925
   0.16929000  0.16694000  0.06071000
   0.33657000  0.00075000  0.00067000
   0.33886680 -0.00351600  0.36130134
   0.50343000  0.16520000  0.06105000
   0.66948000  0.99883000  0.00053000
   0.66292920  0.00882700  0.36147944
   0.83570000  0.16556000  0.06094000
   0.17061000  0.49746000  0.06032000
   0.50215000  0.49992000  0.06086000
   0.66930000  0.33358000  0.00050000
   0.67370155  0.33173338  0.36055452
   0.00239000  0.66441000  0.00051000
   0.00059392  0.66214183  0.35769804
   0.16894000  0.83304000  0.06062000
   0.50222000  0.83318000  0.06077000
   0.66882000  0.66655000  0.00068000
   0.66401800  0.66428137  0.35936470
   0.83620000  0.83206000  0.06086000
   0.66879000  0.99689000  0.12225000
   0.00127000  0.66476000  0.12046000
   0.50272000  0.83391000  0.18098000
   0.33662000  0.99784000  0.24172000
   0.00240000  0.33332000  0.24079000
   0.17341134  0.82931343  0.30371209
   0.83242655  0.83379316  0.30170466
   0.99962000  0.33431000  0.00199000
   0.00565168  0.33192343  0.37047720
   0.33922000  0.33072000  0.00000000
   0.83779000  0.49999000  0.06135000
   0.33524000  0.67037000  0.00023000
   0.32546298  0.67211562  0.36829166
Direct configuration=    32
   0.00245000  0.99865000  0.12117000
   0.16980000  0.16587000  0.18099000
   0.33623000  0.99852000  0.12110000
   0.50164000  0.16594000  0.18135000
   0.83615000  0.16559000  0.18099000
   0.00260000  0.33284000  0.12101000
   0.16994000  0.49925000  0.18104000
   0.33651000  0.33287000  0.12086000
   0.50180000  0.49937000  0.18123000
   0.66965000  0.33304000  0.12103000
   0.83626000  0.49963000  0.18117000
   0.16899000  0.83329000  0.18177000
   0.33582000  0.66689000  0.12095000
   0.66914000  0.66722000  0.12117000
   0.83680000  0.83220000  0.18114000
   0.00172000  0.99944000  0.24151000
   0.17252177  0.16353476  0.30283673
   0.49891409  0.16921460  0.30301486
   0.66988000  0.99924000  0.24142000
   0.83597234  0.16581097  0.30210344
   0.16903826  0.49431626  0.30082058
   0.33524000  0.33246000  0.24183000
   0.49919986  0.49590425  0.30296552
   0.66902000  0.33317000  0.24123000
   0.83484936  0.49867172  0.30230990
   0.00318000  0.66598000  0.24177000
   0.33605000  0.66588000  0.24146000
   0.50244444  0.83439717  0.30225848
   0.66918000  0.66674000  0.24131000
   0.00271000  0.99869000  0.00034000
   0.00318814 -0.00100332  0.35847444
   0.16929000  0.16694000  0.06071000
   0.33657000  0.00075000  0.00067000
   0.33920625 -0.00348454  0.36134185
   0.50343000  0.16520000  0.06105000
   0.66948000  0.99883000  0.00053000
   0.66266767  0.00889265  0.36153761
   0.83570000  0.16556000  0.06094000
   0.17061000  0.49746000  0.06032000
   0.50215000  0.49992000  0.06086000
   0.66930000  0.33358000  0.00050000
   0.67367428  0.33166646  0.36056642
   0.00239000  0.66441000  0.00051000
   0.00058322  0.66204417  0.35769571
   0.16894000  0.83304000  0.06062000
   0.50222000  0.83318000  0.06077000
   0.66882000  0.66655000  0.00068000
   0.66418057  0.66446058  0.35935908
   0.83620000  0.83206000  0.06086000
   0.66879000  0.99689000  0.12225000
   0.00127000  0.66476000  0.12046000
   0.50272000  0.83391000  0.18098000
   0.33662000  0.99784000  0.24172000
   0.00240000  0.33332000  0.24079000
   0.17340293  0.82931743  0.30369111
   0.83237566  0.83381117  0.30170402
   0.99962000  0.33431000  0.00199000
   0.00566390  0.33180269  0.37043307
   0.33922000  0.33072000  0.00000000
   0.83779000  0.49999000  0.06135000
   0.33524000  0.67037000  0.00023000
   0.32557027  0.67210861  0.36824639
Direct configuration=    33
   0.00245000  0.99865000  0.12117000
   0.16980000  0.16587000  0.18099000
   0.33623000  0.99852000  0.12110000
   0.50164000  0.16594000  0.18135000
   0.83615000  0.16559000  0.18099000
   0.00260000  0.33284000  0.12101000
   0.16994000  0.49925000  0.18104000
   0.33651000  0.33287000  0.12086000
   0.50180000  0.49937000  0.18123000
   0.66965000  0.33304000  0.12103000
   0.83626000  0.49963000  0.18117000
   0.16899000  0.83329000  0.18177000
   0.33582000  0.66689000  0.12095000
   0.66914000  0.66722000  0.12117000
   0.83680000  0.83220000  0.18114000
   0.00172000  0.99944000  0.24151000
   0.17255403  0.16352966  0.30284702
   0.49889344  0.16923045  0.30301605
   0.66988000  0.99924000  0.24142000
   0.83596862  0.16574485  0.30209321
   0.16903135  0.49430186  0.30082650
   0.33524000  0.33246000  0.24183000
   0.49922465  0.49592752  0.30296472
   0.66902000  0.33317000  0.24123000
   0.83486477  0.49869321  0.30230223
   0.00318000  0.66598000  0.24177000
   0.33605000  0.66588000  0.24146000
   0.50245522  0.83440818  0.30224823
   0.66918000  0.66674000  0.24131000
   0.00271000  0.99869000  0.00034000
   0.00317290 -0.00104471  0.35847637
   0.16929000  0.16694000  0.06071000
   0.33657000  0.00075000  0.00067000
   0.33933219 -0.00347287  0.36135688
   0.50343000  0.16520000  0.06105000
   0.66948000  0.99883000  0.00053000
   0.66257065  0.00891701  0.36155919
   0.83570000  0.16556000  0.06094000
   0.17061000  0.49746000  0.06032000
   0.50215000  0.49992000  0.06086000
   0.66930000  0.33358000  0.00050000
   0.67366416  0.33164163  0.36057083
   0.00239000  0.66441000  0.00051000
   0.00057925  0.66200793  0.35769484
   0.16894000  0.83304000  0.06062000
   0.50222000  0.83318000  0.06077000
   0.66882000  0.66655000  0.00068000
   0.66424088  0.66452707  0.35935699
   0.83620000  0.83206000  0.06086000
   0.66879000  0.99689000  0.12225000
   0.00127000  0.66476000  0.12046000
   0.50272000  0.83391000  0.18098000
   0.33662000  0.99784000  0.24172000
   0.00240000  0.33332000  0.24079000
   0.17339982  0.82931892  0.30368333
   0.83235678  0.83381785  0.30170379
   0.99962000  0.33431000  0.00199000
   0.00566843  0.33175789  0.37041670
   0.33922000  0.33072000  0.00000000
   0.83779000  0.49999000  0.06135000
   0.33524000  0.67037000  0.00023000
   0.32561007  0.67210601  0.36822960
Direct configuration=    34
   0.00245000  0.99865000  0.12117000
   0.16980000  0.16587000  0.18099000
   0.33623000  0.99852000  0.12110000
   0.50164000  0.16594000  0.18135000
   0.83615000  0.16559000  0.18099000
   0.00260000  0.33284000  0.12101000
   0.16994000  0.49925000  0.18104000
   0.33651000  0.33287000  0.12086000
   0.50180000  0.49937000  0.18123000
   0.66965000  0.33304000  0.12103000
   0.83626000  0.49963000  0.18117000
   0.16899000  0.83329000  0.18177000
   0.33582000  0.66689000  0.12095000
   0.66914000  0.66722000  0.12117000
   0.83680000  0.83220000  0.18114000
   0.00172000  0.99944000  0.24151000
   0.17272735  0.16328725  0.30292099
   0.49900219  0.16943389  0.30297154
   0.66988000  0.99924000  0.24142000
   0.83575313  0.16576349  0.30215457
   0.16909584  0.49417657  0.30081829
   0.33524000  0.33246000  0.24183000
   0.49945324  0.49596732  0.30297911
   0.66902000  0.33317000  0.24123000
   0.83469016  0.49834990  0.30232867
   0.00318000  0.66598000  0.24177000
   0.33605000  0.66588000  0.24146000
   0.50246212  0.83444499  0.30218272
   0.66918000  0.66674000  0.24131000
   0.00271000  0.99869000  0.00034000
   0.00314731 -0.00134542  0.35846471
   0.16929000  0.16694000  0.06071000
   0.33657000  0.00075000  0.00067000
   0.34004789 -0.00336822  0.36142462
   0.50343000  0.16520000  0.06105000
   0.66948000  0.99883000  0.00053000
   0.66178764  0.00885459  0.36172128
   0.83570000  0.16556000  0.06094000
   0.17061000  0.49746000  0.06032000
   0.50215000  0.49992000  0.06086000
   0.66930000  0.33358000  0.00050000
   0.67380751  0.33144220  0.36043215
   0.00239000  0.66441000  0.00051000
   0.00072709  0.66181403  0.35771804
   0.16894000  0.83304000  0.06062000
   0.50222000  0.83318000  0.06077000
   0.66882000  0.66655000  0.00068000
   0.66470778  0.66507129  0.35933437
   0.83620000  0.83206000  0.06086000
   0.66879000  0.99689000  0.12225000
   0.00127000  0.66476000  0.12046000
   0.50272000  0.83391000  0.18098000
   0.33662000  0.99784000  0.24172000
   0.00240000  0.33332000  0.24079000
   0.17350567  0.82948679  0.30373485
   0.83239751  0.83375190  0.30167854
   0.99962000  0.33431000  0.00199000
   0.00555240  0.33142029  0.37028308
   0.33922000  0.33072000  0.00000000
   0.83779000  0.49999000  0.06135000
   0.33524000  0.67037000  0.00023000
   0.32576643  0.67224166  0.36810775
Direct configuration=    35
   0.00245000  0.99865000  0.12117000
   0.16980000  0.16587000  0.18099000
   0.33623000  0.99852000  0.12110000
   0.50164000  0.16594000  0.18135000
   0.83615000  0.16559000  0.18099000
   0.00260000  0.33284000  0.12101000
   0.16994000  0.49925000  0.18104000
   0.33651000  0.33287000  0.12086000
   0.50180000  0.49937000  0.18123000
   0.66965000  0.33304000  0.12103000
   0.83626000  0.49963000  0.18117000
   0.16899000  0.83329000  0.18177000
   0.33582000  0.66689000  0.12095000
   0.66914000  0.66722000  0.12117000
   0.83680000  0.83220000  0.18114000
   0.00172000  0.99944000  0.24151000
   0.17280557  0.16317784  0.30295438
   0.49905127  0.16952571  0.30295146
   0.66988000  0.99924000  0.24142000
   0.83565588  0.16577191  0.30218227
   0.16912495  0.49412003  0.30081458
   0.33524000  0.33246000  0.24183000
   0.49955640  0.49598529  0.30298561
   0.66902000  0.33317000  0.24123000
   0.83461135  0.49819496  0.30234061
   0.00318000  0.66598000  0.24177000
   0.33605000  0.66588000  0.24146000
   0.50246524  0.83446161  0.30215315
   0.66918000  0.66674000  0.24131000
   0.00271000  0.99869000  0.00034000
   0.00313576 -0.00148113  0.35845945
   0.16929000  0.16694000  0.06071000
   0.33657000  0.00075000  0.00067000
   0.34037091 -0.00332099  0.36145520
   0.50343000  0.16520000  0.06105000
   0.66948000  0.99883000  0.00053000
   0.66143426  0.00882641  0.36179443
   0.83570000  0.16556000  0.06094000
   0.17061000  0.49746000  0.06032000
   0.50215000  0.49992000  0.06086000
   0.66930000  0.33358000  0.00050000
   0.67387221  0.33135219  0.36036955
   0.00239000  0.66441000  0.00051000
   0.00079381  0.66172652  0.35772851
   0.16894000  0.83304000  0.06062000
   0.50222000  0.83318000  0.06077000
   0.66882000  0.66655000  0.00068000
   0.66491850  0.66531691  0.35932415
   0.83620000  0.83206000  0.06086000
   0.66879000  0.99689000  0.12225000
   0.00127000  0.66476000  0.12046000
   0.50272000  0.83391000  0.18098000
   0.33662000  0.99784000  0.24172000
   0.00240000  0.33332000  0.24079000
   0.17355344  0.82956255  0.30375811
   0.83241589  0.83372214  0.30166715
   0.99962000  0.33431000  0.00199000
   0.00550004  0.33126792  0.37022278
   0.33922000  0.33072000  0.00000000
   0.83779000  0.49999000  0.06135000
   0.33524000  0.67037000  0.00023000
   0.32583701  0.67230288  0.36805276
Direct configuration=    36
   0.00245000  0.99865000  0.12117000
   0.16980000  0.16587000  0.18099000
   0.33623000  0.99852000  0.12110000
   0.50164000  0.16594000  0.18135000
   0.83615000  0.16559000  0.18099000
   0.00260000  0.33284000  0.12101000
   0.16994000  0.49925000  0.18104000
   0.33651000  0.33287000  0.12086000
   0.50180000  0.49937000  0.18123000
   0.66965000  0.33304000  0.12103000
   0.83626000  0.49963000  0.18117000
   0.16899000  0.83329000  0.18177000
   0.33582000  0.66689000  0.12095000
   0.66914000  0.66722000  0.12117000
   0.83680000  0.83220000  0.18114000
   0.00172000  0.99944000  0.24151000
   0.17279057  0.16319883  0.30294797
   0.49904186  0.16950809  0.30295531
   0.66988000  0.99924000  0.24142000
   0.83567453  0.16577029  0.30217695
   0.16911937  0.49413088  0.30081529
   0.33524000  0.33246000  0.24183000
   0.49953661  0.49598184  0.30298437
   0.66902000  0.33317000  0.24123000
   0.83462647  0.49822468  0.30233832
   0.00318000  0.66598000  0.24177000
   0.33605000  0.66588000  0.24146000
   0.50246464  0.83445842  0.30215882
   0.66918000  0.66674000  0.24131000
   0.00271000  0.99869000  0.00034000
   0.00313798 -0.00145510  0.35846046
   0.16929000  0.16694000  0.06071000
   0.33657000  0.00075000  0.00067000
   0.34030895 -0.00333005  0.36144933
   0.50343000  0.16520000  0.06105000
   0.66948000  0.99883000  0.00053000
   0.66150204  0.00883182  0.36178040
   0.83570000  0.16556000  0.06094000
   0.17061000  0.49746000  0.06032000
   0.50215000  0.49992000  0.06086000
   0.66930000  0.33358000  0.00050000
   0.67385979  0.33136945  0.36038156
   0.00239000  0.66441000  0.00051000
   0.00078101  0.66174331  0.35772650
   0.16894000  0.83304000  0.06062000
   0.50222000  0.83318000  0.06077000
   0.66882000  0.66655000  0.00068000
   0.66487808  0.66526979  0.35932611
   0.83620000  0.83206000  0.06086000
   0.66879000  0.99689000  0.12225000
   0.00127000  0.66476000  0.12046000
   0.50272000  0.83391000  0.18098000
   0.33662000  0.99784000  0.24172000
   0.00240000  0.33332000  0.24079000
   0.17354428  0.82954802  0.30375365
   0.83241236  0.83372785  0.30166933
   0.99962000  0.33431000  0.00199000
   0.00551008  0.33129715  0.37023434
   0.33922000  0.33072000  0.00000000
   0.83779000  0.49999000  0.06135000
   0.33524000  0.67037000  0.00023000
   0.32582347  0.67229113  0.36806331
Direct configuration=    37
   0.00245000  0.99865000  0.12117000
   0.16980000  0.16587000  0.18099000
   0.33623000  0.99852000  0.12110000
   0.50164000  0.16594000  0.18135000
   0.83615000  0.16559000  0.18099000
   0.00260000  0.33284000  0.12101000
   0.16994000  0.49925000  0.18104000
   0.33651000  0.33287000  0.12086000
   0.50180000  0.49937000  0.18123000
   0.66965000  0.33304000  0.12103000
   0.83626000  0.49963000  0.18117000
   0.16899000  0.83329000  0.18177000
   0.33582000  0.66689000  0.12095000
   0.66914000  0.66722000  0.12117000
   0.83680000  0.83220000  0.18114000
   0.00172000  0.99944000  0.24151000
   0.17278142  0.16301016  0.30293298
   0.49912065  0.16943282  0.30285815
   0.66988000  0.99924000  0.24142000
   0.83569834  0.16558436  0.30219127
   0.16918697  0.49414044  0.30079453
   0.33524000  0.33246000  0.24183000
   0.49953012  0.49601958  0.30296427
   0.66902000  0.33317000  0.24123000
   0.83474051  0.49831872  0.30236221
   0.00318000  0.66598000  0.24177000
   0.33605000  0.66588000  0.24146000
   0.50249060  0.83445548  0.30214738
   0.66918000  0.66674000  0.24131000
   0.00271000  0.99869000  0.00034000
   0.00318541 -0.00149069  0.35844140
   0.16929000  0.16694000  0.06071000
   0.33657000  0.00075000  0.00067000
   0.34046302 -0.00326300  0.36148732
   0.50343000  0.16520000  0.06105000
   0.66948000  0.99883000  0.00053000
   0.66098932  0.00855117  0.36183157
   0.83570000  0.16556000  0.06094000
   0.17061000  0.49746000  0.06032000
   0.50215000  0.49992000  0.06086000
   0.66930000  0.33358000  0.00050000
   0.67395917  0.33127160  0.36036873
   0.00239000  0.66441000  0.00051000
   0.00086471  0.66159126  0.35770587
   0.16894000  0.83304000  0.06062000
   0.50222000  0.83318000  0.06077000
   0.66882000  0.66655000  0.00068000
   0.66506252  0.66555075  0.35930125
   0.83620000  0.83206000  0.06086000
   0.66879000  0.99689000  0.12225000
   0.00127000  0.66476000  0.12046000
   0.50272000  0.83391000  0.18098000
   0.33662000  0.99784000  0.24172000
   0.00240000  0.33332000  0.24079000
   0.17362408  0.82954117  0.30383059
   0.83260988  0.83363608  0.30164866
   0.99962000  0.33431000  0.00199000
   0.00547417  0.33115207  0.37019812
   0.33922000  0.33072000  0.00000000
   0.83779000  0.49999000  0.06135000
   0.33524000  0.67037000  0.00023000
   0.32582337  0.67253209  0.36800832
