Generated by VASPKIT code
 1.000000
    8.5045999999999999    0.0000000000000000    0.0000000000000000
   -0.0010989900000000    8.5090999299999996    0.0000000000000000
    0.0000000000000000    0.0000000000000000   23.5565999999999995
   Fe   Pb   Cr
    49     1    14
Selective Dynamics
Direct
    0.9995000000000001    0.0003200000000000    0.0010300000000000    F  F  F    Fe001
    0.9972700000000000    0.9970700000000000    0.3611900000000000    T  T  T    Fe002
    0.1667000000000000    0.1659200000000000    0.0616000000000000    F  F  F    Fe003
    0.9993000000000000    0.0001300000000000    0.1218300000000000    F  F  F    Fe004
    0.1667000000000000    0.1669200000000000    0.1817000000000000    F  F  F    Fe005
    0.1653300000000000    0.1623200000000000    0.3041000000000000    T  T  T    Fe006
    0.3336800000000000    0.9998600000000000    0.0010800000000000    F  F  F    Fe007
    0.3427900000000000    0.9918600000000000    0.3594000000000000    T  T  T    Fe008
    0.5000800000000000    0.1660600000000000    0.0616400000000000    F  F  F    Fe009
    0.3336500000000000    0.9994499999999999    0.1219400000000000    F  F  F    Fe010
    0.5001300000000000    0.1665700000000000    0.1817600000000000    F  F  F    Fe011
    0.3337400000000000    0.9999400000000001    0.2425200000000000    F  F  F    Fe012
    0.5042700000000000    0.1648200000000000    0.3029400000000000    T  T  T    Fe013
    0.8341200000000000    0.1680700000000000    0.0613000000000000    F  F  F    Fe014
    0.6676700000000000    0.9997200000000001    0.1216800000000000    F  F  F    Fe015
    0.6679200000000000    0.0003200000000000    0.2423300000000000    F  F  F    Fe016
    0.8345900000000001    0.1687300000000000    0.3038100000000000    T  T  T    Fe017
    0.0003300000000000    0.3334600000000000    0.0007600000000000    F  F  F    Fe018
    0.0019700000000000    0.3321100000000000    0.3611200000000000    T  T  T    Fe019
    0.1670400000000000    0.5011600000000000    0.0607700000000000    F  F  F    Fe020
    0.1662700000000000    0.4994000000000000    0.1823800000000000    F  F  F    Fe021
    0.0000000000000000    0.3331900000000000    0.2426000000000000    F  F  F    Fe022
    0.1668900000000000    0.4993900000000000    0.3048500000000000    T  T  T    Fe023
    0.4981100000000000    0.5018600000000000    0.0611200000000000    F  F  F    Fe024
    0.3332800000000000    0.3343400000000000    0.1214800000000000    F  F  F    Fe025
    0.5005100000000000    0.5005300000000000    0.1814500000000000    F  F  F    Fe026
    0.3339200000000000    0.3326900000000000    0.2422900000000000    F  F  F    Fe027
    0.4988600000000000    0.5020500000000000    0.3051700000000000    T  T  T    Fe028
    0.6668700000000000    0.3341800000000000    0.0012900000000000    F  F  F    Fe029
    0.6660500000000000    0.3355000000000000    0.3610500000000000    T  T  T    Fe030
    0.6667000000000000    0.3333200000000000    0.1217700000000000    F  F  F    Fe031
    0.8346600000000000    0.4991600000000000    0.1818100000000000    F  F  F    Fe032
    0.6674800000000000    0.3329100000000000    0.2423400000000000    F  F  F    Fe033
    0.9994900000000000    0.6658100000000000    0.0011200000000000    F  F  F    Fe034
    0.0014000000000000    0.6698000000000000    0.3615600000000000    T  T  T    Fe035
    0.1677300000000000    0.8329500000000000    0.0614100000000000    F  F  F    Fe036
    0.0014900000000000    0.6667200000000000    0.1219600000000000    F  F  F    Fe037
    0.1659200000000000    0.8338900000000000    0.1823500000000000    F  F  F    Fe038
    0.9995000000000001    0.6663500000000000    0.2424500000000000    F  F  F    Fe039
    0.1658100000000000    0.8327400000000000    0.3035100000000000    T  T  T    Fe040
    0.4982500000000000    0.8318500000000000    0.0618900000000000    F  F  F    Fe041
    0.5006400000000000    0.8333500000000000    0.1818900000000000    F  F  F    Fe042
    0.3342400000000000    0.6662700000000000    0.2423900000000000    F  F  F    Fe043
    0.6652100000000000    0.6662900000000000    0.0010000000000000    F  F  F    Fe044
    0.6553200000000000    0.6733500000000000    0.3618500000000000    T  T  T    Fe045
    0.8338200000000000    0.8326800000000000    0.0612800000000000    F  F  F    Fe046
    0.8339000000000000    0.8331100000000000    0.1819100000000000    F  F  F    Fe047
    0.6672100000000000    0.6667500000000000    0.2422100000000000    F  F  F    Fe048
    0.8305300000000000    0.8317500000000000    0.3043300000000000    T  T  T    Fe049
    0.4975200000000000    0.5329900000000000    0.4522200000000000    T  T  T    Pb001
    0.9976000000000000    0.0033000000000000    0.2422100000000000    F  F  F    Cr001
    0.6656100000000000    0.9983400000000000    0.0006000000000000    F  F  F    Cr002
    0.6735400000000000    0.0089100000000000    0.3692800000000000    T  T  T    Cr003
    0.8346700000000000    0.1658900000000000    0.1820900000000000    F  F  F    Cr004
    0.9986600000000000    0.3340400000000000    0.1219800000000000    F  F  F    Cr005
    0.3342100000000000    0.3314700000000000    0.0010100000000000    F  F  F    Cr006
    0.3349200000000000    0.3216600000000000    0.3641700000000000    T  T  T    Cr007
    0.8322000000000001    0.5002500000000000    0.0627500000000000    F  F  F    Cr008
    0.8312400000000000    0.5012900000000000    0.3044000000000000    T  T  T    Cr009
    0.3351200000000000    0.6703700000000000    0.0000000000000000    F  F  F    Cr010
    0.3260200000000000    0.6696200000000000    0.3681300000000000    T  T  T    Cr011
    0.3314500000000000    0.6648800000000000    0.1229200000000000    F  F  F    Cr012
    0.5021300000000000    0.8333800000000000    0.2991400000000000    T  T  T    Cr013
    0.6711100000000000    0.6655000000000000    0.1214800000000000    F  F  F    Cr014
