INCAR-For-OPT                           
           1
     8.504600    0.000000    0.000000
    -0.001099    8.509100    0.000000
     0.000000    0.000000   23.556600
   Fe   Pb   Cr
    49     1    14
Direct configuration=     1
   0.99950000  0.00032000  0.00103000
   0.99727000  0.99707000  0.36119000
   0.16670000  0.16592000  0.06160000
   0.99930000  0.00013000  0.12183000
   0.16670000  0.16692000  0.18170000
   0.16533000  0.16232000  0.30410000
   0.33368000  0.99986000  0.00108000
   0.34279000  0.99186000  0.35940000
   0.50008000  0.16606000  0.06164000
   0.33365000  0.99945000  0.12194000
   0.50013000  0.16657000  0.18176000
   0.33374000  0.99994000  0.24252000
   0.50427000  0.16482000  0.30294000
   0.83412000  0.16807000  0.06130000
   0.66767000  0.99972000  0.12168000
   0.66792000  0.00032000  0.24233000
   0.83459000  0.16873000  0.30381000
   0.00033000  0.33346000  0.00076000
   0.00197000  0.33211000  0.36112000
   0.16704000  0.50116000  0.06077000
   0.16627000  0.49940000  0.18238000
   0.00000000  0.33319000  0.24260000
   0.16689000  0.49939000  0.30485000
   0.49811000  0.50186000  0.06112000
   0.33328000  0.33434000  0.12148000
   0.50051000  0.50053000  0.18145000
   0.33392000  0.33269000  0.24229000
   0.49886000  0.50205000  0.30517000
   0.66687000  0.33418000  0.00129000
   0.66605000  0.33550000  0.36105000
   0.66670000  0.33332000  0.12177000
   0.83466000  0.49916000  0.18181000
   0.66748000  0.33291000  0.24234000
   0.99949000  0.66581000  0.00112000
   0.00140000  0.66980000  0.36156000
   0.16773000  0.83295000  0.06141000
   0.00149000  0.66672000  0.12196000
   0.16592000  0.83389000  0.18235000
   0.99950000  0.66635000  0.24245000
   0.16581000  0.83274000  0.30351000
   0.49825000  0.83185000  0.06189000
   0.50064000  0.83335000  0.18189000
   0.33424000  0.66627000  0.24239000
   0.66521000  0.66629000  0.00100000
   0.65532000  0.67335000  0.36185000
   0.83382000  0.83268000  0.06128000
   0.83390000  0.83311000  0.18191000
   0.66721000  0.66675000  0.24221000
   0.83053000  0.83175000  0.30433000
   0.49752000  0.53299000  0.45222000
   0.99760000  0.00330000  0.24221000
   0.66561000  0.99834000  0.00060000
   0.67354000  0.00891000  0.36928000
   0.83467000  0.16589000  0.18209000
   0.99866000  0.33404000  0.12198000
   0.33421000  0.33147000  0.00101000
   0.33492000  0.32166000  0.36417000
   0.83220000  0.50025000  0.06275000
   0.83124000  0.50129000  0.30440000
   0.33512000  0.67037000  0.00000000
   0.32602000  0.66962000  0.36813000
   0.33145000  0.66488000  0.12292000
   0.50213000  0.83338000  0.29914000
   0.67111000  0.66550000  0.12148000
Direct configuration=     2
   0.99950000  0.00032000  0.00103000
   0.99759543  0.99686626  0.36121871
   0.16670000  0.16592000  0.06160000
   0.99930000  0.00013000  0.12183000
   0.16670000  0.16692000  0.18170000
   0.16691494  0.16395168  0.30419816
   0.33368000  0.99986000  0.00108000
   0.34218695  0.99193962  0.35963405
   0.50008000  0.16606000  0.06164000
   0.33365000  0.99945000  0.12194000
   0.50013000  0.16657000  0.18176000
   0.33374000  0.99994000  0.24252000
   0.50125888  0.16770554  0.30325539
   0.83412000  0.16807000  0.06130000
   0.66767000  0.99972000  0.12168000
   0.66792000  0.00032000  0.24233000
   0.83530083  0.16852437  0.30338092
   0.00033000  0.33346000  0.00076000
   0.00278164  0.33227214  0.36139301
   0.16704000  0.50116000  0.06077000
   0.16627000  0.49940000  0.18238000
   0.00000000  0.33319000  0.24260000
   0.16861751  0.49920865  0.30521720
   0.49811000  0.50186000  0.06112000
   0.33328000  0.33434000  0.12148000
   0.50051000  0.50053000  0.18145000
   0.33392000  0.33269000  0.24229000
   0.49705770  0.50135681  0.30543415
   0.66687000  0.33418000  0.00129000
   0.66438582  0.33725731  0.36163709
   0.66670000  0.33332000  0.12177000
   0.83466000  0.49916000  0.18181000
   0.66748000  0.33291000  0.24234000
   0.99949000  0.66581000  0.00112000
   0.00253720  0.66967795  0.36186291
   0.16773000  0.83295000  0.06141000
   0.00149000  0.66672000  0.12196000
   0.16592000  0.83389000  0.18235000
   0.99950000  0.66635000  0.24245000
   0.16664057  0.83186947  0.30369006
   0.49825000  0.83185000  0.06189000
   0.50064000  0.83335000  0.18189000
   0.33424000  0.66627000  0.24239000
   0.66521000  0.66629000  0.00100000
   0.65485383  0.67336809  0.36211299
   0.83382000  0.83268000  0.06128000
   0.83390000  0.83311000  0.18191000
   0.66721000  0.66675000  0.24221000
   0.83227237  0.83228455  0.30360566
   0.49780007  0.53015233  0.45115256
   0.99760000  0.00330000  0.24221000
   0.66561000  0.99834000  0.00060000
   0.67055136  0.00542986  0.36960497
   0.83467000  0.16589000  0.18209000
   0.99866000  0.33404000  0.12198000
   0.33421000  0.33147000  0.00101000
   0.33680977  0.32480878  0.36312193
   0.83220000  0.50025000  0.06275000
   0.83152495  0.50101984  0.30432235
   0.33512000  0.67037000  0.00000000
   0.32596396  0.66890191  0.36576391
   0.33145000  0.66488000  0.12292000
   0.50160650  0.83348309  0.30160502
   0.67111000  0.66550000  0.12148000
Direct configuration=     3
   0.99950000  0.00032000  0.00103000
   0.99804814  0.99658283  0.36125865
   0.16670000  0.16592000  0.06160000
   0.99930000  0.00013000  0.12183000
   0.16670000  0.16692000  0.18170000
   0.16911973  0.16622148  0.30433471
   0.33368000  0.99986000  0.00108000
   0.34134807  0.99205037  0.35995963
   0.50008000  0.16606000  0.06164000
   0.33365000  0.99945000  0.12194000
   0.50013000  0.16657000  0.18176000
   0.33374000  0.99994000  0.24252000
   0.49707016  0.17171957  0.30369413
   0.83412000  0.16807000  0.06130000
   0.66767000  0.99972000  0.12168000
   0.66792000  0.00032000  0.24233000
   0.83628964  0.16823833  0.30278405
   0.00033000  0.33346000  0.00076000
   0.00391070  0.33249770  0.36177278
   0.16704000  0.50116000  0.06077000
   0.16627000  0.49940000  0.18238000
   0.00000000  0.33319000  0.24260000
   0.17102061  0.49895637  0.30572800
   0.49811000  0.50186000  0.06112000
   0.33328000  0.33434000  0.12148000
   0.50051000  0.50053000  0.18145000
   0.33392000  0.33269000  0.24229000
   0.49455055  0.50039252  0.30580160
   0.66687000  0.33418000  0.00129000
   0.66207082  0.33970188  0.36245379
   0.66670000  0.33332000  0.12177000
   0.83466000  0.49916000  0.18181000
   0.66748000  0.33291000  0.24234000
   0.99949000  0.66581000  0.00112000
   0.00411913  0.66950816  0.36228428
   0.16773000  0.83295000  0.06141000
   0.00149000  0.66672000  0.12196000
   0.16592000  0.83389000  0.18235000
   0.99950000  0.66635000  0.24245000
   0.16779597  0.83065849  0.30394053
   0.49825000  0.83185000  0.06189000
   0.50064000  0.83335000  0.18189000
   0.33424000  0.66627000  0.24239000
   0.66521000  0.66629000  0.00100000
   0.65420535  0.67339324  0.36247883
   0.83382000  0.83268000  0.06128000
   0.83390000  0.83311000  0.18191000
   0.66721000  0.66675000  0.24221000
   0.83469614  0.83302816  0.30259805
   0.49818968  0.52620490  0.44966766
   0.99760000  0.00330000  0.24221000
   0.66561000  0.99834000  0.00060000
   0.66639392  0.00058871  0.37005704
   0.83467000  0.16589000  0.18209000
   0.99866000  0.33404000  0.12198000
   0.33421000  0.33147000  0.00101000
   0.33943860  0.32918900  0.36166399
   0.83220000  0.50025000  0.06275000
   0.83192135  0.50064403  0.30421432
   0.33512000  0.67037000  0.00000000
   0.32588601  0.66790299  0.36247249
   0.33145000  0.66488000  0.12292000
   0.50087826  0.83362650  0.30503408
   0.67111000  0.66550000  0.12148000
Direct configuration=     4
   0.99950000  0.00032000  0.00103000
   0.99828649  0.99687570  0.36106632
   0.16670000  0.16592000  0.06160000
   0.99930000  0.00013000  0.12183000
   0.16670000  0.16692000  0.18170000
   0.16753042  0.16579011  0.30400040
   0.33368000  0.99986000  0.00108000
   0.33860381  0.99366310  0.36052169
   0.50008000  0.16606000  0.06164000
   0.33365000  0.99945000  0.12194000
   0.50013000  0.16657000  0.18176000
   0.33374000  0.99994000  0.24252000
   0.49814221  0.17132577  0.30357972
   0.83412000  0.16807000  0.06130000
   0.66767000  0.99972000  0.12168000
   0.66792000  0.00032000  0.24233000
   0.83585654  0.16754001  0.30330103
   0.00033000  0.33346000  0.00076000
   0.00383594  0.33226229  0.36186233
   0.16704000  0.50116000  0.06077000
   0.16627000  0.49940000  0.18238000
   0.00000000  0.33319000  0.24260000
   0.16917986  0.49922332  0.30492368
   0.49811000  0.50186000  0.06112000
   0.33328000  0.33434000  0.12148000
   0.50051000  0.50053000  0.18145000
   0.33392000  0.33269000  0.24229000
   0.49691481  0.50231286  0.30486846
   0.66687000  0.33418000  0.00129000
   0.66177660  0.34080452  0.36298036
   0.66670000  0.33332000  0.12177000
   0.83466000  0.49916000  0.18181000
   0.66748000  0.33291000  0.24234000
   0.99949000  0.66581000  0.00112000
   0.00464366  0.66966592  0.36267086
   0.16773000  0.83295000  0.06141000
   0.00149000  0.66672000  0.12196000
   0.16592000  0.83389000  0.18235000
   0.99950000  0.66635000  0.24245000
   0.16755876  0.83111512  0.30381567
   0.49825000  0.83185000  0.06189000
   0.50064000  0.83335000  0.18189000
   0.33424000  0.66627000  0.24239000
   0.66521000  0.66629000  0.00100000
   0.65597421  0.67331243  0.36254381
   0.83382000  0.83268000  0.06128000
   0.83390000  0.83311000  0.18191000
   0.66721000  0.66675000  0.24221000
   0.83574080  0.83311788  0.30235792
   0.49816932  0.52191083  0.44786862
   0.99760000  0.00330000  0.24221000
   0.66561000  0.99834000  0.00060000
   0.66353359  0.99722629  0.37002762
   0.83467000  0.16589000  0.18209000
   0.99866000  0.33404000  0.12198000
   0.33421000  0.33147000  0.00101000
   0.34053940  0.33321107  0.36280430
   0.83220000  0.50025000  0.06275000
   0.83261989  0.50034780  0.30421646
   0.33512000  0.67037000  0.00000000
   0.32674283  0.66745874  0.36042068
   0.33145000  0.66488000  0.12292000
   0.50121648  0.83345088  0.30698026
   0.67111000  0.66550000  0.12148000
Direct configuration=     5
   0.99950000  0.00032000  0.00103000
   0.99848070  0.99711433  0.36090960
   0.16670000  0.16592000  0.06160000
   0.99930000  0.00013000  0.12183000
   0.16670000  0.16692000  0.18170000
   0.16623543  0.16543862  0.30372799
   0.33368000  0.99986000  0.00108000
   0.33636775  0.99497717  0.36097967
   0.50008000  0.16606000  0.06164000
   0.33365000  0.99945000  0.12194000
   0.50013000  0.16657000  0.18176000
   0.33374000  0.99994000  0.24252000
   0.49901573  0.17100489  0.30348649
   0.83412000  0.16807000  0.06130000
   0.66767000  0.99972000  0.12168000
   0.66792000  0.00032000  0.24233000
   0.83550365  0.16697100  0.30372227
   0.00033000  0.33346000  0.00076000
   0.00377503  0.33207047  0.36193530
   0.16704000  0.50116000  0.06077000
   0.16627000  0.49940000  0.18238000
   0.00000000  0.33319000  0.24260000
   0.16768000  0.49944084  0.30426830
   0.49811000  0.50186000  0.06112000
   0.33328000  0.33434000  0.12148000
   0.50051000  0.50053000  0.18145000
   0.33392000  0.33269000  0.24229000
   0.49884125  0.50387758  0.30410813
   0.66687000  0.33418000  0.00129000
   0.66153687  0.34170297  0.36340942
   0.66670000  0.33332000  0.12177000
   0.83466000  0.49916000  0.18181000
   0.66748000  0.33291000  0.24234000
   0.99949000  0.66581000  0.00112000
   0.00507106  0.66979447  0.36298585
   0.16773000  0.83295000  0.06141000
   0.00149000  0.66672000  0.12196000
   0.16592000  0.83389000  0.18235000
   0.99950000  0.66635000  0.24245000
   0.16736549  0.83148718  0.30371393
   0.49825000  0.83185000  0.06189000
   0.50064000  0.83335000  0.18189000
   0.33424000  0.66627000  0.24239000
   0.66521000  0.66629000  0.00100000
   0.65741551  0.67324658  0.36259676
   0.83382000  0.83268000  0.06128000
   0.83390000  0.83311000  0.18191000
   0.66721000  0.66675000  0.24221000
   0.83659200  0.83319099  0.30216225
   0.49815274  0.51841195  0.44640275
   0.99760000  0.00330000  0.24221000
   0.66561000  0.99834000  0.00060000
   0.66120295  0.99448655  0.37000365
   0.83467000  0.16589000  0.18209000
   0.99866000  0.33404000  0.12198000
   0.33421000  0.33147000  0.00101000
   0.34143634  0.33648832  0.36373344
   0.83220000  0.50025000  0.06275000
   0.83318907  0.50010642  0.30421820
   0.33512000  0.67037000  0.00000000
   0.32744097  0.66709675  0.35874884
   0.33145000  0.66488000  0.12292000
   0.50149207  0.83330778  0.30856605
   0.67111000  0.66550000  0.12148000
Direct configuration=     6
   0.99950000  0.00032000  0.00103000
   0.99801970  0.99747450  0.36097635
   0.16670000  0.16592000  0.06160000
   0.99930000  0.00013000  0.12183000
   0.16670000  0.16692000  0.18170000
   0.16480455  0.16463048  0.30342711
   0.33368000  0.99986000  0.00108000
   0.33322579  0.99822791  0.36119224
   0.50008000  0.16606000  0.06164000
   0.33365000  0.99945000  0.12194000
   0.50013000  0.16657000  0.18176000
   0.33374000  0.99994000  0.24252000
   0.50156138  0.16839544  0.30323232
   0.83412000  0.16807000  0.06130000
   0.66767000  0.99972000  0.12168000
   0.66792000  0.00032000  0.24233000
   0.83391370  0.16683358  0.30441259
   0.00033000  0.33346000  0.00076000
   0.00272123  0.33193180  0.36178174
   0.16704000  0.50116000  0.06077000
   0.16627000  0.49940000  0.18238000
   0.00000000  0.33319000  0.24260000
   0.16460493  0.49961055  0.30295426
   0.49811000  0.50186000  0.06112000
   0.33328000  0.33434000  0.12148000
   0.50051000  0.50053000  0.18145000
   0.33392000  0.33269000  0.24229000
   0.50216722  0.50490601  0.30288829
   0.66687000  0.33418000  0.00129000
   0.66356504  0.33996238  0.36302616
   0.66670000  0.33332000  0.12177000
   0.83466000  0.49916000  0.18181000
   0.66748000  0.33291000  0.24234000
   0.99949000  0.66581000  0.00112000
   0.00429089  0.66991424  0.36307009
   0.16773000  0.83295000  0.06141000
   0.00149000  0.66672000  0.12196000
   0.16592000  0.83389000  0.18235000
   0.99950000  0.66635000  0.24245000
   0.16616926  0.83272864  0.30326550
   0.49825000  0.83185000  0.06189000
   0.50064000  0.83335000  0.18189000
   0.33424000  0.66627000  0.24239000
   0.66521000  0.66629000  0.00100000
   0.66159808  0.67269955  0.36264312
   0.83382000  0.83268000  0.06128000
   0.83390000  0.83311000  0.18191000
   0.66721000  0.66675000  0.24221000
   0.83573511  0.83255966  0.30272175
   0.49856907  0.51655186  0.44582099
   0.99760000  0.00330000  0.24221000
   0.66561000  0.99834000  0.00060000
   0.66156285  0.99474710  0.37002469
   0.83467000  0.16589000  0.18209000
   0.99866000  0.33404000  0.12198000
   0.33421000  0.33147000  0.00101000
   0.33910794  0.33629715  0.36559268
   0.83220000  0.50025000  0.06275000
   0.83382158  0.50002002  0.30432260
   0.33512000  0.67037000  0.00000000
   0.32893434  0.66784193  0.35909926
   0.33145000  0.66488000  0.12292000
   0.50151806  0.83342726  0.30745891
   0.67111000  0.66550000  0.12148000
Direct configuration=     7
   0.99950000  0.00032000  0.00103000
   0.99734947  0.99799813  0.36107339
   0.16670000  0.16592000  0.06160000
   0.99930000  0.00013000  0.12183000
   0.16670000  0.16692000  0.18170000
   0.16272426  0.16345555  0.30298967
   0.33368000  0.99986000  0.00108000
   0.32865781  0.00295403  0.36150129
   0.50008000  0.16606000  0.06164000
   0.33365000  0.99945000  0.12194000
   0.50013000  0.16657000  0.18176000
   0.33374000  0.99994000  0.24252000
   0.50526240  0.16460165  0.30286279
   0.83412000  0.16807000  0.06130000
   0.66767000  0.99972000  0.12168000
   0.66792000  0.00032000  0.24233000
   0.83160214  0.16663379  0.30541623
   0.00033000  0.33346000  0.00076000
   0.00118916  0.33173019  0.36155849
   0.16704000  0.50116000  0.06077000
   0.16627000  0.49940000  0.18238000
   0.00000000  0.33319000  0.24260000
   0.16013420  0.49985729  0.30104382
   0.49811000  0.50186000  0.06112000
   0.33328000  0.33434000  0.12148000
   0.50051000  0.50053000  0.18145000
   0.33392000  0.33269000  0.24229000
   0.50700272  0.50640119  0.30111481
   0.66687000  0.33418000  0.00129000
   0.66651373  0.33743180  0.36246896
   0.66670000  0.33332000  0.12177000
   0.83466000  0.49916000  0.18181000
   0.66748000  0.33291000  0.24234000
   0.99949000  0.66581000  0.00112000
   0.00315663  0.67008839  0.36319256
   0.16773000  0.83295000  0.06141000
   0.00149000  0.66672000  0.12196000
   0.16592000  0.83389000  0.18235000
   0.99950000  0.66635000  0.24245000
   0.16443011  0.83453356  0.30261354
   0.49825000  0.83185000  0.06189000
   0.50064000  0.83335000  0.18189000
   0.33424000  0.66627000  0.24239000
   0.66521000  0.66629000  0.00100000
   0.66767896  0.67190425  0.36271053
   0.83382000  0.83268000  0.06128000
   0.83390000  0.83311000  0.18191000
   0.66721000  0.66675000  0.24221000
   0.83448930  0.83164179  0.30353518
   0.49917436  0.51384754  0.44497520
   0.99760000  0.00330000  0.24221000
   0.66561000  0.99834000  0.00060000
   0.66208611  0.99512591  0.37005528
   0.83467000  0.16589000  0.18209000
   0.99866000  0.33404000  0.12198000
   0.33421000  0.33147000  0.00101000
   0.33572277  0.33601922  0.36829576
   0.83220000  0.50025000  0.06275000
   0.83474117  0.49989439  0.30447438
   0.33512000  0.67037000  0.00000000
   0.33110549  0.66892531  0.35960873
   0.33145000  0.66488000  0.12292000
   0.50155585  0.83360096  0.30584928
   0.67111000  0.66550000  0.12148000
Direct configuration=     8
   0.99950000  0.00032000  0.00103000
   0.99768573  0.99773542  0.36102470
   0.16670000  0.16592000  0.06160000
   0.99930000  0.00013000  0.12183000
   0.16670000  0.16692000  0.18170000
   0.16376796  0.16404502  0.30320914
   0.33368000  0.99986000  0.00108000
   0.33094960  0.00058290  0.36134624
   0.50008000  0.16606000  0.06164000
   0.33365000  0.99945000  0.12194000
   0.50013000  0.16657000  0.18176000
   0.33374000  0.99994000  0.24252000
   0.50340557  0.16650502  0.30304818
   0.83412000  0.16807000  0.06130000
   0.66767000  0.99972000  0.12168000
   0.66792000  0.00032000  0.24233000
   0.83276186  0.16673403  0.30491270
   0.00033000  0.33346000  0.00076000
   0.00195781  0.33183134  0.36167050
   0.16704000  0.50116000  0.06077000
   0.16627000  0.49940000  0.18238000
   0.00000000  0.33319000  0.24260000
   0.16237720  0.49973350  0.30200230
   0.49811000  0.50186000  0.06112000
   0.33328000  0.33434000  0.12148000
   0.50051000  0.50053000  0.18145000
   0.33392000  0.33269000  0.24229000
   0.50457672  0.50565105  0.30200457
   0.66687000  0.33418000  0.00129000
   0.66503435  0.33870141  0.36274851
   0.66670000  0.33332000  0.12177000
   0.83466000  0.49916000  0.18181000
   0.66748000  0.33291000  0.24234000
   0.99949000  0.66581000  0.00112000
   0.00372570  0.67000102  0.36313112
   0.16773000  0.83295000  0.06141000
   0.00149000  0.66672000  0.12196000
   0.16592000  0.83389000  0.18235000
   0.99950000  0.66635000  0.24245000
   0.16530265  0.83362802  0.30294063
   0.49825000  0.83185000  0.06189000
   0.50064000  0.83335000  0.18189000
   0.33424000  0.66627000  0.24239000
   0.66521000  0.66629000  0.00100000
   0.66462814  0.67230326  0.36267671
   0.83382000  0.83268000  0.06128000
   0.83390000  0.83311000  0.18191000
   0.66721000  0.66675000  0.24221000
   0.83511433  0.83210229  0.30312707
   0.49887068  0.51520432  0.44539954
   0.99760000  0.00330000  0.24221000
   0.66561000  0.99834000  0.00060000
   0.66182359  0.99493586  0.37003993
   0.83467000  0.16589000  0.18209000
   0.99866000  0.33404000  0.12198000
   0.33421000  0.33147000  0.00101000
   0.33742114  0.33615866  0.36693961
   0.83220000  0.50025000  0.06275000
   0.83427981  0.49995742  0.30439823
   0.33512000  0.67037000  0.00000000
   0.33001621  0.66838177  0.35935313
   0.33145000  0.66488000  0.12292000
   0.50153689  0.83351382  0.30665684
   0.67111000  0.66550000  0.12148000
Direct configuration=     9
   0.99950000  0.00032000  0.00103000
   0.99716008  0.99751756  0.36143088
   0.16670000  0.16592000  0.06160000
   0.99930000  0.00013000  0.12183000
   0.16670000  0.16692000  0.18170000
   0.16367321  0.16505677  0.30302342
   0.33368000  0.99986000  0.00108000
   0.32922079  0.00296855  0.36110864
   0.50008000  0.16606000  0.06164000
   0.33365000  0.99945000  0.12194000
   0.50013000  0.16657000  0.18176000
   0.33374000  0.99994000  0.24252000
   0.50231054  0.16689661  0.30303357
   0.83412000  0.16807000  0.06130000
   0.66767000  0.99972000  0.12168000
   0.66792000  0.00032000  0.24233000
   0.83259531  0.16663328  0.30465952
   0.00033000  0.33346000  0.00076000
   0.00055465  0.33210088  0.36164666
   0.16704000  0.50116000  0.06077000
   0.16627000  0.49940000  0.18238000
   0.00000000  0.33319000  0.24260000
   0.16234824  0.49944072  0.30169826
   0.49811000  0.50186000  0.06112000
   0.33328000  0.33434000  0.12148000
   0.50051000  0.50053000  0.18145000
   0.33392000  0.33269000  0.24229000
   0.50462593  0.50234095  0.30210424
   0.66687000  0.33418000  0.00129000
   0.66703604  0.33583192  0.36224981
   0.66670000  0.33332000  0.12177000
   0.83466000  0.49916000  0.18181000
   0.66748000  0.33291000  0.24234000
   0.99949000  0.66581000  0.00112000
   0.00244332  0.66994439  0.36293211
   0.16773000  0.83295000  0.06141000
   0.00149000  0.66672000  0.12196000
   0.16592000  0.83389000  0.18235000
   0.99950000  0.66635000  0.24245000
   0.16297560  0.83479009  0.30236603
   0.49825000  0.83185000  0.06189000
   0.50064000  0.83335000  0.18189000
   0.33424000  0.66627000  0.24239000
   0.66521000  0.66629000  0.00100000
   0.66901368  0.67094934  0.36276114
   0.83382000  0.83268000  0.06128000
   0.83390000  0.83311000  0.18191000
   0.66721000  0.66675000  0.24221000
   0.83493895  0.83214293  0.30337928
   0.50174311  0.51454072  0.44551403
   0.99760000  0.00330000  0.24221000
   0.66561000  0.99834000  0.00060000
   0.66149767  0.99525674  0.37038786
   0.83467000  0.16589000  0.18209000
   0.99866000  0.33404000  0.12198000
   0.33421000  0.33147000  0.00101000
   0.33425033  0.33432556  0.36734653
   0.83220000  0.50025000  0.06275000
   0.83469743  0.50001943  0.30433560
   0.33512000  0.67037000  0.00000000
   0.33161768  0.67192729  0.36063327
   0.33145000  0.66488000  0.12292000
   0.50089973  0.83381539  0.30577341
   0.67111000  0.66550000  0.12148000
Direct configuration=    10
   0.99950000  0.00032000  0.00103000
   0.99670983  0.99733094  0.36177879
   0.16670000  0.16592000  0.06160000
   0.99930000  0.00013000  0.12183000
   0.16670000  0.16692000  0.18170000
   0.16359206  0.16592339  0.30286434
   0.33368000  0.99986000  0.00108000
   0.32773996  0.00501199  0.36090512
   0.50008000  0.16606000  0.06164000
   0.33365000  0.99945000  0.12194000
   0.50013000  0.16657000  0.18176000
   0.33374000  0.99994000  0.24252000
   0.50137258  0.16723202  0.30302106
   0.83412000  0.16807000  0.06130000
   0.66767000  0.99972000  0.12168000
   0.66792000  0.00032000  0.24233000
   0.83245265  0.16654699  0.30444266
   0.00033000  0.33346000  0.00076000
   0.99935276  0.33233175  0.36162624
   0.16704000  0.50116000  0.06077000
   0.16627000  0.49940000  0.18238000
   0.00000000  0.33319000  0.24260000
   0.16232343  0.49918994  0.30143783
   0.49811000  0.50186000  0.06112000
   0.33328000  0.33434000  0.12148000
   0.50051000  0.50053000  0.18145000
   0.33392000  0.33269000  0.24229000
   0.50466808  0.49950566  0.30218960
   0.66687000  0.33418000  0.00129000
   0.66875060  0.33337404  0.36182265
   0.66670000  0.33332000  0.12177000
   0.83466000  0.49916000  0.18181000
   0.66748000  0.33291000  0.24234000
   0.99949000  0.66581000  0.00112000
   0.00134490  0.66989589  0.36276164
   0.16773000  0.83295000  0.06141000
   0.00149000  0.66672000  0.12196000
   0.16592000  0.83389000  0.18235000
   0.99950000  0.66635000  0.24245000
   0.16098235  0.83578547  0.30187386
   0.49825000  0.83185000  0.06189000
   0.50064000  0.83335000  0.18189000
   0.33424000  0.66627000  0.24239000
   0.66521000  0.66629000  0.00100000
   0.67277013  0.66978964  0.36283345
   0.83382000  0.83268000  0.06128000
   0.83390000  0.83311000  0.18191000
   0.66721000  0.66675000  0.24221000
   0.83478873  0.83217774  0.30359532
   0.50420351  0.51397232  0.44561210
   0.99760000  0.00330000  0.24221000
   0.66561000  0.99834000  0.00060000
   0.66121850  0.99553159  0.37068589
   0.83467000  0.16589000  0.18209000
   0.99866000  0.33404000  0.12198000
   0.33421000  0.33147000  0.00101000
   0.33153436  0.33275541  0.36769508
   0.83220000  0.50025000  0.06275000
   0.83505514  0.50007255  0.30428195
   0.33512000  0.67037000  0.00000000
   0.33298943  0.67496422  0.36172978
   0.33145000  0.66488000  0.12292000
   0.50035396  0.83407371  0.30501670
   0.67111000  0.66550000  0.12148000
Direct configuration=    11
   0.99950000  0.00032000  0.00103000
   0.99705359  0.99683956  0.36208888
   0.16670000  0.16592000  0.06160000
   0.99930000  0.00013000  0.12183000
   0.16670000  0.16692000  0.18170000
   0.16231789  0.16621974  0.30272873
   0.33368000  0.99986000  0.00108000
   0.32700085  0.00561733  0.36052169
   0.50008000  0.16606000  0.06164000
   0.33365000  0.99945000  0.12194000
   0.50013000  0.16657000  0.18176000
   0.33374000  0.99994000  0.24252000
   0.49992845  0.16761536  0.30306258
   0.83412000  0.16807000  0.06130000
   0.66767000  0.99972000  0.12168000
   0.66792000  0.00032000  0.24233000
   0.83348312  0.16525935  0.30374621
   0.00033000  0.33346000  0.00076000
   0.99879253  0.33286959  0.36166901
   0.16704000  0.50116000  0.06077000
   0.16627000  0.49940000  0.18238000
   0.00000000  0.33319000  0.24260000
   0.16410580  0.50026855  0.30230296
   0.49811000  0.50186000  0.06112000
   0.33328000  0.33434000  0.12148000
   0.50051000  0.50053000  0.18145000
   0.33392000  0.33269000  0.24229000
   0.50342823  0.49952506  0.30317571
   0.66687000  0.33418000  0.00129000
   0.66826437  0.33178221  0.36199629
   0.66670000  0.33332000  0.12177000
   0.83466000  0.49916000  0.18181000
   0.66748000  0.33291000  0.24234000
   0.99949000  0.66581000  0.00112000
   0.00020978  0.66984617  0.36261525
   0.16773000  0.83295000  0.06141000
   0.00149000  0.66672000  0.12196000
   0.16592000  0.83389000  0.18235000
   0.99950000  0.66635000  0.24245000
   0.16066766  0.83625851  0.30182196
   0.49825000  0.83185000  0.06189000
   0.50064000  0.83335000  0.18189000
   0.33424000  0.66627000  0.24239000
   0.66521000  0.66629000  0.00100000
   0.67475991  0.66733690  0.36279957
   0.83382000  0.83268000  0.06128000
   0.83390000  0.83311000  0.18191000
   0.66721000  0.66675000  0.24221000
   0.83436650  0.83368841  0.30318961
   0.50839507  0.51244007  0.44527290
   0.99760000  0.00330000  0.24221000
   0.66561000  0.99834000  0.00060000
   0.65950838  0.99479786  0.37079608
   0.83467000  0.16589000  0.18209000
   0.99866000  0.33404000  0.12198000
   0.33421000  0.33147000  0.00101000
   0.33090582  0.33347835  0.36782677
   0.83220000  0.50025000  0.06275000
   0.83472295  0.49989913  0.30390394
   0.33512000  0.67037000  0.00000000
   0.33410527  0.67775715  0.36271436
   0.33145000  0.66488000  0.12292000
   0.50042190  0.83371921  0.30538555
   0.67111000  0.66550000  0.12148000
Direct configuration=    12
   0.99950000  0.00032000  0.00103000
   0.99732474  0.99645197  0.36233347
   0.16670000  0.16592000  0.06160000
   0.99930000  0.00013000  0.12183000
   0.16670000  0.16692000  0.18170000
   0.16131283  0.16645350  0.30262177
   0.33368000  0.99986000  0.00108000
   0.32641784  0.00609482  0.36021924
   0.50008000  0.16606000  0.06164000
   0.33365000  0.99945000  0.12194000
   0.50013000  0.16657000  0.18176000
   0.33374000  0.99994000  0.24252000
   0.49878932  0.16791773  0.30309534
   0.83412000  0.16807000  0.06130000
   0.66767000  0.99972000  0.12168000
   0.66792000  0.00032000  0.24233000
   0.83429595  0.16424367  0.30319685
   0.00033000  0.33346000  0.00076000
   0.99835062  0.33329384  0.36170275
   0.16704000  0.50116000  0.06077000
   0.16627000  0.49940000  0.18238000
   0.00000000  0.33319000  0.24260000
   0.16551173  0.50111936  0.30298537
   0.49811000  0.50186000  0.06112000
   0.33328000  0.33434000  0.12148000
   0.50051000  0.50053000  0.18145000
   0.33392000  0.33269000  0.24229000
   0.50245025  0.49954036  0.30395354
   0.66687000  0.33418000  0.00129000
   0.66788083  0.33052658  0.36213326
   0.66670000  0.33332000  0.12177000
   0.83466000  0.49916000  0.18181000
   0.66748000  0.33291000  0.24234000
   0.99949000  0.66581000  0.00112000
   0.99931441  0.66980694  0.36249977
   0.16773000  0.83295000  0.06141000
   0.00149000  0.66672000  0.12196000
   0.16592000  0.83389000  0.18235000
   0.99950000  0.66635000  0.24245000
   0.16041943  0.83663164  0.30178102
   0.49825000  0.83185000  0.06189000
   0.50064000  0.83335000  0.18189000
   0.33424000  0.66627000  0.24239000
   0.66521000  0.66629000  0.00100000
   0.67632944  0.66540219  0.36277284
   0.83382000  0.83268000  0.06128000
   0.83390000  0.83311000  0.18191000
   0.66721000  0.66675000  0.24221000
   0.83403345  0.83488001  0.30286959
   0.51170135  0.51123143  0.44500535
   0.99760000  0.00330000  0.24221000
   0.66561000  0.99834000  0.00060000
   0.65815945  0.99421910  0.37088300
   0.83467000  0.16589000  0.18209000
   0.99866000  0.33404000  0.12198000
   0.33421000  0.33147000  0.00101000
   0.33041003  0.33404860  0.36793064
   0.83220000  0.50025000  0.06275000
   0.83446091  0.49976233  0.30360576
   0.33512000  0.67037000  0.00000000
   0.33498545  0.67996020  0.36349098
   0.33145000  0.66488000  0.12292000
   0.50047549  0.83343958  0.30567650
   0.67111000  0.66550000  0.12148000
Direct configuration=    13
   0.99950000  0.00032000  0.00103000
   0.99779090  0.99562441  0.36240842
   0.16670000  0.16592000  0.06160000
   0.99930000  0.00013000  0.12183000
   0.16670000  0.16692000  0.18170000
   0.16114160  0.16689890  0.30286229
   0.33368000  0.99986000  0.00108000
   0.32523371  0.00699088  0.36015095
   0.50008000  0.16606000  0.06164000
   0.33365000  0.99945000  0.12194000
   0.50013000  0.16657000  0.18176000
   0.33374000  0.99994000  0.24252000
   0.49932613  0.16762387  0.30306365
   0.83412000  0.16807000  0.06130000
   0.66767000  0.99972000  0.12168000
   0.66792000  0.00032000  0.24233000
   0.83309382  0.16450005  0.30360250
   0.00033000  0.33346000  0.00076000
   0.99793701  0.33400544  0.36146140
   0.16704000  0.50116000  0.06077000
   0.16627000  0.49940000  0.18238000
   0.00000000  0.33319000  0.24260000
   0.16490666  0.50228136  0.30315080
   0.49811000  0.50186000  0.06112000
   0.33328000  0.33434000  0.12148000
   0.50051000  0.50053000  0.18145000
   0.33392000  0.33269000  0.24229000
   0.50299367  0.50129188  0.30407313
   0.66687000  0.33418000  0.00129000
   0.66737408  0.32882702  0.36200418
   0.66670000  0.33332000  0.12177000
   0.83466000  0.49916000  0.18181000
   0.66748000  0.33291000  0.24234000
   0.99949000  0.66581000  0.00112000
   0.99787474  0.67062156  0.36249750
   0.16773000  0.83295000  0.06141000
   0.00149000  0.66672000  0.12196000
   0.16592000  0.83389000  0.18235000
   0.99950000  0.66635000  0.24245000
   0.16123166  0.83608952  0.30197676
   0.49825000  0.83185000  0.06189000
   0.50064000  0.83335000  0.18189000
   0.33424000  0.66627000  0.24239000
   0.66521000  0.66629000  0.00100000
   0.67845247  0.66335351  0.36232505
   0.83382000  0.83268000  0.06128000
   0.83390000  0.83311000  0.18191000
   0.66721000  0.66675000  0.24221000
   0.83379244  0.83457265  0.30273763
   0.51602418  0.50882881  0.44481678
   0.99760000  0.00330000  0.24221000
   0.66561000  0.99834000  0.00060000
   0.65684388  0.99303817  0.37063856
   0.83467000  0.16589000  0.18209000
   0.99866000  0.33404000  0.12198000
   0.33421000  0.33147000  0.00101000
   0.33062359  0.33476269  0.36838877
   0.83220000  0.50025000  0.06275000
   0.83449071  0.49921919  0.30333709
   0.33512000  0.67037000  0.00000000
   0.33572689  0.68178179  0.36443587
   0.33145000  0.66488000  0.12292000
   0.50068378  0.83330580  0.30605889
   0.67111000  0.66550000  0.12148000
Direct configuration=    14
   0.99950000  0.00032000  0.00103000
   0.99812784  0.99502627  0.36246260
   0.16670000  0.16592000  0.06160000
   0.99930000  0.00013000  0.12183000
   0.16670000  0.16692000  0.18170000
   0.16101785  0.16722084  0.30303613
   0.33368000  0.99986000  0.00108000
   0.32437784  0.00763854  0.36010160
   0.50008000  0.16606000  0.06164000
   0.33365000  0.99945000  0.12194000
   0.50013000  0.16657000  0.18176000
   0.33374000  0.99994000  0.24252000
   0.49971413  0.16741147  0.30304074
   0.83412000  0.16807000  0.06130000
   0.66767000  0.99972000  0.12168000
   0.66792000  0.00032000  0.24233000
   0.83222494  0.16468536  0.30389569
   0.00033000  0.33346000  0.00076000
   0.99763806  0.33451978  0.36128696
   0.16704000  0.50116000  0.06077000
   0.16627000  0.49940000  0.18238000
   0.00000000  0.33319000  0.24260000
   0.16446932  0.50312125  0.30327037
   0.49811000  0.50186000  0.06112000
   0.33328000  0.33434000  0.12148000
   0.50051000  0.50053000  0.18145000
   0.33392000  0.33269000  0.24229000
   0.50338645  0.50255787  0.30415956
   0.66687000  0.33418000  0.00129000
   0.66700781  0.32759860  0.36191088
   0.66670000  0.33332000  0.12177000
   0.83466000  0.49916000  0.18181000
   0.66748000  0.33291000  0.24234000
   0.99949000  0.66581000  0.00112000
   0.99683417  0.67121036  0.36249586
   0.16773000  0.83295000  0.06141000
   0.00149000  0.66672000  0.12196000
   0.16592000  0.83389000  0.18235000
   0.99950000  0.66635000  0.24245000
   0.16181872  0.83569768  0.30211824
   0.49825000  0.83185000  0.06189000
   0.50064000  0.83335000  0.18189000
   0.33424000  0.66627000  0.24239000
   0.66521000  0.66629000  0.00100000
   0.67998698  0.66187274  0.36200139
   0.83382000  0.83268000  0.06128000
   0.83390000  0.83311000  0.18191000
   0.66721000  0.66675000  0.24221000
   0.83361824  0.83435050  0.30264225
   0.51914867  0.50709223  0.44468048
   0.99760000  0.00330000  0.24221000
   0.66561000  0.99834000  0.00060000
   0.65589300  0.99218461  0.37046189
   0.83467000  0.16589000  0.18209000
   0.99866000  0.33404000  0.12198000
   0.33421000  0.33147000  0.00101000
   0.33077795  0.33527882  0.36871990
   0.83220000  0.50025000  0.06275000
   0.83451225  0.49882661  0.30314289
   0.33512000  0.67037000  0.00000000
   0.33626279  0.68309841  0.36511883
   0.33145000  0.66488000  0.12292000
   0.50083433  0.83320911  0.30633528
   0.67111000  0.66550000  0.12148000
Direct configuration=    15
   0.99950000  0.00032000  0.00103000
   0.99833638  0.99349271  0.36229081
   0.16670000  0.16592000  0.06160000
   0.99930000  0.00013000  0.12183000
   0.16670000  0.16692000  0.18170000
   0.16117084  0.16780186  0.30306575
   0.33368000  0.99986000  0.00108000
   0.32358328  0.00888282  0.36052271
   0.50008000  0.16606000  0.06164000
   0.33365000  0.99945000  0.12194000
   0.50013000  0.16657000  0.18176000
   0.33374000  0.99994000  0.24252000
   0.49918237  0.16776245  0.30288065
   0.83412000  0.16807000  0.06130000
   0.66767000  0.99972000  0.12168000
   0.66792000  0.00032000  0.24233000
   0.83225175  0.16419187  0.30403629
   0.00033000  0.33346000  0.00076000
   0.99745252  0.33586166  0.36115454
   0.16704000  0.50116000  0.06077000
   0.16627000  0.49940000  0.18238000
   0.00000000  0.33319000  0.24260000
   0.16454557  0.50288127  0.30301278
   0.49811000  0.50186000  0.06112000
   0.33328000  0.33434000  0.12148000
   0.50051000  0.50053000  0.18145000
   0.33392000  0.33269000  0.24229000
   0.50316932  0.50186005  0.30370727
   0.66687000  0.33418000  0.00129000
   0.66667778  0.32646241  0.36176343
   0.66670000  0.33332000  0.12177000
   0.83466000  0.49916000  0.18181000
   0.66748000  0.33291000  0.24234000
   0.99949000  0.66581000  0.00112000
   0.99545260  0.67296398  0.36293328
   0.16773000  0.83295000  0.06141000
   0.00149000  0.66672000  0.12196000
   0.16592000  0.83389000  0.18235000
   0.99950000  0.66635000  0.24245000
   0.16168044  0.83596736  0.30197524
   0.49825000  0.83185000  0.06189000
   0.50064000  0.83335000  0.18189000
   0.33424000  0.66627000  0.24239000
   0.66521000  0.66629000  0.00100000
   0.68204209  0.66008825  0.36192530
   0.83382000  0.83268000  0.06128000
   0.83390000  0.83311000  0.18191000
   0.66721000  0.66675000  0.24221000
   0.83422584  0.83456000  0.30248312
   0.52330310  0.50504898  0.44484545
   0.99760000  0.00330000  0.24221000
   0.66561000  0.99834000  0.00060000
   0.65554921  0.99015425  0.37029358
   0.83467000  0.16589000  0.18209000
   0.99866000  0.33404000  0.12198000
   0.33421000  0.33147000  0.00101000
   0.33134010  0.33605955  0.36893209
   0.83220000  0.50025000  0.06275000
   0.83474038  0.49841188  0.30289989
   0.33512000  0.67037000  0.00000000
   0.33743274  0.68279824  0.36608771
   0.33145000  0.66488000  0.12292000
   0.50052904  0.83372472  0.30610419
   0.67111000  0.66550000  0.12148000
Direct configuration=    16
   0.99950000  0.00032000  0.00103000
   0.99849103  0.99235552  0.36216341
   0.16670000  0.16592000  0.06160000
   0.99930000  0.00013000  0.12183000
   0.16670000  0.16692000  0.18170000
   0.16128429  0.16823272  0.30308772
   0.33368000  0.99986000  0.00108000
   0.32299409  0.00980550  0.36083498
   0.50008000  0.16606000  0.06164000
   0.33365000  0.99945000  0.12194000
   0.50013000  0.16657000  0.18176000
   0.33374000  0.99994000  0.24252000
   0.49878805  0.16802271  0.30276193
   0.83412000  0.16807000  0.06130000
   0.66767000  0.99972000  0.12168000
   0.66792000  0.00032000  0.24233000
   0.83227164  0.16382593  0.30414055
   0.00033000  0.33346000  0.00076000
   0.99731494  0.33685670  0.36105635
   0.16704000  0.50116000  0.06077000
   0.16627000  0.49940000  0.18238000
   0.00000000  0.33319000  0.24260000
   0.16460211  0.50270333  0.30282178
   0.49811000  0.50186000  0.06112000
   0.33328000  0.33434000  0.12148000
   0.50051000  0.50053000  0.18145000
   0.33392000  0.33269000  0.24229000
   0.50300831  0.50134260  0.30337188
   0.66687000  0.33418000  0.00129000
   0.66643305  0.32561989  0.36165409
   0.66670000  0.33332000  0.12177000
   0.83466000  0.49916000  0.18181000
   0.66748000  0.33291000  0.24234000
   0.99949000  0.66581000  0.00112000
   0.99442812  0.67426435  0.36325764
   0.16773000  0.83295000  0.06141000
   0.00149000  0.66672000  0.12196000
   0.16592000  0.83389000  0.18235000
   0.99950000  0.66635000  0.24245000
   0.16157790  0.83616734  0.30186920
   0.49825000  0.83185000  0.06189000
   0.50064000  0.83335000  0.18189000
   0.33424000  0.66627000  0.24239000
   0.66521000  0.66629000  0.00100000
   0.68356602  0.65876498  0.36186887
   0.83382000  0.83268000  0.06128000
   0.83390000  0.83311000  0.18191000
   0.66721000  0.66675000  0.24221000
   0.83467641  0.83471534  0.30236513
   0.52638375  0.50353384  0.44496777
   0.99760000  0.00330000  0.24221000
   0.66561000  0.99834000  0.00060000
   0.65529427  0.98864866  0.37016878
   0.83467000  0.16589000  0.18209000
   0.99866000  0.33404000  0.12198000
   0.33421000  0.33147000  0.00101000
   0.33175694  0.33663849  0.36908944
   0.83220000  0.50025000  0.06275000
   0.83490955  0.49810435  0.30271969
   0.33512000  0.67037000  0.00000000
   0.33830030  0.68257566  0.36680617
   0.33145000  0.66488000  0.12292000
   0.50030266  0.83410707  0.30593283
   0.67111000  0.66550000  0.12148000
Direct configuration=    17
   0.99950000  0.00032000  0.00103000
   0.99853615  0.99202373  0.36212624
   0.16670000  0.16592000  0.06160000
   0.99930000  0.00013000  0.12183000
   0.16670000  0.16692000  0.18170000
   0.16131739  0.16835842  0.30309413
   0.33368000  0.99986000  0.00108000
   0.32282218  0.01007470  0.36092609
   0.50008000  0.16606000  0.06164000
   0.33365000  0.99945000  0.12194000
   0.50013000  0.16657000  0.18176000
   0.33374000  0.99994000  0.24252000
   0.49867300  0.16809865  0.30272730
   0.83412000  0.16807000  0.06130000
   0.66767000  0.99972000  0.12168000
   0.66792000  0.00032000  0.24233000
   0.83227744  0.16371916  0.30417097
   0.00033000  0.33346000  0.00076000
   0.99727480  0.33714702  0.36102771
   0.16704000  0.50116000  0.06077000
   0.16627000  0.49940000  0.18238000
   0.00000000  0.33319000  0.24260000
   0.16461860  0.50265141  0.30276605
   0.49811000  0.50186000  0.06112000
   0.33328000  0.33434000  0.12148000
   0.50051000  0.50053000  0.18145000
   0.33392000  0.33269000  0.24229000
   0.50296133  0.50119162  0.30327402
   0.66687000  0.33418000  0.00129000
   0.66636164  0.32537407  0.36162219
   0.66670000  0.33332000  0.12177000
   0.83466000  0.49916000  0.18181000
   0.66748000  0.33291000  0.24234000
   0.99949000  0.66581000  0.00112000
   0.99412921  0.67464376  0.36335228
   0.16773000  0.83295000  0.06141000
   0.00149000  0.66672000  0.12196000
   0.16592000  0.83389000  0.18235000
   0.99950000  0.66635000  0.24245000
   0.16154798  0.83622569  0.30183826
   0.49825000  0.83185000  0.06189000
   0.50064000  0.83335000  0.18189000
   0.33424000  0.66627000  0.24239000
   0.66521000  0.66629000  0.00100000
   0.68401065  0.65837890  0.36185241
   0.83382000  0.83268000  0.06128000
   0.83390000  0.83311000  0.18191000
   0.66721000  0.66675000  0.24221000
   0.83480786  0.83476067  0.30233070
   0.52728258  0.50309178  0.44500346
   0.99760000  0.00330000  0.24221000
   0.66561000  0.99834000  0.00060000
   0.65521989  0.98820938  0.37013236
   0.83467000  0.16589000  0.18209000
   0.99866000  0.33404000  0.12198000
   0.33421000  0.33147000  0.00101000
   0.33187856  0.33680741  0.36913535
   0.83220000  0.50025000  0.06275000
   0.83495890  0.49801462  0.30266711
   0.33512000  0.67037000  0.00000000
   0.33855342  0.68251072  0.36701579
   0.33145000  0.66488000  0.12292000
   0.50023662  0.83421863  0.30588283
   0.67111000  0.66550000  0.12148000
Direct configuration=    18
   0.99950000  0.00032000  0.00103000
   0.99929733  0.99026864  0.36230349
   0.16670000  0.16592000  0.06160000
   0.99930000  0.00013000  0.12183000
   0.16670000  0.16692000  0.18170000
   0.16135126  0.16840541  0.30326532
   0.33368000  0.99986000  0.00108000
   0.32247271  0.01103742  0.36122068
   0.50008000  0.16606000  0.06164000
   0.33365000  0.99945000  0.12194000
   0.50013000  0.16657000  0.18176000
   0.33374000  0.99994000  0.24252000
   0.49812747  0.16682069  0.30300317
   0.83412000  0.16807000  0.06130000
   0.66767000  0.99972000  0.12168000
   0.66792000  0.00032000  0.24233000
   0.83316925  0.16334923  0.30365095
   0.00033000  0.33346000  0.00076000
   0.99782899  0.33929760  0.36105268
   0.16704000  0.50116000  0.06077000
   0.16627000  0.49940000  0.18238000
   0.00000000  0.33319000  0.24260000
   0.16549991  0.50295034  0.30300320
   0.49811000  0.50186000  0.06112000
   0.33328000  0.33434000  0.12148000
   0.50051000  0.50053000  0.18145000
   0.33392000  0.33269000  0.24229000
   0.50303774  0.50080599  0.30312619
   0.66687000  0.33418000  0.00129000
   0.66658010  0.32466787  0.36128259
   0.66670000  0.33332000  0.12177000
   0.83466000  0.49916000  0.18181000
   0.66748000  0.33291000  0.24234000
   0.99949000  0.66581000  0.00112000
   0.99280995  0.67626686  0.36394046
   0.16773000  0.83295000  0.06141000
   0.00149000  0.66672000  0.12196000
   0.16592000  0.83389000  0.18235000
   0.99950000  0.66635000  0.24245000
   0.16323611  0.83587863  0.30190402
   0.49825000  0.83185000  0.06189000
   0.50064000  0.83335000  0.18189000
   0.33424000  0.66627000  0.24239000
   0.66521000  0.66629000  0.00100000
   0.68627538  0.65617467  0.36189146
   0.83382000  0.83268000  0.06128000
   0.83390000  0.83311000  0.18191000
   0.66721000  0.66675000  0.24221000
   0.83334337  0.83442035  0.30188274
   0.53156926  0.50135731  0.44575183
   0.99760000  0.00330000  0.24221000
   0.66561000  0.99834000  0.00060000
   0.65495585  0.98606074  0.36985575
   0.83467000  0.16589000  0.18209000
   0.99866000  0.33404000  0.12198000
   0.33421000  0.33147000  0.00101000
   0.33206879  0.33748661  0.36902671
   0.83220000  0.50025000  0.06275000
   0.83508916  0.49816782  0.30241930
   0.33512000  0.67037000  0.00000000
   0.33935867  0.68163289  0.36745758
   0.33145000  0.66488000  0.12292000
   0.49965206  0.83406948  0.30553622
   0.67111000  0.66550000  0.12148000
Direct configuration=    19
   0.99950000  0.00032000  0.00103000
   0.99920849  0.99047349  0.36228280
   0.16670000  0.16592000  0.06160000
   0.99930000  0.00013000  0.12183000
   0.16670000  0.16692000  0.18170000
   0.16134731  0.16839992  0.30324534
   0.33368000  0.99986000  0.00108000
   0.32251350  0.01092505  0.36118629
   0.50008000  0.16606000  0.06164000
   0.33365000  0.99945000  0.12194000
   0.50013000  0.16657000  0.18176000
   0.33374000  0.99994000  0.24252000
   0.49819114  0.16696985  0.30297097
   0.83412000  0.16807000  0.06130000
   0.66767000  0.99972000  0.12168000
   0.66792000  0.00032000  0.24233000
   0.83306517  0.16339240  0.30371165
   0.00033000  0.33346000  0.00076000
   0.99776431  0.33904660  0.36104976
   0.16704000  0.50116000  0.06077000
   0.16627000  0.49940000  0.18238000
   0.00000000  0.33319000  0.24260000
   0.16539704  0.50291545  0.30297552
   0.49811000  0.50186000  0.06112000
   0.33328000  0.33434000  0.12148000
   0.50051000  0.50053000  0.18145000
   0.33392000  0.33269000  0.24229000
   0.50302882  0.50085100  0.30314345
   0.66687000  0.33418000  0.00129000
   0.66655460  0.32475030  0.36132223
   0.66670000  0.33332000  0.12177000
   0.83466000  0.49916000  0.18181000
   0.66748000  0.33291000  0.24234000
   0.99949000  0.66581000  0.00112000
   0.99296393  0.67607742  0.36387181
   0.16773000  0.83295000  0.06141000
   0.00149000  0.66672000  0.12196000
   0.16592000  0.83389000  0.18235000
   0.99950000  0.66635000  0.24245000
   0.16303908  0.83591913  0.30189635
   0.49825000  0.83185000  0.06189000
   0.50064000  0.83335000  0.18189000
   0.33424000  0.66627000  0.24239000
   0.66521000  0.66629000  0.00100000
   0.68601106  0.65643194  0.36188691
   0.83382000  0.83268000  0.06128000
   0.83390000  0.83311000  0.18191000
   0.66721000  0.66675000  0.24221000
   0.83351430  0.83446007  0.30193502
   0.53106894  0.50155975  0.44566448
   0.99760000  0.00330000  0.24221000
   0.66561000  0.99834000  0.00060000
   0.65498667  0.98631152  0.36988804
   0.83467000  0.16589000  0.18209000
   0.99866000  0.33404000  0.12198000
   0.33421000  0.33147000  0.00101000
   0.33204659  0.33740734  0.36903939
   0.83220000  0.50025000  0.06275000
   0.83507395  0.49814994  0.30244823
   0.33512000  0.67037000  0.00000000
   0.33926468  0.68173535  0.36740601
   0.33145000  0.66488000  0.12292000
   0.49972029  0.83408689  0.30557667
   0.67111000  0.66550000  0.12148000
Direct configuration=    20
   0.99950000  0.00032000  0.00103000
   0.99951639  0.98986714  0.36225649
   0.16670000  0.16592000  0.06160000
   0.99930000  0.00013000  0.12183000
   0.16670000  0.16692000  0.18170000
   0.16107064  0.16807153  0.30338937
   0.33368000  0.99986000  0.00108000
   0.32273819  0.01025582  0.36121757
   0.50008000  0.16606000  0.06164000
   0.33365000  0.99945000  0.12194000
   0.50013000  0.16657000  0.18176000
   0.33374000  0.99994000  0.24252000
   0.49858319  0.16661491  0.30308525
   0.83412000  0.16807000  0.06130000
   0.66767000  0.99972000  0.12168000
   0.66792000  0.00032000  0.24233000
   0.83326756  0.16359994  0.30369452
   0.00033000  0.33346000  0.00076000
   0.99813443  0.33967726  0.36109791
   0.16704000  0.50116000  0.06077000
   0.16627000  0.49940000  0.18238000
   0.00000000  0.33319000  0.24260000
   0.16521264  0.50355863  0.30316096
   0.49811000  0.50186000  0.06112000
   0.33328000  0.33434000  0.12148000
   0.50051000  0.50053000  0.18145000
   0.33392000  0.33269000  0.24229000
   0.50343770  0.50127467  0.30340861
   0.66687000  0.33418000  0.00129000
   0.66707139  0.32479643  0.36115534
   0.66670000  0.33332000  0.12177000
   0.83466000  0.49916000  0.18181000
   0.66748000  0.33291000  0.24234000
   0.99949000  0.66581000  0.00112000
   0.99294120  0.67616123  0.36386935
   0.16773000  0.83295000  0.06141000
   0.00149000  0.66672000  0.12196000
   0.16592000  0.83389000  0.18235000
   0.99950000  0.66635000  0.24245000
   0.16274010  0.83556010  0.30208405
   0.49825000  0.83185000  0.06189000
   0.50064000  0.83335000  0.18189000
   0.33424000  0.66627000  0.24239000
   0.66521000  0.66629000  0.00100000
   0.68617499  0.65583099  0.36212945
   0.83382000  0.83268000  0.06128000
   0.83390000  0.83311000  0.18191000
   0.66721000  0.66675000  0.24221000
   0.83377229  0.83418100  0.30195069
   0.53175129  0.50133114  0.44593417
   0.99760000  0.00330000  0.24221000
   0.66561000  0.99834000  0.00060000
   0.65523280  0.98612492  0.36970775
   0.83467000  0.16589000  0.18209000
   0.99866000  0.33404000  0.12198000
   0.33421000  0.33147000  0.00101000
   0.33252927  0.33743544  0.36897025
   0.83220000  0.50025000  0.06275000
   0.83536043  0.49837528  0.30238277
   0.33512000  0.67037000  0.00000000
   0.33974459  0.68131075  0.36715605
   0.33145000  0.66488000  0.12292000
   0.49980007  0.83310549  0.30570816
   0.67111000  0.66550000  0.12148000
Direct configuration=    21
   0.99950000  0.00032000  0.00103000
   0.99953268  0.98983507  0.36225510
   0.16670000  0.16592000  0.06160000
   0.99930000  0.00013000  0.12183000
   0.16670000  0.16692000  0.18170000
   0.16105601  0.16805416  0.30339699
   0.33368000  0.99986000  0.00108000
   0.32275007  0.01022043  0.36121922
   0.50008000  0.16606000  0.06164000
   0.33365000  0.99945000  0.12194000
   0.50013000  0.16657000  0.18176000
   0.33374000  0.99994000  0.24252000
   0.49860392  0.16659615  0.30309129
   0.83412000  0.16807000  0.06130000
   0.66767000  0.99972000  0.12168000
   0.66792000  0.00032000  0.24233000
   0.83327826  0.16361092  0.30369361
   0.00033000  0.33346000  0.00076000
   0.99815400  0.33971061  0.36110045
   0.16704000  0.50116000  0.06077000
   0.16627000  0.49940000  0.18238000
   0.00000000  0.33319000  0.24260000
   0.16520289  0.50359265  0.30317077
   0.49811000  0.50186000  0.06112000
   0.33328000  0.33434000  0.12148000
   0.50051000  0.50053000  0.18145000
   0.33392000  0.33269000  0.24229000
   0.50345932  0.50129708  0.30342263
   0.66687000  0.33418000  0.00129000
   0.66709872  0.32479887  0.36114651
   0.66670000  0.33332000  0.12177000
   0.83466000  0.49916000  0.18181000
   0.66748000  0.33291000  0.24234000
   0.99949000  0.66581000  0.00112000
   0.99293999  0.67616566  0.36386922
   0.16773000  0.83295000  0.06141000
   0.00149000  0.66672000  0.12196000
   0.16592000  0.83389000  0.18235000
   0.99950000  0.66635000  0.24245000
   0.16272429  0.83554111  0.30209398
   0.49825000  0.83185000  0.06189000
   0.50064000  0.83335000  0.18189000
   0.33424000  0.66627000  0.24239000
   0.66521000  0.66629000  0.00100000
   0.68618366  0.65579921  0.36214228
   0.83382000  0.83268000  0.06128000
   0.83390000  0.83311000  0.18191000
   0.66721000  0.66675000  0.24221000
   0.83378593  0.83416624  0.30195152
   0.53178738  0.50131905  0.44594843
   0.99760000  0.00330000  0.24221000
   0.66561000  0.99834000  0.00060000
   0.65524582  0.98611505  0.36969822
   0.83467000  0.16589000  0.18209000
   0.99866000  0.33404000  0.12198000
   0.33421000  0.33147000  0.00101000
   0.33255480  0.33743692  0.36896660
   0.83220000  0.50025000  0.06275000
   0.83537558  0.49838720  0.30237931
   0.33512000  0.67037000  0.00000000
   0.33976997  0.68128830  0.36714283
   0.33145000  0.66488000  0.12292000
   0.49980429  0.83305359  0.30571511
   0.67111000  0.66550000  0.12148000
Direct configuration=    22
   0.99950000  0.00032000  0.00103000
   0.99947971  0.98970257  0.36232341
   0.16670000  0.16592000  0.06160000
   0.99930000  0.00013000  0.12183000
   0.16670000  0.16692000  0.18170000
   0.16129450  0.16807139  0.30348142
   0.33368000  0.99986000  0.00108000
   0.32309389  0.00949897  0.36118865
   0.50008000  0.16606000  0.06164000
   0.33365000  0.99945000  0.12194000
   0.50013000  0.16657000  0.18176000
   0.33374000  0.99994000  0.24252000
   0.49860323  0.16656355  0.30303692
   0.83412000  0.16807000  0.06130000
   0.66767000  0.99972000  0.12168000
   0.66792000  0.00032000  0.24233000
   0.83348252  0.16355551  0.30369599
   0.00033000  0.33346000  0.00076000
   0.99837239  0.34007107  0.36119190
   0.16704000  0.50116000  0.06077000
   0.16627000  0.49940000  0.18238000
   0.00000000  0.33319000  0.24260000
   0.16546293  0.50350581  0.30313026
   0.49811000  0.50186000  0.06112000
   0.33328000  0.33434000  0.12148000
   0.50051000  0.50053000  0.18145000
   0.33392000  0.33269000  0.24229000
   0.50371529  0.50108368  0.30338962
   0.66687000  0.33418000  0.00129000
   0.66759092  0.32499038  0.36119599
   0.66670000  0.33332000  0.12177000
   0.83466000  0.49916000  0.18181000
   0.66748000  0.33291000  0.24234000
   0.99949000  0.66581000  0.00112000
   0.99303041  0.67588771  0.36399937
   0.16773000  0.83295000  0.06141000
   0.00149000  0.66672000  0.12196000
   0.16592000  0.83389000  0.18235000
   0.99950000  0.66635000  0.24245000
   0.16306206  0.83530871  0.30205135
   0.49825000  0.83185000  0.06189000
   0.50064000  0.83335000  0.18189000
   0.33424000  0.66627000  0.24239000
   0.66521000  0.66629000  0.00100000
   0.68636286  0.65559792  0.36235416
   0.83382000  0.83268000  0.06128000
   0.83390000  0.83311000  0.18191000
   0.66721000  0.66675000  0.24221000
   0.83367406  0.83402326  0.30194168
   0.53190033  0.50110165  0.44606700
   0.99760000  0.00330000  0.24221000
   0.66561000  0.99834000  0.00060000
   0.65570646  0.98603229  0.36960601
   0.83467000  0.16589000  0.18209000
   0.99866000  0.33404000  0.12198000
   0.33421000  0.33147000  0.00101000
   0.33306814  0.33727401  0.36895150
   0.83220000  0.50025000  0.06275000
   0.83552998  0.49852051  0.30236306
   0.33512000  0.67037000  0.00000000
   0.34023241  0.68097481  0.36701083
   0.33145000  0.66488000  0.12292000
   0.49990417  0.83280121  0.30577128
   0.67111000  0.66550000  0.12148000
Direct configuration=    23
   0.99950000  0.00032000  0.00103000
   0.99944301  0.98961074  0.36237074
   0.16670000  0.16592000  0.06160000
   0.99930000  0.00013000  0.12183000
   0.16670000  0.16692000  0.18170000
   0.16145978  0.16808333  0.30353994
   0.33368000  0.99986000  0.00108000
   0.32333215  0.00899898  0.36116747
   0.50008000  0.16606000  0.06164000
   0.33365000  0.99945000  0.12194000
   0.50013000  0.16657000  0.18176000
   0.33374000  0.99994000  0.24252000
   0.49860275  0.16654096  0.30299925
   0.83412000  0.16807000  0.06130000
   0.66767000  0.99972000  0.12168000
   0.66792000  0.00032000  0.24233000
   0.83362407  0.16351712  0.30369764
   0.00033000  0.33346000  0.00076000
   0.99852374  0.34032088  0.36125528
   0.16704000  0.50116000  0.06077000
   0.16627000  0.49940000  0.18238000
   0.00000000  0.33319000  0.24260000
   0.16564314  0.50344563  0.30310219
   0.49811000  0.50186000  0.06112000
   0.33328000  0.33434000  0.12148000
   0.50051000  0.50053000  0.18145000
   0.33392000  0.33269000  0.24229000
   0.50389268  0.50093579  0.30336674
   0.66687000  0.33418000  0.00129000
   0.66793201  0.32512309  0.36123028
   0.66670000  0.33332000  0.12177000
   0.83466000  0.49916000  0.18181000
   0.66748000  0.33291000  0.24234000
   0.99949000  0.66581000  0.00112000
   0.99309307  0.67569508  0.36408956
   0.16773000  0.83295000  0.06141000
   0.00149000  0.66672000  0.12196000
   0.16592000  0.83389000  0.18235000
   0.99950000  0.66635000  0.24245000
   0.16329613  0.83514765  0.30202181
   0.49825000  0.83185000  0.06189000
   0.50064000  0.83335000  0.18189000
   0.33424000  0.66627000  0.24239000
   0.66521000  0.66629000  0.00100000
   0.68648704  0.65545843  0.36250099
   0.83382000  0.83268000  0.06128000
   0.83390000  0.83311000  0.18191000
   0.66721000  0.66675000  0.24221000
   0.83359653  0.83392417  0.30193485
   0.53197860  0.50095100  0.44614917
   0.99760000  0.00330000  0.24221000
   0.66561000  0.99834000  0.00060000
   0.65602569  0.98597494  0.36954210
   0.83467000  0.16589000  0.18209000
   0.99866000  0.33404000  0.12198000
   0.33421000  0.33147000  0.00101000
   0.33342389  0.33716111  0.36894103
   0.83220000  0.50025000  0.06275000
   0.83563698  0.49861290  0.30235179
   0.33512000  0.67037000  0.00000000
   0.34055289  0.68075755  0.36691935
   0.33145000  0.66488000  0.12292000
   0.49997338  0.83262631  0.30581021
   0.67111000  0.66550000  0.12148000
Direct configuration=    24
   0.99950000  0.00032000  0.00103000
   0.99941358  0.98942327  0.36229377
   0.16670000  0.16592000  0.06160000
   0.99930000  0.00013000  0.12183000
   0.16670000  0.16692000  0.18170000
   0.16149875  0.16794629  0.30362326
   0.33368000  0.99986000  0.00108000
   0.32379424  0.00845041  0.36108698
   0.50008000  0.16606000  0.06164000
   0.33365000  0.99945000  0.12194000
   0.50013000  0.16657000  0.18176000
   0.33374000  0.99994000  0.24252000
   0.49896387  0.16644308  0.30300491
   0.83412000  0.16807000  0.06130000
   0.66767000  0.99972000  0.12168000
   0.66792000  0.00032000  0.24233000
   0.83392377  0.16354829  0.30373882
   0.00033000  0.33346000  0.00076000
   0.99888289  0.34062633  0.36128698
   0.16704000  0.50116000  0.06077000
   0.16627000  0.49940000  0.18238000
   0.00000000  0.33319000  0.24260000
   0.16591242  0.50311460  0.30305632
   0.49811000  0.50186000  0.06112000
   0.33328000  0.33434000  0.12148000
   0.50051000  0.50053000  0.18145000
   0.33392000  0.33269000  0.24229000
   0.50418600  0.50077804  0.30324144
   0.66687000  0.33418000  0.00129000
   0.66837016  0.32513464  0.36130298
   0.66670000  0.33332000  0.12177000
   0.83466000  0.49916000  0.18181000
   0.66748000  0.33291000  0.24234000
   0.99949000  0.66581000  0.00112000
   0.99322033  0.67543855  0.36418454
   0.16773000  0.83295000  0.06141000
   0.00149000  0.66672000  0.12196000
   0.16592000  0.83389000  0.18235000
   0.99950000  0.66635000  0.24245000
   0.16311753  0.83511488  0.30205404
   0.49825000  0.83185000  0.06189000
   0.50064000  0.83335000  0.18189000
   0.33424000  0.66627000  0.24239000
   0.66521000  0.66629000  0.00100000
   0.68697805  0.65540497  0.36260673
   0.83382000  0.83268000  0.06128000
   0.83390000  0.83311000  0.18191000
   0.66721000  0.66675000  0.24221000
   0.83392971  0.83363033  0.30200746
   0.53190748  0.50060447  0.44627375
   0.99760000  0.00330000  0.24221000
   0.66561000  0.99834000  0.00060000
   0.65638188  0.98605529  0.36951719
   0.83467000  0.16589000  0.18209000
   0.99866000  0.33404000  0.12198000
   0.33421000  0.33147000  0.00101000
   0.33386732  0.33684327  0.36896278
   0.83220000  0.50025000  0.06275000
   0.83574766  0.49865991  0.30237010
   0.33512000  0.67037000  0.00000000
   0.34102381  0.68023313  0.36687287
   0.33145000  0.66488000  0.12292000
   0.50026115  0.83269668  0.30573872
   0.67111000  0.66550000  0.12148000
