  62  62   0   0
  0.2757047E+02  0.8539300E-09  0.8505900E-09  0.2353390E-08  0.5000000E-15
  1.000000000000000E-004
  CAR 
 ni3al                                   
      5.15902229    -45.92554787  301      0.75856831      1.00000000
    -45.926  0.0000E+00  0.0000E+00  0.0000E+00  0.0000E+00
    -45.755  0.0000E+00  0.0000E+00  0.0000E+00  0.0000E+00
    -45.585  0.0000E+00  0.0000E+00  0.0000E+00  0.0000E+00
    -45.415  0.0000E+00  0.0000E+00  0.0000E+00  0.0000E+00
    -45.244  0.0000E+00  0.0000E+00  0.0000E+00  0.0000E+00
    -45.074  0.0000E+00  0.0000E+00  0.0000E+00  0.0000E+00
    -44.904  0.0000E+00 -0.1330E-33  0.0000E+00 -0.2265E-34
    -44.734  0.0000E+00 -0.1177E-25  0.0000E+00 -0.2004E-26
    -44.563  0.0000E+00 -0.7825E-19  0.0000E+00 -0.1333E-19
    -44.393  0.0000E+00 -0.3755E-13  0.0000E+00 -0.6393E-14
    -44.223 -0.1992E-32 -0.1353E-08 -0.3392E-33 -0.2305E-09
    -44.052 -0.1281E-24 -0.3448E-05 -0.2181E-25 -0.5874E-06
    -43.882 -0.6155E-18 -0.5467E-03 -0.1048E-18 -0.9368E-04
    -43.712 -0.2112E-12 -0.9124E-03 -0.3596E-13 -0.2490E-03
    -43.542 -0.5372E-08  0.4903E-01 -0.9148E-09  0.8100E-02
    -43.371 -0.9410E-05  0.1294E+00 -0.1603E-05  0.3014E-01
    -43.201 -0.9529E-03  0.9567E-01 -0.1639E-03  0.4643E-01
    -43.031  0.3089E-02  0.5876E-01  0.3622E-03  0.5644E-01
    -42.860  0.6303E-01  0.1000E+00  0.1109E-01  0.7347E-01
    -42.690  0.5065E-01  0.3504E-01  0.1972E-01  0.7944E-01
    -42.520  0.1358E-01  0.1837E-01  0.2203E-01  0.8257E-01
    -42.350  0.4210E-01  0.4538E-01  0.2920E-01  0.9029E-01
    -42.179  0.8855E-01  0.4091E-01  0.4428E-01  0.9726E-01
    -42.009  0.1114E+00  0.4823E-01  0.6325E-01  0.1055E+00
    -41.839  0.1626E+00  0.7473E-02  0.9093E-01  0.1067E+00
    -41.669  0.5775E-01  0.6099E-02  0.1008E+00  0.1078E+00
    -41.498 -0.1291E-02  0.1335E-01  0.1005E+00  0.1101E+00
    -41.328  0.3246E-01 -0.2052E-03  0.1061E+00  0.1100E+00
    -41.158  0.2412E-01 -0.1238E-03  0.1102E+00  0.1100E+00
    -40.987 -0.8869E-03 -0.5573E-06  0.1100E+00  0.1100E+00
    -40.817 -0.4275E-03 -0.1507E-09  0.1100E+00  0.1100E+00
    -40.647 -0.1916E-02 -0.3396E-14  0.1096E+00  0.1100E+00
    -40.477  0.3346E-01 -0.4447E-10  0.1153E+00  0.1100E+00
    -40.306  0.7388E-01 -0.2401E-06  0.1279E+00  0.1100E+00
    -40.136  0.1410E-01 -0.8566E-04  0.1303E+00  0.1100E+00
    -39.966 -0.1789E-02 -0.1142E-02  0.1300E+00  0.1098E+00
    -39.795 -0.5048E-04  0.1511E-01  0.1300E+00  0.1124E+00
    -39.625 -0.7584E-07  0.3622E-01  0.1300E+00  0.1185E+00
    -39.455 -0.8050E-11  0.3556E-01  0.1300E+00  0.1246E+00
    -39.285 -0.6085E-16  0.2341E-01  0.1300E+00  0.1286E+00
    -39.114  0.0000E+00  0.9120E-02  0.1300E+00  0.1301E+00
    -38.944  0.0000E+00 -0.6734E-03  0.1300E+00  0.1300E+00
    -38.774  0.0000E+00 -0.5720E-04  0.1300E+00  0.1300E+00
    -38.603  0.0000E+00 -0.1489E-06  0.1300E+00  0.1300E+00
    -38.433  0.0000E+00 -0.2436E-10  0.1300E+00  0.1300E+00
    -38.263  0.0000E+00 -0.2782E-15  0.1300E+00  0.1300E+00
    -38.093  0.0000E+00  0.0000E+00  0.1300E+00  0.1300E+00
    -37.922  0.0000E+00  0.0000E+00  0.1300E+00  0.1300E+00
    -37.752  0.0000E+00  0.0000E+00  0.1300E+00  0.1300E+00
    -37.582  0.0000E+00  0.0000E+00  0.1300E+00  0.1300E+00
    -37.411  0.0000E+00  0.0000E+00  0.1300E+00  0.1300E+00
    -37.241  0.0000E+00  0.0000E+00  0.1300E+00  0.1300E+00
    -37.071  0.0000E+00  0.0000E+00  0.1300E+00  0.1300E+00
    -36.901  0.0000E+00  0.0000E+00  0.1300E+00  0.1300E+00
    -36.730  0.0000E+00  0.0000E+00  0.1300E+00  0.1300E+00
    -36.560  0.0000E+00  0.0000E+00  0.1300E+00  0.1300E+00
    -36.390  0.0000E+00  0.0000E+00  0.1300E+00  0.1300E+00
    -36.219  0.0000E+00  0.0000E+00  0.1300E+00  0.1300E+00
    -36.049  0.0000E+00  0.0000E+00  0.1300E+00  0.1300E+00
    -35.879  0.0000E+00  0.0000E+00  0.1300E+00  0.1300E+00
    -35.709  0.0000E+00  0.0000E+00  0.1300E+00  0.1300E+00
    -35.538  0.0000E+00  0.0000E+00  0.1300E+00  0.1300E+00
    -35.368  0.0000E+00  0.0000E+00  0.1300E+00  0.1300E+00
    -35.198  0.0000E+00  0.0000E+00  0.1300E+00  0.1300E+00
    -35.028  0.0000E+00  0.0000E+00  0.1300E+00  0.1300E+00
    -34.857  0.0000E+00  0.0000E+00  0.1300E+00  0.1300E+00
    -34.687  0.0000E+00  0.0000E+00  0.1300E+00  0.1300E+00
    -34.517  0.0000E+00  0.0000E+00  0.1300E+00  0.1300E+00
    -34.346  0.0000E+00  0.0000E+00  0.1300E+00  0.1300E+00
    -34.176  0.0000E+00  0.0000E+00  0.1300E+00  0.1300E+00
    -34.006  0.0000E+00  0.0000E+00  0.1300E+00  0.1300E+00
    -33.836  0.0000E+00  0.0000E+00  0.1300E+00  0.1300E+00
    -33.665  0.0000E+00  0.0000E+00  0.1300E+00  0.1300E+00
    -33.495  0.0000E+00  0.0000E+00  0.1300E+00  0.1300E+00
    -33.325  0.0000E+00  0.0000E+00  0.1300E+00  0.1300E+00
    -33.154  0.0000E+00  0.0000E+00  0.1300E+00  0.1300E+00
    -32.984  0.0000E+00  0.0000E+00  0.1300E+00  0.1300E+00
    -32.814  0.0000E+00  0.0000E+00  0.1300E+00  0.1300E+00
    -32.644  0.0000E+00  0.0000E+00  0.1300E+00  0.1300E+00
    -32.473  0.0000E+00  0.0000E+00  0.1300E+00  0.1300E+00
    -32.303  0.0000E+00  0.0000E+00  0.1300E+00  0.1300E+00
    -32.133  0.0000E+00  0.0000E+00  0.1300E+00  0.1300E+00
    -31.962  0.0000E+00  0.0000E+00  0.1300E+00  0.1300E+00
    -31.792  0.0000E+00  0.0000E+00  0.1300E+00  0.1300E+00
    -31.622  0.0000E+00  0.0000E+00  0.1300E+00  0.1300E+00
    -31.452  0.0000E+00  0.0000E+00  0.1300E+00  0.1300E+00
    -31.281  0.0000E+00  0.0000E+00  0.1300E+00  0.1300E+00
    -31.111  0.0000E+00  0.0000E+00  0.1300E+00  0.1300E+00
    -30.941  0.0000E+00  0.0000E+00  0.1300E+00  0.1300E+00
    -30.770  0.0000E+00  0.0000E+00  0.1300E+00  0.1300E+00
    -30.600  0.0000E+00  0.0000E+00  0.1300E+00  0.1300E+00
    -30.430  0.0000E+00  0.0000E+00  0.1300E+00  0.1300E+00
    -30.260  0.0000E+00  0.0000E+00  0.1300E+00  0.1300E+00
    -30.089  0.0000E+00  0.0000E+00  0.1300E+00  0.1300E+00
    -29.919  0.0000E+00  0.0000E+00  0.1300E+00  0.1300E+00
    -29.749  0.0000E+00  0.0000E+00  0.1300E+00  0.1300E+00
    -29.578  0.0000E+00  0.0000E+00  0.1300E+00  0.1300E+00
    -29.408  0.0000E+00  0.0000E+00  0.1300E+00  0.1300E+00
    -29.238  0.0000E+00  0.0000E+00  0.1300E+00  0.1300E+00
    -29.068  0.0000E+00  0.0000E+00  0.1300E+00  0.1300E+00
    -28.897  0.0000E+00  0.0000E+00  0.1300E+00  0.1300E+00
    -28.727  0.0000E+00  0.0000E+00  0.1300E+00  0.1300E+00
    -28.557  0.0000E+00  0.0000E+00  0.1300E+00  0.1300E+00
    -28.387  0.0000E+00  0.0000E+00  0.1300E+00  0.1300E+00
    -28.216  0.0000E+00  0.0000E+00  0.1300E+00  0.1300E+00
    -28.046  0.0000E+00  0.0000E+00  0.1300E+00  0.1300E+00
    -27.876  0.0000E+00  0.0000E+00  0.1300E+00  0.1300E+00
    -27.705  0.0000E+00  0.0000E+00  0.1300E+00  0.1300E+00
    -27.535  0.0000E+00  0.0000E+00  0.1300E+00  0.1300E+00
    -27.365  0.0000E+00  0.0000E+00  0.1300E+00  0.1300E+00
    -27.195  0.0000E+00  0.0000E+00  0.1300E+00  0.1300E+00
    -27.024  0.0000E+00  0.0000E+00  0.1300E+00  0.1300E+00
    -26.854  0.0000E+00  0.0000E+00  0.1300E+00  0.1300E+00
    -26.684  0.0000E+00  0.0000E+00  0.1300E+00  0.1300E+00
    -26.513  0.0000E+00  0.0000E+00  0.1300E+00  0.1300E+00
    -26.343  0.0000E+00  0.0000E+00  0.1300E+00  0.1300E+00
    -26.173  0.0000E+00  0.0000E+00  0.1300E+00  0.1300E+00
    -26.003  0.0000E+00  0.0000E+00  0.1300E+00  0.1300E+00
    -25.832  0.0000E+00  0.0000E+00  0.1300E+00  0.1300E+00
    -25.662  0.0000E+00  0.0000E+00  0.1300E+00  0.1300E+00
    -25.492  0.0000E+00  0.0000E+00  0.1300E+00  0.1300E+00
    -25.321  0.0000E+00  0.0000E+00  0.1300E+00  0.1300E+00
    -25.151  0.0000E+00  0.0000E+00  0.1300E+00  0.1300E+00
    -24.981  0.0000E+00  0.0000E+00  0.1300E+00  0.1300E+00
    -24.811  0.0000E+00  0.0000E+00  0.1300E+00  0.1300E+00
    -24.640  0.0000E+00  0.0000E+00  0.1300E+00  0.1300E+00
    -24.470  0.0000E+00  0.0000E+00  0.1300E+00  0.1300E+00
    -24.300  0.0000E+00  0.0000E+00  0.1300E+00  0.1300E+00
    -24.129  0.0000E+00  0.0000E+00  0.1300E+00  0.1300E+00
    -23.959  0.0000E+00  0.0000E+00  0.1300E+00  0.1300E+00
    -23.789  0.0000E+00  0.0000E+00  0.1300E+00  0.1300E+00
    -23.619  0.0000E+00  0.0000E+00  0.1300E+00  0.1300E+00
    -23.448  0.0000E+00  0.0000E+00  0.1300E+00  0.1300E+00
    -23.278  0.0000E+00  0.0000E+00  0.1300E+00  0.1300E+00
    -23.108  0.0000E+00  0.0000E+00  0.1300E+00  0.1300E+00
    -22.937  0.0000E+00  0.0000E+00  0.1300E+00  0.1300E+00
    -22.767  0.0000E+00  0.0000E+00  0.1300E+00  0.1300E+00
    -22.597  0.0000E+00  0.0000E+00  0.1300E+00  0.1300E+00
    -22.427  0.0000E+00  0.0000E+00  0.1300E+00  0.1300E+00
    -22.256  0.0000E+00  0.0000E+00  0.1300E+00  0.1300E+00
    -22.086  0.0000E+00  0.0000E+00  0.1300E+00  0.1300E+00
    -21.916  0.0000E+00  0.0000E+00  0.1300E+00  0.1300E+00
    -21.746  0.0000E+00  0.0000E+00  0.1300E+00  0.1300E+00
    -21.575  0.0000E+00  0.0000E+00  0.1300E+00  0.1300E+00
    -21.405  0.0000E+00  0.0000E+00  0.1300E+00  0.1300E+00
    -21.235  0.0000E+00  0.0000E+00  0.1300E+00  0.1300E+00
    -21.064  0.0000E+00  0.0000E+00  0.1300E+00  0.1300E+00
    -20.894  0.0000E+00  0.0000E+00  0.1300E+00  0.1300E+00
    -20.724  0.0000E+00  0.0000E+00  0.1300E+00  0.1300E+00
    -20.554  0.0000E+00  0.0000E+00  0.1300E+00  0.1300E+00
    -20.383  0.0000E+00  0.0000E+00  0.1300E+00  0.1300E+00
    -20.213  0.0000E+00  0.0000E+00  0.1300E+00  0.1300E+00
    -20.043  0.0000E+00  0.0000E+00  0.1300E+00  0.1300E+00
    -19.872  0.0000E+00  0.0000E+00  0.1300E+00  0.1300E+00
    -19.702  0.0000E+00  0.0000E+00  0.1300E+00  0.1300E+00
    -19.532  0.0000E+00  0.0000E+00  0.1300E+00  0.1300E+00
    -19.362  0.0000E+00  0.0000E+00  0.1300E+00  0.1300E+00
    -19.191  0.0000E+00  0.0000E+00  0.1300E+00  0.1300E+00
    -19.021  0.0000E+00  0.0000E+00  0.1300E+00  0.1300E+00
    -18.851  0.0000E+00  0.0000E+00  0.1300E+00  0.1300E+00
    -18.680  0.0000E+00  0.0000E+00  0.1300E+00  0.1300E+00
    -18.510  0.0000E+00  0.0000E+00  0.1300E+00  0.1300E+00
    -18.340  0.0000E+00  0.0000E+00  0.1300E+00  0.1300E+00
    -18.170  0.0000E+00  0.0000E+00  0.1300E+00  0.1300E+00
    -17.999  0.0000E+00  0.0000E+00  0.1300E+00  0.1300E+00
    -17.829  0.0000E+00  0.0000E+00  0.1300E+00  0.1300E+00
    -17.659  0.0000E+00  0.0000E+00  0.1300E+00  0.1300E+00
    -17.488  0.0000E+00  0.0000E+00  0.1300E+00  0.1300E+00
    -17.318  0.0000E+00  0.0000E+00  0.1300E+00  0.1300E+00
    -17.148  0.0000E+00  0.0000E+00  0.1300E+00  0.1300E+00
    -16.978  0.0000E+00  0.0000E+00  0.1300E+00  0.1300E+00
    -16.807  0.0000E+00  0.0000E+00  0.1300E+00  0.1300E+00
    -16.637  0.0000E+00  0.0000E+00  0.1300E+00  0.1300E+00
    -16.467  0.0000E+00  0.0000E+00  0.1300E+00  0.1300E+00
    -16.296  0.0000E+00  0.0000E+00  0.1300E+00  0.1300E+00
    -16.126  0.0000E+00  0.0000E+00  0.1300E+00  0.1300E+00
    -15.956  0.0000E+00  0.0000E+00  0.1300E+00  0.1300E+00
    -15.786  0.0000E+00  0.0000E+00  0.1300E+00  0.1300E+00
    -15.615  0.0000E+00  0.0000E+00  0.1300E+00  0.1300E+00
    -15.445  0.0000E+00  0.0000E+00  0.1300E+00  0.1300E+00
    -15.275  0.0000E+00  0.0000E+00  0.1300E+00  0.1300E+00
    -15.105  0.0000E+00  0.0000E+00  0.1300E+00  0.1300E+00
    -14.934  0.0000E+00  0.0000E+00  0.1300E+00  0.1300E+00
    -14.764  0.0000E+00  0.0000E+00  0.1300E+00  0.1300E+00
    -14.594  0.0000E+00  0.0000E+00  0.1300E+00  0.1300E+00
    -14.423  0.0000E+00  0.0000E+00  0.1300E+00  0.1300E+00
    -14.253  0.0000E+00  0.0000E+00  0.1300E+00  0.1300E+00
    -14.083  0.0000E+00  0.0000E+00  0.1300E+00  0.1300E+00
    -13.913  0.0000E+00  0.0000E+00  0.1300E+00  0.1300E+00
    -13.742  0.0000E+00  0.0000E+00  0.1300E+00  0.1300E+00
    -13.572  0.0000E+00  0.0000E+00  0.1300E+00  0.1300E+00
    -13.402  0.0000E+00  0.0000E+00  0.1300E+00  0.1300E+00
    -13.231  0.0000E+00  0.0000E+00  0.1300E+00  0.1300E+00
    -13.061  0.0000E+00  0.0000E+00  0.1300E+00  0.1300E+00
    -12.891  0.0000E+00  0.0000E+00  0.1300E+00  0.1300E+00
    -12.721  0.0000E+00  0.0000E+00  0.1300E+00  0.1300E+00
    -12.550  0.0000E+00  0.0000E+00  0.1300E+00  0.1300E+00
    -12.380  0.0000E+00  0.0000E+00  0.1300E+00  0.1300E+00
    -12.210  0.0000E+00  0.0000E+00  0.1300E+00  0.1300E+00
    -12.039  0.0000E+00  0.0000E+00  0.1300E+00  0.1300E+00
    -11.869  0.0000E+00  0.0000E+00  0.1300E+00  0.1300E+00
    -11.699  0.0000E+00  0.0000E+00  0.1300E+00  0.1300E+00
    -11.529  0.0000E+00  0.0000E+00  0.1300E+00  0.1300E+00
    -11.358  0.0000E+00  0.0000E+00  0.1300E+00  0.1300E+00
    -11.188  0.0000E+00  0.0000E+00  0.1300E+00  0.1300E+00
    -11.018  0.0000E+00  0.0000E+00  0.1300E+00  0.1300E+00
    -10.847  0.0000E+00  0.0000E+00  0.1300E+00  0.1300E+00
    -10.677  0.0000E+00  0.0000E+00  0.1300E+00  0.1300E+00
    -10.507  0.0000E+00  0.0000E+00  0.1300E+00  0.1300E+00
    -10.337  0.0000E+00  0.0000E+00  0.1300E+00  0.1300E+00
    -10.166  0.0000E+00  0.0000E+00  0.1300E+00  0.1300E+00
     -9.996  0.0000E+00  0.0000E+00  0.1300E+00  0.1300E+00
     -9.826  0.0000E+00  0.0000E+00  0.1300E+00  0.1300E+00
     -9.656  0.0000E+00  0.0000E+00  0.1300E+00  0.1300E+00
     -9.485  0.0000E+00  0.0000E+00  0.1300E+00  0.1300E+00
     -9.315  0.0000E+00  0.0000E+00  0.1300E+00  0.1300E+00
     -9.145  0.0000E+00  0.0000E+00  0.1300E+00  0.1300E+00
     -8.974  0.0000E+00  0.0000E+00  0.1300E+00  0.1300E+00
     -8.804  0.0000E+00  0.0000E+00  0.1300E+00  0.1300E+00
     -8.634 -0.1859E-35  0.0000E+00  0.1300E+00  0.1300E+00
     -8.464 -0.2242E-27 -0.6469E-33  0.1300E+00  0.1300E+00
     -8.293 -0.2010E-20 -0.3581E-25  0.1300E+00  0.1300E+00
     -8.123 -0.1283E-14 -0.1470E-18  0.1300E+00  0.1300E+00
     -7.953 -0.6030E-10 -0.4263E-13  0.1300E+00  0.1300E+00
     -7.782 -0.1949E-06 -0.9040E-09  0.1300E+00  0.1300E+00
     -7.612 -0.3733E-04 -0.1285E-05  0.1300E+00  0.1300E+00
     -7.442 -0.2334E-05 -0.9546E-04  0.1300E+00  0.1300E+00
     -7.272  0.3284E-02  0.6187E-03  0.1306E+00  0.1301E+00
     -7.101  0.3332E-02  0.3632E-02  0.1311E+00  0.1307E+00
     -6.931  0.7494E-02  0.4563E-02  0.1324E+00  0.1315E+00
     -6.761  0.3113E-02  0.6220E-02  0.1329E+00  0.1325E+00
     -6.590  0.3152E-02  0.3172E-02  0.1335E+00  0.1331E+00
     -6.420  0.7861E-02  0.3547E-02  0.1348E+00  0.1337E+00
     -6.250  0.9670E-02  0.8266E-02  0.1364E+00  0.1351E+00
     -6.080  0.1062E-01  0.1018E-01  0.1383E+00  0.1368E+00
     -5.909  0.5861E-02  0.1000E-01  0.1393E+00  0.1385E+00
     -5.739  0.1191E-01  0.4684E-02  0.1413E+00  0.1393E+00
     -5.569  0.1613E-01  0.1291E-01  0.1440E+00  0.1415E+00
     -5.398  0.1323E-01  0.1490E-01  0.1463E+00  0.1441E+00
     -5.228  0.6168E-02  0.1279E-01  0.1473E+00  0.1462E+00
     -5.058  0.1309E-01  0.6373E-02  0.1496E+00  0.1473E+00
     -4.888  0.2099E-01  0.7624E-02  0.1531E+00  0.1486E+00
     -4.717  0.2767E-01  0.1757E-01  0.1579E+00  0.1516E+00
     -4.547  0.1875E-01  0.2447E-01  0.1610E+00  0.1558E+00
     -4.377  0.2442E-01  0.2069E-01  0.1652E+00  0.1593E+00
     -4.206  0.4043E-01  0.1201E-01  0.1721E+00  0.1614E+00
     -4.036  0.6479E-01  0.2315E-01  0.1831E+00  0.1653E+00
     -3.866  0.1038E+00  0.2189E-01  0.2008E+00  0.1690E+00
     -3.696  0.1058E+00  0.2936E-01  0.2188E+00  0.1740E+00
     -3.525  0.1389E+00  0.2425E-01  0.2425E+00  0.1782E+00
     -3.355  0.1561E+00  0.4098E-01  0.2690E+00  0.1851E+00
     -3.185  0.1683E+00  0.4960E-01  0.2977E+00  0.1936E+00
     -3.015  0.1442E+00  0.6215E-01  0.3223E+00  0.2042E+00
     -2.844  0.1479E+00  0.7380E-01  0.3474E+00  0.2167E+00
     -2.674  0.2211E+00  0.7682E-01  0.3851E+00  0.2298E+00
     -2.504  0.2629E+00  0.8920E-01  0.4299E+00  0.2450E+00
     -2.333  0.2343E+00  0.1070E+00  0.4698E+00  0.2632E+00
     -2.163  0.2434E+00  0.1123E+00  0.5112E+00  0.2823E+00
     -1.993  0.2321E+00  0.1156E+00  0.5507E+00  0.3020E+00
     -1.823  0.2249E+00  0.1156E+00  0.5890E+00  0.3217E+00
     -1.652  0.2297E+00  0.1183E+00  0.6281E+00  0.3418E+00
     -1.482  0.2140E+00  0.1334E+00  0.6646E+00  0.3646E+00
     -1.312  0.1743E+00  0.1583E+00  0.6943E+00  0.3915E+00
     -1.141  0.1536E+00  0.1817E+00  0.7204E+00  0.4225E+00
     -0.971  0.1615E+00  0.1743E+00  0.7479E+00  0.4521E+00
     -0.801  0.1949E+00  0.1860E+00  0.7811E+00  0.4838E+00
     -0.631  0.2679E+00  0.2079E+00  0.8267E+00  0.5192E+00
     -0.460  0.3152E+00  0.2086E+00  0.8804E+00  0.5547E+00
     -0.290  0.2967E+00  0.1990E+00  0.9309E+00  0.5886E+00
     -0.120  0.2206E+00  0.1790E+00  0.9685E+00  0.6191E+00
      0.051  0.1613E+00  0.1611E+00  0.9960E+00  0.6465E+00
      0.221  0.1449E+00  0.1430E+00  0.1021E+01  0.6709E+00
      0.391  0.1481E+00  0.1214E+00  0.1046E+01  0.6916E+00
      0.561  0.1430E+00  0.1085E+00  0.1070E+01  0.7100E+00
      0.732  0.1183E+00  0.1183E+00  0.1090E+01  0.7302E+00
      0.902  0.1047E+00  0.1238E+00  0.1108E+01  0.7513E+00
      1.072  0.9566E-01  0.1384E+00  0.1124E+01  0.7748E+00
      1.243  0.9312E-01  0.1536E+00  0.1140E+01  0.8010E+00
      1.413  0.9186E-01  0.1806E+00  0.1156E+01  0.8317E+00
      1.583  0.1048E+00  0.2191E+00  0.1174E+01  0.8690E+00
      1.753  0.1012E+00  0.2458E+00  0.1191E+01  0.9109E+00
      1.924  0.3567E-01  0.2812E+00  0.1197E+01  0.9588E+00
      2.094 -0.2370E-02  0.2871E+00  0.1197E+01  0.1008E+01
      2.264 -0.2506E-03  0.3091E+00  0.1197E+01  0.1060E+01
      2.435 -0.1038E-05  0.3317E+00  0.1197E+01  0.1117E+01
      2.605 -0.3131E-09  0.2630E+00  0.1197E+01  0.1162E+01
      2.775 -0.7270E-14  0.1677E+00  0.1197E+01  0.1190E+01
      2.945  0.0000E+00  0.4210E-01  0.1197E+01  0.1197E+01
      3.116  0.0000E+00 -0.3349E-02  0.1197E+01  0.1197E+01
      3.286  0.0000E+00 -0.3091E-03  0.1197E+01  0.1197E+01
      3.456  0.0000E+00 -0.1337E-05  0.1197E+01  0.1197E+01
      3.626  0.0000E+00 -0.4264E-09  0.1197E+01  0.1197E+01
      3.797  0.0000E+00 -0.1035E-13  0.1197E+01  0.1197E+01
      3.967  0.0000E+00  0.0000E+00  0.1197E+01  0.1197E+01
      4.137  0.0000E+00  0.0000E+00  0.1197E+01  0.1197E+01
      4.308  0.0000E+00  0.0000E+00  0.1197E+01  0.1197E+01
      4.478  0.0000E+00  0.0000E+00  0.1197E+01  0.1197E+01
      4.648  0.0000E+00  0.0000E+00  0.1197E+01  0.1197E+01
      4.818  0.0000E+00  0.0000E+00  0.1197E+01  0.1197E+01
      4.989  0.0000E+00  0.0000E+00  0.1197E+01  0.1197E+01
      5.159  0.0000E+00  0.0000E+00  0.1197E+01  0.1197E+01
