srun: ROUTE: split_hostlist: hl=b06r2n[10-11] tree_width 0
 running on    8 total cores
 distrk:  each k-point on    1 cores,    8 groups
 distr:  one band on    1 cores,    1 groups
 HIP runtime initialized ...    8 DCUs will be used
 Created    4 streams on each DCU
 vasp.6.3.2 27Jun22 (build Mar 15 2023 15:45:48) complex                        
  
 POSCAR found type information on POSCAR CrFe
 POSCAR found :  2 types and      62 ions
 Reading from existing POTCAR
 -----------------------------------------------------------------------------
|                                                                             |
|           W    W    AA    RRRRR   N    N  II  N    N   GGGG   !!!           |
|           W    W   A  A   R    R  NN   N  II  NN   N  G    G  !!!           |
|           W    W  A    A  R    R  N N  N  II  N N  N  G       !!!           |
|           W WW W  AAAAAA  RRRRR   N  N N  II  N  N N  G  GGG   !            |
|           WW  WW  A    A  R   R   N   NN  II  N   NN  G    G                |
|           W    W  A    A  R    R  N    N  II  N    N   GGGG   !!!           |
|                                                                             |
|     You use a magnetic or noncollinear calculation, but did not specify     |
|     the initial magnetic moment with the MAGMOM tag. Note that a            |
|     default of 1 will be used for all atoms. This ferromagnetic setup       |
|     may break the symmetry of the crystal, in particular it may rule        |
|     out finding an antiferromagnetic solution. Thence, we recommend         |
|     setting the initial magnetic moment manually or verifying carefully     |
|     that this magnetic setup is desired.                                    |
|                                                                             |
 -----------------------------------------------------------------------------

 scaLAPACK will be used selectively (only on CPU)
 -----------------------------------------------------------------------------
|                                                                             |
|           W    W    AA    RRRRR   N    N  II  N    N   GGGG   !!!           |
|           W    W   A  A   R    R  NN   N  II  NN   N  G    G  !!!           |
|           W    W  A    A  R    R  N N  N  II  N N  N  G       !!!           |
|           W WW W  AAAAAA  RRRRR   N  N N  II  N  N N  G  GGG   !            |
|           WW  WW  A    A  R   R   N   NN  II  N   NN  G    G                |
|           W    W  A    A  R    R  N    N  II  N    N   GGGG   !!!           |
|                                                                             |
|     For optimal performance we recommend to set                             |
|       NCORE = 2 up to number-of-cores-per-socket                            |
|     NCORE specifies how many cores store one orbital (NPAR=cpu/NCORE).      |
|     This setting can greatly improve the performance of VASP for DFT.       |
|     The default, NCORE=1 might be grossly inefficient on modern             |
|     multi-core architectures or massively parallel machines. Do your        |
|     own testing! More info at https://www.vasp.at/wiki/index.php/NCORE      |
|     Unfortunately you need to use the default for GW and RPA                |
|     calculations (for HF NCORE is supported but not extensively tested      |
|     yet).                                                                   |
|                                                                             |
 -----------------------------------------------------------------------------

 Reading from existing POTCAR
 LDA part: xc-table for Pade appr. of Perdew
 POSCAR found type information on POSCAR CrFe
 POSCAR found :  2 types and      62 ions
 Optimize memory usage for KPAR
 POSCAR, INCAR and KPOINTS ok, starting setup
 FFT: planning ... GRIDC
 FFT: planning ... GRID_SOFT
 FFT: planning ... GRID
 WAVECAR not read
 WARNING: chargedensity file is incomplete
 WARNING: random wavefunctions but no delay for mixing, default for NELMDL
 entering main loop
       N       E                     dE             d eps       ncg     rms          rms(c)
DAV:   1     0.526005282400E+04    0.52601E+04   -0.23270E+05 12192   0.143E+03
DAV:   2    -0.974409947776E+02   -0.53575E+04   -0.51687E+04 11488   0.418E+02
DAV:   3    -0.516376237333E+03   -0.41894E+03   -0.37039E+03 11936   0.157E+02
DAV:   4    -0.573613409472E+03   -0.57237E+02   -0.53398E+02 20512   0.443E+01
DAV:   5    -0.576746199614E+03   -0.31328E+01   -0.29719E+01 18536   0.992E+00    0.921E+01
DAV:   6    -0.681198265249E+03   -0.10445E+03   -0.33088E+02 21016   0.823E+01    0.147E+02
DAV:   7    -0.633515094207E+03    0.47683E+02   -0.27226E+02 21528   0.105E+02    0.136E+02
DAV:   8    -0.548321349212E+03    0.85194E+02   -0.14865E+02 21144   0.740E+01    0.922E+01
DAV:   9    -0.523961211690E+03    0.24360E+02   -0.75104E+01 19808   0.416E+01    0.710E+01
DAV:  10    -0.502613719207E+03    0.21347E+02   -0.56656E+01 18680   0.302E+01    0.541E+01
DAV:  11    -0.489134008507E+03    0.13480E+02   -0.60750E+01 16560   0.292E+01    0.428E+01
DAV:  12    -0.486644374209E+03    0.24896E+01   -0.20225E+01 17464   0.196E+01    0.361E+01
DAV:  13    -0.487657402053E+03   -0.10130E+01   -0.43536E+00 16408   0.914E+00    0.369E+01
DAV:  14    -0.487679302048E+03   -0.21900E-01   -0.73302E-01 14400   0.288E+00    0.372E+01
DAV:  15    -0.490736482392E+03   -0.30572E+01   -0.16988E+00 20712   0.542E+00    0.436E+01
DAV:  16    -0.489613384026E+03    0.11231E+01   -0.16068E+00 18744   0.524E+00    0.394E+01
DAV:  17    -0.490162565336E+03   -0.54918E+00   -0.22378E+00 17872   0.588E+00    0.396E+01
DAV:  18    -0.491409151643E+03   -0.12466E+01   -0.27080E+00 17616   0.642E+00    0.403E+01
DAV:  19    -0.492994741628E+03   -0.15856E+01   -0.27786E+00 18192   0.656E+00    0.429E+01
DAV:  20    -0.495057039587E+03   -0.20623E+01   -0.17544E+00 19304   0.582E+00    0.453E+01
DAV:  21    -0.497337195098E+03   -0.22802E+01   -0.26045E+00 20360   0.541E+00    0.412E+01
DAV:  22    -0.498266032187E+03   -0.92884E+00   -0.14988E+00 18984   0.495E+00    0.366E+01
DAV:  23    -0.498834016676E+03   -0.56798E+00   -0.11168E+00 19112   0.413E+00    0.335E+01
DAV:  24    -0.498794968873E+03    0.39048E-01   -0.10629E+00 19736   0.416E+00    0.297E+01
DAV:  25    -0.498790880138E+03    0.40887E-02   -0.66614E-01 19424   0.325E+00    0.273E+01
DAV:  26    -0.499021790414E+03   -0.23091E+00   -0.52926E-01 19896   0.269E+00    0.258E+01
DAV:  27    -0.499348495275E+03   -0.32670E+00   -0.67536E-01 20400   0.276E+00    0.248E+01
DAV:  28    -0.499441863107E+03   -0.93368E-01   -0.75348E-01 20680   0.341E+00    0.231E+01
DAV:  29    -0.499478436338E+03   -0.36573E-01   -0.55994E-01 18888   0.222E+00    0.212E+01
DAV:  30    -0.499555454609E+03   -0.77018E-01   -0.59450E-01 19928   0.236E+00    0.200E+01
DAV:  31    -0.499508321206E+03    0.47133E-01   -0.59102E-01 18240   0.227E+00    0.177E+01
DAV:  32    -0.499504301868E+03    0.40193E-02   -0.55222E-01 18648   0.233E+00    0.150E+01
DAV:  33    -0.499553722990E+03   -0.49421E-01   -0.33846E-01 19016   0.169E+00    0.138E+01
DAV:  34    -0.499460421997E+03    0.93301E-01   -0.14068E-01 19248   0.172E+00    0.122E+01
DAV:  35    -0.499395731894E+03    0.64690E-01   -0.15107E-01 18632   0.131E+00    0.110E+01
DAV:  36    -0.499369447765E+03    0.26284E-01   -0.22058E-01 19016   0.131E+00    0.937E+00
DAV:  37    -0.499357005017E+03    0.12443E-01   -0.15676E-01 18656   0.115E+00    0.785E+00
DAV:  38    -0.499371950348E+03   -0.14945E-01   -0.49107E-02 18776   0.780E-01    0.747E+00
DAV:  39    -0.499391609214E+03   -0.19659E-01   -0.60515E-02 20696   0.831E-01    0.740E+00
DAV:  40    -0.499391546714E+03    0.62499E-04   -0.14062E-01 18960   0.107E+00    0.626E+00
DAV:  41    -0.499386306849E+03    0.52399E-02   -0.52008E-02 19272   0.789E-01    0.589E+00
DAV:  42    -0.499393385736E+03   -0.70789E-02   -0.16240E-02 16240   0.380E-01    0.576E+00
DAV:  43    -0.499397242639E+03   -0.38569E-02   -0.30080E-03 16896   0.133E-01    0.572E+00
DAV:  44    -0.499389859089E+03    0.73836E-02   -0.18212E-03 19784   0.148E-01    0.571E+00
DAV:  45    -0.499392659582E+03   -0.28005E-02   -0.60399E-04 19976   0.804E-02    0.569E+00
DAV:  46    -0.499360996582E+03    0.31663E-01   -0.61094E-02 19992   0.590E-01    0.578E+00
DAV:  47    -0.499314989427E+03    0.46007E-01   -0.88871E-02 19360   0.101E+00    0.457E+00
DAV:  48    -0.499305177610E+03    0.98118E-02   -0.45093E-02 19768   0.593E-01    0.468E+00
DAV:  49    -0.499268276049E+03    0.36902E-01   -0.81148E-02 19552   0.861E-01    0.381E+00
DAV:  50    -0.499255507883E+03    0.12768E-01   -0.21614E-02 18040   0.500E-01    0.323E+00
DAV:  51    -0.499244541911E+03    0.10966E-01   -0.31180E-02 18536   0.686E-01    0.253E+00
DAV:  52    -0.499242536561E+03    0.20053E-02   -0.21312E-02 16976   0.558E-01    0.205E+00
DAV:  53    -0.499237714507E+03    0.48221E-02   -0.18863E-02 15080   0.488E-01    0.131E+00
DAV:  54    -0.499238591109E+03   -0.87660E-03   -0.81820E-03 20008   0.296E-01    0.112E+00
DAV:  55    -0.499238492574E+03    0.98535E-04   -0.35099E-03 19024   0.201E-01    0.929E-01
DAV:  56    -0.499236057303E+03    0.24353E-02   -0.17984E-02 16480   0.408E-01    0.452E-01
DAV:  57    -0.499236833013E+03   -0.77571E-03   -0.28495E-03 15936   0.223E-01    0.370E-01
DAV:  58    -0.499237103441E+03   -0.27043E-03   -0.16153E-03 19672   0.117E-01    0.277E-01
DAV:  59    -0.499237298831E+03   -0.19539E-03   -0.69568E-04 19664   0.874E-02    0.224E-01
DAV:  60    -0.499237385375E+03   -0.86544E-04   -0.10103E-03 20272   0.976E-02    0.184E-01
DAV:  61    -0.499237397220E+03   -0.11845E-04   -0.40477E-04 19696   0.591E-02    0.135E-01
DAV:  62    -0.499237437105E+03   -0.39885E-04   -0.12196E-04 16536   0.384E-02    0.117E-01
DAV:  63    -0.499237457654E+03   -0.20549E-04   -0.16307E-04 17904   0.406E-02    0.882E-02
DAV:  64    -0.499237473522E+03   -0.15868E-04   -0.93862E-05 14768   0.267E-02    0.641E-02
DAV:  65    -0.499237480518E+03   -0.69954E-05   -0.27852E-05  9040   0.241E-02
   1 F= -.49923748E+03 E0= -.49923766E+03  d E =-.499237E+03  mag=   107.6916
 curvature:   0.00 expect dE= 0.000E+00 dE for cont linesearch  0.000E+00
 trial: gam= 0.00000 g(F)=  0.470E-01 g(S)=  0.000E+00 ort = 0.000E+00 (trialstep = 0.100E+01)
 search vector abs. value=  0.470E-01
 bond charge predicted
       N       E                     dE             d eps       ncg     rms          rms(c)
DAV:   1    -0.499139108938E+03    0.98365E-01   -0.11510E+01 12122   0.802E+00    0.215E+00
DAV:   2    -0.499264953161E+03   -0.12584E+00   -0.10096E+00 13402   0.251E+00    0.253E+00
DAV:   3    -0.499322132625E+03   -0.57179E-01   -0.40752E-01 19248   0.312E+00    0.380E+00
DAV:   4    -0.499260109245E+03    0.62023E-01   -0.25112E-01 20504   0.227E+00    0.149E+00
DAV:   5    -0.499269166286E+03   -0.90570E-02   -0.14566E-02 19672   0.661E-01    0.121E+00
DAV:   6    -0.499276239685E+03   -0.70734E-02   -0.16992E-02 19408   0.702E-01    0.645E-01
DAV:   7    -0.499277123876E+03   -0.88419E-03   -0.59270E-03 18400   0.368E-01    0.344E-01
DAV:   8    -0.499277180771E+03   -0.56895E-04   -0.13316E-03 18344   0.126E-01    0.318E-01
DAV:   9    -0.499277180780E+03   -0.85711E-08   -0.36559E-04 14032   0.848E-02    0.309E-01
DAV:  10    -0.499276993098E+03    0.18768E-03   -0.42696E-04 18296   0.751E-02    0.215E-01
DAV:  11    -0.499276834246E+03    0.15885E-03   -0.76330E-04 18680   0.894E-02    0.146E-01
DAV:  12    -0.499276821361E+03    0.12884E-04   -0.15737E-04 15048   0.454E-02    0.134E-01
DAV:  13    -0.499276825791E+03   -0.44298E-05   -0.62738E-05 13968   0.275E-02
   2 F= -.49927683E+03 E0= -.49927727E+03  d E =-.393453E-01  mag=   107.8648
 trial-energy change:   -0.039345  1 .order   -0.039702   -0.047009   -0.032396
 step:   3.2169(harm=  3.2169)  dis= 0.05951  next Energy=  -499.313092 (dE=-0.756E-01)
 bond charge predicted
       N       E                     dE             d eps       ncg     rms          rms(c)
DAV:   1    -0.498620364634E+03    0.65646E+00   -0.56947E+01 12099   0.177E+01    0.503E+00
DAV:   2    -0.499261035040E+03   -0.64067E+00   -0.50917E+00 13894   0.606E+00    0.578E+00
DAV:   3    -0.499666624512E+03   -0.40559E+00   -0.21595E+00 20400   0.767E+00    0.968E+00
DAV:   4    -0.499221482001E+03    0.44514E+00   -0.14979E+00 21584   0.555E+00    0.335E+00
DAV:   5    -0.499260356782E+03   -0.38875E-01   -0.60138E-02 19128   0.132E+00    0.281E+00
DAV:   6    -0.499291243126E+03   -0.30886E-01   -0.60065E-02 18632   0.136E+00    0.158E+00
DAV:   7    -0.499309940442E+03   -0.18697E-01   -0.25939E-02 18384   0.676E-01    0.874E-01
DAV:   8    -0.499310631180E+03   -0.69074E-03   -0.67430E-03 18768   0.336E-01    0.668E-01
DAV:   9    -0.499310337447E+03    0.29373E-03   -0.21932E-03 17832   0.238E-01    0.608E-01
DAV:  10    -0.499310078022E+03    0.25942E-03   -0.92953E-04 18672   0.128E-01    0.544E-01
DAV:  11    -0.499309474094E+03    0.60393E-03   -0.24149E-03 18632   0.172E-01    0.416E-01
DAV:  12    -0.499309416939E+03    0.57155E-04   -0.15864E-03 18560   0.118E-01    0.406E-01
DAV:  13    -0.499309546161E+03   -0.12922E-03   -0.32542E-04 15536   0.607E-02    0.419E-01
DAV:  14    -0.499309819870E+03   -0.27371E-03   -0.22244E-04 18856   0.383E-02    0.440E-01
DAV:  15    -0.499309747730E+03    0.72140E-04   -0.23210E-05  9256   0.158E-02    0.442E-01
DAV:  16    -0.499309650593E+03    0.97138E-04   -0.89060E-06  6936   0.127E-02    0.434E-01
DAV:  17    -0.499309034828E+03    0.61577E-03   -0.57840E-04 19680   0.552E-02    0.371E-01
DAV:  18    -0.499308323180E+03    0.71165E-03   -0.23468E-03 19760   0.122E-01    0.313E-01
DAV:  19    -0.499308572051E+03   -0.24887E-03   -0.37292E-04 18072   0.760E-02    0.337E-01
DAV:  20    -0.499308335229E+03    0.23682E-03   -0.52466E-04 18824   0.115E-01    0.186E-01
DAV:  21    -0.499308372469E+03   -0.37240E-04   -0.43654E-04 18488   0.676E-02    0.110E-01
DAV:  22    -0.499308402898E+03   -0.30429E-04   -0.64519E-05 12592   0.269E-02    0.109E-01
DAV:  23    -0.499308406839E+03   -0.39413E-05   -0.55356E-05 13552   0.309E-02
   3 F= -.49930841E+03 E0= -.49930902E+03  d E =-.709263E-01  mag=   108.0486
 curvature:  -1.61 expect dE=-0.247E-01 dE for cont linesearch -0.435E-03
 ZBRENT: interpolating
 opt :   2.9970  next Energy=  -499.308799 (dE=-0.713E-01)
 bond charge predicted
       N       E                     dE             d eps       ncg     rms          rms(c)
DAV:   1    -0.499302140122E+03    0.62628E-02   -0.56601E-01 12051   0.176E+00    0.463E-01
DAV:   2    -0.499307367061E+03   -0.52269E-02   -0.46278E-02 11884   0.455E-01    0.363E-01
DAV:   3    -0.499313474646E+03   -0.61076E-02   -0.18065E-02 20688   0.624E-01    0.106E+00
DAV:   4    -0.499307693088E+03    0.57816E-02   -0.14802E-02 21048   0.550E-01    0.268E-01
DAV:   5    -0.499308698346E+03   -0.10053E-02   -0.11957E-03 20112   0.180E-01    0.293E-01
DAV:   6    -0.499308780139E+03   -0.81794E-04   -0.61037E-04 18904   0.139E-01    0.154E-01
DAV:   7    -0.499308738803E+03    0.41337E-04   -0.22376E-04 17632   0.586E-02    0.759E-02
DAV:   8    -0.499308738796E+03    0.65775E-08   -0.44690E-05  9712   0.255E-02
   4 F= -.49930874E+03 E0= -.49930935E+03  d E =-.712583E-01  mag=   108.0367
 curvature:  -1.45 expect dE=-0.195E-01 dE for cont linesearch -0.383E-05
 trial: gam= 0.29407 g(F)=  0.135E-01 g(S)=  0.000E+00 ort =-0.353E-03 (trialstep = 0.140E+01)
 search vector abs. value=  0.173E-01
 bond charge predicted
       N       E                     dE             d eps       ncg     rms          rms(c)
DAV:   1    -0.499250140653E+03    0.58598E-01   -0.73979E+00 12008   0.560E+00    0.180E+00
DAV:   2    -0.499300418813E+03   -0.50278E-01   -0.39552E-01 12040   0.142E+00    0.138E+00
DAV:   3    -0.499343334322E+03   -0.42916E-01   -0.99982E-02 21224   0.143E+00    0.260E+00
DAV:   4    -0.499318779924E+03    0.24554E-01   -0.16999E-01 21576   0.185E+00    0.149E+00
DAV:   5    -0.499323922596E+03   -0.51427E-02   -0.26404E-02 20888   0.755E-01    0.835E-01
DAV:   6    -0.499324200331E+03   -0.27774E-03   -0.81667E-03 19760   0.504E-01    0.315E-01
DAV:   7    -0.499324269686E+03   -0.69355E-04   -0.21840E-03 16960   0.227E-01    0.216E-01
DAV:   8    -0.499324298752E+03   -0.29066E-04   -0.31314E-04 14760   0.577E-02    0.211E-01
DAV:   9    -0.499324241112E+03    0.57640E-04   -0.10585E-04 14552   0.533E-02    0.180E-01
DAV:  10    -0.499324148418E+03    0.92694E-04   -0.36683E-04 18512   0.710E-02    0.133E-01
DAV:  11    -0.499324085335E+03    0.63083E-04   -0.19922E-04 17168   0.423E-02    0.106E-01
DAV:  12    -0.499324076230E+03    0.91046E-05   -0.29784E-05  9384   0.263E-02
   5 F= -.49932408E+03 E0= -.49932491E+03  d E =-.153374E-01  mag=   108.0529
 trial-energy change:   -0.015337  1 .order   -0.015578   -0.018706   -0.012449
 step:   4.1838(harm=  4.1838)  dis= 0.03157  next Energy=  -499.336702 (dE=-0.280E-01)
 bond charge predicted
       N       E                     dE             d eps       ncg     rms          rms(c)
DAV:   1    -0.499036014532E+03    0.28807E+00   -0.29327E+01 12009   0.112E+01    0.367E+00
DAV:   2    -0.499242530165E+03   -0.20652E+00   -0.16238E+00 12104   0.305E+00    0.287E+00
DAV:   3    -0.499554683577E+03   -0.31215E+00   -0.85109E-01 21416   0.424E+00    0.734E+00
DAV:   4    -0.499288211037E+03    0.26647E+00   -0.97524E-01 21640   0.444E+00    0.257E+00
DAV:   5    -0.499326802956E+03   -0.38592E-01   -0.57208E-02 20464   0.117E+00    0.179E+00
DAV:   6    -0.499333328253E+03   -0.65253E-02   -0.36190E-02 19920   0.110E+00    0.761E-01
DAV:   7    -0.499334806874E+03   -0.14786E-02   -0.11341E-02 18232   0.550E-01    0.522E-01
DAV:   8    -0.499334666991E+03    0.13988E-03   -0.17146E-03 13872   0.170E-01    0.462E-01
DAV:   9    -0.499334417234E+03    0.24976E-03   -0.49085E-04 18792   0.102E-01    0.399E-01
DAV:  10    -0.499334124151E+03    0.29308E-03   -0.10425E-03 18280   0.110E-01    0.329E-01
DAV:  11    -0.499333911874E+03    0.21228E-03   -0.12023E-03 17704   0.103E-01    0.269E-01
DAV:  12    -0.499333909721E+03    0.21533E-05   -0.25598E-04 16816   0.673E-02    0.262E-01
DAV:  13    -0.499334052253E+03   -0.14253E-03   -0.16072E-04 15688   0.366E-02    0.269E-01
DAV:  14    -0.499334188735E+03   -0.13648E-03   -0.11425E-04 15744   0.254E-02    0.278E-01
DAV:  15    -0.499334095746E+03    0.92989E-04   -0.18482E-05  8896   0.150E-02    0.274E-01
DAV:  16    -0.499333594703E+03    0.50104E-03   -0.12695E-03 20008   0.892E-02    0.217E-01
DAV:  17    -0.499333462122E+03    0.13258E-03   -0.72353E-04 19984   0.805E-02    0.144E-01
DAV:  18    -0.499333526010E+03   -0.63888E-04   -0.12081E-04 15104   0.459E-02    0.133E-01
DAV:  19    -0.499333538233E+03   -0.12222E-04   -0.86124E-05 14984   0.329E-02    0.994E-02
DAV:  20    -0.499333553113E+03   -0.14881E-04   -0.15668E-04 16544   0.489E-02    0.734E-02
DAV:  21    -0.499333556141E+03   -0.30282E-05   -0.65192E-05 12968   0.229E-02
   6 F= -.49933356E+03 E0= -.49933476E+03  d E =-.248173E-01  mag=   108.0747
 curvature:  -2.71 expect dE=-0.168E-01 dE for cont linesearch -0.750E-03
 ZBRENT: interpolating
 opt :   3.6339  next Energy=  -499.334158 (dE=-0.254E-01)
 bond charge predicted
       N       E                     dE             d eps       ncg     rms          rms(c)
DAV:   1    -0.499322729949E+03    0.10823E-01   -0.11451E+00 11985   0.220E+00    0.698E-01
DAV:   2    -0.499331271829E+03   -0.85419E-02   -0.61766E-02 13080   0.602E-01    0.686E-01
DAV:   3    -0.499338803689E+03   -0.75319E-02   -0.37457E-02 19744   0.917E-01    0.129E+00
DAV:   4    -0.499332112814E+03    0.66909E-02   -0.24632E-02 21312   0.691E-01    0.387E-01
DAV:   5    -0.499334218806E+03   -0.21060E-02   -0.29055E-03 18352   0.223E-01    0.283E-01
DAV:   6    -0.499334185464E+03    0.33342E-04   -0.66132E-04 18304   0.140E-01    0.217E-01
DAV:   7    -0.499334008714E+03    0.17675E-03   -0.39497E-04 16520   0.115E-01    0.949E-02
DAV:   8    -0.499334001860E+03    0.68544E-05   -0.79597E-05 12624   0.279E-02
   7 F= -.49933400E+03 E0= -.49933515E+03  d E =-.252631E-01  mag=   108.0781
 curvature:  -2.18 expect dE=-0.993E-02 dE for cont linesearch -0.712E-05
 trial: gam= 0.32880 g(F)=  0.456E-02 g(S)=  0.000E+00 ort =-0.238E-03 (trialstep = 0.185E+01)
 search vector abs. value=  0.628E-02
 bond charge predicted
       N       E                     dE             d eps       ncg     rms          rms(c)
DAV:   1    -0.499298607874E+03    0.35401E-01   -0.44202E+00 11903   0.439E+00    0.141E+00
DAV:   2    -0.499326209098E+03   -0.27601E-01   -0.20777E-01 11840   0.114E+00    0.111E+00
DAV:   3    -0.499383038489E+03   -0.56829E-01   -0.15738E-01 21440   0.180E+00    0.313E+00
DAV:   4    -0.499332727635E+03    0.50311E-01   -0.17134E-01 21712   0.181E+00    0.884E-01
DAV:   5    -0.499340423364E+03   -0.76957E-02   -0.10686E-02 19912   0.489E-01    0.618E-01
DAV:   6    -0.499340554632E+03   -0.13127E-03   -0.46431E-03 19424   0.411E-01    0.300E-01
DAV:   7    -0.499340406829E+03    0.14780E-03   -0.13546E-03 16832   0.183E-01    0.177E-01
DAV:   8    -0.499340410809E+03   -0.39799E-05   -0.26969E-04 16416   0.537E-02    0.161E-01
DAV:   9    -0.499340398411E+03    0.12398E-04   -0.77414E-05 13176   0.374E-02    0.148E-01
DAV:  10    -0.499340315346E+03    0.83065E-04   -0.18724E-04 17192   0.520E-02    0.973E-02
DAV:  11    -0.499340283871E+03    0.31475E-04   -0.94637E-05 15952   0.309E-02    0.826E-02
DAV:  12    -0.499340277709E+03    0.61624E-05   -0.16371E-05  7160   0.206E-02
   8 F= -.49934028E+03 E0= -.49934171E+03  d E =-.627585E-02  mag=   108.0606
 trial-energy change:   -0.006276  1 .order   -0.006432   -0.008280   -0.004584
 step:   4.1367(harm=  4.1367)  dis= 0.02447  next Energy=  -499.343278 (dE=-0.928E-02)
 bond charge predicted
       N       E                     dE             d eps       ncg     rms          rms(c)
DAV:   1    -0.499277513165E+03    0.62771E-01   -0.68010E+00 11879   0.544E+00    0.176E+00
DAV:   2    -0.499319699555E+03   -0.42186E-01   -0.32143E-01 11936   0.141E+00    0.134E+00
DAV:   3    -0.499362213480E+03   -0.42514E-01   -0.98789E-02 21312   0.141E+00    0.258E+00
DAV:   4    -0.499335739666E+03    0.26474E-01   -0.15828E-01 21528   0.177E+00    0.134E+00
DAV:   5    -0.499342520074E+03   -0.67804E-02   -0.22227E-02 20392   0.695E-01    0.758E-01
DAV:   6    -0.499342083494E+03    0.43658E-03   -0.68834E-03 19544   0.482E-01    0.314E-01
DAV:   7    -0.499342119285E+03   -0.35791E-04   -0.17133E-03 15744   0.194E-01    0.241E-01
DAV:   8    -0.499342110776E+03    0.85095E-05   -0.25374E-04 16784   0.545E-02    0.224E-01
DAV:   9    -0.499342044432E+03    0.66344E-04   -0.16060E-04 16560   0.575E-02    0.200E-01
DAV:  10    -0.499341932770E+03    0.11166E-03   -0.29425E-04 18208   0.643E-02    0.150E-01
DAV:  11    -0.499341899198E+03    0.33572E-04   -0.19176E-04 17344   0.455E-02    0.141E-01
DAV:  12    -0.499341892080E+03    0.71180E-05   -0.48470E-05 11632   0.294E-02
   9 F= -.49934189E+03 E0= -.49934377E+03  d E =-.789022E-02  mag=   108.0500
 curvature:  -2.90 expect dE=-0.963E-02 dE for cont linesearch -0.155E-03
 trial: gam= 0.87502 g(F)=  0.333E-02 g(S)=  0.000E+00 ort =-0.580E-03 (trialstep = 0.203E+01)
 search vector abs. value=  0.712E-02
 bond charge predicted
       N       E                     dE             d eps       ncg     rms          rms(c)
DAV:   1    -0.499303146350E+03    0.38753E-01   -0.55544E+00 11552   0.392E+00    0.170E+00
DAV:   2    -0.499323618973E+03   -0.20473E-01   -0.93609E-02 13229   0.868E-01    0.135E+00
DAV:   3    -0.499399138130E+03   -0.75519E-01   -0.16457E-01 21536   0.192E+00    0.335E+00
DAV:   4    -0.499338667882E+03    0.60470E-01   -0.19610E-01 21544   0.206E+00    0.998E-01
DAV:   5    -0.499346610543E+03   -0.79427E-02   -0.15239E-02 19296   0.470E-01    0.577E-01
DAV:   6    -0.499346397947E+03    0.21260E-03   -0.42751E-03 19120   0.347E-01    0.358E-01
DAV:   7    -0.499346319193E+03    0.78754E-04   -0.98673E-04 14120   0.166E-01    0.289E-01
DAV:   8    -0.499346347680E+03   -0.28487E-04   -0.18149E-04 17440   0.465E-02    0.282E-01
DAV:   9    -0.499346453208E+03   -0.10553E-03   -0.12405E-04 15160   0.330E-02    0.294E-01
DAV:  10    -0.499346500850E+03   -0.47643E-04   -0.67098E-05 13984   0.254E-02    0.291E-01
DAV:  11    -0.499346546973E+03   -0.46123E-04   -0.31221E-05  9576   0.178E-02    0.295E-01
DAV:  12    -0.499346453412E+03    0.93562E-04   -0.17217E-05  8304   0.165E-02    0.291E-01
DAV:  13    -0.499346064685E+03    0.38873E-03   -0.65514E-04 19760   0.615E-02    0.236E-01
DAV:  14    -0.499345952448E+03    0.11224E-03   -0.42813E-04 19296   0.558E-02    0.223E-01
DAV:  15    -0.499345940142E+03    0.12306E-04   -0.92467E-05 15584   0.419E-02    0.201E-01
DAV:  16    -0.499345822695E+03    0.11745E-03   -0.58117E-04 20512   0.112E-01    0.141E-01
DAV:  17    -0.499345819129E+03    0.35665E-05   -0.22650E-04 16136   0.386E-02    0.122E-01
DAV:  18    -0.499345838628E+03   -0.19499E-04   -0.39712E-05 11456   0.262E-02    0.106E-01
DAV:  19    -0.499345829283E+03    0.93451E-05   -0.59143E-05 10928   0.366E-02
  10 F= -.49934583E+03 E0= -.49934826E+03  d E =-.393720E-02  mag=   107.9817
 trial-energy change:   -0.003937  1 .order   -0.004075   -0.005729   -0.002420
 step:   3.5204(harm=  3.5204)  dis= 0.01905  next Energy=  -499.346852 (dE=-0.496E-02)
 bond charge predicted
       N       E                     dE             d eps       ncg     rms          rms(c)
DAV:   1    -0.499323870952E+03    0.21968E-01   -0.29717E+00 11488   0.286E+00    0.124E+00
DAV:   2    -0.499334993884E+03   -0.11123E-01   -0.49073E-02 13394   0.636E-01    0.101E+00
DAV:   3    -0.499390236791E+03   -0.55243E-01   -0.13850E-01 21176   0.180E+00    0.299E+00
DAV:   4    -0.499341812475E+03    0.48424E-01   -0.13619E-01 21360   0.173E+00    0.605E-01
DAV:   5    -0.499346969672E+03   -0.51572E-02   -0.73912E-03 18600   0.338E-01    0.374E-01
DAV:   6    -0.499347033968E+03   -0.64297E-04   -0.15094E-03 18048   0.221E-01    0.287E-01
DAV:   7    -0.499346826319E+03    0.20765E-03   -0.53748E-04 15400   0.139E-01    0.184E-01
DAV:   8    -0.499346797733E+03    0.28586E-04   -0.15187E-04 16376   0.431E-02    0.146E-01
DAV:   9    -0.499346796564E+03    0.11686E-05   -0.53165E-05 10920   0.276E-02
  11 F= -.49934680E+03 E0= -.49934953E+03  d E =-.490448E-02  mag=   107.9637
 curvature:  -4.45 expect dE=-0.115E-01 dE for cont linesearch -0.434E-04
 trial: gam= 0.18249 g(F)=  0.258E-02 g(S)=  0.000E+00 ort = 0.263E-03 (trialstep = 0.233E+01)
 search vector abs. value=  0.291E-02
 bond charge predicted
       N       E                     dE             d eps       ncg     rms          rms(c)
DAV:   1    -0.499301413094E+03    0.45385E-01   -0.39723E+00 12149   0.487E+00    0.126E+00
DAV:   2    -0.499340201319E+03   -0.38788E-01   -0.34657E-01 11872   0.125E+00    0.909E-01
DAV:   3    -0.499347941874E+03   -0.77406E-02   -0.16602E-02 20200   0.522E-01    0.103E+00
DAV:   4    -0.499351975675E+03   -0.40338E-02   -0.44238E-02 21144   0.101E+00    0.125E+00
DAV:   5    -0.499349812110E+03    0.21636E-02   -0.15774E-02 20792   0.613E-01    0.373E-01
DAV:   6    -0.499350898664E+03   -0.10866E-02   -0.24614E-03 17912   0.229E-01    0.239E-01
DAV:   7    -0.499350830901E+03    0.67763E-04   -0.57442E-04 17640   0.141E-01    0.188E-01
DAV:   8    -0.499350822534E+03    0.83667E-05   -0.12507E-04 14408   0.595E-02    0.176E-01
DAV:   9    -0.499350810404E+03    0.12130E-04   -0.88418E-05 13664   0.319E-02    0.170E-01
DAV:  10    -0.499350765820E+03    0.44584E-04   -0.15330E-04 17984   0.416E-02    0.125E-01
DAV:  11    -0.499350777293E+03   -0.11473E-04   -0.92775E-05 15264   0.296E-02    0.122E-01
DAV:  12    -0.499350794768E+03   -0.17475E-04   -0.20150E-05  8456   0.156E-02    0.121E-01
DAV:  13    -0.499350834499E+03   -0.39731E-04   -0.34357E-05 10728   0.150E-02    0.129E-01
DAV:  14    -0.499350818748E+03    0.15752E-04   -0.76117E-06  6352   0.972E-03    0.127E-01
DAV:  15    -0.499350816827E+03    0.19204E-05   -0.30665E-06  6080   0.386E-03
  12 F= -.49935082E+03 E0= -.49935377E+03  d E =-.402026E-02  mag=   107.9578
 trial-energy change:   -0.004020  1 .order   -0.004065   -0.006126   -0.002004
 step:   3.5904(harm=  3.4637)  dis= 0.01352  next Energy=  -499.351352 (dE=-0.456E-02)
 bond charge predicted
       N       E                     dE             d eps       ncg     rms          rms(c)
DAV:   1    -0.499336819575E+03    0.13999E-01   -0.11624E+00 12149   0.263E+00    0.691E-01
DAV:   2    -0.499348939435E+03   -0.12120E-01   -0.10214E-01 11988   0.717E-01    0.657E-01
DAV:   3    -0.499358541484E+03   -0.96020E-02   -0.39839E-02 19000   0.102E+00    0.135E+00
DAV:   4    -0.499349212465E+03    0.93290E-02   -0.25980E-02 21072   0.781E-01    0.415E-01
DAV:   5    -0.499350991158E+03   -0.17787E-02   -0.22181E-03 19816   0.230E-01    0.353E-01
DAV:   6    -0.499351602925E+03   -0.61177E-03   -0.11056E-03 17592   0.112E-01    0.337E-01
DAV:   7    -0.499351419090E+03    0.18384E-03   -0.37272E-04 18560   0.945E-02    0.225E-01
DAV:   8    -0.499351435072E+03   -0.15983E-04   -0.80739E-05 13536   0.414E-02    0.216E-01
DAV:   9    -0.499351431782E+03    0.32908E-05   -0.32357E-05 10480   0.185E-02
  13 F= -.49935143E+03 E0= -.49935444E+03  d E =-.463522E-02  mag=   107.9390
 curvature:  -1.90 expect dE=-0.196E-02 dE for cont linesearch -0.532E-05
 trial: gam= 0.41505 g(F)=  0.104E-02 g(S)=  0.000E+00 ort =-0.904E-04 (trialstep = 0.258E+01)
 search vector abs. value=  0.146E-02
 bond charge predicted
       N       E                     dE             d eps       ncg     rms          rms(c)
DAV:   1    -0.499318606499E+03    0.32829E-01   -0.26505E+00 12137   0.385E+00    0.105E+00
DAV:   2    -0.499346656496E+03   -0.28050E-01   -0.24308E-01 11936   0.960E-01    0.873E-01
DAV:   3    -0.499376225334E+03   -0.29569E-01   -0.91257E-02 20320   0.151E+00    0.223E+00
DAV:   4    -0.499348618740E+03    0.27607E-01   -0.77742E-02 21416   0.135E+00    0.671E-01
DAV:   5    -0.499352151783E+03   -0.35330E-02   -0.48248E-03 20616   0.356E-01    0.529E-01
DAV:   6    -0.499353881766E+03   -0.17300E-02   -0.31757E-03 19200   0.245E-01    0.453E-01
DAV:   7    -0.499353842245E+03    0.39521E-04   -0.10550E-03 18200   0.166E-01    0.361E-01
DAV:   8    -0.499353844389E+03   -0.21443E-05   -0.15514E-04 15784   0.464E-02    0.349E-01
DAV:   9    -0.499353620365E+03    0.22402E-03   -0.11292E-04 14928   0.366E-02    0.333E-01
DAV:  10    -0.499352941402E+03    0.67896E-03   -0.14164E-03 20256   0.996E-02    0.265E-01
DAV:  11    -0.499352937202E+03    0.41998E-05   -0.25627E-04 16832   0.431E-02    0.251E-01
DAV:  12    -0.499352803973E+03    0.13323E-03   -0.24103E-04 18800   0.592E-02    0.199E-01
DAV:  13    -0.499352627639E+03    0.17633E-03   -0.54152E-04 19816   0.718E-02    0.152E-01
DAV:  14    -0.499352614970E+03    0.12669E-04   -0.19822E-04 17856   0.399E-02    0.148E-01
DAV:  15    -0.499352598404E+03    0.16566E-04   -0.57743E-05 12568   0.356E-02    0.118E-01
DAV:  16    -0.499352574914E+03    0.23490E-04   -0.21659E-04 17488   0.513E-02    0.544E-02
DAV:  17    -0.499352590385E+03   -0.15471E-04   -0.47021E-05 11048   0.236E-02    0.533E-02
DAV:  18    -0.499352594506E+03   -0.41207E-05   -0.17987E-05  6920   0.192E-02
  14 F= -.49935259E+03 E0= -.49935582E+03  d E =-.116272E-02  mag=   107.9947
 trial-energy change:   -0.001163  1 .order   -0.001552   -0.002580   -0.000524
 step:   3.2408(harm=  3.2408)  dis= 0.00787  next Energy=  -499.353051 (dE=-0.162E-02)
 bond charge predicted
       N       E                     dE             d eps       ncg     rms          rms(c)
DAV:   1    -0.499350437929E+03    0.21525E-02   -0.17161E-01 12009   0.979E-01    0.267E-01
DAV:   2    -0.499352187297E+03   -0.17494E-02   -0.15755E-02 11630   0.236E-01    0.193E-01
DAV:   3    -0.499353605397E+03   -0.14181E-02   -0.34994E-03 20312   0.289E-01    0.468E-01
DAV:   4    -0.499352395205E+03    0.12102E-02   -0.37657E-03 17168   0.295E-01    0.164E-01
DAV:   5    -0.499352648709E+03   -0.25350E-03   -0.29118E-04 17144   0.727E-02    0.879E-02
DAV:   6    -0.499352658563E+03   -0.98543E-05   -0.10122E-04 14176   0.654E-02    0.510E-02
DAV:   7    -0.499352656618E+03    0.19453E-05   -0.29410E-05  8976   0.322E-02
  15 F= -.49935266E+03 E0= -.49935592E+03  d E =-.122484E-02  mag=   107.9921
 curvature:  -2.37 expect dE=-0.918E-03 dE for cont linesearch -0.134E-05
 trial: gam= 0.20365 g(F)=  0.387E-03 g(S)=  0.000E+00 ort = 0.287E-04 (trialstep = 0.271E+01)
 search vector abs. value=  0.459E-03
 bond charge predicted
       N       E                     dE             d eps       ncg     rms          rms(c)
DAV:   1    -0.499340565124E+03    0.12093E-01   -0.92391E-01 12692   0.258E+00    0.558E-01
DAV:   2    -0.499351843490E+03   -0.11278E-01   -0.10297E-01 11758   0.662E-01    0.502E-01
DAV:   3    -0.499359759497E+03   -0.79160E-02   -0.29723E-02 19416   0.885E-01    0.117E+00
DAV:   4    -0.499352070906E+03    0.76886E-02   -0.22318E-02 21048   0.720E-01    0.350E-01
DAV:   5    -0.499352684572E+03   -0.61367E-03   -0.10706E-03 20328   0.155E-01    0.282E-01
DAV:   6    -0.499353353975E+03   -0.66940E-03   -0.12009E-03 19448   0.198E-01    0.229E-01
DAV:   7    -0.499353209189E+03    0.14479E-03   -0.72546E-04 17912   0.147E-01    0.936E-02
DAV:   8    -0.499353213625E+03   -0.44360E-05   -0.11646E-04 14776   0.366E-02    0.814E-02
DAV:   9    -0.499353211870E+03    0.17549E-05   -0.29385E-05  9816   0.243E-02
  16 F= -.49935321E+03 E0= -.49935654E+03  d E =-.555252E-03  mag=   107.9639
 trial-energy change:   -0.000555  1 .order   -0.000652   -0.001066   -0.000237
 step:   3.4916(harm=  3.4916)  dis= 0.00755  next Energy=  -499.353342 (dE=-0.686E-03)
 reached required accuracy - stopping structural energy minimisation
 PROFILE, used timers:     231
