ni3al                                   
           1
     8.539300    0.000000    0.000000
     0.013525    8.505890    0.000000
     0.000000    0.000000   23.533899
   Cr   Fe
    13    49
Direct configuration=     1
   0.00218000  0.99867000  0.24166000
   0.00302000  0.33361000  0.00057000
   0.99041684  0.32749302  0.36907149
   0.16217000  0.49431000  0.05981000
   0.16492000  0.83554000  0.06027000
   0.50239562  0.49718239  0.30426852
   0.50447000  0.49654000  0.06032000
   0.50514000  0.16237000  0.18167000
   0.66136000  0.00065000  0.24022000
   0.66603000  0.99799000  0.00047000
   0.66651714  0.00211023  0.36423895
   0.65989000  0.33950000  0.00031000
   0.66352000  0.99935000  0.12162000
   0.16526541  0.16129278  0.30249948
   0.99997000  0.33205000  0.24166000
   0.16645926  0.49860558  0.30363943
   0.00013000  0.66493000  0.24143000
   0.16789835  0.83244821  0.30347311
   0.99854000  0.00048000  0.00000000
   0.99125371  0.99788441  0.36059854
   0.16550000  0.16500000  0.06050000
   0.00106000  0.66662000  0.00057000
   0.99189217  0.66539735  0.36027328
   0.99930000  0.99936000  0.12074000
   0.16685000  0.16538000  0.18105000
   0.99936000  0.33161000  0.12083000
   0.16544000  0.49812000  0.18093000
   0.00040000  0.66536000  0.12057000
   0.16627000  0.83203000  0.18103000
   0.33360000  0.99731000  0.24116000
   0.49548341  0.16288691  0.30151412
   0.33251000  0.33244000  0.24115000
   0.33243000  0.66411000  0.24135000
   0.49965071  0.83228163  0.30343182
   0.33406000  0.99850000  0.00062000
   0.34365292  0.00098190  0.36257891
   0.50112000  0.16466000  0.06049000
   0.33306000  0.33260000  0.00065000
   0.32539816  0.32266413  0.36016091
   0.33279000  0.66191000  0.00103000
   0.33518099  0.66931843  0.36118482
   0.50000000  0.83116000  0.06060000
   0.33336000  0.99854000  0.12089000
   0.33259000  0.33282000  0.12015000
   0.49958000  0.49779000  0.18076000
   0.33192000  0.66330000  0.12025000
   0.49972000  0.83017000  0.18081000
   0.83131463  0.16219278  0.29975342
   0.66532000  0.33232000  0.24137000
   0.83169364  0.50113559  0.30136053
   0.66623000  0.66534000  0.24124000
   0.83261737  0.83261328  0.30147526
   0.83178000  0.16609000  0.06006000
   0.83424000  0.49924000  0.06020000
   0.66675000  0.66697000  0.00034000
   0.67257000  0.67691581  0.36234137
   0.83291000  0.83387000  0.06067000
   0.83469000  0.16589000  0.18162000
   0.66681000  0.33159000  0.12072000
   0.83279000  0.49851000  0.18135000
   0.66709000  0.66502000  0.12081000
   0.83337000  0.83396000  0.18143000
Direct configuration=     2
   0.00218000  0.99867000  0.24166000
   0.00302000  0.33361000  0.00057000
   0.99056813  0.32736381  0.36935175
   0.16217000  0.49431000  0.05981000
   0.16492000  0.83554000  0.06027000
   0.50240896  0.49632655  0.30408638
   0.50447000  0.49654000  0.06032000
   0.50514000  0.16237000  0.18167000
   0.66136000  0.00065000  0.24022000
   0.66603000  0.99799000  0.00047000
   0.66758201  0.00348322  0.36478951
   0.65989000  0.33950000  0.00031000
   0.66352000  0.99935000  0.12162000
   0.16573697  0.16151068  0.30266325
   0.99997000  0.33205000  0.24166000
   0.16669091  0.49870425  0.30373045
   0.00013000  0.66493000  0.24143000
   0.16806881  0.83194849  0.30349026
   0.99854000  0.00048000  0.00000000
   0.99183128  0.99848709  0.36021184
   0.16550000  0.16500000  0.06050000
   0.00106000  0.66662000  0.00057000
   0.99257846  0.66514927  0.36028626
   0.99930000  0.99936000  0.12074000
   0.16685000  0.16538000  0.18105000
   0.99936000  0.33161000  0.12083000
   0.16544000  0.49812000  0.18093000
   0.00040000  0.66536000  0.12057000
   0.16627000  0.83203000  0.18103000
   0.33360000  0.99731000  0.24116000
   0.49608495  0.16506186  0.30133596
   0.33251000  0.33244000  0.24115000
   0.33243000  0.66411000  0.24135000
   0.49947307  0.83139552  0.30300801
   0.33406000  0.99850000  0.00062000
   0.34189706  0.00087391  0.36221583
   0.50112000  0.16466000  0.06049000
   0.33306000  0.33260000  0.00065000
   0.32559386  0.32338505  0.36016292
   0.33279000  0.66191000  0.00103000
   0.33440684  0.66910476  0.36144585
   0.50000000  0.83116000  0.06060000
   0.33336000  0.99854000  0.12089000
   0.33259000  0.33282000  0.12015000
   0.49958000  0.49779000  0.18076000
   0.33192000  0.66330000  0.12025000
   0.49972000  0.83017000  0.18081000
   0.83113681  0.16224826  0.29926453
   0.66532000  0.33232000  0.24137000
   0.83000738  0.50067935  0.30138784
   0.66623000  0.66534000  0.24124000
   0.83269727  0.83223157  0.30126725
   0.83178000  0.16609000  0.06006000
   0.83424000  0.49924000  0.06020000
   0.66675000  0.66697000  0.00034000
   0.67252530  0.67615136  0.36187202
   0.83291000  0.83387000  0.06067000
   0.83469000  0.16589000  0.18162000
   0.66681000  0.33159000  0.12072000
   0.83279000  0.49851000  0.18135000
   0.66709000  0.66502000  0.12081000
   0.83337000  0.83396000  0.18143000
Direct configuration=     3
   0.00218000  0.99867000  0.24166000
   0.00302000  0.33361000  0.00057000
   0.99090353  0.32707735  0.36997308
   0.16217000  0.49431000  0.05981000
   0.16492000  0.83554000  0.06027000
   0.50243853  0.49442921  0.30368258
   0.50447000  0.49654000  0.06032000
   0.50514000  0.16237000  0.18167000
   0.66136000  0.00065000  0.24022000
   0.66603000  0.99799000  0.00047000
   0.66994274  0.00652703  0.36601005
   0.65989000  0.33950000  0.00031000
   0.66352000  0.99935000  0.12162000
   0.16678238  0.16199375  0.30302631
   0.99997000  0.33205000  0.24166000
   0.16720448  0.49892299  0.30393223
   0.00013000  0.66493000  0.24143000
   0.16844671  0.83084065  0.30352827
   0.99854000  0.00048000  0.00000000
   0.99311169  0.99982320  0.35935457
   0.16550000  0.16500000  0.06050000
   0.00106000  0.66662000  0.00057000
   0.99409993  0.66459931  0.36031505
   0.99930000  0.99936000  0.12074000
   0.16685000  0.16538000  0.18105000
   0.99936000  0.33161000  0.12083000
   0.16544000  0.49812000  0.18093000
   0.00040000  0.66536000  0.12057000
   0.16627000  0.83203000  0.18103000
   0.33360000  0.99731000  0.24116000
   0.49741849  0.16988355  0.30094098
   0.33251000  0.33244000  0.24115000
   0.33243000  0.66411000  0.24135000
   0.49907927  0.82943110  0.30206844
   0.33406000  0.99850000  0.00062000
   0.33800447  0.00063450  0.36141092
   0.50112000  0.16466000  0.06049000
   0.33306000  0.33260000  0.00065000
   0.32602772  0.32498327  0.36016737
   0.33279000  0.66191000  0.00103000
   0.33269063  0.66863106  0.36202453
   0.50000000  0.83116000  0.06060000
   0.33336000  0.99854000  0.12089000
   0.33259000  0.33282000  0.12015000
   0.49958000  0.49779000  0.18076000
   0.33192000  0.66330000  0.12025000
   0.49972000  0.83017000  0.18081000
   0.83074260  0.16237125  0.29818071
   0.66532000  0.33232000  0.24137000
   0.82626908  0.49966792  0.30144838
   0.66623000  0.66534000  0.24124000
   0.83287441  0.83138535  0.30080612
   0.83178000  0.16609000  0.06006000
   0.83424000  0.49924000  0.06020000
   0.66675000  0.66697000  0.00034000
   0.67242619  0.67445663  0.36083151
   0.83291000  0.83387000  0.06067000
   0.83469000  0.16589000  0.18162000
   0.66681000  0.33159000  0.12072000
   0.83279000  0.49851000  0.18135000
   0.66709000  0.66502000  0.12081000
   0.83337000  0.83396000  0.18143000
Direct configuration=     4
   0.00218000  0.99867000  0.24166000
   0.00302000  0.33361000  0.00057000
   0.99087026  0.32710576  0.36991145
   0.16217000  0.49431000  0.05981000
   0.16492000  0.83554000  0.06027000
   0.50243560  0.49461741  0.30372264
   0.50447000  0.49654000  0.06032000
   0.50514000  0.16237000  0.18167000
   0.66136000  0.00065000  0.24022000
   0.66603000  0.99799000  0.00047000
   0.66970857  0.00622511  0.36588898
   0.65989000  0.33950000  0.00031000
   0.66352000  0.99935000  0.12162000
   0.16667868  0.16194584  0.30299030
   0.99997000  0.33205000  0.24166000
   0.16715353  0.49890129  0.30391221
   0.00013000  0.66493000  0.24143000
   0.16840923  0.83095054  0.30352450
   0.99854000  0.00048000  0.00000000
   0.99298468  0.99969066  0.35943960
   0.16550000  0.16500000  0.06050000
   0.00106000  0.66662000  0.00057000
   0.99394901  0.66465386  0.36031219
   0.99930000  0.99936000  0.12074000
   0.16685000  0.16538000  0.18105000
   0.99936000  0.33161000  0.12083000
   0.16544000  0.49812000  0.18093000
   0.00040000  0.66536000  0.12057000
   0.16627000  0.83203000  0.18103000
   0.33360000  0.99731000  0.24116000
   0.49728622  0.16940528  0.30098016
   0.33251000  0.33244000  0.24115000
   0.33243000  0.66411000  0.24135000
   0.49911833  0.82962595  0.30216164
   0.33406000  0.99850000  0.00062000
   0.33839058  0.00065824  0.36149076
   0.50112000  0.16466000  0.06049000
   0.33306000  0.33260000  0.00065000
   0.32598468  0.32482474  0.36016693
   0.33279000  0.66191000  0.00103000
   0.33286086  0.66867805  0.36196713
   0.50000000  0.83116000  0.06060000
   0.33336000  0.99854000  0.12089000
   0.33259000  0.33282000  0.12015000
   0.49958000  0.49779000  0.18076000
   0.33192000  0.66330000  0.12025000
   0.49972000  0.83017000  0.18081000
   0.83078170  0.16235905  0.29828821
   0.66532000  0.33232000  0.24137000
   0.82663989  0.49976824  0.30144237
   0.66623000  0.66534000  0.24124000
   0.83285684  0.83146929  0.30085186
   0.83178000  0.16609000  0.06006000
   0.83424000  0.49924000  0.06020000
   0.66675000  0.66697000  0.00034000
   0.67243602  0.67462473  0.36093472
   0.83291000  0.83387000  0.06067000
   0.83469000  0.16589000  0.18162000
   0.66681000  0.33159000  0.12072000
   0.83279000  0.49851000  0.18135000
   0.66709000  0.66502000  0.12081000
   0.83337000  0.83396000  0.18143000
Direct configuration=     5
   0.00218000  0.99867000  0.24166000
   0.00302000  0.33361000  0.00057000
   0.99047112  0.32696642  0.37005339
   0.16217000  0.49431000  0.05981000
   0.16492000  0.83554000  0.06027000
   0.50208750  0.49457957  0.30370481
   0.50447000  0.49654000  0.06032000
   0.50514000  0.16237000  0.18167000
   0.66136000  0.00065000  0.24022000
   0.66603000  0.99799000  0.00047000
   0.66977254  0.00715546  0.36630446
   0.65989000  0.33950000  0.00031000
   0.66352000  0.99935000  0.12162000
   0.16683657  0.16256097  0.30281982
   0.99997000  0.33205000  0.24166000
   0.16670719  0.49865986  0.30387035
   0.00013000  0.66493000  0.24143000
   0.16832320  0.83062869  0.30341722
   0.99854000  0.00048000  0.00000000
   0.99367111  0.99998746  0.35898415
   0.16550000  0.16500000  0.06050000
   0.00106000  0.66662000  0.00057000
   0.99434299  0.66446950  0.36020922
   0.99930000  0.99936000  0.12074000
   0.16685000  0.16538000  0.18105000
   0.99936000  0.33161000  0.12083000
   0.16544000  0.49812000  0.18093000
   0.00040000  0.66536000  0.12057000
   0.16627000  0.83203000  0.18103000
   0.33360000  0.99731000  0.24116000
   0.49722834  0.16915812  0.30111669
   0.33251000  0.33244000  0.24115000
   0.33243000  0.66411000  0.24135000
   0.49925081  0.83083612  0.30238827
   0.33406000  0.99850000  0.00062000
   0.33732389  0.00059187  0.36085791
   0.50112000  0.16466000  0.06049000
   0.33306000  0.33260000  0.00065000
   0.32688303  0.32606602  0.36034824
   0.33279000  0.66191000  0.00103000
   0.33186528  0.66864921  0.36221721
   0.50000000  0.83116000  0.06060000
   0.33336000  0.99854000  0.12089000
   0.33259000  0.33282000  0.12015000
   0.49958000  0.49779000  0.18076000
   0.33192000  0.66330000  0.12025000
   0.49972000  0.83017000  0.18081000
   0.83161008  0.16274498  0.29802004
   0.66532000  0.33232000  0.24137000
   0.82687708  0.49902862  0.30158602
   0.66623000  0.66534000  0.24124000
   0.83311506  0.83149980  0.30091544
   0.83178000  0.16609000  0.06006000
   0.83424000  0.49924000  0.06020000
   0.66675000  0.66697000  0.00034000
   0.67179673  0.67346566  0.36041639
   0.83291000  0.83387000  0.06067000
   0.83469000  0.16589000  0.18162000
   0.66681000  0.33159000  0.12072000
   0.83279000  0.49851000  0.18135000
   0.66709000  0.66502000  0.12081000
   0.83337000  0.83396000  0.18143000
Direct configuration=     6
   0.00218000  0.99867000  0.24166000
   0.00302000  0.33361000  0.00057000
   0.98967695  0.32668918  0.37033581
   0.16217000  0.49431000  0.05981000
   0.16492000  0.83554000  0.06027000
   0.50139490  0.49450428  0.30366934
   0.50447000  0.49654000  0.06032000
   0.50514000  0.16237000  0.18167000
   0.66136000  0.00065000  0.24022000
   0.66603000  0.99799000  0.00047000
   0.66989982  0.00900657  0.36713111
   0.65989000  0.33950000  0.00031000
   0.66352000  0.99935000  0.12162000
   0.16715070  0.16378487  0.30248064
   0.99997000  0.33205000  0.24166000
   0.16581911  0.49817949  0.30378705
   0.00013000  0.66493000  0.24143000
   0.16815203  0.82998832  0.30320379
   0.99854000  0.00048000  0.00000000
   0.99503687  0.00057798  0.35807796
   0.16550000  0.16500000  0.06050000
   0.00106000  0.66662000  0.00057000
   0.99512686  0.66410269  0.36000435
   0.99930000  0.99936000  0.12074000
   0.16685000  0.16538000  0.18105000
   0.99936000  0.33161000  0.12083000
   0.16544000  0.49812000  0.18093000
   0.00040000  0.66536000  0.12057000
   0.16627000  0.83203000  0.18103000
   0.33360000  0.99731000  0.24116000
   0.49711320  0.16866636  0.30138834
   0.33251000  0.33244000  0.24115000
   0.33243000  0.66411000  0.24135000
   0.49951439  0.83324394  0.30283918
   0.33406000  0.99850000  0.00062000
   0.33520154  0.00045981  0.35959874
   0.50112000  0.16466000  0.06049000
   0.33306000  0.33260000  0.00065000
   0.32867043  0.32853576  0.36070900
   0.33279000  0.66191000  0.00103000
   0.32988439  0.66859184  0.36271480
   0.50000000  0.83116000  0.06060000
   0.33336000  0.99854000  0.12089000
   0.33259000  0.33282000  0.12015000
   0.49958000  0.49779000  0.18076000
   0.33192000  0.66330000  0.12025000
   0.49972000  0.83017000  0.18081000
   0.83325829  0.16351283  0.29748646
   0.66532000  0.33232000  0.24137000
   0.82734902  0.49755700  0.30187182
   0.66623000  0.66534000  0.24124000
   0.83362885  0.83156052  0.30104195
   0.83178000  0.16609000  0.06006000
   0.83424000  0.49924000  0.06020000
   0.66675000  0.66697000  0.00034000
   0.67052477  0.67115951  0.35938509
   0.83291000  0.83387000  0.06067000
   0.83469000  0.16589000  0.18162000
   0.66681000  0.33159000  0.12072000
   0.83279000  0.49851000  0.18135000
   0.66709000  0.66502000  0.12081000
   0.83337000  0.83396000  0.18143000
Direct configuration=     7
   0.00218000  0.99867000  0.24166000
   0.00302000  0.33361000  0.00057000
   0.98983378  0.32674392  0.37028004
   0.16217000  0.49431000  0.05981000
   0.16492000  0.83554000  0.06027000
   0.50153167  0.49451915  0.30367635
   0.50447000  0.49654000  0.06032000
   0.50514000  0.16237000  0.18167000
   0.66136000  0.00065000  0.24022000
   0.66603000  0.99799000  0.00047000
   0.66987469  0.00864103  0.36696787
   0.65989000  0.33950000  0.00031000
   0.66352000  0.99935000  0.12162000
   0.16708867  0.16354319  0.30254762
   0.99997000  0.33205000  0.24166000
   0.16599448  0.49827435  0.30380350
   0.00013000  0.66493000  0.24143000
   0.16818583  0.83011477  0.30324594
   0.99854000  0.00048000  0.00000000
   0.99476717  0.00046137  0.35825690
   0.16550000  0.16500000  0.06050000
   0.00106000  0.66662000  0.00057000
   0.99497207  0.66417513  0.36004481
   0.99930000  0.99936000  0.12074000
   0.16685000  0.16538000  0.18105000
   0.99936000  0.33161000  0.12083000
   0.16544000  0.49812000  0.18093000
   0.00040000  0.66536000  0.12057000
   0.16627000  0.83203000  0.18103000
   0.33360000  0.99731000  0.24116000
   0.49713594  0.16876347  0.30133470
   0.33251000  0.33244000  0.24115000
   0.33243000  0.66411000  0.24135000
   0.49946234  0.83276847  0.30275014
   0.33406000  0.99850000  0.00062000
   0.33562064  0.00048589  0.35984739
   0.50112000  0.16466000  0.06049000
   0.33306000  0.33260000  0.00065000
   0.32831747  0.32804807  0.36063776
   0.33279000  0.66191000  0.00103000
   0.33027555  0.66860317  0.36261654
   0.50000000  0.83116000  0.06060000
   0.33336000  0.99854000  0.12089000
   0.33259000  0.33282000  0.12015000
   0.49958000  0.49779000  0.18076000
   0.33192000  0.66330000  0.12025000
   0.49972000  0.83017000  0.18081000
   0.83293282  0.16336120  0.29759182
   0.66532000  0.33232000  0.24137000
   0.82725582  0.49784760  0.30181538
   0.66623000  0.66534000  0.24124000
   0.83352739  0.83154853  0.30101697
   0.83178000  0.16609000  0.06006000
   0.83424000  0.49924000  0.06020000
   0.66675000  0.66697000  0.00034000
   0.67077594  0.67161490  0.35958874
   0.83291000  0.83387000  0.06067000
   0.83469000  0.16589000  0.18162000
   0.66681000  0.33159000  0.12072000
   0.83279000  0.49851000  0.18135000
   0.66709000  0.66502000  0.12081000
   0.83337000  0.83396000  0.18143000
Direct configuration=     8
   0.00218000  0.99867000  0.24166000
   0.00302000  0.33361000  0.00057000
   0.98966993  0.32627810  0.37033884
   0.16217000  0.49431000  0.05981000
   0.16492000  0.83554000  0.06027000
   0.50136924  0.49512118  0.30372736
   0.50447000  0.49654000  0.06032000
   0.50514000  0.16237000  0.18167000
   0.66136000  0.00065000  0.24022000
   0.66603000  0.99799000  0.00047000
   0.67035102  0.00902965  0.36711757
   0.65989000  0.33950000  0.00031000
   0.66352000  0.99935000  0.12162000
   0.16731201  0.16482717  0.30234906
   0.99997000  0.33205000  0.24166000
   0.16614179  0.49807719  0.30374428
   0.00013000  0.66493000  0.24143000
   0.16822204  0.82975666  0.30290630
   0.99854000  0.00048000  0.00000000
   0.99521636  0.00077038  0.35818574
   0.16550000  0.16500000  0.06050000
   0.00106000  0.66662000  0.00057000
   0.99523986  0.66401683  0.36006131
   0.99930000  0.99936000  0.12074000
   0.16685000  0.16538000  0.18105000
   0.99936000  0.33161000  0.12083000
   0.16544000  0.49812000  0.18093000
   0.00040000  0.66536000  0.12057000
   0.16627000  0.83203000  0.18103000
   0.33360000  0.99731000  0.24116000
   0.49674355  0.16857425  0.30134994
   0.33251000  0.33244000  0.24115000
   0.33243000  0.66411000  0.24135000
   0.49953256  0.83241831  0.30274931
   0.33406000  0.99850000  0.00062000
   0.33534645  0.00075758  0.35983056
   0.50112000  0.16466000  0.06049000
   0.33306000  0.33260000  0.00065000
   0.32921625  0.32907409  0.36059456
   0.33279000  0.66191000  0.00103000
   0.32881339  0.66907644  0.36270115
   0.50000000  0.83116000  0.06060000
   0.33336000  0.99854000  0.12089000
   0.33259000  0.33282000  0.12015000
   0.49958000  0.49779000  0.18076000
   0.33192000  0.66330000  0.12025000
   0.49972000  0.83017000  0.18081000
   0.83298987  0.16327151  0.29783910
   0.66532000  0.33232000  0.24137000
   0.82802707  0.49782551  0.30165463
   0.66623000  0.66534000  0.24124000
   0.83295057  0.83166578  0.30109387
   0.83178000  0.16609000  0.06006000
   0.83424000  0.49924000  0.06020000
   0.66675000  0.66697000  0.00034000
   0.66960182  0.67050296  0.35935595
   0.83291000  0.83387000  0.06067000
   0.83469000  0.16589000  0.18162000
   0.66681000  0.33159000  0.12072000
   0.83279000  0.49851000  0.18135000
   0.66709000  0.66502000  0.12081000
   0.83337000  0.83396000  0.18143000
Direct configuration=     9
   0.00218000  0.99867000  0.24166000
   0.00302000  0.33361000  0.00057000
   0.98946666  0.32570022  0.37041179
   0.16217000  0.49431000  0.05981000
   0.16492000  0.83554000  0.06027000
   0.50116775  0.49586802  0.30379065
   0.50447000  0.49654000  0.06032000
   0.50514000  0.16237000  0.18167000
   0.66136000  0.00065000  0.24022000
   0.66603000  0.99799000  0.00047000
   0.67094193  0.00951175  0.36730328
   0.65989000  0.33950000  0.00031000
   0.66352000  0.99935000  0.12162000
   0.16758907  0.16642002  0.30210274
   0.99997000  0.33205000  0.24166000
   0.16632455  0.49783260  0.30367082
   0.00013000  0.66493000  0.24143000
   0.16826697  0.82931240  0.30248497
   0.99854000  0.00048000  0.00000000
   0.99577359  0.00115372  0.35809747
   0.16550000  0.16500000  0.06050000
   0.00106000  0.66662000  0.00057000
   0.99557207  0.66382045  0.36008179
   0.99930000  0.99936000  0.12074000
   0.16685000  0.16538000  0.18105000
   0.99936000  0.33161000  0.12083000
   0.16544000  0.49812000  0.18093000
   0.00040000  0.66536000  0.12057000
   0.16627000  0.83203000  0.18103000
   0.33360000  0.99731000  0.24116000
   0.49625678  0.16833951  0.30136883
   0.33251000  0.33244000  0.24115000
   0.33243000  0.66411000  0.24135000
   0.49961967  0.83198393  0.30274829
   0.33406000  0.99850000  0.00062000
   0.33500631  0.00109462  0.35980968
   0.50112000  0.16466000  0.06049000
   0.33306000  0.33260000  0.00065000
   0.33033122  0.33034693  0.36054097
   0.33279000  0.66191000  0.00103000
   0.32699950  0.66966356  0.36280612
   0.50000000  0.83116000  0.06060000
   0.33336000  0.99854000  0.12089000
   0.33259000  0.33282000  0.12015000
   0.49958000  0.49779000  0.18076000
   0.33192000  0.66330000  0.12025000
   0.49972000  0.83017000  0.18081000
   0.83306065  0.16316024  0.29814586
   0.66532000  0.33232000  0.24137000
   0.82898383  0.49779811  0.30145520
   0.66623000  0.66534000  0.24124000
   0.83223501  0.83181123  0.30118927
   0.83178000  0.16609000  0.06006000
   0.83424000  0.49924000  0.06020000
   0.66675000  0.66697000  0.00034000
   0.66814527  0.66912354  0.35906716
   0.83291000  0.83387000  0.06067000
   0.83469000  0.16589000  0.18162000
   0.66681000  0.33159000  0.12072000
   0.83279000  0.49851000  0.18135000
   0.66709000  0.66502000  0.12081000
   0.83337000  0.83396000  0.18143000
Direct configuration=    10
   0.00218000  0.99867000  0.24166000
   0.00302000  0.33361000  0.00057000
   0.98961690  0.32552966  0.37048385
   0.16217000  0.49431000  0.05981000
   0.16492000  0.83554000  0.06027000
   0.50133674  0.49602505  0.30372660
   0.50447000  0.49654000  0.06032000
   0.50514000  0.16237000  0.18167000
   0.66136000  0.00065000  0.24022000
   0.66603000  0.99799000  0.00047000
   0.67106815  0.00945120  0.36740970
   0.65989000  0.33950000  0.00031000
   0.66352000  0.99935000  0.12162000
   0.16794834  0.16659538  0.30216355
   0.99997000  0.33205000  0.24166000
   0.16630358  0.49793363  0.30356560
   0.00013000  0.66493000  0.24143000
   0.16790628  0.83004669  0.30236213
   0.99854000  0.00048000  0.00000000
   0.99664762  0.00116508  0.35793216
   0.16550000  0.16500000  0.06050000
   0.00106000  0.66662000  0.00057000
   0.99598068  0.66397930  0.36005023
   0.99930000  0.99936000  0.12074000
   0.16685000  0.16538000  0.18105000
   0.99936000  0.33161000  0.12083000
   0.16544000  0.49812000  0.18093000
   0.00040000  0.66536000  0.12057000
   0.16627000  0.83203000  0.18103000
   0.33360000  0.99731000  0.24116000
   0.49629846  0.16826584  0.30138901
   0.33251000  0.33244000  0.24115000
   0.33243000  0.66411000  0.24135000
   0.49909602  0.83197503  0.30272691
   0.33406000  0.99850000  0.00062000
   0.33472944  0.00124964  0.35983011
   0.50112000  0.16466000  0.06049000
   0.33306000  0.33260000  0.00065000
   0.33157388  0.33150214  0.36042815
   0.33279000  0.66191000  0.00103000
   0.32437712  0.67095711  0.36301978
   0.50000000  0.83116000  0.06060000
   0.33336000  0.99854000  0.12089000
   0.33259000  0.33282000  0.12015000
   0.49958000  0.49779000  0.18076000
   0.33192000  0.66330000  0.12025000
   0.49972000  0.83017000  0.18081000
   0.83282480  0.16317048  0.29823990
   0.66532000  0.33232000  0.24137000
   0.82945803  0.49803822  0.30136502
   0.66623000  0.66534000  0.24124000
   0.83202633  0.83145655  0.30134217
   0.83178000  0.16609000  0.06006000
   0.83424000  0.49924000  0.06020000
   0.66675000  0.66697000  0.00034000
   0.66699079  0.66753850  0.35897045
   0.83291000  0.83387000  0.06067000
   0.83469000  0.16589000  0.18162000
   0.66681000  0.33159000  0.12072000
   0.83279000  0.49851000  0.18135000
   0.66709000  0.66502000  0.12081000
   0.83337000  0.83396000  0.18143000
Direct configuration=    11
   0.00218000  0.99867000  0.24166000
   0.00302000  0.33361000  0.00057000
   0.98972681  0.32540488  0.37053657
   0.16217000  0.49431000  0.05981000
   0.16492000  0.83554000  0.06027000
   0.50146038  0.49613994  0.30367975
   0.50447000  0.49654000  0.06032000
   0.50514000  0.16237000  0.18167000
   0.66136000  0.00065000  0.24022000
   0.66603000  0.99799000  0.00047000
   0.67116049  0.00940690  0.36748757
   0.65989000  0.33950000  0.00031000
   0.66352000  0.99935000  0.12162000
   0.16821120  0.16672369  0.30220805
   0.99997000  0.33205000  0.24166000
   0.16628824  0.49800754  0.30348861
   0.00013000  0.66493000  0.24143000
   0.16764238  0.83058392  0.30227226
   0.99854000  0.00048000  0.00000000
   0.99728709  0.00117338  0.35781121
   0.16550000  0.16500000  0.06050000
   0.00106000  0.66662000  0.00057000
   0.99627963  0.66409552  0.36002714
   0.99930000  0.99936000  0.12074000
   0.16685000  0.16538000  0.18105000
   0.99936000  0.33161000  0.12083000
   0.16544000  0.49812000  0.18093000
   0.00040000  0.66536000  0.12057000
   0.16627000  0.83203000  0.18103000
   0.33360000  0.99731000  0.24116000
   0.49632895  0.16821194  0.30140377
   0.33251000  0.33244000  0.24115000
   0.33243000  0.66411000  0.24135000
   0.49871290  0.83196851  0.30271127
   0.33406000  0.99850000  0.00062000
   0.33452688  0.00136307  0.35984506
   0.50112000  0.16466000  0.06049000
   0.33306000  0.33260000  0.00065000
   0.33248305  0.33234733  0.36034561
   0.33279000  0.66191000  0.00103000
   0.32245849  0.67190352  0.36317611
   0.50000000  0.83116000  0.06060000
   0.33336000  0.99854000  0.12089000
   0.33259000  0.33282000  0.12015000
   0.49958000  0.49779000  0.18076000
   0.33192000  0.66330000  0.12025000
   0.49972000  0.83017000  0.18081000
   0.83265225  0.16317797  0.29830870
   0.66532000  0.33232000  0.24137000
   0.82980498  0.49821389  0.30129905
   0.66623000  0.66534000  0.24124000
   0.83187365  0.83119705  0.30145403
   0.83178000  0.16609000  0.06006000
   0.83424000  0.49924000  0.06020000
   0.66675000  0.66697000  0.00034000
   0.66614613  0.66637884  0.35889969
   0.83291000  0.83387000  0.06067000
   0.83469000  0.16589000  0.18162000
   0.66681000  0.33159000  0.12072000
   0.83279000  0.49851000  0.18135000
   0.66709000  0.66502000  0.12081000
   0.83337000  0.83396000  0.18143000
Direct configuration=    12
   0.00218000  0.99867000  0.24166000
   0.00302000  0.33361000  0.00057000
   0.99026405  0.32609067  0.37048190
   0.16217000  0.49431000  0.05981000
   0.16492000  0.83554000  0.06027000
   0.50164442  0.49549690  0.30354877
   0.50447000  0.49654000  0.06032000
   0.50514000  0.16237000  0.18167000
   0.66136000  0.00065000  0.24022000
   0.66603000  0.99799000  0.00047000
   0.67058017  0.00852529  0.36740989
   0.65989000  0.33950000  0.00031000
   0.66352000  0.99935000  0.12162000
   0.16838424  0.16601193  0.30235941
   0.99997000  0.33205000  0.24166000
   0.16610954  0.49833335  0.30340212
   0.00013000  0.66493000  0.24143000
   0.16740759  0.83108482  0.30235918
   0.99854000  0.00048000  0.00000000
   0.99698809  0.00092496  0.35791417
   0.16550000  0.16500000  0.06050000
   0.00106000  0.66662000  0.00057000
   0.99648046  0.66457657  0.36010177
   0.99930000  0.99936000  0.12074000
   0.16685000  0.16538000  0.18105000
   0.99936000  0.33161000  0.12083000
   0.16544000  0.49812000  0.18093000
   0.00040000  0.66536000  0.12057000
   0.16627000  0.83203000  0.18103000
   0.33360000  0.99731000  0.24116000
   0.49696119  0.16844169  0.30141997
   0.33251000  0.33244000  0.24115000
   0.33243000  0.66411000  0.24135000
   0.49841646  0.83219610  0.30276736
   0.33406000  0.99850000  0.00062000
   0.33480932  0.00102147  0.35996496
   0.50112000  0.16466000  0.06049000
   0.33306000  0.33260000  0.00065000
   0.33282038  0.33250516  0.36027245
   0.33279000  0.66191000  0.00103000
   0.32127576  0.67293544  0.36340720
   0.50000000  0.83116000  0.06060000
   0.33336000  0.99854000  0.12089000
   0.33259000  0.33282000  0.12015000
   0.49958000  0.49779000  0.18076000
   0.33192000  0.66330000  0.12025000
   0.49972000  0.83017000  0.18081000
   0.83262271  0.16338828  0.29800333
   0.66532000  0.33232000  0.24137000
   0.82904230  0.49799792  0.30151102
   0.66623000  0.66534000  0.24124000
   0.83209949  0.83073579  0.30140423
   0.83178000  0.16609000  0.06006000
   0.83424000  0.49924000  0.06020000
   0.66675000  0.66697000  0.00034000
   0.66633686  0.66616209  0.35902056
   0.83291000  0.83387000  0.06067000
   0.83469000  0.16589000  0.18162000
   0.66681000  0.33159000  0.12072000
   0.83279000  0.49851000  0.18135000
   0.66709000  0.66502000  0.12081000
   0.83337000  0.83396000  0.18143000
Direct configuration=    13
   0.00218000  0.99867000  0.24166000
   0.00302000  0.33361000  0.00057000
   0.99055452  0.32646146  0.37045235
   0.16217000  0.49431000  0.05981000
   0.16492000  0.83554000  0.06027000
   0.50174392  0.49514923  0.30347796
   0.50447000  0.49654000  0.06032000
   0.50514000  0.16237000  0.18167000
   0.66136000  0.00065000  0.24022000
   0.66603000  0.99799000  0.00047000
   0.67026640  0.00804863  0.36736789
   0.65989000  0.33950000  0.00031000
   0.66352000  0.99935000  0.12162000
   0.16847780  0.16562709  0.30244125
   0.99997000  0.33205000  0.24166000
   0.16601293  0.49850950  0.30335536
   0.00013000  0.66493000  0.24143000
   0.16728065  0.83135564  0.30240617
   0.99854000  0.00048000  0.00000000
   0.99682643  0.00079064  0.35796984
   0.16550000  0.16500000  0.06050000
   0.00106000  0.66662000  0.00057000
   0.99658905  0.66483666  0.36014212
   0.99930000  0.99936000  0.12074000
   0.16685000  0.16538000  0.18105000
   0.99936000  0.33161000  0.12083000
   0.16544000  0.49812000  0.18093000
   0.00040000  0.66536000  0.12057000
   0.16627000  0.83203000  0.18103000
   0.33360000  0.99731000  0.24116000
   0.49730303  0.16856592  0.30142872
   0.33251000  0.33244000  0.24115000
   0.33243000  0.66411000  0.24135000
   0.49825618  0.83231915  0.30279769
   0.33406000  0.99850000  0.00062000
   0.33496202  0.00083678  0.36002979
   0.50112000  0.16466000  0.06049000
   0.33306000  0.33260000  0.00065000
   0.33300277  0.33259049  0.36023290
   0.33279000  0.66191000  0.00103000
   0.32063628  0.67349338  0.36353215
   0.50000000  0.83116000  0.06060000
   0.33336000  0.99854000  0.12089000
   0.33259000  0.33282000  0.12015000
   0.49958000  0.49779000  0.18076000
   0.33192000  0.66330000  0.12025000
   0.49972000  0.83017000  0.18081000
   0.83260673  0.16350199  0.29783823
   0.66532000  0.33232000  0.24137000
   0.82862994  0.49788114  0.30162563
   0.66623000  0.66534000  0.24124000
   0.83222160  0.83048640  0.30137729
   0.83178000  0.16609000  0.06006000
   0.83424000  0.49924000  0.06020000
   0.66675000  0.66697000  0.00034000
   0.66643999  0.66604491  0.35908591
   0.83291000  0.83387000  0.06067000
   0.83469000  0.16589000  0.18162000
   0.66681000  0.33159000  0.12072000
   0.83279000  0.49851000  0.18135000
   0.66709000  0.66502000  0.12081000
   0.83337000  0.83396000  0.18143000
Direct configuration=    14
   0.00218000  0.99867000  0.24166000
   0.00302000  0.33361000  0.00057000
   0.99120127  0.32687904  0.37030602
   0.16217000  0.49431000  0.05981000
   0.16492000  0.83554000  0.06027000
   0.50167587  0.49515540  0.30357137
   0.50447000  0.49654000  0.06032000
   0.50514000  0.16237000  0.18167000
   0.66136000  0.00065000  0.24022000
   0.66603000  0.99799000  0.00047000
   0.67013615  0.00716434  0.36717707
   0.65989000  0.33950000  0.00031000
   0.66352000  0.99935000  0.12162000
   0.16851382  0.16564883  0.30247391
   0.99997000  0.33205000  0.24166000
   0.16616625  0.49874601  0.30333964
   0.00013000  0.66493000  0.24143000
   0.16718597  0.83140041  0.30234251
   0.99854000  0.00048000  0.00000000
   0.99596039  0.00080942  0.35815850
   0.16550000  0.16500000  0.06050000
   0.00106000  0.66662000  0.00057000
   0.99669689  0.66515649  0.36027253
   0.99930000  0.99936000  0.12074000
   0.16685000  0.16538000  0.18105000
   0.99936000  0.33161000  0.12083000
   0.16544000  0.49812000  0.18093000
   0.00040000  0.66536000  0.12057000
   0.16627000  0.83203000  0.18103000
   0.33360000  0.99731000  0.24116000
   0.49737199  0.16857069  0.30143549
   0.33251000  0.33244000  0.24115000
   0.33243000  0.66411000  0.24135000
   0.49831126  0.83157782  0.30273432
   0.33406000  0.99850000  0.00062000
   0.33545471  0.00051701  0.36026129
   0.50112000  0.16466000  0.06049000
   0.33306000  0.33260000  0.00065000
   0.33300905  0.33264159  0.36009926
   0.33279000  0.66191000  0.00103000
   0.32011546  0.67423095  0.36373236
   0.50000000  0.83116000  0.06060000
   0.33336000  0.99854000  0.12089000
   0.33259000  0.33282000  0.12015000
   0.49958000  0.49779000  0.18076000
   0.33192000  0.66330000  0.12025000
   0.49972000  0.83017000  0.18081000
   0.83270300  0.16333230  0.29797904
   0.66532000  0.33232000  0.24137000
   0.82825848  0.49771328  0.30167974
   0.66623000  0.66534000  0.24124000
   0.83213680  0.83055153  0.30127618
   0.83178000  0.16609000  0.06006000
   0.83424000  0.49924000  0.06020000
   0.66675000  0.66697000  0.00034000
   0.66633477  0.66620267  0.35918657
   0.83291000  0.83387000  0.06067000
   0.83469000  0.16589000  0.18162000
   0.66681000  0.33159000  0.12072000
   0.83279000  0.49851000  0.18135000
   0.66709000  0.66502000  0.12081000
   0.83337000  0.83396000  0.18143000
Direct configuration=    15
   0.00218000  0.99867000  0.24166000
   0.00302000  0.33361000  0.00057000
   0.99136616  0.32698550  0.37026872
   0.16217000  0.49431000  0.05981000
   0.16492000  0.83554000  0.06027000
   0.50165852  0.49515697  0.30359518
   0.50447000  0.49654000  0.06032000
   0.50514000  0.16237000  0.18167000
   0.66136000  0.00065000  0.24022000
   0.66603000  0.99799000  0.00047000
   0.67010295  0.00693890  0.36712842
   0.65989000  0.33950000  0.00031000
   0.66352000  0.99935000  0.12162000
   0.16852300  0.16565437  0.30248223
   0.99997000  0.33205000  0.24166000
   0.16620533  0.49880631  0.30333563
   0.00013000  0.66493000  0.24143000
   0.16716184  0.83141183  0.30232628
   0.99854000  0.00048000  0.00000000
   0.99573960  0.00081421  0.35820659
   0.16550000  0.16500000  0.06050000
   0.00106000  0.66662000  0.00057000
   0.99672438  0.66523803  0.36030577
   0.99930000  0.99936000  0.12074000
   0.16685000  0.16538000  0.18105000
   0.99936000  0.33161000  0.12083000
   0.16544000  0.49812000  0.18093000
   0.00040000  0.66536000  0.12057000
   0.16627000  0.83203000  0.18103000
   0.33360000  0.99731000  0.24116000
   0.49738957  0.16857191  0.30143721
   0.33251000  0.33244000  0.24115000
   0.33243000  0.66411000  0.24135000
   0.49832530  0.83138882  0.30271816
   0.33406000  0.99850000  0.00062000
   0.33558031  0.00043549  0.36032031
   0.50112000  0.16466000  0.06049000
   0.33306000  0.33260000  0.00065000
   0.33301065  0.33265462  0.36006519
   0.33279000  0.66191000  0.00103000
   0.31998268  0.67441899  0.36378340
   0.50000000  0.83116000  0.06060000
   0.33336000  0.99854000  0.12089000
   0.33259000  0.33282000  0.12015000
   0.49958000  0.49779000  0.18076000
   0.33192000  0.66330000  0.12025000
   0.49972000  0.83017000  0.18081000
   0.83272755  0.16328904  0.29801494
   0.66532000  0.33232000  0.24137000
   0.82816378  0.49767049  0.30169353
   0.66623000  0.66534000  0.24124000
   0.83211518  0.83056813  0.30125040
   0.83178000  0.16609000  0.06006000
   0.83424000  0.49924000  0.06020000
   0.66675000  0.66697000  0.00034000
   0.66630794  0.66624289  0.35921223
   0.83291000  0.83387000  0.06067000
   0.83469000  0.16589000  0.18162000
   0.66681000  0.33159000  0.12072000
   0.83279000  0.49851000  0.18135000
   0.66709000  0.66502000  0.12081000
   0.83337000  0.83396000  0.18143000
Direct configuration=    16
   0.00218000  0.99867000  0.24166000
   0.00302000  0.33361000  0.00057000
   0.99170927  0.32706567  0.37022125
   0.16217000  0.49431000  0.05981000
   0.16492000  0.83554000  0.06027000
   0.50150520  0.49560467  0.30375546
   0.50447000  0.49654000  0.06032000
   0.50514000  0.16237000  0.18167000
   0.66136000  0.00065000  0.24022000
   0.66603000  0.99799000  0.00047000
   0.66999718  0.00659224  0.36701165
   0.65989000  0.33950000  0.00031000
   0.66352000  0.99935000  0.12162000
   0.16848817  0.16554050  0.30248335
   0.99997000  0.33205000  0.24166000
   0.16624632  0.49894734  0.30335762
   0.00013000  0.66493000  0.24143000
   0.16710132  0.83165105  0.30238215
   0.99854000  0.00048000  0.00000000
   0.99562606  0.00090054  0.35820312
   0.16550000  0.16500000  0.06050000
   0.00106000  0.66662000  0.00057000
   0.99668296  0.66529904  0.36027480
   0.99930000  0.99936000  0.12074000
   0.16685000  0.16538000  0.18105000
   0.99936000  0.33161000  0.12083000
   0.16544000  0.49812000  0.18093000
   0.00040000  0.66536000  0.12057000
   0.16627000  0.83203000  0.18103000
   0.33360000  0.99731000  0.24116000
   0.49708237  0.16810999  0.30146968
   0.33251000  0.33244000  0.24115000
   0.33243000  0.66411000  0.24135000
   0.49823330  0.83126634  0.30268642
   0.33406000  0.99850000  0.00062000
   0.33567658  0.00018922  0.36027892
   0.50112000  0.16466000  0.06049000
   0.33306000  0.33260000  0.00065000
   0.33287623  0.33265245  0.36005939
   0.33279000  0.66191000  0.00103000
   0.32003913  0.67463592  0.36386610
   0.50000000  0.83116000  0.06060000
   0.33336000  0.99854000  0.12089000
   0.33259000  0.33282000  0.12015000
   0.49958000  0.49779000  0.18076000
   0.33192000  0.66330000  0.12025000
   0.49972000  0.83017000  0.18081000
   0.83268894  0.16323064  0.29826445
   0.66532000  0.33232000  0.24137000
   0.82854999  0.49792645  0.30164006
   0.66623000  0.66534000  0.24124000
   0.83212321  0.83059095  0.30126227
   0.83178000  0.16609000  0.06006000
   0.83424000  0.49924000  0.06020000
   0.66675000  0.66697000  0.00034000
   0.66618143  0.66630613  0.35923890
   0.83291000  0.83387000  0.06067000
   0.83469000  0.16589000  0.18162000
   0.66681000  0.33159000  0.12072000
   0.83279000  0.49851000  0.18135000
   0.66709000  0.66502000  0.12081000
   0.83337000  0.83396000  0.18143000
